# vtk DataFile Version 3.0
vtk output
ASCII
DATASET UNSTRUCTURED_GRID
POINTS      5151 double 
  0.00000000E+00  1.00000000E+02  0.00000000E+00
  0.00000000E+00  9.80000000E+01  0.00000000E+00
  0.00000000E+00  9.60000000E+01  0.00000000E+00
  0.00000000E+00  9.40000000E+01  0.00000000E+00
  0.00000000E+00  9.20000000E+01  0.00000000E+00
  0.00000000E+00  9.00000000E+01  0.00000000E+00
  0.00000000E+00  8.80000000E+01  0.00000000E+00
  0.00000000E+00  8.60000000E+01  0.00000000E+00
  0.00000000E+00  8.40000000E+01  0.00000000E+00
  0.00000000E+00  8.20000000E+01  0.00000000E+00
  0.00000000E+00  8.00000000E+01  0.00000000E+00
  0.00000000E+00  7.80000000E+01  0.00000000E+00
  0.00000000E+00  7.60000000E+01  0.00000000E+00
  0.00000000E+00  7.40000000E+01  0.00000000E+00
  0.00000000E+00  7.20000000E+01  0.00000000E+00
  0.00000000E+00  7.00000000E+01  0.00000000E+00
  0.00000000E+00  6.80000000E+01  0.00000000E+00
  0.00000000E+00  6.60000000E+01  0.00000000E+00
  0.00000000E+00  6.40000000E+01  0.00000000E+00
  0.00000000E+00  6.20000000E+01  0.00000000E+00
  0.00000000E+00  6.00000000E+01  0.00000000E+00
  0.00000000E+00  5.80000000E+01  0.00000000E+00
  0.00000000E+00  5.60000000E+01  0.00000000E+00
  0.00000000E+00  5.40000000E+01  0.00000000E+00
  0.00000000E+00  5.20000000E+01  0.00000000E+00
  0.00000000E+00  5.00000000E+01  0.00000000E+00
  0.00000000E+00  4.80000000E+01  0.00000000E+00
  0.00000000E+00  4.60000000E+01  0.00000000E+00
  0.00000000E+00  4.40000000E+01  0.00000000E+00
  0.00000000E+00  4.20000000E+01  0.00000000E+00
  0.00000000E+00  4.00000000E+01  0.00000000E+00
  0.00000000E+00  3.80000000E+01  0.00000000E+00
  0.00000000E+00  3.60000000E+01  0.00000000E+00
  0.00000000E+00  3.40000000E+01  0.00000000E+00
  0.00000000E+00  3.20000000E+01  0.00000000E+00
  0.00000000E+00  3.00000000E+01  0.00000000E+00
  0.00000000E+00  2.80000000E+01  0.00000000E+00
  0.00000000E+00  2.60000000E+01  0.00000000E+00
  0.00000000E+00  2.40000000E+01  0.00000000E+00
  0.00000000E+00  2.20000000E+01  0.00000000E+00
  0.00000000E+00  2.00000000E+01  0.00000000E+00
  0.00000000E+00  1.80000000E+01  0.00000000E+00
  0.00000000E+00  1.60000000E+01  0.00000000E+00
  0.00000000E+00  1.40000000E+01  0.00000000E+00
  0.00000000E+00  1.20000000E+01  0.00000000E+00
  0.00000000E+00  1.00000000E+01  0.00000000E+00
  0.00000000E+00  8.00000000E+00  0.00000000E+00
  0.00000000E+00  6.00000000E+00  0.00000000E+00
  0.00000000E+00  4.00000000E+00  0.00000000E+00
  0.00000000E+00  2.00000000E+00  0.00000000E+00
  0.00000000E+00 -3.33066907E-14  0.00000000E+00
  1.00000000E+01  1.00000000E+02  0.00000000E+00
  1.00000000E+01  9.80000000E+01  0.00000000E+00
  1.00000000E+01  9.60000000E+01  0.00000000E+00
  1.00000000E+01  9.40000000E+01  0.00000000E+00
  1.00000000E+01  9.20000000E+01  0.00000000E+00
  1.00000000E+01  9.00000000E+01  0.00000000E+00
  1.00000000E+01  8.80000000E+01  0.00000000E+00
  1.00000000E+01  8.60000000E+01  0.00000000E+00
  1.00000000E+01  8.40000000E+01  0.00000000E+00
  1.00000000E+01  8.20000000E+01  0.00000000E+00
  1.00000000E+01  8.00000000E+01  0.00000000E+00
  1.00000000E+01  7.80000000E+01  0.00000000E+00
  1.00000000E+01  7.60000000E+01  0.00000000E+00
  1.00000000E+01  7.40000000E+01  0.00000000E+00
  1.00000000E+01  7.20000000E+01  0.00000000E+00
  1.00000000E+01  7.00000000E+01  0.00000000E+00
  1.00000000E+01  6.80000000E+01  0.00000000E+00
  1.00000000E+01  6.60000000E+01  0.00000000E+00
  1.00000000E+01  6.40000000E+01  0.00000000E+00
  1.00000000E+01  6.20000000E+01  0.00000000E+00
  1.00000000E+01  6.00000000E+01  0.00000000E+00
  1.00000000E+01  5.80000000E+01  0.00000000E+00
  1.00000000E+01  5.60000000E+01  0.00000000E+00
  1.00000000E+01  5.40000000E+01  0.00000000E+00
  1.00000000E+01  5.20000000E+01  0.00000000E+00
  1.00000000E+01  5.00000000E+01  0.00000000E+00
  1.00000000E+01  4.80000000E+01  0.00000000E+00
  1.00000000E+01  4.60000000E+01  0.00000000E+00
  1.00000000E+01  4.40000000E+01  0.00000000E+00
  1.00000000E+01  4.20000000E+01  0.00000000E+00
  1.00000000E+01  4.00000000E+01  0.00000000E+00
  1.00000000E+01  3.80000000E+01  0.00000000E+00
  1.00000000E+01  3.60000000E+01  0.00000000E+00
  1.00000000E+01  3.40000000E+01  0.00000000E+00
  1.00000000E+01  3.20000000E+01  0.00000000E+00
  1.00000000E+01  3.00000000E+01  0.00000000E+00
  1.00000000E+01  2.80000000E+01  0.00000000E+00
  1.00000000E+01  2.60000000E+01  0.00000000E+00
  1.00000000E+01  2.40000000E+01  0.00000000E+00
  1.00000000E+01  2.20000000E+01  0.00000000E+00
  1.00000000E+01  2.00000000E+01  0.00000000E+00
  1.00000000E+01  1.80000000E+01  0.00000000E+00
  1.00000000E+01  1.60000000E+01  0.00000000E+00
  1.00000000E+01  1.40000000E+01  0.00000000E+00
  1.00000000E+01  1.20000000E+01  0.00000000E+00
  1.00000000E+01  1.00000000E+01  0.00000000E+00
  1.00000000E+01  8.00000000E+00  0.00000000E+00
  1.00000000E+01  6.00000000E+00  0.00000000E+00
  1.00000000E+01  4.00000000E+00  0.00000000E+00
  1.00000000E+01  2.00000000E+00  0.00000000E+00
  1.00000000E+01 -3.33066907E-14  0.00000000E+00
  2.00000000E+01  1.00000000E+02  0.00000000E+00
  2.00000000E+01  9.80000000E+01  0.00000000E+00
  2.00000000E+01  9.60000000E+01  0.00000000E+00
  2.00000000E+01  9.40000000E+01  0.00000000E+00
  2.00000000E+01  9.20000000E+01  0.00000000E+00
  2.00000000E+01  9.00000000E+01  0.00000000E+00
  2.00000000E+01  8.80000000E+01  0.00000000E+00
  2.00000000E+01  8.60000000E+01  0.00000000E+00
  2.00000000E+01  8.40000000E+01  0.00000000E+00
  2.00000000E+01  8.20000000E+01  0.00000000E+00
  2.00000000E+01  8.00000000E+01  0.00000000E+00
  2.00000000E+01  7.80000000E+01  0.00000000E+00
  2.00000000E+01  7.60000000E+01  0.00000000E+00
  2.00000000E+01  7.40000000E+01  0.00000000E+00
  2.00000000E+01  7.20000000E+01  0.00000000E+00
  2.00000000E+01  7.00000000E+01  0.00000000E+00
  2.00000000E+01  6.80000000E+01  0.00000000E+00
  2.00000000E+01  6.60000000E+01  0.00000000E+00
  2.00000000E+01  6.40000000E+01  0.00000000E+00
  2.00000000E+01  6.20000000E+01  0.00000000E+00
  2.00000000E+01  6.00000000E+01  0.00000000E+00
  2.00000000E+01  5.80000000E+01  0.00000000E+00
  2.00000000E+01  5.60000000E+01  0.00000000E+00
  2.00000000E+01  5.40000000E+01  0.00000000E+00
  2.00000000E+01  5.20000000E+01  0.00000000E+00
  2.00000000E+01  5.00000000E+01  0.00000000E+00
  2.00000000E+01  4.80000000E+01  0.00000000E+00
  2.00000000E+01  4.60000000E+01  0.00000000E+00
  2.00000000E+01  4.40000000E+01  0.00000000E+00
  2.00000000E+01  4.20000000E+01  0.00000000E+00
  2.00000000E+01  4.00000000E+01  0.00000000E+00
  2.00000000E+01  3.80000000E+01  0.00000000E+00
  2.00000000E+01  3.60000000E+01  0.00000000E+00
  2.00000000E+01  3.40000000E+01  0.00000000E+00
  2.00000000E+01  3.20000000E+01  0.00000000E+00
  2.00000000E+01  3.00000000E+01  0.00000000E+00
  2.00000000E+01  2.80000000E+01  0.00000000E+00
  2.00000000E+01  2.60000000E+01  0.00000000E+00
  2.00000000E+01  2.40000000E+01  0.00000000E+00
  2.00000000E+01  2.20000000E+01  0.00000000E+00
  2.00000000E+01  2.00000000E+01  0.00000000E+00
  2.00000000E+01  1.80000000E+01  0.00000000E+00
  2.00000000E+01  1.60000000E+01  0.00000000E+00
  2.00000000E+01  1.40000000E+01  0.00000000E+00
  2.00000000E+01  1.20000000E+01  0.00000000E+00
  2.00000000E+01  1.00000000E+01  0.00000000E+00
  2.00000000E+01  8.00000000E+00  0.00000000E+00
  2.00000000E+01  6.00000000E+00  0.00000000E+00
  2.00000000E+01  4.00000000E+00  0.00000000E+00
  2.00000000E+01  2.00000000E+00  0.00000000E+00
  2.00000000E+01 -3.33066907E-14  0.00000000E+00
  3.00000000E+01  1.00000000E+02  0.00000000E+00
  3.00000000E+01  9.80000000E+01  0.00000000E+00
  3.00000000E+01  9.60000000E+01  0.00000000E+00
  3.00000000E+01  9.40000000E+01  0.00000000E+00
  3.00000000E+01  9.20000000E+01  0.00000000E+00
  3.00000000E+01  9.00000000E+01  0.00000000E+00
  3.00000000E+01  8.80000000E+01  0.00000000E+00
  3.00000000E+01  8.60000000E+01  0.00000000E+00
  3.00000000E+01  8.40000000E+01  0.00000000E+00
  3.00000000E+01  8.20000000E+01  0.00000000E+00
  3.00000000E+01  8.00000000E+01  0.00000000E+00
  3.00000000E+01  7.80000000E+01  0.00000000E+00
  3.00000000E+01  7.60000000E+01  0.00000000E+00
  3.00000000E+01  7.40000000E+01  0.00000000E+00
  3.00000000E+01  7.20000000E+01  0.00000000E+00
  3.00000000E+01  7.00000000E+01  0.00000000E+00
  3.00000000E+01  6.80000000E+01  0.00000000E+00
  3.00000000E+01  6.60000000E+01  0.00000000E+00
  3.00000000E+01  6.40000000E+01  0.00000000E+00
  3.00000000E+01  6.20000000E+01  0.00000000E+00
  3.00000000E+01  6.00000000E+01  0.00000000E+00
  3.00000000E+01  5.80000000E+01  0.00000000E+00
  3.00000000E+01  5.60000000E+01  0.00000000E+00
  3.00000000E+01  5.40000000E+01  0.00000000E+00
  3.00000000E+01  5.20000000E+01  0.00000000E+00
  3.00000000E+01  5.00000000E+01  0.00000000E+00
  3.00000000E+01  4.80000000E+01  0.00000000E+00
  3.00000000E+01  4.60000000E+01  0.00000000E+00
  3.00000000E+01  4.40000000E+01  0.00000000E+00
  3.00000000E+01  4.20000000E+01  0.00000000E+00
  3.00000000E+01  4.00000000E+01  0.00000000E+00
  3.00000000E+01  3.80000000E+01  0.00000000E+00
  3.00000000E+01  3.60000000E+01  0.00000000E+00
  3.00000000E+01  3.40000000E+01  0.00000000E+00
  3.00000000E+01  3.20000000E+01  0.00000000E+00
  3.00000000E+01  3.00000000E+01  0.00000000E+00
  3.00000000E+01  2.80000000E+01  0.00000000E+00
  3.00000000E+01  2.60000000E+01  0.00000000E+00
  3.00000000E+01  2.40000000E+01  0.00000000E+00
  3.00000000E+01  2.20000000E+01  0.00000000E+00
  3.00000000E+01  2.00000000E+01  0.00000000E+00
  3.00000000E+01  1.80000000E+01  0.00000000E+00
  3.00000000E+01  1.60000000E+01  0.00000000E+00
  3.00000000E+01  1.40000000E+01  0.00000000E+00
  3.00000000E+01  1.20000000E+01  0.00000000E+00
  3.00000000E+01  1.00000000E+01  0.00000000E+00
  3.00000000E+01  8.00000000E+00  0.00000000E+00
  3.00000000E+01  6.00000000E+00  0.00000000E+00
  3.00000000E+01  4.00000000E+00  0.00000000E+00
  3.00000000E+01  2.00000000E+00  0.00000000E+00
  3.00000000E+01 -3.33066907E-14  0.00000000E+00
  4.00000000E+01  1.00000000E+02  0.00000000E+00
  4.00000000E+01  9.80000000E+01  0.00000000E+00
  4.00000000E+01  9.60000000E+01  0.00000000E+00
  4.00000000E+01  9.40000000E+01  0.00000000E+00
  4.00000000E+01  9.20000000E+01  0.00000000E+00
  4.00000000E+01  9.00000000E+01  0.00000000E+00
  4.00000000E+01  8.80000000E+01  0.00000000E+00
  4.00000000E+01  8.60000000E+01  0.00000000E+00
  4.00000000E+01  8.40000000E+01  0.00000000E+00
  4.00000000E+01  8.20000000E+01  0.00000000E+00
  4.00000000E+01  8.00000000E+01  0.00000000E+00
  4.00000000E+01  7.80000000E+01  0.00000000E+00
  4.00000000E+01  7.60000000E+01  0.00000000E+00
  4.00000000E+01  7.40000000E+01  0.00000000E+00
  4.00000000E+01  7.20000000E+01  0.00000000E+00
  4.00000000E+01  7.00000000E+01  0.00000000E+00
  4.00000000E+01  6.80000000E+01  0.00000000E+00
  4.00000000E+01  6.60000000E+01  0.00000000E+00
  4.00000000E+01  6.40000000E+01  0.00000000E+00
  4.00000000E+01  6.20000000E+01  0.00000000E+00
  4.00000000E+01  6.00000000E+01  0.00000000E+00
  4.00000000E+01  5.80000000E+01  0.00000000E+00
  4.00000000E+01  5.60000000E+01  0.00000000E+00
  4.00000000E+01  5.40000000E+01  0.00000000E+00
  4.00000000E+01  5.20000000E+01  0.00000000E+00
  4.00000000E+01  5.00000000E+01  0.00000000E+00
  4.00000000E+01  4.80000000E+01  0.00000000E+00
  4.00000000E+01  4.60000000E+01  0.00000000E+00
  4.00000000E+01  4.40000000E+01  0.00000000E+00
  4.00000000E+01  4.20000000E+01  0.00000000E+00
  4.00000000E+01  4.00000000E+01  0.00000000E+00
  4.00000000E+01  3.80000000E+01  0.00000000E+00
  4.00000000E+01  3.60000000E+01  0.00000000E+00
  4.00000000E+01  3.40000000E+01  0.00000000E+00
  4.00000000E+01  3.20000000E+01  0.00000000E+00
  4.00000000E+01  3.00000000E+01  0.00000000E+00
  4.00000000E+01  2.80000000E+01  0.00000000E+00
  4.00000000E+01  2.60000000E+01  0.00000000E+00
  4.00000000E+01  2.40000000E+01  0.00000000E+00
  4.00000000E+01  2.20000000E+01  0.00000000E+00
  4.00000000E+01  2.00000000E+01  0.00000000E+00
  4.00000000E+01  1.80000000E+01  0.00000000E+00
  4.00000000E+01  1.60000000E+01  0.00000000E+00
  4.00000000E+01  1.40000000E+01  0.00000000E+00
  4.00000000E+01  1.20000000E+01  0.00000000E+00
  4.00000000E+01  1.00000000E+01  0.00000000E+00
  4.00000000E+01  8.00000000E+00  0.00000000E+00
  4.00000000E+01  6.00000000E+00  0.00000000E+00
  4.00000000E+01  4.00000000E+00  0.00000000E+00
  4.00000000E+01  2.00000000E+00  0.00000000E+00
  4.00000000E+01 -3.33066907E-14  0.00000000E+00
  5.00000000E+01  1.00000000E+02  0.00000000E+00
  5.00000000E+01  9.80000000E+01  0.00000000E+00
  5.00000000E+01  9.60000000E+01  0.00000000E+00
  5.00000000E+01  9.40000000E+01  0.00000000E+00
  5.00000000E+01  9.20000000E+01  0.00000000E+00
  5.00000000E+01  9.00000000E+01  0.00000000E+00
  5.00000000E+01  8.80000000E+01  0.00000000E+00
  5.00000000E+01  8.60000000E+01  0.00000000E+00
  5.00000000E+01  8.40000000E+01  0.00000000E+00
  5.00000000E+01  8.20000000E+01  0.00000000E+00
  5.00000000E+01  8.00000000E+01  0.00000000E+00
  5.00000000E+01  7.80000000E+01  0.00000000E+00
  5.00000000E+01  7.60000000E+01  0.00000000E+00
  5.00000000E+01  7.40000000E+01  0.00000000E+00
  5.00000000E+01  7.20000000E+01  0.00000000E+00
  5.00000000E+01  7.00000000E+01  0.00000000E+00
  5.00000000E+01  6.80000000E+01  0.00000000E+00
  5.00000000E+01  6.60000000E+01  0.00000000E+00
  5.00000000E+01  6.40000000E+01  0.00000000E+00
  5.00000000E+01  6.20000000E+01  0.00000000E+00
  5.00000000E+01  6.00000000E+01  0.00000000E+00
  5.00000000E+01  5.80000000E+01  0.00000000E+00
  5.00000000E+01  5.60000000E+01  0.00000000E+00
  5.00000000E+01  5.40000000E+01  0.00000000E+00
  5.00000000E+01  5.20000000E+01  0.00000000E+00
  5.00000000E+01  5.00000000E+01  0.00000000E+00
  5.00000000E+01  4.80000000E+01  0.00000000E+00
  5.00000000E+01  4.60000000E+01  0.00000000E+00
  5.00000000E+01  4.40000000E+01  0.00000000E+00
  5.00000000E+01  4.20000000E+01  0.00000000E+00
  5.00000000E+01  4.00000000E+01  0.00000000E+00
  5.00000000E+01  3.80000000E+01  0.00000000E+00
  5.00000000E+01  3.60000000E+01  0.00000000E+00
  5.00000000E+01  3.40000000E+01  0.00000000E+00
  5.00000000E+01  3.20000000E+01  0.00000000E+00
  5.00000000E+01  3.00000000E+01  0.00000000E+00
  5.00000000E+01  2.80000000E+01  0.00000000E+00
  5.00000000E+01  2.60000000E+01  0.00000000E+00
  5.00000000E+01  2.40000000E+01  0.00000000E+00
  5.00000000E+01  2.20000000E+01  0.00000000E+00
  5.00000000E+01  2.00000000E+01  0.00000000E+00
  5.00000000E+01  1.80000000E+01  0.00000000E+00
  5.00000000E+01  1.60000000E+01  0.00000000E+00
  5.00000000E+01  1.40000000E+01  0.00000000E+00
  5.00000000E+01  1.20000000E+01  0.00000000E+00
  5.00000000E+01  1.00000000E+01  0.00000000E+00
  5.00000000E+01  8.00000000E+00  0.00000000E+00
  5.00000000E+01  6.00000000E+00  0.00000000E+00
  5.00000000E+01  4.00000000E+00  0.00000000E+00
  5.00000000E+01  2.00000000E+00  0.00000000E+00
  5.00000000E+01 -3.33066907E-14  0.00000000E+00
  6.00000000E+01  1.00000000E+02  0.00000000E+00
  6.00000000E+01  9.80000000E+01  0.00000000E+00
  6.00000000E+01  9.60000000E+01  0.00000000E+00
  6.00000000E+01  9.40000000E+01  0.00000000E+00
  6.00000000E+01  9.20000000E+01  0.00000000E+00
  6.00000000E+01  9.00000000E+01  0.00000000E+00
  6.00000000E+01  8.80000000E+01  0.00000000E+00
  6.00000000E+01  8.60000000E+01  0.00000000E+00
  6.00000000E+01  8.40000000E+01  0.00000000E+00
  6.00000000E+01  8.20000000E+01  0.00000000E+00
  6.00000000E+01  8.00000000E+01  0.00000000E+00
  6.00000000E+01  7.80000000E+01  0.00000000E+00
  6.00000000E+01  7.60000000E+01  0.00000000E+00
  6.00000000E+01  7.40000000E+01  0.00000000E+00
  6.00000000E+01  7.20000000E+01  0.00000000E+00
  6.00000000E+01  7.00000000E+01  0.00000000E+00
  6.00000000E+01  6.80000000E+01  0.00000000E+00
  6.00000000E+01  6.60000000E+01  0.00000000E+00
  6.00000000E+01  6.40000000E+01  0.00000000E+00
  6.00000000E+01  6.20000000E+01  0.00000000E+00
  6.00000000E+01  6.00000000E+01  0.00000000E+00
  6.00000000E+01  5.80000000E+01  0.00000000E+00
  6.00000000E+01  5.60000000E+01  0.00000000E+00
  6.00000000E+01  5.40000000E+01  0.00000000E+00
  6.00000000E+01  5.20000000E+01  0.00000000E+00
  6.00000000E+01  5.00000000E+01  0.00000000E+00
  6.00000000E+01  4.80000000E+01  0.00000000E+00
  6.00000000E+01  4.60000000E+01  0.00000000E+00
  6.00000000E+01  4.40000000E+01  0.00000000E+00
  6.00000000E+01  4.20000000E+01  0.00000000E+00
  6.00000000E+01  4.00000000E+01  0.00000000E+00
  6.00000000E+01  3.80000000E+01  0.00000000E+00
  6.00000000E+01  3.60000000E+01  0.00000000E+00
  6.00000000E+01  3.40000000E+01  0.00000000E+00
  6.00000000E+01  3.20000000E+01  0.00000000E+00
  6.00000000E+01  3.00000000E+01  0.00000000E+00
  6.00000000E+01  2.80000000E+01  0.00000000E+00
  6.00000000E+01  2.60000000E+01  0.00000000E+00
  6.00000000E+01  2.40000000E+01  0.00000000E+00
  6.00000000E+01  2.20000000E+01  0.00000000E+00
  6.00000000E+01  2.00000000E+01  0.00000000E+00
  6.00000000E+01  1.80000000E+01  0.00000000E+00
  6.00000000E+01  1.60000000E+01  0.00000000E+00
  6.00000000E+01  1.40000000E+01  0.00000000E+00
  6.00000000E+01  1.20000000E+01  0.00000000E+00
  6.00000000E+01  1.00000000E+01  0.00000000E+00
  6.00000000E+01  8.00000000E+00  0.00000000E+00
  6.00000000E+01  6.00000000E+00  0.00000000E+00
  6.00000000E+01  4.00000000E+00  0.00000000E+00
  6.00000000E+01  2.00000000E+00  0.00000000E+00
  6.00000000E+01 -3.33066907E-14  0.00000000E+00
  7.00000000E+01  1.00000000E+02  0.00000000E+00
  7.00000000E+01  9.80000000E+01  0.00000000E+00
  7.00000000E+01  9.60000000E+01  0.00000000E+00
  7.00000000E+01  9.40000000E+01  0.00000000E+00
  7.00000000E+01  9.20000000E+01  0.00000000E+00
  7.00000000E+01  9.00000000E+01  0.00000000E+00
  7.00000000E+01  8.80000000E+01  0.00000000E+00
  7.00000000E+01  8.60000000E+01  0.00000000E+00
  7.00000000E+01  8.40000000E+01  0.00000000E+00
  7.00000000E+01  8.20000000E+01  0.00000000E+00
  7.00000000E+01  8.00000000E+01  0.00000000E+00
  7.00000000E+01  7.80000000E+01  0.00000000E+00
  7.00000000E+01  7.60000000E+01  0.00000000E+00
  7.00000000E+01  7.40000000E+01  0.00000000E+00
  7.00000000E+01  7.20000000E+01  0.00000000E+00
  7.00000000E+01  7.00000000E+01  0.00000000E+00
  7.00000000E+01  6.80000000E+01  0.00000000E+00
  7.00000000E+01  6.60000000E+01  0.00000000E+00
  7.00000000E+01  6.40000000E+01  0.00000000E+00
  7.00000000E+01  6.20000000E+01  0.00000000E+00
  7.00000000E+01  6.00000000E+01  0.00000000E+00
  7.00000000E+01  5.80000000E+01  0.00000000E+00
  7.00000000E+01  5.60000000E+01  0.00000000E+00
  7.00000000E+01  5.40000000E+01  0.00000000E+00
  7.00000000E+01  5.20000000E+01  0.00000000E+00
  7.00000000E+01  5.00000000E+01  0.00000000E+00
  7.00000000E+01  4.80000000E+01  0.00000000E+00
  7.00000000E+01  4.60000000E+01  0.00000000E+00
  7.00000000E+01  4.40000000E+01  0.00000000E+00
  7.00000000E+01  4.20000000E+01  0.00000000E+00
  7.00000000E+01  4.00000000E+01  0.00000000E+00
  7.00000000E+01  3.80000000E+01  0.00000000E+00
  7.00000000E+01  3.60000000E+01  0.00000000E+00
  7.00000000E+01  3.40000000E+01  0.00000000E+00
  7.00000000E+01  3.20000000E+01  0.00000000E+00
  7.00000000E+01  3.00000000E+01  0.00000000E+00
  7.00000000E+01  2.80000000E+01  0.00000000E+00
  7.00000000E+01  2.60000000E+01  0.00000000E+00
  7.00000000E+01  2.40000000E+01  0.00000000E+00
  7.00000000E+01  2.20000000E+01  0.00000000E+00
  7.00000000E+01  2.00000000E+01  0.00000000E+00
  7.00000000E+01  1.80000000E+01  0.00000000E+00
  7.00000000E+01  1.60000000E+01  0.00000000E+00
  7.00000000E+01  1.40000000E+01  0.00000000E+00
  7.00000000E+01  1.20000000E+01  0.00000000E+00
  7.00000000E+01  1.00000000E+01  0.00000000E+00
  7.00000000E+01  8.00000000E+00  0.00000000E+00
  7.00000000E+01  6.00000000E+00  0.00000000E+00
  7.00000000E+01  4.00000000E+00  0.00000000E+00
  7.00000000E+01  2.00000000E+00  0.00000000E+00
  7.00000000E+01 -3.33066907E-14  0.00000000E+00
  8.00000000E+01  1.00000000E+02  0.00000000E+00
  8.00000000E+01  9.80000000E+01  0.00000000E+00
  8.00000000E+01  9.60000000E+01  0.00000000E+00
  8.00000000E+01  9.40000000E+01  0.00000000E+00
  8.00000000E+01  9.20000000E+01  0.00000000E+00
  8.00000000E+01  9.00000000E+01  0.00000000E+00
  8.00000000E+01  8.80000000E+01  0.00000000E+00
  8.00000000E+01  8.60000000E+01  0.00000000E+00
  8.00000000E+01  8.40000000E+01  0.00000000E+00
  8.00000000E+01  8.20000000E+01  0.00000000E+00
  8.00000000E+01  8.00000000E+01  0.00000000E+00
  8.00000000E+01  7.80000000E+01  0.00000000E+00
  8.00000000E+01  7.60000000E+01  0.00000000E+00
  8.00000000E+01  7.40000000E+01  0.00000000E+00
  8.00000000E+01  7.20000000E+01  0.00000000E+00
  8.00000000E+01  7.00000000E+01  0.00000000E+00
  8.00000000E+01  6.80000000E+01  0.00000000E+00
  8.00000000E+01  6.60000000E+01  0.00000000E+00
  8.00000000E+01  6.40000000E+01  0.00000000E+00
  8.00000000E+01  6.20000000E+01  0.00000000E+00
  8.00000000E+01  6.00000000E+01  0.00000000E+00
  8.00000000E+01  5.80000000E+01  0.00000000E+00
  8.00000000E+01  5.60000000E+01  0.00000000E+00
  8.00000000E+01  5.40000000E+01  0.00000000E+00
  8.00000000E+01  5.20000000E+01  0.00000000E+00
  8.00000000E+01  5.00000000E+01  0.00000000E+00
  8.00000000E+01  4.80000000E+01  0.00000000E+00
  8.00000000E+01  4.60000000E+01  0.00000000E+00
  8.00000000E+01  4.40000000E+01  0.00000000E+00
  8.00000000E+01  4.20000000E+01  0.00000000E+00
  8.00000000E+01  4.00000000E+01  0.00000000E+00
  8.00000000E+01  3.80000000E+01  0.00000000E+00
  8.00000000E+01  3.60000000E+01  0.00000000E+00
  8.00000000E+01  3.40000000E+01  0.00000000E+00
  8.00000000E+01  3.20000000E+01  0.00000000E+00
  8.00000000E+01  3.00000000E+01  0.00000000E+00
  8.00000000E+01  2.80000000E+01  0.00000000E+00
  8.00000000E+01  2.60000000E+01  0.00000000E+00
  8.00000000E+01  2.40000000E+01  0.00000000E+00
  8.00000000E+01  2.20000000E+01  0.00000000E+00
  8.00000000E+01  2.00000000E+01  0.00000000E+00
  8.00000000E+01  1.80000000E+01  0.00000000E+00
  8.00000000E+01  1.60000000E+01  0.00000000E+00
  8.00000000E+01  1.40000000E+01  0.00000000E+00
  8.00000000E+01  1.20000000E+01  0.00000000E+00
  8.00000000E+01  1.00000000E+01  0.00000000E+00
  8.00000000E+01  8.00000000E+00  0.00000000E+00
  8.00000000E+01  6.00000000E+00  0.00000000E+00
  8.00000000E+01  4.00000000E+00  0.00000000E+00
  8.00000000E+01  2.00000000E+00  0.00000000E+00
  8.00000000E+01 -3.33066907E-14  0.00000000E+00
  9.00000000E+01  1.00000000E+02  0.00000000E+00
  9.00000000E+01  9.80000000E+01  0.00000000E+00
  9.00000000E+01  9.60000000E+01  0.00000000E+00
  9.00000000E+01  9.40000000E+01  0.00000000E+00
  9.00000000E+01  9.20000000E+01  0.00000000E+00
  9.00000000E+01  9.00000000E+01  0.00000000E+00
  9.00000000E+01  8.80000000E+01  0.00000000E+00
  9.00000000E+01  8.60000000E+01  0.00000000E+00
  9.00000000E+01  8.40000000E+01  0.00000000E+00
  9.00000000E+01  8.20000000E+01  0.00000000E+00
  9.00000000E+01  8.00000000E+01  0.00000000E+00
  9.00000000E+01  7.80000000E+01  0.00000000E+00
  9.00000000E+01  7.60000000E+01  0.00000000E+00
  9.00000000E+01  7.40000000E+01  0.00000000E+00
  9.00000000E+01  7.20000000E+01  0.00000000E+00
  9.00000000E+01  7.00000000E+01  0.00000000E+00
  9.00000000E+01  6.80000000E+01  0.00000000E+00
  9.00000000E+01  6.60000000E+01  0.00000000E+00
  9.00000000E+01  6.40000000E+01  0.00000000E+00
  9.00000000E+01  6.20000000E+01  0.00000000E+00
  9.00000000E+01  6.00000000E+01  0.00000000E+00
  9.00000000E+01  5.80000000E+01  0.00000000E+00
  9.00000000E+01  5.60000000E+01  0.00000000E+00
  9.00000000E+01  5.40000000E+01  0.00000000E+00
  9.00000000E+01  5.20000000E+01  0.00000000E+00
  9.00000000E+01  5.00000000E+01  0.00000000E+00
  9.00000000E+01  4.80000000E+01  0.00000000E+00
  9.00000000E+01  4.60000000E+01  0.00000000E+00
  9.00000000E+01  4.40000000E+01  0.00000000E+00
  9.00000000E+01  4.20000000E+01  0.00000000E+00
  9.00000000E+01  4.00000000E+01  0.00000000E+00
  9.00000000E+01  3.80000000E+01  0.00000000E+00
  9.00000000E+01  3.60000000E+01  0.00000000E+00
  9.00000000E+01  3.40000000E+01  0.00000000E+00
  9.00000000E+01  3.20000000E+01  0.00000000E+00
  9.00000000E+01  3.00000000E+01  0.00000000E+00
  9.00000000E+01  2.80000000E+01  0.00000000E+00
  9.00000000E+01  2.60000000E+01  0.00000000E+00
  9.00000000E+01  2.40000000E+01  0.00000000E+00
  9.00000000E+01  2.20000000E+01  0.00000000E+00
  9.00000000E+01  2.00000000E+01  0.00000000E+00
  9.00000000E+01  1.80000000E+01  0.00000000E+00
  9.00000000E+01  1.60000000E+01  0.00000000E+00
  9.00000000E+01  1.40000000E+01  0.00000000E+00
  9.00000000E+01  1.20000000E+01  0.00000000E+00
  9.00000000E+01  1.00000000E+01  0.00000000E+00
  9.00000000E+01  8.00000000E+00  0.00000000E+00
  9.00000000E+01  6.00000000E+00  0.00000000E+00
  9.00000000E+01  4.00000000E+00  0.00000000E+00
  9.00000000E+01  2.00000000E+00  0.00000000E+00
  9.00000000E+01 -3.33066907E-14  0.00000000E+00
  1.00000000E+02  1.00000000E+02  0.00000000E+00
  1.00000000E+02  9.80000000E+01  0.00000000E+00
  1.00000000E+02  9.60000000E+01  0.00000000E+00
  1.00000000E+02  9.40000000E+01  0.00000000E+00
  1.00000000E+02  9.20000000E+01  0.00000000E+00
  1.00000000E+02  9.00000000E+01  0.00000000E+00
  1.00000000E+02  8.80000000E+01  0.00000000E+00
  1.00000000E+02  8.60000000E+01  0.00000000E+00
  1.00000000E+02  8.40000000E+01  0.00000000E+00
  1.00000000E+02  8.20000000E+01  0.00000000E+00
  1.00000000E+02  8.00000000E+01  0.00000000E+00
  1.00000000E+02  7.80000000E+01  0.00000000E+00
  1.00000000E+02  7.60000000E+01  0.00000000E+00
  1.00000000E+02  7.40000000E+01  0.00000000E+00
  1.00000000E+02  7.20000000E+01  0.00000000E+00
  1.00000000E+02  7.00000000E+01  0.00000000E+00
  1.00000000E+02  6.80000000E+01  0.00000000E+00
  1.00000000E+02  6.60000000E+01  0.00000000E+00
  1.00000000E+02  6.40000000E+01  0.00000000E+00
  1.00000000E+02  6.20000000E+01  0.00000000E+00
  1.00000000E+02  6.00000000E+01  0.00000000E+00
  1.00000000E+02  5.80000000E+01  0.00000000E+00
  1.00000000E+02  5.60000000E+01  0.00000000E+00
  1.00000000E+02  5.40000000E+01  0.00000000E+00
  1.00000000E+02  5.20000000E+01  0.00000000E+00
  1.00000000E+02  5.00000000E+01  0.00000000E+00
  1.00000000E+02  4.80000000E+01  0.00000000E+00
  1.00000000E+02  4.60000000E+01  0.00000000E+00
  1.00000000E+02  4.40000000E+01  0.00000000E+00
  1.00000000E+02  4.20000000E+01  0.00000000E+00
  1.00000000E+02  4.00000000E+01  0.00000000E+00
  1.00000000E+02  3.80000000E+01  0.00000000E+00
  1.00000000E+02  3.60000000E+01  0.00000000E+00
  1.00000000E+02  3.40000000E+01  0.00000000E+00
  1.00000000E+02  3.20000000E+01  0.00000000E+00
  1.00000000E+02  3.00000000E+01  0.00000000E+00
  1.00000000E+02  2.80000000E+01  0.00000000E+00
  1.00000000E+02  2.60000000E+01  0.00000000E+00
  1.00000000E+02  2.40000000E+01  0.00000000E+00
  1.00000000E+02  2.20000000E+01  0.00000000E+00
  1.00000000E+02  2.00000000E+01  0.00000000E+00
  1.00000000E+02  1.80000000E+01  0.00000000E+00
  1.00000000E+02  1.60000000E+01  0.00000000E+00
  1.00000000E+02  1.40000000E+01  0.00000000E+00
  1.00000000E+02  1.20000000E+01  0.00000000E+00
  1.00000000E+02  1.00000000E+01  0.00000000E+00
  1.00000000E+02  8.00000000E+00  0.00000000E+00
  1.00000000E+02  6.00000000E+00  0.00000000E+00
  1.00000000E+02  4.00000000E+00  0.00000000E+00
  1.00000000E+02  2.00000000E+00  0.00000000E+00
  1.00000000E+02 -3.33066907E-14  0.00000000E+00
  1.10000000E+02  1.00000000E+02  0.00000000E+00
  1.10000000E+02  9.80000000E+01  0.00000000E+00
  1.10000000E+02  9.60000000E+01  0.00000000E+00
  1.10000000E+02  9.40000000E+01  0.00000000E+00
  1.10000000E+02  9.20000000E+01  0.00000000E+00
  1.10000000E+02  9.00000000E+01  0.00000000E+00
  1.10000000E+02  8.80000000E+01  0.00000000E+00
  1.10000000E+02  8.60000000E+01  0.00000000E+00
  1.10000000E+02  8.40000000E+01  0.00000000E+00
  1.10000000E+02  8.20000000E+01  0.00000000E+00
  1.10000000E+02  8.00000000E+01  0.00000000E+00
  1.10000000E+02  7.80000000E+01  0.00000000E+00
  1.10000000E+02  7.60000000E+01  0.00000000E+00
  1.10000000E+02  7.40000000E+01  0.00000000E+00
  1.10000000E+02  7.20000000E+01  0.00000000E+00
  1.10000000E+02  7.00000000E+01  0.00000000E+00
  1.10000000E+02  6.80000000E+01  0.00000000E+00
  1.10000000E+02  6.60000000E+01  0.00000000E+00
  1.10000000E+02  6.40000000E+01  0.00000000E+00
  1.10000000E+02  6.20000000E+01  0.00000000E+00
  1.10000000E+02  6.00000000E+01  0.00000000E+00
  1.10000000E+02  5.80000000E+01  0.00000000E+00
  1.10000000E+02  5.60000000E+01  0.00000000E+00
  1.10000000E+02  5.40000000E+01  0.00000000E+00
  1.10000000E+02  5.20000000E+01  0.00000000E+00
  1.10000000E+02  5.00000000E+01  0.00000000E+00
  1.10000000E+02  4.80000000E+01  0.00000000E+00
  1.10000000E+02  4.60000000E+01  0.00000000E+00
  1.10000000E+02  4.40000000E+01  0.00000000E+00
  1.10000000E+02  4.20000000E+01  0.00000000E+00
  1.10000000E+02  4.00000000E+01  0.00000000E+00
  1.10000000E+02  3.80000000E+01  0.00000000E+00
  1.10000000E+02  3.60000000E+01  0.00000000E+00
  1.10000000E+02  3.40000000E+01  0.00000000E+00
  1.10000000E+02  3.20000000E+01  0.00000000E+00
  1.10000000E+02  3.00000000E+01  0.00000000E+00
  1.10000000E+02  2.80000000E+01  0.00000000E+00
  1.10000000E+02  2.60000000E+01  0.00000000E+00
  1.10000000E+02  2.40000000E+01  0.00000000E+00
  1.10000000E+02  2.20000000E+01  0.00000000E+00
  1.10000000E+02  2.00000000E+01  0.00000000E+00
  1.10000000E+02  1.80000000E+01  0.00000000E+00
  1.10000000E+02  1.60000000E+01  0.00000000E+00
  1.10000000E+02  1.40000000E+01  0.00000000E+00
  1.10000000E+02  1.20000000E+01  0.00000000E+00
  1.10000000E+02  1.00000000E+01  0.00000000E+00
  1.10000000E+02  8.00000000E+00  0.00000000E+00
  1.10000000E+02  6.00000000E+00  0.00000000E+00
  1.10000000E+02  4.00000000E+00  0.00000000E+00
  1.10000000E+02  2.00000000E+00  0.00000000E+00
  1.10000000E+02 -3.33066907E-14  0.00000000E+00
  1.20000000E+02  1.00000000E+02  0.00000000E+00
  1.20000000E+02  9.80000000E+01  0.00000000E+00
  1.20000000E+02  9.60000000E+01  0.00000000E+00
  1.20000000E+02  9.40000000E+01  0.00000000E+00
  1.20000000E+02  9.20000000E+01  0.00000000E+00
  1.20000000E+02  9.00000000E+01  0.00000000E+00
  1.20000000E+02  8.80000000E+01  0.00000000E+00
  1.20000000E+02  8.60000000E+01  0.00000000E+00
  1.20000000E+02  8.40000000E+01  0.00000000E+00
  1.20000000E+02  8.20000000E+01  0.00000000E+00
  1.20000000E+02  8.00000000E+01  0.00000000E+00
  1.20000000E+02  7.80000000E+01  0.00000000E+00
  1.20000000E+02  7.60000000E+01  0.00000000E+00
  1.20000000E+02  7.40000000E+01  0.00000000E+00
  1.20000000E+02  7.20000000E+01  0.00000000E+00
  1.20000000E+02  7.00000000E+01  0.00000000E+00
  1.20000000E+02  6.80000000E+01  0.00000000E+00
  1.20000000E+02  6.60000000E+01  0.00000000E+00
  1.20000000E+02  6.40000000E+01  0.00000000E+00
  1.20000000E+02  6.20000000E+01  0.00000000E+00
  1.20000000E+02  6.00000000E+01  0.00000000E+00
  1.20000000E+02  5.80000000E+01  0.00000000E+00
  1.20000000E+02  5.60000000E+01  0.00000000E+00
  1.20000000E+02  5.40000000E+01  0.00000000E+00
  1.20000000E+02  5.20000000E+01  0.00000000E+00
  1.20000000E+02  5.00000000E+01  0.00000000E+00
  1.20000000E+02  4.80000000E+01  0.00000000E+00
  1.20000000E+02  4.60000000E+01  0.00000000E+00
  1.20000000E+02  4.40000000E+01  0.00000000E+00
  1.20000000E+02  4.20000000E+01  0.00000000E+00
  1.20000000E+02  4.00000000E+01  0.00000000E+00
  1.20000000E+02  3.80000000E+01  0.00000000E+00
  1.20000000E+02  3.60000000E+01  0.00000000E+00
  1.20000000E+02  3.40000000E+01  0.00000000E+00
  1.20000000E+02  3.20000000E+01  0.00000000E+00
  1.20000000E+02  3.00000000E+01  0.00000000E+00
  1.20000000E+02  2.80000000E+01  0.00000000E+00
  1.20000000E+02  2.60000000E+01  0.00000000E+00
  1.20000000E+02  2.40000000E+01  0.00000000E+00
  1.20000000E+02  2.20000000E+01  0.00000000E+00
  1.20000000E+02  2.00000000E+01  0.00000000E+00
  1.20000000E+02  1.80000000E+01  0.00000000E+00
  1.20000000E+02  1.60000000E+01  0.00000000E+00
  1.20000000E+02  1.40000000E+01  0.00000000E+00
  1.20000000E+02  1.20000000E+01  0.00000000E+00
  1.20000000E+02  1.00000000E+01  0.00000000E+00
  1.20000000E+02  8.00000000E+00  0.00000000E+00
  1.20000000E+02  6.00000000E+00  0.00000000E+00
  1.20000000E+02  4.00000000E+00  0.00000000E+00
  1.20000000E+02  2.00000000E+00  0.00000000E+00
  1.20000000E+02 -3.33066907E-14  0.00000000E+00
  1.30000000E+02  1.00000000E+02  0.00000000E+00
  1.30000000E+02  9.80000000E+01  0.00000000E+00
  1.30000000E+02  9.60000000E+01  0.00000000E+00
  1.30000000E+02  9.40000000E+01  0.00000000E+00
  1.30000000E+02  9.20000000E+01  0.00000000E+00
  1.30000000E+02  9.00000000E+01  0.00000000E+00
  1.30000000E+02  8.80000000E+01  0.00000000E+00
  1.30000000E+02  8.60000000E+01  0.00000000E+00
  1.30000000E+02  8.40000000E+01  0.00000000E+00
  1.30000000E+02  8.20000000E+01  0.00000000E+00
  1.30000000E+02  8.00000000E+01  0.00000000E+00
  1.30000000E+02  7.80000000E+01  0.00000000E+00
  1.30000000E+02  7.60000000E+01  0.00000000E+00
  1.30000000E+02  7.40000000E+01  0.00000000E+00
  1.30000000E+02  7.20000000E+01  0.00000000E+00
  1.30000000E+02  7.00000000E+01  0.00000000E+00
  1.30000000E+02  6.80000000E+01  0.00000000E+00
  1.30000000E+02  6.60000000E+01  0.00000000E+00
  1.30000000E+02  6.40000000E+01  0.00000000E+00
  1.30000000E+02  6.20000000E+01  0.00000000E+00
  1.30000000E+02  6.00000000E+01  0.00000000E+00
  1.30000000E+02  5.80000000E+01  0.00000000E+00
  1.30000000E+02  5.60000000E+01  0.00000000E+00
  1.30000000E+02  5.40000000E+01  0.00000000E+00
  1.30000000E+02  5.20000000E+01  0.00000000E+00
  1.30000000E+02  5.00000000E+01  0.00000000E+00
  1.30000000E+02  4.80000000E+01  0.00000000E+00
  1.30000000E+02  4.60000000E+01  0.00000000E+00
  1.30000000E+02  4.40000000E+01  0.00000000E+00
  1.30000000E+02  4.20000000E+01  0.00000000E+00
  1.30000000E+02  4.00000000E+01  0.00000000E+00
  1.30000000E+02  3.80000000E+01  0.00000000E+00
  1.30000000E+02  3.60000000E+01  0.00000000E+00
  1.30000000E+02  3.40000000E+01  0.00000000E+00
  1.30000000E+02  3.20000000E+01  0.00000000E+00
  1.30000000E+02  3.00000000E+01  0.00000000E+00
  1.30000000E+02  2.80000000E+01  0.00000000E+00
  1.30000000E+02  2.60000000E+01  0.00000000E+00
  1.30000000E+02  2.40000000E+01  0.00000000E+00
  1.30000000E+02  2.20000000E+01  0.00000000E+00
  1.30000000E+02  2.00000000E+01  0.00000000E+00
  1.30000000E+02  1.80000000E+01  0.00000000E+00
  1.30000000E+02  1.60000000E+01  0.00000000E+00
  1.30000000E+02  1.40000000E+01  0.00000000E+00
  1.30000000E+02  1.20000000E+01  0.00000000E+00
  1.30000000E+02  1.00000000E+01  0.00000000E+00
  1.30000000E+02  8.00000000E+00  0.00000000E+00
  1.30000000E+02  6.00000000E+00  0.00000000E+00
  1.30000000E+02  4.00000000E+00  0.00000000E+00
  1.30000000E+02  2.00000000E+00  0.00000000E+00
  1.30000000E+02 -3.33066907E-14  0.00000000E+00
  1.40000000E+02  1.00000000E+02  0.00000000E+00
  1.40000000E+02  9.80000000E+01  0.00000000E+00
  1.40000000E+02  9.60000000E+01  0.00000000E+00
  1.40000000E+02  9.40000000E+01  0.00000000E+00
  1.40000000E+02  9.20000000E+01  0.00000000E+00
  1.40000000E+02  9.00000000E+01  0.00000000E+00
  1.40000000E+02  8.80000000E+01  0.00000000E+00
  1.40000000E+02  8.60000000E+01  0.00000000E+00
  1.40000000E+02  8.40000000E+01  0.00000000E+00
  1.40000000E+02  8.20000000E+01  0.00000000E+00
  1.40000000E+02  8.00000000E+01  0.00000000E+00
  1.40000000E+02  7.80000000E+01  0.00000000E+00
  1.40000000E+02  7.60000000E+01  0.00000000E+00
  1.40000000E+02  7.40000000E+01  0.00000000E+00
  1.40000000E+02  7.20000000E+01  0.00000000E+00
  1.40000000E+02  7.00000000E+01  0.00000000E+00
  1.40000000E+02  6.80000000E+01  0.00000000E+00
  1.40000000E+02  6.60000000E+01  0.00000000E+00
  1.40000000E+02  6.40000000E+01  0.00000000E+00
  1.40000000E+02  6.20000000E+01  0.00000000E+00
  1.40000000E+02  6.00000000E+01  0.00000000E+00
  1.40000000E+02  5.80000000E+01  0.00000000E+00
  1.40000000E+02  5.60000000E+01  0.00000000E+00
  1.40000000E+02  5.40000000E+01  0.00000000E+00
  1.40000000E+02  5.20000000E+01  0.00000000E+00
  1.40000000E+02  5.00000000E+01  0.00000000E+00
  1.40000000E+02  4.80000000E+01  0.00000000E+00
  1.40000000E+02  4.60000000E+01  0.00000000E+00
  1.40000000E+02  4.40000000E+01  0.00000000E+00
  1.40000000E+02  4.20000000E+01  0.00000000E+00
  1.40000000E+02  4.00000000E+01  0.00000000E+00
  1.40000000E+02  3.80000000E+01  0.00000000E+00
  1.40000000E+02  3.60000000E+01  0.00000000E+00
  1.40000000E+02  3.40000000E+01  0.00000000E+00
  1.40000000E+02  3.20000000E+01  0.00000000E+00
  1.40000000E+02  3.00000000E+01  0.00000000E+00
  1.40000000E+02  2.80000000E+01  0.00000000E+00
  1.40000000E+02  2.60000000E+01  0.00000000E+00
  1.40000000E+02  2.40000000E+01  0.00000000E+00
  1.40000000E+02  2.20000000E+01  0.00000000E+00
  1.40000000E+02  2.00000000E+01  0.00000000E+00
  1.40000000E+02  1.80000000E+01  0.00000000E+00
  1.40000000E+02  1.60000000E+01  0.00000000E+00
  1.40000000E+02  1.40000000E+01  0.00000000E+00
  1.40000000E+02  1.20000000E+01  0.00000000E+00
  1.40000000E+02  1.00000000E+01  0.00000000E+00
  1.40000000E+02  8.00000000E+00  0.00000000E+00
  1.40000000E+02  6.00000000E+00  0.00000000E+00
  1.40000000E+02  4.00000000E+00  0.00000000E+00
  1.40000000E+02  2.00000000E+00  0.00000000E+00
  1.40000000E+02 -3.33066907E-14  0.00000000E+00
  1.50000000E+02  1.00000000E+02  0.00000000E+00
  1.50000000E+02  9.80000000E+01  0.00000000E+00
  1.50000000E+02  9.60000000E+01  0.00000000E+00
  1.50000000E+02  9.40000000E+01  0.00000000E+00
  1.50000000E+02  9.20000000E+01  0.00000000E+00
  1.50000000E+02  9.00000000E+01  0.00000000E+00
  1.50000000E+02  8.80000000E+01  0.00000000E+00
  1.50000000E+02  8.60000000E+01  0.00000000E+00
  1.50000000E+02  8.40000000E+01  0.00000000E+00
  1.50000000E+02  8.20000000E+01  0.00000000E+00
  1.50000000E+02  8.00000000E+01  0.00000000E+00
  1.50000000E+02  7.80000000E+01  0.00000000E+00
  1.50000000E+02  7.60000000E+01  0.00000000E+00
  1.50000000E+02  7.40000000E+01  0.00000000E+00
  1.50000000E+02  7.20000000E+01  0.00000000E+00
  1.50000000E+02  7.00000000E+01  0.00000000E+00
  1.50000000E+02  6.80000000E+01  0.00000000E+00
  1.50000000E+02  6.60000000E+01  0.00000000E+00
  1.50000000E+02  6.40000000E+01  0.00000000E+00
  1.50000000E+02  6.20000000E+01  0.00000000E+00
  1.50000000E+02  6.00000000E+01  0.00000000E+00
  1.50000000E+02  5.80000000E+01  0.00000000E+00
  1.50000000E+02  5.60000000E+01  0.00000000E+00
  1.50000000E+02  5.40000000E+01  0.00000000E+00
  1.50000000E+02  5.20000000E+01  0.00000000E+00
  1.50000000E+02  5.00000000E+01  0.00000000E+00
  1.50000000E+02  4.80000000E+01  0.00000000E+00
  1.50000000E+02  4.60000000E+01  0.00000000E+00
  1.50000000E+02  4.40000000E+01  0.00000000E+00
  1.50000000E+02  4.20000000E+01  0.00000000E+00
  1.50000000E+02  4.00000000E+01  0.00000000E+00
  1.50000000E+02  3.80000000E+01  0.00000000E+00
  1.50000000E+02  3.60000000E+01  0.00000000E+00
  1.50000000E+02  3.40000000E+01  0.00000000E+00
  1.50000000E+02  3.20000000E+01  0.00000000E+00
  1.50000000E+02  3.00000000E+01  0.00000000E+00
  1.50000000E+02  2.80000000E+01  0.00000000E+00
  1.50000000E+02  2.60000000E+01  0.00000000E+00
  1.50000000E+02  2.40000000E+01  0.00000000E+00
  1.50000000E+02  2.20000000E+01  0.00000000E+00
  1.50000000E+02  2.00000000E+01  0.00000000E+00
  1.50000000E+02  1.80000000E+01  0.00000000E+00
  1.50000000E+02  1.60000000E+01  0.00000000E+00
  1.50000000E+02  1.40000000E+01  0.00000000E+00
  1.50000000E+02  1.20000000E+01  0.00000000E+00
  1.50000000E+02  1.00000000E+01  0.00000000E+00
  1.50000000E+02  8.00000000E+00  0.00000000E+00
  1.50000000E+02  6.00000000E+00  0.00000000E+00
  1.50000000E+02  4.00000000E+00  0.00000000E+00
  1.50000000E+02  2.00000000E+00  0.00000000E+00
  1.50000000E+02 -3.33066907E-14  0.00000000E+00
  1.60000000E+02  1.00000000E+02  0.00000000E+00
  1.60000000E+02  9.80000000E+01  0.00000000E+00
  1.60000000E+02  9.60000000E+01  0.00000000E+00
  1.60000000E+02  9.40000000E+01  0.00000000E+00
  1.60000000E+02  9.20000000E+01  0.00000000E+00
  1.60000000E+02  9.00000000E+01  0.00000000E+00
  1.60000000E+02  8.80000000E+01  0.00000000E+00
  1.60000000E+02  8.60000000E+01  0.00000000E+00
  1.60000000E+02  8.40000000E+01  0.00000000E+00
  1.60000000E+02  8.20000000E+01  0.00000000E+00
  1.60000000E+02  8.00000000E+01  0.00000000E+00
  1.60000000E+02  7.80000000E+01  0.00000000E+00
  1.60000000E+02  7.60000000E+01  0.00000000E+00
  1.60000000E+02  7.40000000E+01  0.00000000E+00
  1.60000000E+02  7.20000000E+01  0.00000000E+00
  1.60000000E+02  7.00000000E+01  0.00000000E+00
  1.60000000E+02  6.80000000E+01  0.00000000E+00
  1.60000000E+02  6.60000000E+01  0.00000000E+00
  1.60000000E+02  6.40000000E+01  0.00000000E+00
  1.60000000E+02  6.20000000E+01  0.00000000E+00
  1.60000000E+02  6.00000000E+01  0.00000000E+00
  1.60000000E+02  5.80000000E+01  0.00000000E+00
  1.60000000E+02  5.60000000E+01  0.00000000E+00
  1.60000000E+02  5.40000000E+01  0.00000000E+00
  1.60000000E+02  5.20000000E+01  0.00000000E+00
  1.60000000E+02  5.00000000E+01  0.00000000E+00
  1.60000000E+02  4.80000000E+01  0.00000000E+00
  1.60000000E+02  4.60000000E+01  0.00000000E+00
  1.60000000E+02  4.40000000E+01  0.00000000E+00
  1.60000000E+02  4.20000000E+01  0.00000000E+00
  1.60000000E+02  4.00000000E+01  0.00000000E+00
  1.60000000E+02  3.80000000E+01  0.00000000E+00
  1.60000000E+02  3.60000000E+01  0.00000000E+00
  1.60000000E+02  3.40000000E+01  0.00000000E+00
  1.60000000E+02  3.20000000E+01  0.00000000E+00
  1.60000000E+02  3.00000000E+01  0.00000000E+00
  1.60000000E+02  2.80000000E+01  0.00000000E+00
  1.60000000E+02  2.60000000E+01  0.00000000E+00
  1.60000000E+02  2.40000000E+01  0.00000000E+00
  1.60000000E+02  2.20000000E+01  0.00000000E+00
  1.60000000E+02  2.00000000E+01  0.00000000E+00
  1.60000000E+02  1.80000000E+01  0.00000000E+00
  1.60000000E+02  1.60000000E+01  0.00000000E+00
  1.60000000E+02  1.40000000E+01  0.00000000E+00
  1.60000000E+02  1.20000000E+01  0.00000000E+00
  1.60000000E+02  1.00000000E+01  0.00000000E+00
  1.60000000E+02  8.00000000E+00  0.00000000E+00
  1.60000000E+02  6.00000000E+00  0.00000000E+00
  1.60000000E+02  4.00000000E+00  0.00000000E+00
  1.60000000E+02  2.00000000E+00  0.00000000E+00
  1.60000000E+02 -3.33066907E-14  0.00000000E+00
  1.70000000E+02  1.00000000E+02  0.00000000E+00
  1.70000000E+02  9.80000000E+01  0.00000000E+00
  1.70000000E+02  9.60000000E+01  0.00000000E+00
  1.70000000E+02  9.40000000E+01  0.00000000E+00
  1.70000000E+02  9.20000000E+01  0.00000000E+00
  1.70000000E+02  9.00000000E+01  0.00000000E+00
  1.70000000E+02  8.80000000E+01  0.00000000E+00
  1.70000000E+02  8.60000000E+01  0.00000000E+00
  1.70000000E+02  8.40000000E+01  0.00000000E+00
  1.70000000E+02  8.20000000E+01  0.00000000E+00
  1.70000000E+02  8.00000000E+01  0.00000000E+00
  1.70000000E+02  7.80000000E+01  0.00000000E+00
  1.70000000E+02  7.60000000E+01  0.00000000E+00
  1.70000000E+02  7.40000000E+01  0.00000000E+00
  1.70000000E+02  7.20000000E+01  0.00000000E+00
  1.70000000E+02  7.00000000E+01  0.00000000E+00
  1.70000000E+02  6.80000000E+01  0.00000000E+00
  1.70000000E+02  6.60000000E+01  0.00000000E+00
  1.70000000E+02  6.40000000E+01  0.00000000E+00
  1.70000000E+02  6.20000000E+01  0.00000000E+00
  1.70000000E+02  6.00000000E+01  0.00000000E+00
  1.70000000E+02  5.80000000E+01  0.00000000E+00
  1.70000000E+02  5.60000000E+01  0.00000000E+00
  1.70000000E+02  5.40000000E+01  0.00000000E+00
  1.70000000E+02  5.20000000E+01  0.00000000E+00
  1.70000000E+02  5.00000000E+01  0.00000000E+00
  1.70000000E+02  4.80000000E+01  0.00000000E+00
  1.70000000E+02  4.60000000E+01  0.00000000E+00
  1.70000000E+02  4.40000000E+01  0.00000000E+00
  1.70000000E+02  4.20000000E+01  0.00000000E+00
  1.70000000E+02  4.00000000E+01  0.00000000E+00
  1.70000000E+02  3.80000000E+01  0.00000000E+00
  1.70000000E+02  3.60000000E+01  0.00000000E+00
  1.70000000E+02  3.40000000E+01  0.00000000E+00
  1.70000000E+02  3.20000000E+01  0.00000000E+00
  1.70000000E+02  3.00000000E+01  0.00000000E+00
  1.70000000E+02  2.80000000E+01  0.00000000E+00
  1.70000000E+02  2.60000000E+01  0.00000000E+00
  1.70000000E+02  2.40000000E+01  0.00000000E+00
  1.70000000E+02  2.20000000E+01  0.00000000E+00
  1.70000000E+02  2.00000000E+01  0.00000000E+00
  1.70000000E+02  1.80000000E+01  0.00000000E+00
  1.70000000E+02  1.60000000E+01  0.00000000E+00
  1.70000000E+02  1.40000000E+01  0.00000000E+00
  1.70000000E+02  1.20000000E+01  0.00000000E+00
  1.70000000E+02  1.00000000E+01  0.00000000E+00
  1.70000000E+02  8.00000000E+00  0.00000000E+00
  1.70000000E+02  6.00000000E+00  0.00000000E+00
  1.70000000E+02  4.00000000E+00  0.00000000E+00
  1.70000000E+02  2.00000000E+00  0.00000000E+00
  1.70000000E+02 -3.33066907E-14  0.00000000E+00
  1.80000000E+02  1.00000000E+02  0.00000000E+00
  1.80000000E+02  9.80000000E+01  0.00000000E+00
  1.80000000E+02  9.60000000E+01  0.00000000E+00
  1.80000000E+02  9.40000000E+01  0.00000000E+00
  1.80000000E+02  9.20000000E+01  0.00000000E+00
  1.80000000E+02  9.00000000E+01  0.00000000E+00
  1.80000000E+02  8.80000000E+01  0.00000000E+00
  1.80000000E+02  8.60000000E+01  0.00000000E+00
  1.80000000E+02  8.40000000E+01  0.00000000E+00
  1.80000000E+02  8.20000000E+01  0.00000000E+00
  1.80000000E+02  8.00000000E+01  0.00000000E+00
  1.80000000E+02  7.80000000E+01  0.00000000E+00
  1.80000000E+02  7.60000000E+01  0.00000000E+00
  1.80000000E+02  7.40000000E+01  0.00000000E+00
  1.80000000E+02  7.20000000E+01  0.00000000E+00
  1.80000000E+02  7.00000000E+01  0.00000000E+00
  1.80000000E+02  6.80000000E+01  0.00000000E+00
  1.80000000E+02  6.60000000E+01  0.00000000E+00
  1.80000000E+02  6.40000000E+01  0.00000000E+00
  1.80000000E+02  6.20000000E+01  0.00000000E+00
  1.80000000E+02  6.00000000E+01  0.00000000E+00
  1.80000000E+02  5.80000000E+01  0.00000000E+00
  1.80000000E+02  5.60000000E+01  0.00000000E+00
  1.80000000E+02  5.40000000E+01  0.00000000E+00
  1.80000000E+02  5.20000000E+01  0.00000000E+00
  1.80000000E+02  5.00000000E+01  0.00000000E+00
  1.80000000E+02  4.80000000E+01  0.00000000E+00
  1.80000000E+02  4.60000000E+01  0.00000000E+00
  1.80000000E+02  4.40000000E+01  0.00000000E+00
  1.80000000E+02  4.20000000E+01  0.00000000E+00
  1.80000000E+02  4.00000000E+01  0.00000000E+00
  1.80000000E+02  3.80000000E+01  0.00000000E+00
  1.80000000E+02  3.60000000E+01  0.00000000E+00
  1.80000000E+02  3.40000000E+01  0.00000000E+00
  1.80000000E+02  3.20000000E+01  0.00000000E+00
  1.80000000E+02  3.00000000E+01  0.00000000E+00
  1.80000000E+02  2.80000000E+01  0.00000000E+00
  1.80000000E+02  2.60000000E+01  0.00000000E+00
  1.80000000E+02  2.40000000E+01  0.00000000E+00
  1.80000000E+02  2.20000000E+01  0.00000000E+00
  1.80000000E+02  2.00000000E+01  0.00000000E+00
  1.80000000E+02  1.80000000E+01  0.00000000E+00
  1.80000000E+02  1.60000000E+01  0.00000000E+00
  1.80000000E+02  1.40000000E+01  0.00000000E+00
  1.80000000E+02  1.20000000E+01  0.00000000E+00
  1.80000000E+02  1.00000000E+01  0.00000000E+00
  1.80000000E+02  8.00000000E+00  0.00000000E+00
  1.80000000E+02  6.00000000E+00  0.00000000E+00
  1.80000000E+02  4.00000000E+00  0.00000000E+00
  1.80000000E+02  2.00000000E+00  0.00000000E+00
  1.80000000E+02 -3.33066907E-14  0.00000000E+00
  1.90000000E+02  1.00000000E+02  0.00000000E+00
  1.90000000E+02  9.80000000E+01  0.00000000E+00
  1.90000000E+02  9.60000000E+01  0.00000000E+00
  1.90000000E+02  9.40000000E+01  0.00000000E+00
  1.90000000E+02  9.20000000E+01  0.00000000E+00
  1.90000000E+02  9.00000000E+01  0.00000000E+00
  1.90000000E+02  8.80000000E+01  0.00000000E+00
  1.90000000E+02  8.60000000E+01  0.00000000E+00
  1.90000000E+02  8.40000000E+01  0.00000000E+00
  1.90000000E+02  8.20000000E+01  0.00000000E+00
  1.90000000E+02  8.00000000E+01  0.00000000E+00
  1.90000000E+02  7.80000000E+01  0.00000000E+00
  1.90000000E+02  7.60000000E+01  0.00000000E+00
  1.90000000E+02  7.40000000E+01  0.00000000E+00
  1.90000000E+02  7.20000000E+01  0.00000000E+00
  1.90000000E+02  7.00000000E+01  0.00000000E+00
  1.90000000E+02  6.80000000E+01  0.00000000E+00
  1.90000000E+02  6.60000000E+01  0.00000000E+00
  1.90000000E+02  6.40000000E+01  0.00000000E+00
  1.90000000E+02  6.20000000E+01  0.00000000E+00
  1.90000000E+02  6.00000000E+01  0.00000000E+00
  1.90000000E+02  5.80000000E+01  0.00000000E+00
  1.90000000E+02  5.60000000E+01  0.00000000E+00
  1.90000000E+02  5.40000000E+01  0.00000000E+00
  1.90000000E+02  5.20000000E+01  0.00000000E+00
  1.90000000E+02  5.00000000E+01  0.00000000E+00
  1.90000000E+02  4.80000000E+01  0.00000000E+00
  1.90000000E+02  4.60000000E+01  0.00000000E+00
  1.90000000E+02  4.40000000E+01  0.00000000E+00
  1.90000000E+02  4.20000000E+01  0.00000000E+00
  1.90000000E+02  4.00000000E+01  0.00000000E+00
  1.90000000E+02  3.80000000E+01  0.00000000E+00
  1.90000000E+02  3.60000000E+01  0.00000000E+00
  1.90000000E+02  3.40000000E+01  0.00000000E+00
  1.90000000E+02  3.20000000E+01  0.00000000E+00
  1.90000000E+02  3.00000000E+01  0.00000000E+00
  1.90000000E+02  2.80000000E+01  0.00000000E+00
  1.90000000E+02  2.60000000E+01  0.00000000E+00
  1.90000000E+02  2.40000000E+01  0.00000000E+00
  1.90000000E+02  2.20000000E+01  0.00000000E+00
  1.90000000E+02  2.00000000E+01  0.00000000E+00
  1.90000000E+02  1.80000000E+01  0.00000000E+00
  1.90000000E+02  1.60000000E+01  0.00000000E+00
  1.90000000E+02  1.40000000E+01  0.00000000E+00
  1.90000000E+02  1.20000000E+01  0.00000000E+00
  1.90000000E+02  1.00000000E+01  0.00000000E+00
  1.90000000E+02  8.00000000E+00  0.00000000E+00
  1.90000000E+02  6.00000000E+00  0.00000000E+00
  1.90000000E+02  4.00000000E+00  0.00000000E+00
  1.90000000E+02  2.00000000E+00  0.00000000E+00
  1.90000000E+02 -3.33066907E-14  0.00000000E+00
  2.00000000E+02  1.00000000E+02  0.00000000E+00
  2.00000000E+02  9.80000000E+01  0.00000000E+00
  2.00000000E+02  9.60000000E+01  0.00000000E+00
  2.00000000E+02  9.40000000E+01  0.00000000E+00
  2.00000000E+02  9.20000000E+01  0.00000000E+00
  2.00000000E+02  9.00000000E+01  0.00000000E+00
  2.00000000E+02  8.80000000E+01  0.00000000E+00
  2.00000000E+02  8.60000000E+01  0.00000000E+00
  2.00000000E+02  8.40000000E+01  0.00000000E+00
  2.00000000E+02  8.20000000E+01  0.00000000E+00
  2.00000000E+02  8.00000000E+01  0.00000000E+00
  2.00000000E+02  7.80000000E+01  0.00000000E+00
  2.00000000E+02  7.60000000E+01  0.00000000E+00
  2.00000000E+02  7.40000000E+01  0.00000000E+00
  2.00000000E+02  7.20000000E+01  0.00000000E+00
  2.00000000E+02  7.00000000E+01  0.00000000E+00
  2.00000000E+02  6.80000000E+01  0.00000000E+00
  2.00000000E+02  6.60000000E+01  0.00000000E+00
  2.00000000E+02  6.40000000E+01  0.00000000E+00
  2.00000000E+02  6.20000000E+01  0.00000000E+00
  2.00000000E+02  6.00000000E+01  0.00000000E+00
  2.00000000E+02  5.80000000E+01  0.00000000E+00
  2.00000000E+02  5.60000000E+01  0.00000000E+00
  2.00000000E+02  5.40000000E+01  0.00000000E+00
  2.00000000E+02  5.20000000E+01  0.00000000E+00
  2.00000000E+02  5.00000000E+01  0.00000000E+00
  2.00000000E+02  4.80000000E+01  0.00000000E+00
  2.00000000E+02  4.60000000E+01  0.00000000E+00
  2.00000000E+02  4.40000000E+01  0.00000000E+00
  2.00000000E+02  4.20000000E+01  0.00000000E+00
  2.00000000E+02  4.00000000E+01  0.00000000E+00
  2.00000000E+02  3.80000000E+01  0.00000000E+00
  2.00000000E+02  3.60000000E+01  0.00000000E+00
  2.00000000E+02  3.40000000E+01  0.00000000E+00
  2.00000000E+02  3.20000000E+01  0.00000000E+00
  2.00000000E+02  3.00000000E+01  0.00000000E+00
  2.00000000E+02  2.80000000E+01  0.00000000E+00
  2.00000000E+02  2.60000000E+01  0.00000000E+00
  2.00000000E+02  2.40000000E+01  0.00000000E+00
  2.00000000E+02  2.20000000E+01  0.00000000E+00
  2.00000000E+02  2.00000000E+01  0.00000000E+00
  2.00000000E+02  1.80000000E+01  0.00000000E+00
  2.00000000E+02  1.60000000E+01  0.00000000E+00
  2.00000000E+02  1.40000000E+01  0.00000000E+00
  2.00000000E+02  1.20000000E+01  0.00000000E+00
  2.00000000E+02  1.00000000E+01  0.00000000E+00
  2.00000000E+02  8.00000000E+00  0.00000000E+00
  2.00000000E+02  6.00000000E+00  0.00000000E+00
  2.00000000E+02  4.00000000E+00  0.00000000E+00
  2.00000000E+02  2.00000000E+00  0.00000000E+00
  2.00000000E+02 -3.33066907E-14  0.00000000E+00
  2.10000000E+02  1.00000000E+02  0.00000000E+00
  2.10000000E+02  9.80000000E+01  0.00000000E+00
  2.10000000E+02  9.60000000E+01  0.00000000E+00
  2.10000000E+02  9.40000000E+01  0.00000000E+00
  2.10000000E+02  9.20000000E+01  0.00000000E+00
  2.10000000E+02  9.00000000E+01  0.00000000E+00
  2.10000000E+02  8.80000000E+01  0.00000000E+00
  2.10000000E+02  8.60000000E+01  0.00000000E+00
  2.10000000E+02  8.40000000E+01  0.00000000E+00
  2.10000000E+02  8.20000000E+01  0.00000000E+00
  2.10000000E+02  8.00000000E+01  0.00000000E+00
  2.10000000E+02  7.80000000E+01  0.00000000E+00
  2.10000000E+02  7.60000000E+01  0.00000000E+00
  2.10000000E+02  7.40000000E+01  0.00000000E+00
  2.10000000E+02  7.20000000E+01  0.00000000E+00
  2.10000000E+02  7.00000000E+01  0.00000000E+00
  2.10000000E+02  6.80000000E+01  0.00000000E+00
  2.10000000E+02  6.60000000E+01  0.00000000E+00
  2.10000000E+02  6.40000000E+01  0.00000000E+00
  2.10000000E+02  6.20000000E+01  0.00000000E+00
  2.10000000E+02  6.00000000E+01  0.00000000E+00
  2.10000000E+02  5.80000000E+01  0.00000000E+00
  2.10000000E+02  5.60000000E+01  0.00000000E+00
  2.10000000E+02  5.40000000E+01  0.00000000E+00
  2.10000000E+02  5.20000000E+01  0.00000000E+00
  2.10000000E+02  5.00000000E+01  0.00000000E+00
  2.10000000E+02  4.80000000E+01  0.00000000E+00
  2.10000000E+02  4.60000000E+01  0.00000000E+00
  2.10000000E+02  4.40000000E+01  0.00000000E+00
  2.10000000E+02  4.20000000E+01  0.00000000E+00
  2.10000000E+02  4.00000000E+01  0.00000000E+00
  2.10000000E+02  3.80000000E+01  0.00000000E+00
  2.10000000E+02  3.60000000E+01  0.00000000E+00
  2.10000000E+02  3.40000000E+01  0.00000000E+00
  2.10000000E+02  3.20000000E+01  0.00000000E+00
  2.10000000E+02  3.00000000E+01  0.00000000E+00
  2.10000000E+02  2.80000000E+01  0.00000000E+00
  2.10000000E+02  2.60000000E+01  0.00000000E+00
  2.10000000E+02  2.40000000E+01  0.00000000E+00
  2.10000000E+02  2.20000000E+01  0.00000000E+00
  2.10000000E+02  2.00000000E+01  0.00000000E+00
  2.10000000E+02  1.80000000E+01  0.00000000E+00
  2.10000000E+02  1.60000000E+01  0.00000000E+00
  2.10000000E+02  1.40000000E+01  0.00000000E+00
  2.10000000E+02  1.20000000E+01  0.00000000E+00
  2.10000000E+02  1.00000000E+01  0.00000000E+00
  2.10000000E+02  8.00000000E+00  0.00000000E+00
  2.10000000E+02  6.00000000E+00  0.00000000E+00
  2.10000000E+02  4.00000000E+00  0.00000000E+00
  2.10000000E+02  2.00000000E+00  0.00000000E+00
  2.10000000E+02 -3.33066907E-14  0.00000000E+00
  2.20000000E+02  1.00000000E+02  0.00000000E+00
  2.20000000E+02  9.80000000E+01  0.00000000E+00
  2.20000000E+02  9.60000000E+01  0.00000000E+00
  2.20000000E+02  9.40000000E+01  0.00000000E+00
  2.20000000E+02  9.20000000E+01  0.00000000E+00
  2.20000000E+02  9.00000000E+01  0.00000000E+00
  2.20000000E+02  8.80000000E+01  0.00000000E+00
  2.20000000E+02  8.60000000E+01  0.00000000E+00
  2.20000000E+02  8.40000000E+01  0.00000000E+00
  2.20000000E+02  8.20000000E+01  0.00000000E+00
  2.20000000E+02  8.00000000E+01  0.00000000E+00
  2.20000000E+02  7.80000000E+01  0.00000000E+00
  2.20000000E+02  7.60000000E+01  0.00000000E+00
  2.20000000E+02  7.40000000E+01  0.00000000E+00
  2.20000000E+02  7.20000000E+01  0.00000000E+00
  2.20000000E+02  7.00000000E+01  0.00000000E+00
  2.20000000E+02  6.80000000E+01  0.00000000E+00
  2.20000000E+02  6.60000000E+01  0.00000000E+00
  2.20000000E+02  6.40000000E+01  0.00000000E+00
  2.20000000E+02  6.20000000E+01  0.00000000E+00
  2.20000000E+02  6.00000000E+01  0.00000000E+00
  2.20000000E+02  5.80000000E+01  0.00000000E+00
  2.20000000E+02  5.60000000E+01  0.00000000E+00
  2.20000000E+02  5.40000000E+01  0.00000000E+00
  2.20000000E+02  5.20000000E+01  0.00000000E+00
  2.20000000E+02  5.00000000E+01  0.00000000E+00
  2.20000000E+02  4.80000000E+01  0.00000000E+00
  2.20000000E+02  4.60000000E+01  0.00000000E+00
  2.20000000E+02  4.40000000E+01  0.00000000E+00
  2.20000000E+02  4.20000000E+01  0.00000000E+00
  2.20000000E+02  4.00000000E+01  0.00000000E+00
  2.20000000E+02  3.80000000E+01  0.00000000E+00
  2.20000000E+02  3.60000000E+01  0.00000000E+00
  2.20000000E+02  3.40000000E+01  0.00000000E+00
  2.20000000E+02  3.20000000E+01  0.00000000E+00
  2.20000000E+02  3.00000000E+01  0.00000000E+00
  2.20000000E+02  2.80000000E+01  0.00000000E+00
  2.20000000E+02  2.60000000E+01  0.00000000E+00
  2.20000000E+02  2.40000000E+01  0.00000000E+00
  2.20000000E+02  2.20000000E+01  0.00000000E+00
  2.20000000E+02  2.00000000E+01  0.00000000E+00
  2.20000000E+02  1.80000000E+01  0.00000000E+00
  2.20000000E+02  1.60000000E+01  0.00000000E+00
  2.20000000E+02  1.40000000E+01  0.00000000E+00
  2.20000000E+02  1.20000000E+01  0.00000000E+00
  2.20000000E+02  1.00000000E+01  0.00000000E+00
  2.20000000E+02  8.00000000E+00  0.00000000E+00
  2.20000000E+02  6.00000000E+00  0.00000000E+00
  2.20000000E+02  4.00000000E+00  0.00000000E+00
  2.20000000E+02  2.00000000E+00  0.00000000E+00
  2.20000000E+02 -3.33066907E-14  0.00000000E+00
  2.30000000E+02  1.00000000E+02  0.00000000E+00
  2.30000000E+02  9.80000000E+01  0.00000000E+00
  2.30000000E+02  9.60000000E+01  0.00000000E+00
  2.30000000E+02  9.40000000E+01  0.00000000E+00
  2.30000000E+02  9.20000000E+01  0.00000000E+00
  2.30000000E+02  9.00000000E+01  0.00000000E+00
  2.30000000E+02  8.80000000E+01  0.00000000E+00
  2.30000000E+02  8.60000000E+01  0.00000000E+00
  2.30000000E+02  8.40000000E+01  0.00000000E+00
  2.30000000E+02  8.20000000E+01  0.00000000E+00
  2.30000000E+02  8.00000000E+01  0.00000000E+00
  2.30000000E+02  7.80000000E+01  0.00000000E+00
  2.30000000E+02  7.60000000E+01  0.00000000E+00
  2.30000000E+02  7.40000000E+01  0.00000000E+00
  2.30000000E+02  7.20000000E+01  0.00000000E+00
  2.30000000E+02  7.00000000E+01  0.00000000E+00
  2.30000000E+02  6.80000000E+01  0.00000000E+00
  2.30000000E+02  6.60000000E+01  0.00000000E+00
  2.30000000E+02  6.40000000E+01  0.00000000E+00
  2.30000000E+02  6.20000000E+01  0.00000000E+00
  2.30000000E+02  6.00000000E+01  0.00000000E+00
  2.30000000E+02  5.80000000E+01  0.00000000E+00
  2.30000000E+02  5.60000000E+01  0.00000000E+00
  2.30000000E+02  5.40000000E+01  0.00000000E+00
  2.30000000E+02  5.20000000E+01  0.00000000E+00
  2.30000000E+02  5.00000000E+01  0.00000000E+00
  2.30000000E+02  4.80000000E+01  0.00000000E+00
  2.30000000E+02  4.60000000E+01  0.00000000E+00
  2.30000000E+02  4.40000000E+01  0.00000000E+00
  2.30000000E+02  4.20000000E+01  0.00000000E+00
  2.30000000E+02  4.00000000E+01  0.00000000E+00
  2.30000000E+02  3.80000000E+01  0.00000000E+00
  2.30000000E+02  3.60000000E+01  0.00000000E+00
  2.30000000E+02  3.40000000E+01  0.00000000E+00
  2.30000000E+02  3.20000000E+01  0.00000000E+00
  2.30000000E+02  3.00000000E+01  0.00000000E+00
  2.30000000E+02  2.80000000E+01  0.00000000E+00
  2.30000000E+02  2.60000000E+01  0.00000000E+00
  2.30000000E+02  2.40000000E+01  0.00000000E+00
  2.30000000E+02  2.20000000E+01  0.00000000E+00
  2.30000000E+02  2.00000000E+01  0.00000000E+00
  2.30000000E+02  1.80000000E+01  0.00000000E+00
  2.30000000E+02  1.60000000E+01  0.00000000E+00
  2.30000000E+02  1.40000000E+01  0.00000000E+00
  2.30000000E+02  1.20000000E+01  0.00000000E+00
  2.30000000E+02  1.00000000E+01  0.00000000E+00
  2.30000000E+02  8.00000000E+00  0.00000000E+00
  2.30000000E+02  6.00000000E+00  0.00000000E+00
  2.30000000E+02  4.00000000E+00  0.00000000E+00
  2.30000000E+02  2.00000000E+00  0.00000000E+00
  2.30000000E+02 -3.33066907E-14  0.00000000E+00
  2.40000000E+02  1.00000000E+02  0.00000000E+00
  2.40000000E+02  9.80000000E+01  0.00000000E+00
  2.40000000E+02  9.60000000E+01  0.00000000E+00
  2.40000000E+02  9.40000000E+01  0.00000000E+00
  2.40000000E+02  9.20000000E+01  0.00000000E+00
  2.40000000E+02  9.00000000E+01  0.00000000E+00
  2.40000000E+02  8.80000000E+01  0.00000000E+00
  2.40000000E+02  8.60000000E+01  0.00000000E+00
  2.40000000E+02  8.40000000E+01  0.00000000E+00
  2.40000000E+02  8.20000000E+01  0.00000000E+00
  2.40000000E+02  8.00000000E+01  0.00000000E+00
  2.40000000E+02  7.80000000E+01  0.00000000E+00
  2.40000000E+02  7.60000000E+01  0.00000000E+00
  2.40000000E+02  7.40000000E+01  0.00000000E+00
  2.40000000E+02  7.20000000E+01  0.00000000E+00
  2.40000000E+02  7.00000000E+01  0.00000000E+00
  2.40000000E+02  6.80000000E+01  0.00000000E+00
  2.40000000E+02  6.60000000E+01  0.00000000E+00
  2.40000000E+02  6.40000000E+01  0.00000000E+00
  2.40000000E+02  6.20000000E+01  0.00000000E+00
  2.40000000E+02  6.00000000E+01  0.00000000E+00
  2.40000000E+02  5.80000000E+01  0.00000000E+00
  2.40000000E+02  5.60000000E+01  0.00000000E+00
  2.40000000E+02  5.40000000E+01  0.00000000E+00
  2.40000000E+02  5.20000000E+01  0.00000000E+00
  2.40000000E+02  5.00000000E+01  0.00000000E+00
  2.40000000E+02  4.80000000E+01  0.00000000E+00
  2.40000000E+02  4.60000000E+01  0.00000000E+00
  2.40000000E+02  4.40000000E+01  0.00000000E+00
  2.40000000E+02  4.20000000E+01  0.00000000E+00
  2.40000000E+02  4.00000000E+01  0.00000000E+00
  2.40000000E+02  3.80000000E+01  0.00000000E+00
  2.40000000E+02  3.60000000E+01  0.00000000E+00
  2.40000000E+02  3.40000000E+01  0.00000000E+00
  2.40000000E+02  3.20000000E+01  0.00000000E+00
  2.40000000E+02  3.00000000E+01  0.00000000E+00
  2.40000000E+02  2.80000000E+01  0.00000000E+00
  2.40000000E+02  2.60000000E+01  0.00000000E+00
  2.40000000E+02  2.40000000E+01  0.00000000E+00
  2.40000000E+02  2.20000000E+01  0.00000000E+00
  2.40000000E+02  2.00000000E+01  0.00000000E+00
  2.40000000E+02  1.80000000E+01  0.00000000E+00
  2.40000000E+02  1.60000000E+01  0.00000000E+00
  2.40000000E+02  1.40000000E+01  0.00000000E+00
  2.40000000E+02  1.20000000E+01  0.00000000E+00
  2.40000000E+02  1.00000000E+01  0.00000000E+00
  2.40000000E+02  8.00000000E+00  0.00000000E+00
  2.40000000E+02  6.00000000E+00  0.00000000E+00
  2.40000000E+02  4.00000000E+00  0.00000000E+00
  2.40000000E+02  2.00000000E+00  0.00000000E+00
  2.40000000E+02 -3.33066907E-14  0.00000000E+00
  2.50000000E+02  1.00000000E+02  0.00000000E+00
  2.50000000E+02  9.80000000E+01  0.00000000E+00
  2.50000000E+02  9.60000000E+01  0.00000000E+00
  2.50000000E+02  9.40000000E+01  0.00000000E+00
  2.50000000E+02  9.20000000E+01  0.00000000E+00
  2.50000000E+02  9.00000000E+01  0.00000000E+00
  2.50000000E+02  8.80000000E+01  0.00000000E+00
  2.50000000E+02  8.60000000E+01  0.00000000E+00
  2.50000000E+02  8.40000000E+01  0.00000000E+00
  2.50000000E+02  8.20000000E+01  0.00000000E+00
  2.50000000E+02  8.00000000E+01  0.00000000E+00
  2.50000000E+02  7.80000000E+01  0.00000000E+00
  2.50000000E+02  7.60000000E+01  0.00000000E+00
  2.50000000E+02  7.40000000E+01  0.00000000E+00
  2.50000000E+02  7.20000000E+01  0.00000000E+00
  2.50000000E+02  7.00000000E+01  0.00000000E+00
  2.50000000E+02  6.80000000E+01  0.00000000E+00
  2.50000000E+02  6.60000000E+01  0.00000000E+00
  2.50000000E+02  6.40000000E+01  0.00000000E+00
  2.50000000E+02  6.20000000E+01  0.00000000E+00
  2.50000000E+02  6.00000000E+01  0.00000000E+00
  2.50000000E+02  5.80000000E+01  0.00000000E+00
  2.50000000E+02  5.60000000E+01  0.00000000E+00
  2.50000000E+02  5.40000000E+01  0.00000000E+00
  2.50000000E+02  5.20000000E+01  0.00000000E+00
  2.50000000E+02  5.00000000E+01  0.00000000E+00
  2.50000000E+02  4.80000000E+01  0.00000000E+00
  2.50000000E+02  4.60000000E+01  0.00000000E+00
  2.50000000E+02  4.40000000E+01  0.00000000E+00
  2.50000000E+02  4.20000000E+01  0.00000000E+00
  2.50000000E+02  4.00000000E+01  0.00000000E+00
  2.50000000E+02  3.80000000E+01  0.00000000E+00
  2.50000000E+02  3.60000000E+01  0.00000000E+00
  2.50000000E+02  3.40000000E+01  0.00000000E+00
  2.50000000E+02  3.20000000E+01  0.00000000E+00
  2.50000000E+02  3.00000000E+01  0.00000000E+00
  2.50000000E+02  2.80000000E+01  0.00000000E+00
  2.50000000E+02  2.60000000E+01  0.00000000E+00
  2.50000000E+02  2.40000000E+01  0.00000000E+00
  2.50000000E+02  2.20000000E+01  0.00000000E+00
  2.50000000E+02  2.00000000E+01  0.00000000E+00
  2.50000000E+02  1.80000000E+01  0.00000000E+00
  2.50000000E+02  1.60000000E+01  0.00000000E+00
  2.50000000E+02  1.40000000E+01  0.00000000E+00
  2.50000000E+02  1.20000000E+01  0.00000000E+00
  2.50000000E+02  1.00000000E+01  0.00000000E+00
  2.50000000E+02  8.00000000E+00  0.00000000E+00
  2.50000000E+02  6.00000000E+00  0.00000000E+00
  2.50000000E+02  4.00000000E+00  0.00000000E+00
  2.50000000E+02  2.00000000E+00  0.00000000E+00
  2.50000000E+02 -3.33066907E-14  0.00000000E+00
  2.60000000E+02  1.00000000E+02  0.00000000E+00
  2.60000000E+02  9.80000000E+01  0.00000000E+00
  2.60000000E+02  9.60000000E+01  0.00000000E+00
  2.60000000E+02  9.40000000E+01  0.00000000E+00
  2.60000000E+02  9.20000000E+01  0.00000000E+00
  2.60000000E+02  9.00000000E+01  0.00000000E+00
  2.60000000E+02  8.80000000E+01  0.00000000E+00
  2.60000000E+02  8.60000000E+01  0.00000000E+00
  2.60000000E+02  8.40000000E+01  0.00000000E+00
  2.60000000E+02  8.20000000E+01  0.00000000E+00
  2.60000000E+02  8.00000000E+01  0.00000000E+00
  2.60000000E+02  7.80000000E+01  0.00000000E+00
  2.60000000E+02  7.60000000E+01  0.00000000E+00
  2.60000000E+02  7.40000000E+01  0.00000000E+00
  2.60000000E+02  7.20000000E+01  0.00000000E+00
  2.60000000E+02  7.00000000E+01  0.00000000E+00
  2.60000000E+02  6.80000000E+01  0.00000000E+00
  2.60000000E+02  6.60000000E+01  0.00000000E+00
  2.60000000E+02  6.40000000E+01  0.00000000E+00
  2.60000000E+02  6.20000000E+01  0.00000000E+00
  2.60000000E+02  6.00000000E+01  0.00000000E+00
  2.60000000E+02  5.80000000E+01  0.00000000E+00
  2.60000000E+02  5.60000000E+01  0.00000000E+00
  2.60000000E+02  5.40000000E+01  0.00000000E+00
  2.60000000E+02  5.20000000E+01  0.00000000E+00
  2.60000000E+02  5.00000000E+01  0.00000000E+00
  2.60000000E+02  4.80000000E+01  0.00000000E+00
  2.60000000E+02  4.60000000E+01  0.00000000E+00
  2.60000000E+02  4.40000000E+01  0.00000000E+00
  2.60000000E+02  4.20000000E+01  0.00000000E+00
  2.60000000E+02  4.00000000E+01  0.00000000E+00
  2.60000000E+02  3.80000000E+01  0.00000000E+00
  2.60000000E+02  3.60000000E+01  0.00000000E+00
  2.60000000E+02  3.40000000E+01  0.00000000E+00
  2.60000000E+02  3.20000000E+01  0.00000000E+00
  2.60000000E+02  3.00000000E+01  0.00000000E+00
  2.60000000E+02  2.80000000E+01  0.00000000E+00
  2.60000000E+02  2.60000000E+01  0.00000000E+00
  2.60000000E+02  2.40000000E+01  0.00000000E+00
  2.60000000E+02  2.20000000E+01  0.00000000E+00
  2.60000000E+02  2.00000000E+01  0.00000000E+00
  2.60000000E+02  1.80000000E+01  0.00000000E+00
  2.60000000E+02  1.60000000E+01  0.00000000E+00
  2.60000000E+02  1.40000000E+01  0.00000000E+00
  2.60000000E+02  1.20000000E+01  0.00000000E+00
  2.60000000E+02  1.00000000E+01  0.00000000E+00
  2.60000000E+02  8.00000000E+00  0.00000000E+00
  2.60000000E+02  6.00000000E+00  0.00000000E+00
  2.60000000E+02  4.00000000E+00  0.00000000E+00
  2.60000000E+02  2.00000000E+00  0.00000000E+00
  2.60000000E+02 -3.33066907E-14  0.00000000E+00
  2.70000000E+02  1.00000000E+02  0.00000000E+00
  2.70000000E+02  9.80000000E+01  0.00000000E+00
  2.70000000E+02  9.60000000E+01  0.00000000E+00
  2.70000000E+02  9.40000000E+01  0.00000000E+00
  2.70000000E+02  9.20000000E+01  0.00000000E+00
  2.70000000E+02  9.00000000E+01  0.00000000E+00
  2.70000000E+02  8.80000000E+01  0.00000000E+00
  2.70000000E+02  8.60000000E+01  0.00000000E+00
  2.70000000E+02  8.40000000E+01  0.00000000E+00
  2.70000000E+02  8.20000000E+01  0.00000000E+00
  2.70000000E+02  8.00000000E+01  0.00000000E+00
  2.70000000E+02  7.80000000E+01  0.00000000E+00
  2.70000000E+02  7.60000000E+01  0.00000000E+00
  2.70000000E+02  7.40000000E+01  0.00000000E+00
  2.70000000E+02  7.20000000E+01  0.00000000E+00
  2.70000000E+02  7.00000000E+01  0.00000000E+00
  2.70000000E+02  6.80000000E+01  0.00000000E+00
  2.70000000E+02  6.60000000E+01  0.00000000E+00
  2.70000000E+02  6.40000000E+01  0.00000000E+00
  2.70000000E+02  6.20000000E+01  0.00000000E+00
  2.70000000E+02  6.00000000E+01  0.00000000E+00
  2.70000000E+02  5.80000000E+01  0.00000000E+00
  2.70000000E+02  5.60000000E+01  0.00000000E+00
  2.70000000E+02  5.40000000E+01  0.00000000E+00
  2.70000000E+02  5.20000000E+01  0.00000000E+00
  2.70000000E+02  5.00000000E+01  0.00000000E+00
  2.70000000E+02  4.80000000E+01  0.00000000E+00
  2.70000000E+02  4.60000000E+01  0.00000000E+00
  2.70000000E+02  4.40000000E+01  0.00000000E+00
  2.70000000E+02  4.20000000E+01  0.00000000E+00
  2.70000000E+02  4.00000000E+01  0.00000000E+00
  2.70000000E+02  3.80000000E+01  0.00000000E+00
  2.70000000E+02  3.60000000E+01  0.00000000E+00
  2.70000000E+02  3.40000000E+01  0.00000000E+00
  2.70000000E+02  3.20000000E+01  0.00000000E+00
  2.70000000E+02  3.00000000E+01  0.00000000E+00
  2.70000000E+02  2.80000000E+01  0.00000000E+00
  2.70000000E+02  2.60000000E+01  0.00000000E+00
  2.70000000E+02  2.40000000E+01  0.00000000E+00
  2.70000000E+02  2.20000000E+01  0.00000000E+00
  2.70000000E+02  2.00000000E+01  0.00000000E+00
  2.70000000E+02  1.80000000E+01  0.00000000E+00
  2.70000000E+02  1.60000000E+01  0.00000000E+00
  2.70000000E+02  1.40000000E+01  0.00000000E+00
  2.70000000E+02  1.20000000E+01  0.00000000E+00
  2.70000000E+02  1.00000000E+01  0.00000000E+00
  2.70000000E+02  8.00000000E+00  0.00000000E+00
  2.70000000E+02  6.00000000E+00  0.00000000E+00
  2.70000000E+02  4.00000000E+00  0.00000000E+00
  2.70000000E+02  2.00000000E+00  0.00000000E+00
  2.70000000E+02 -3.33066907E-14  0.00000000E+00
  2.80000000E+02  1.00000000E+02  0.00000000E+00
  2.80000000E+02  9.80000000E+01  0.00000000E+00
  2.80000000E+02  9.60000000E+01  0.00000000E+00
  2.80000000E+02  9.40000000E+01  0.00000000E+00
  2.80000000E+02  9.20000000E+01  0.00000000E+00
  2.80000000E+02  9.00000000E+01  0.00000000E+00
  2.80000000E+02  8.80000000E+01  0.00000000E+00
  2.80000000E+02  8.60000000E+01  0.00000000E+00
  2.80000000E+02  8.40000000E+01  0.00000000E+00
  2.80000000E+02  8.20000000E+01  0.00000000E+00
  2.80000000E+02  8.00000000E+01  0.00000000E+00
  2.80000000E+02  7.80000000E+01  0.00000000E+00
  2.80000000E+02  7.60000000E+01  0.00000000E+00
  2.80000000E+02  7.40000000E+01  0.00000000E+00
  2.80000000E+02  7.20000000E+01  0.00000000E+00
  2.80000000E+02  7.00000000E+01  0.00000000E+00
  2.80000000E+02  6.80000000E+01  0.00000000E+00
  2.80000000E+02  6.60000000E+01  0.00000000E+00
  2.80000000E+02  6.40000000E+01  0.00000000E+00
  2.80000000E+02  6.20000000E+01  0.00000000E+00
  2.80000000E+02  6.00000000E+01  0.00000000E+00
  2.80000000E+02  5.80000000E+01  0.00000000E+00
  2.80000000E+02  5.60000000E+01  0.00000000E+00
  2.80000000E+02  5.40000000E+01  0.00000000E+00
  2.80000000E+02  5.20000000E+01  0.00000000E+00
  2.80000000E+02  5.00000000E+01  0.00000000E+00
  2.80000000E+02  4.80000000E+01  0.00000000E+00
  2.80000000E+02  4.60000000E+01  0.00000000E+00
  2.80000000E+02  4.40000000E+01  0.00000000E+00
  2.80000000E+02  4.20000000E+01  0.00000000E+00
  2.80000000E+02  4.00000000E+01  0.00000000E+00
  2.80000000E+02  3.80000000E+01  0.00000000E+00
  2.80000000E+02  3.60000000E+01  0.00000000E+00
  2.80000000E+02  3.40000000E+01  0.00000000E+00
  2.80000000E+02  3.20000000E+01  0.00000000E+00
  2.80000000E+02  3.00000000E+01  0.00000000E+00
  2.80000000E+02  2.80000000E+01  0.00000000E+00
  2.80000000E+02  2.60000000E+01  0.00000000E+00
  2.80000000E+02  2.40000000E+01  0.00000000E+00
  2.80000000E+02  2.20000000E+01  0.00000000E+00
  2.80000000E+02  2.00000000E+01  0.00000000E+00
  2.80000000E+02  1.80000000E+01  0.00000000E+00
  2.80000000E+02  1.60000000E+01  0.00000000E+00
  2.80000000E+02  1.40000000E+01  0.00000000E+00
  2.80000000E+02  1.20000000E+01  0.00000000E+00
  2.80000000E+02  1.00000000E+01  0.00000000E+00
  2.80000000E+02  8.00000000E+00  0.00000000E+00
  2.80000000E+02  6.00000000E+00  0.00000000E+00
  2.80000000E+02  4.00000000E+00  0.00000000E+00
  2.80000000E+02  2.00000000E+00  0.00000000E+00
  2.80000000E+02 -3.33066907E-14  0.00000000E+00
  2.90000000E+02  1.00000000E+02  0.00000000E+00
  2.90000000E+02  9.80000000E+01  0.00000000E+00
  2.90000000E+02  9.60000000E+01  0.00000000E+00
  2.90000000E+02  9.40000000E+01  0.00000000E+00
  2.90000000E+02  9.20000000E+01  0.00000000E+00
  2.90000000E+02  9.00000000E+01  0.00000000E+00
  2.90000000E+02  8.80000000E+01  0.00000000E+00
  2.90000000E+02  8.60000000E+01  0.00000000E+00
  2.90000000E+02  8.40000000E+01  0.00000000E+00
  2.90000000E+02  8.20000000E+01  0.00000000E+00
  2.90000000E+02  8.00000000E+01  0.00000000E+00
  2.90000000E+02  7.80000000E+01  0.00000000E+00
  2.90000000E+02  7.60000000E+01  0.00000000E+00
  2.90000000E+02  7.40000000E+01  0.00000000E+00
  2.90000000E+02  7.20000000E+01  0.00000000E+00
  2.90000000E+02  7.00000000E+01  0.00000000E+00
  2.90000000E+02  6.80000000E+01  0.00000000E+00
  2.90000000E+02  6.60000000E+01  0.00000000E+00
  2.90000000E+02  6.40000000E+01  0.00000000E+00
  2.90000000E+02  6.20000000E+01  0.00000000E+00
  2.90000000E+02  6.00000000E+01  0.00000000E+00
  2.90000000E+02  5.80000000E+01  0.00000000E+00
  2.90000000E+02  5.60000000E+01  0.00000000E+00
  2.90000000E+02  5.40000000E+01  0.00000000E+00
  2.90000000E+02  5.20000000E+01  0.00000000E+00
  2.90000000E+02  5.00000000E+01  0.00000000E+00
  2.90000000E+02  4.80000000E+01  0.00000000E+00
  2.90000000E+02  4.60000000E+01  0.00000000E+00
  2.90000000E+02  4.40000000E+01  0.00000000E+00
  2.90000000E+02  4.20000000E+01  0.00000000E+00
  2.90000000E+02  4.00000000E+01  0.00000000E+00
  2.90000000E+02  3.80000000E+01  0.00000000E+00
  2.90000000E+02  3.60000000E+01  0.00000000E+00
  2.90000000E+02  3.40000000E+01  0.00000000E+00
  2.90000000E+02  3.20000000E+01  0.00000000E+00
  2.90000000E+02  3.00000000E+01  0.00000000E+00
  2.90000000E+02  2.80000000E+01  0.00000000E+00
  2.90000000E+02  2.60000000E+01  0.00000000E+00
  2.90000000E+02  2.40000000E+01  0.00000000E+00
  2.90000000E+02  2.20000000E+01  0.00000000E+00
  2.90000000E+02  2.00000000E+01  0.00000000E+00
  2.90000000E+02  1.80000000E+01  0.00000000E+00
  2.90000000E+02  1.60000000E+01  0.00000000E+00
  2.90000000E+02  1.40000000E+01  0.00000000E+00
  2.90000000E+02  1.20000000E+01  0.00000000E+00
  2.90000000E+02  1.00000000E+01  0.00000000E+00
  2.90000000E+02  8.00000000E+00  0.00000000E+00
  2.90000000E+02  6.00000000E+00  0.00000000E+00
  2.90000000E+02  4.00000000E+00  0.00000000E+00
  2.90000000E+02  2.00000000E+00  0.00000000E+00
  2.90000000E+02 -3.33066907E-14  0.00000000E+00
  3.00000000E+02  1.00000000E+02  0.00000000E+00
  3.00000000E+02  9.80000000E+01  0.00000000E+00
  3.00000000E+02  9.60000000E+01  0.00000000E+00
  3.00000000E+02  9.40000000E+01  0.00000000E+00
  3.00000000E+02  9.20000000E+01  0.00000000E+00
  3.00000000E+02  9.00000000E+01  0.00000000E+00
  3.00000000E+02  8.80000000E+01  0.00000000E+00
  3.00000000E+02  8.60000000E+01  0.00000000E+00
  3.00000000E+02  8.40000000E+01  0.00000000E+00
  3.00000000E+02  8.20000000E+01  0.00000000E+00
  3.00000000E+02  8.00000000E+01  0.00000000E+00
  3.00000000E+02  7.80000000E+01  0.00000000E+00
  3.00000000E+02  7.60000000E+01  0.00000000E+00
  3.00000000E+02  7.40000000E+01  0.00000000E+00
  3.00000000E+02  7.20000000E+01  0.00000000E+00
  3.00000000E+02  7.00000000E+01  0.00000000E+00
  3.00000000E+02  6.80000000E+01  0.00000000E+00
  3.00000000E+02  6.60000000E+01  0.00000000E+00
  3.00000000E+02  6.40000000E+01  0.00000000E+00
  3.00000000E+02  6.20000000E+01  0.00000000E+00
  3.00000000E+02  6.00000000E+01  0.00000000E+00
  3.00000000E+02  5.80000000E+01  0.00000000E+00
  3.00000000E+02  5.60000000E+01  0.00000000E+00
  3.00000000E+02  5.40000000E+01  0.00000000E+00
  3.00000000E+02  5.20000000E+01  0.00000000E+00
  3.00000000E+02  5.00000000E+01  0.00000000E+00
  3.00000000E+02  4.80000000E+01  0.00000000E+00
  3.00000000E+02  4.60000000E+01  0.00000000E+00
  3.00000000E+02  4.40000000E+01  0.00000000E+00
  3.00000000E+02  4.20000000E+01  0.00000000E+00
  3.00000000E+02  4.00000000E+01  0.00000000E+00
  3.00000000E+02  3.80000000E+01  0.00000000E+00
  3.00000000E+02  3.60000000E+01  0.00000000E+00
  3.00000000E+02  3.40000000E+01  0.00000000E+00
  3.00000000E+02  3.20000000E+01  0.00000000E+00
  3.00000000E+02  3.00000000E+01  0.00000000E+00
  3.00000000E+02  2.80000000E+01  0.00000000E+00
  3.00000000E+02  2.60000000E+01  0.00000000E+00
  3.00000000E+02  2.40000000E+01  0.00000000E+00
  3.00000000E+02  2.20000000E+01  0.00000000E+00
  3.00000000E+02  2.00000000E+01  0.00000000E+00
  3.00000000E+02  1.80000000E+01  0.00000000E+00
  3.00000000E+02  1.60000000E+01  0.00000000E+00
  3.00000000E+02  1.40000000E+01  0.00000000E+00
  3.00000000E+02  1.20000000E+01  0.00000000E+00
  3.00000000E+02  1.00000000E+01  0.00000000E+00
  3.00000000E+02  8.00000000E+00  0.00000000E+00
  3.00000000E+02  6.00000000E+00  0.00000000E+00
  3.00000000E+02  4.00000000E+00  0.00000000E+00
  3.00000000E+02  2.00000000E+00  0.00000000E+00
  3.00000000E+02 -3.33066907E-14  0.00000000E+00
  3.10000000E+02  1.00000000E+02  0.00000000E+00
  3.10000000E+02  9.80000000E+01  0.00000000E+00
  3.10000000E+02  9.60000000E+01  0.00000000E+00
  3.10000000E+02  9.40000000E+01  0.00000000E+00
  3.10000000E+02  9.20000000E+01  0.00000000E+00
  3.10000000E+02  9.00000000E+01  0.00000000E+00
  3.10000000E+02  8.80000000E+01  0.00000000E+00
  3.10000000E+02  8.60000000E+01  0.00000000E+00
  3.10000000E+02  8.40000000E+01  0.00000000E+00
  3.10000000E+02  8.20000000E+01  0.00000000E+00
  3.10000000E+02  8.00000000E+01  0.00000000E+00
  3.10000000E+02  7.80000000E+01  0.00000000E+00
  3.10000000E+02  7.60000000E+01  0.00000000E+00
  3.10000000E+02  7.40000000E+01  0.00000000E+00
  3.10000000E+02  7.20000000E+01  0.00000000E+00
  3.10000000E+02  7.00000000E+01  0.00000000E+00
  3.10000000E+02  6.80000000E+01  0.00000000E+00
  3.10000000E+02  6.60000000E+01  0.00000000E+00
  3.10000000E+02  6.40000000E+01  0.00000000E+00
  3.10000000E+02  6.20000000E+01  0.00000000E+00
  3.10000000E+02  6.00000000E+01  0.00000000E+00
  3.10000000E+02  5.80000000E+01  0.00000000E+00
  3.10000000E+02  5.60000000E+01  0.00000000E+00
  3.10000000E+02  5.40000000E+01  0.00000000E+00
  3.10000000E+02  5.20000000E+01  0.00000000E+00
  3.10000000E+02  5.00000000E+01  0.00000000E+00
  3.10000000E+02  4.80000000E+01  0.00000000E+00
  3.10000000E+02  4.60000000E+01  0.00000000E+00
  3.10000000E+02  4.40000000E+01  0.00000000E+00
  3.10000000E+02  4.20000000E+01  0.00000000E+00
  3.10000000E+02  4.00000000E+01  0.00000000E+00
  3.10000000E+02  3.80000000E+01  0.00000000E+00
  3.10000000E+02  3.60000000E+01  0.00000000E+00
  3.10000000E+02  3.40000000E+01  0.00000000E+00
  3.10000000E+02  3.20000000E+01  0.00000000E+00
  3.10000000E+02  3.00000000E+01  0.00000000E+00
  3.10000000E+02  2.80000000E+01  0.00000000E+00
  3.10000000E+02  2.60000000E+01  0.00000000E+00
  3.10000000E+02  2.40000000E+01  0.00000000E+00
  3.10000000E+02  2.20000000E+01  0.00000000E+00
  3.10000000E+02  2.00000000E+01  0.00000000E+00
  3.10000000E+02  1.80000000E+01  0.00000000E+00
  3.10000000E+02  1.60000000E+01  0.00000000E+00
  3.10000000E+02  1.40000000E+01  0.00000000E+00
  3.10000000E+02  1.20000000E+01  0.00000000E+00
  3.10000000E+02  1.00000000E+01  0.00000000E+00
  3.10000000E+02  8.00000000E+00  0.00000000E+00
  3.10000000E+02  6.00000000E+00  0.00000000E+00
  3.10000000E+02  4.00000000E+00  0.00000000E+00
  3.10000000E+02  2.00000000E+00  0.00000000E+00
  3.10000000E+02 -3.33066907E-14  0.00000000E+00
  3.20000000E+02  1.00000000E+02  0.00000000E+00
  3.20000000E+02  9.80000000E+01  0.00000000E+00
  3.20000000E+02  9.60000000E+01  0.00000000E+00
  3.20000000E+02  9.40000000E+01  0.00000000E+00
  3.20000000E+02  9.20000000E+01  0.00000000E+00
  3.20000000E+02  9.00000000E+01  0.00000000E+00
  3.20000000E+02  8.80000000E+01  0.00000000E+00
  3.20000000E+02  8.60000000E+01  0.00000000E+00
  3.20000000E+02  8.40000000E+01  0.00000000E+00
  3.20000000E+02  8.20000000E+01  0.00000000E+00
  3.20000000E+02  8.00000000E+01  0.00000000E+00
  3.20000000E+02  7.80000000E+01  0.00000000E+00
  3.20000000E+02  7.60000000E+01  0.00000000E+00
  3.20000000E+02  7.40000000E+01  0.00000000E+00
  3.20000000E+02  7.20000000E+01  0.00000000E+00
  3.20000000E+02  7.00000000E+01  0.00000000E+00
  3.20000000E+02  6.80000000E+01  0.00000000E+00
  3.20000000E+02  6.60000000E+01  0.00000000E+00
  3.20000000E+02  6.40000000E+01  0.00000000E+00
  3.20000000E+02  6.20000000E+01  0.00000000E+00
  3.20000000E+02  6.00000000E+01  0.00000000E+00
  3.20000000E+02  5.80000000E+01  0.00000000E+00
  3.20000000E+02  5.60000000E+01  0.00000000E+00
  3.20000000E+02  5.40000000E+01  0.00000000E+00
  3.20000000E+02  5.20000000E+01  0.00000000E+00
  3.20000000E+02  5.00000000E+01  0.00000000E+00
  3.20000000E+02  4.80000000E+01  0.00000000E+00
  3.20000000E+02  4.60000000E+01  0.00000000E+00
  3.20000000E+02  4.40000000E+01  0.00000000E+00
  3.20000000E+02  4.20000000E+01  0.00000000E+00
  3.20000000E+02  4.00000000E+01  0.00000000E+00
  3.20000000E+02  3.80000000E+01  0.00000000E+00
  3.20000000E+02  3.60000000E+01  0.00000000E+00
  3.20000000E+02  3.40000000E+01  0.00000000E+00
  3.20000000E+02  3.20000000E+01  0.00000000E+00
  3.20000000E+02  3.00000000E+01  0.00000000E+00
  3.20000000E+02  2.80000000E+01  0.00000000E+00
  3.20000000E+02  2.60000000E+01  0.00000000E+00
  3.20000000E+02  2.40000000E+01  0.00000000E+00
  3.20000000E+02  2.20000000E+01  0.00000000E+00
  3.20000000E+02  2.00000000E+01  0.00000000E+00
  3.20000000E+02  1.80000000E+01  0.00000000E+00
  3.20000000E+02  1.60000000E+01  0.00000000E+00
  3.20000000E+02  1.40000000E+01  0.00000000E+00
  3.20000000E+02  1.20000000E+01  0.00000000E+00
  3.20000000E+02  1.00000000E+01  0.00000000E+00
  3.20000000E+02  8.00000000E+00  0.00000000E+00
  3.20000000E+02  6.00000000E+00  0.00000000E+00
  3.20000000E+02  4.00000000E+00  0.00000000E+00
  3.20000000E+02  2.00000000E+00  0.00000000E+00
  3.20000000E+02 -3.33066907E-14  0.00000000E+00
  3.30000000E+02  1.00000000E+02  0.00000000E+00
  3.30000000E+02  9.80000000E+01  0.00000000E+00
  3.30000000E+02  9.60000000E+01  0.00000000E+00
  3.30000000E+02  9.40000000E+01  0.00000000E+00
  3.30000000E+02  9.20000000E+01  0.00000000E+00
  3.30000000E+02  9.00000000E+01  0.00000000E+00
  3.30000000E+02  8.80000000E+01  0.00000000E+00
  3.30000000E+02  8.60000000E+01  0.00000000E+00
  3.30000000E+02  8.40000000E+01  0.00000000E+00
  3.30000000E+02  8.20000000E+01  0.00000000E+00
  3.30000000E+02  8.00000000E+01  0.00000000E+00
  3.30000000E+02  7.80000000E+01  0.00000000E+00
  3.30000000E+02  7.60000000E+01  0.00000000E+00
  3.30000000E+02  7.40000000E+01  0.00000000E+00
  3.30000000E+02  7.20000000E+01  0.00000000E+00
  3.30000000E+02  7.00000000E+01  0.00000000E+00
  3.30000000E+02  6.80000000E+01  0.00000000E+00
  3.30000000E+02  6.60000000E+01  0.00000000E+00
  3.30000000E+02  6.40000000E+01  0.00000000E+00
  3.30000000E+02  6.20000000E+01  0.00000000E+00
  3.30000000E+02  6.00000000E+01  0.00000000E+00
  3.30000000E+02  5.80000000E+01  0.00000000E+00
  3.30000000E+02  5.60000000E+01  0.00000000E+00
  3.30000000E+02  5.40000000E+01  0.00000000E+00
  3.30000000E+02  5.20000000E+01  0.00000000E+00
  3.30000000E+02  5.00000000E+01  0.00000000E+00
  3.30000000E+02  4.80000000E+01  0.00000000E+00
  3.30000000E+02  4.60000000E+01  0.00000000E+00
  3.30000000E+02  4.40000000E+01  0.00000000E+00
  3.30000000E+02  4.20000000E+01  0.00000000E+00
  3.30000000E+02  4.00000000E+01  0.00000000E+00
  3.30000000E+02  3.80000000E+01  0.00000000E+00
  3.30000000E+02  3.60000000E+01  0.00000000E+00
  3.30000000E+02  3.40000000E+01  0.00000000E+00
  3.30000000E+02  3.20000000E+01  0.00000000E+00
  3.30000000E+02  3.00000000E+01  0.00000000E+00
  3.30000000E+02  2.80000000E+01  0.00000000E+00
  3.30000000E+02  2.60000000E+01  0.00000000E+00
  3.30000000E+02  2.40000000E+01  0.00000000E+00
  3.30000000E+02  2.20000000E+01  0.00000000E+00
  3.30000000E+02  2.00000000E+01  0.00000000E+00
  3.30000000E+02  1.80000000E+01  0.00000000E+00
  3.30000000E+02  1.60000000E+01  0.00000000E+00
  3.30000000E+02  1.40000000E+01  0.00000000E+00
  3.30000000E+02  1.20000000E+01  0.00000000E+00
  3.30000000E+02  1.00000000E+01  0.00000000E+00
  3.30000000E+02  8.00000000E+00  0.00000000E+00
  3.30000000E+02  6.00000000E+00  0.00000000E+00
  3.30000000E+02  4.00000000E+00  0.00000000E+00
  3.30000000E+02  2.00000000E+00  0.00000000E+00
  3.30000000E+02 -3.33066907E-14  0.00000000E+00
  3.40000000E+02  1.00000000E+02  0.00000000E+00
  3.40000000E+02  9.80000000E+01  0.00000000E+00
  3.40000000E+02  9.60000000E+01  0.00000000E+00
  3.40000000E+02  9.40000000E+01  0.00000000E+00
  3.40000000E+02  9.20000000E+01  0.00000000E+00
  3.40000000E+02  9.00000000E+01  0.00000000E+00
  3.40000000E+02  8.80000000E+01  0.00000000E+00
  3.40000000E+02  8.60000000E+01  0.00000000E+00
  3.40000000E+02  8.40000000E+01  0.00000000E+00
  3.40000000E+02  8.20000000E+01  0.00000000E+00
  3.40000000E+02  8.00000000E+01  0.00000000E+00
  3.40000000E+02  7.80000000E+01  0.00000000E+00
  3.40000000E+02  7.60000000E+01  0.00000000E+00
  3.40000000E+02  7.40000000E+01  0.00000000E+00
  3.40000000E+02  7.20000000E+01  0.00000000E+00
  3.40000000E+02  7.00000000E+01  0.00000000E+00
  3.40000000E+02  6.80000000E+01  0.00000000E+00
  3.40000000E+02  6.60000000E+01  0.00000000E+00
  3.40000000E+02  6.40000000E+01  0.00000000E+00
  3.40000000E+02  6.20000000E+01  0.00000000E+00
  3.40000000E+02  6.00000000E+01  0.00000000E+00
  3.40000000E+02  5.80000000E+01  0.00000000E+00
  3.40000000E+02  5.60000000E+01  0.00000000E+00
  3.40000000E+02  5.40000000E+01  0.00000000E+00
  3.40000000E+02  5.20000000E+01  0.00000000E+00
  3.40000000E+02  5.00000000E+01  0.00000000E+00
  3.40000000E+02  4.80000000E+01  0.00000000E+00
  3.40000000E+02  4.60000000E+01  0.00000000E+00
  3.40000000E+02  4.40000000E+01  0.00000000E+00
  3.40000000E+02  4.20000000E+01  0.00000000E+00
  3.40000000E+02  4.00000000E+01  0.00000000E+00
  3.40000000E+02  3.80000000E+01  0.00000000E+00
  3.40000000E+02  3.60000000E+01  0.00000000E+00
  3.40000000E+02  3.40000000E+01  0.00000000E+00
  3.40000000E+02  3.20000000E+01  0.00000000E+00
  3.40000000E+02  3.00000000E+01  0.00000000E+00
  3.40000000E+02  2.80000000E+01  0.00000000E+00
  3.40000000E+02  2.60000000E+01  0.00000000E+00
  3.40000000E+02  2.40000000E+01  0.00000000E+00
  3.40000000E+02  2.20000000E+01  0.00000000E+00
  3.40000000E+02  2.00000000E+01  0.00000000E+00
  3.40000000E+02  1.80000000E+01  0.00000000E+00
  3.40000000E+02  1.60000000E+01  0.00000000E+00
  3.40000000E+02  1.40000000E+01  0.00000000E+00
  3.40000000E+02  1.20000000E+01  0.00000000E+00
  3.40000000E+02  1.00000000E+01  0.00000000E+00
  3.40000000E+02  8.00000000E+00  0.00000000E+00
  3.40000000E+02  6.00000000E+00  0.00000000E+00
  3.40000000E+02  4.00000000E+00  0.00000000E+00
  3.40000000E+02  2.00000000E+00  0.00000000E+00
  3.40000000E+02 -3.33066907E-14  0.00000000E+00
  3.50000000E+02  1.00000000E+02  0.00000000E+00
  3.50000000E+02  9.80000000E+01  0.00000000E+00
  3.50000000E+02  9.60000000E+01  0.00000000E+00
  3.50000000E+02  9.40000000E+01  0.00000000E+00
  3.50000000E+02  9.20000000E+01  0.00000000E+00
  3.50000000E+02  9.00000000E+01  0.00000000E+00
  3.50000000E+02  8.80000000E+01  0.00000000E+00
  3.50000000E+02  8.60000000E+01  0.00000000E+00
  3.50000000E+02  8.40000000E+01  0.00000000E+00
  3.50000000E+02  8.20000000E+01  0.00000000E+00
  3.50000000E+02  8.00000000E+01  0.00000000E+00
  3.50000000E+02  7.80000000E+01  0.00000000E+00
  3.50000000E+02  7.60000000E+01  0.00000000E+00
  3.50000000E+02  7.40000000E+01  0.00000000E+00
  3.50000000E+02  7.20000000E+01  0.00000000E+00
  3.50000000E+02  7.00000000E+01  0.00000000E+00
  3.50000000E+02  6.80000000E+01  0.00000000E+00
  3.50000000E+02  6.60000000E+01  0.00000000E+00
  3.50000000E+02  6.40000000E+01  0.00000000E+00
  3.50000000E+02  6.20000000E+01  0.00000000E+00
  3.50000000E+02  6.00000000E+01  0.00000000E+00
  3.50000000E+02  5.80000000E+01  0.00000000E+00
  3.50000000E+02  5.60000000E+01  0.00000000E+00
  3.50000000E+02  5.40000000E+01  0.00000000E+00
  3.50000000E+02  5.20000000E+01  0.00000000E+00
  3.50000000E+02  5.00000000E+01  0.00000000E+00
  3.50000000E+02  4.80000000E+01  0.00000000E+00
  3.50000000E+02  4.60000000E+01  0.00000000E+00
  3.50000000E+02  4.40000000E+01  0.00000000E+00
  3.50000000E+02  4.20000000E+01  0.00000000E+00
  3.50000000E+02  4.00000000E+01  0.00000000E+00
  3.50000000E+02  3.80000000E+01  0.00000000E+00
  3.50000000E+02  3.60000000E+01  0.00000000E+00
  3.50000000E+02  3.40000000E+01  0.00000000E+00
  3.50000000E+02  3.20000000E+01  0.00000000E+00
  3.50000000E+02  3.00000000E+01  0.00000000E+00
  3.50000000E+02  2.80000000E+01  0.00000000E+00
  3.50000000E+02  2.60000000E+01  0.00000000E+00
  3.50000000E+02  2.40000000E+01  0.00000000E+00
  3.50000000E+02  2.20000000E+01  0.00000000E+00
  3.50000000E+02  2.00000000E+01  0.00000000E+00
  3.50000000E+02  1.80000000E+01  0.00000000E+00
  3.50000000E+02  1.60000000E+01  0.00000000E+00
  3.50000000E+02  1.40000000E+01  0.00000000E+00
  3.50000000E+02  1.20000000E+01  0.00000000E+00
  3.50000000E+02  1.00000000E+01  0.00000000E+00
  3.50000000E+02  8.00000000E+00  0.00000000E+00
  3.50000000E+02  6.00000000E+00  0.00000000E+00
  3.50000000E+02  4.00000000E+00  0.00000000E+00
  3.50000000E+02  2.00000000E+00  0.00000000E+00
  3.50000000E+02 -3.33066907E-14  0.00000000E+00
  3.60000000E+02  1.00000000E+02  0.00000000E+00
  3.60000000E+02  9.80000000E+01  0.00000000E+00
  3.60000000E+02  9.60000000E+01  0.00000000E+00
  3.60000000E+02  9.40000000E+01  0.00000000E+00
  3.60000000E+02  9.20000000E+01  0.00000000E+00
  3.60000000E+02  9.00000000E+01  0.00000000E+00
  3.60000000E+02  8.80000000E+01  0.00000000E+00
  3.60000000E+02  8.60000000E+01  0.00000000E+00
  3.60000000E+02  8.40000000E+01  0.00000000E+00
  3.60000000E+02  8.20000000E+01  0.00000000E+00
  3.60000000E+02  8.00000000E+01  0.00000000E+00
  3.60000000E+02  7.80000000E+01  0.00000000E+00
  3.60000000E+02  7.60000000E+01  0.00000000E+00
  3.60000000E+02  7.40000000E+01  0.00000000E+00
  3.60000000E+02  7.20000000E+01  0.00000000E+00
  3.60000000E+02  7.00000000E+01  0.00000000E+00
  3.60000000E+02  6.80000000E+01  0.00000000E+00
  3.60000000E+02  6.60000000E+01  0.00000000E+00
  3.60000000E+02  6.40000000E+01  0.00000000E+00
  3.60000000E+02  6.20000000E+01  0.00000000E+00
  3.60000000E+02  6.00000000E+01  0.00000000E+00
  3.60000000E+02  5.80000000E+01  0.00000000E+00
  3.60000000E+02  5.60000000E+01  0.00000000E+00
  3.60000000E+02  5.40000000E+01  0.00000000E+00
  3.60000000E+02  5.20000000E+01  0.00000000E+00
  3.60000000E+02  5.00000000E+01  0.00000000E+00
  3.60000000E+02  4.80000000E+01  0.00000000E+00
  3.60000000E+02  4.60000000E+01  0.00000000E+00
  3.60000000E+02  4.40000000E+01  0.00000000E+00
  3.60000000E+02  4.20000000E+01  0.00000000E+00
  3.60000000E+02  4.00000000E+01  0.00000000E+00
  3.60000000E+02  3.80000000E+01  0.00000000E+00
  3.60000000E+02  3.60000000E+01  0.00000000E+00
  3.60000000E+02  3.40000000E+01  0.00000000E+00
  3.60000000E+02  3.20000000E+01  0.00000000E+00
  3.60000000E+02  3.00000000E+01  0.00000000E+00
  3.60000000E+02  2.80000000E+01  0.00000000E+00
  3.60000000E+02  2.60000000E+01  0.00000000E+00
  3.60000000E+02  2.40000000E+01  0.00000000E+00
  3.60000000E+02  2.20000000E+01  0.00000000E+00
  3.60000000E+02  2.00000000E+01  0.00000000E+00
  3.60000000E+02  1.80000000E+01  0.00000000E+00
  3.60000000E+02  1.60000000E+01  0.00000000E+00
  3.60000000E+02  1.40000000E+01  0.00000000E+00
  3.60000000E+02  1.20000000E+01  0.00000000E+00
  3.60000000E+02  1.00000000E+01  0.00000000E+00
  3.60000000E+02  8.00000000E+00  0.00000000E+00
  3.60000000E+02  6.00000000E+00  0.00000000E+00
  3.60000000E+02  4.00000000E+00  0.00000000E+00
  3.60000000E+02  2.00000000E+00  0.00000000E+00
  3.60000000E+02 -3.33066907E-14  0.00000000E+00
  3.70000000E+02  1.00000000E+02  0.00000000E+00
  3.70000000E+02  9.80000000E+01  0.00000000E+00
  3.70000000E+02  9.60000000E+01  0.00000000E+00
  3.70000000E+02  9.40000000E+01  0.00000000E+00
  3.70000000E+02  9.20000000E+01  0.00000000E+00
  3.70000000E+02  9.00000000E+01  0.00000000E+00
  3.70000000E+02  8.80000000E+01  0.00000000E+00
  3.70000000E+02  8.60000000E+01  0.00000000E+00
  3.70000000E+02  8.40000000E+01  0.00000000E+00
  3.70000000E+02  8.20000000E+01  0.00000000E+00
  3.70000000E+02  8.00000000E+01  0.00000000E+00
  3.70000000E+02  7.80000000E+01  0.00000000E+00
  3.70000000E+02  7.60000000E+01  0.00000000E+00
  3.70000000E+02  7.40000000E+01  0.00000000E+00
  3.70000000E+02  7.20000000E+01  0.00000000E+00
  3.70000000E+02  7.00000000E+01  0.00000000E+00
  3.70000000E+02  6.80000000E+01  0.00000000E+00
  3.70000000E+02  6.60000000E+01  0.00000000E+00
  3.70000000E+02  6.40000000E+01  0.00000000E+00
  3.70000000E+02  6.20000000E+01  0.00000000E+00
  3.70000000E+02  6.00000000E+01  0.00000000E+00
  3.70000000E+02  5.80000000E+01  0.00000000E+00
  3.70000000E+02  5.60000000E+01  0.00000000E+00
  3.70000000E+02  5.40000000E+01  0.00000000E+00
  3.70000000E+02  5.20000000E+01  0.00000000E+00
  3.70000000E+02  5.00000000E+01  0.00000000E+00
  3.70000000E+02  4.80000000E+01  0.00000000E+00
  3.70000000E+02  4.60000000E+01  0.00000000E+00
  3.70000000E+02  4.40000000E+01  0.00000000E+00
  3.70000000E+02  4.20000000E+01  0.00000000E+00
  3.70000000E+02  4.00000000E+01  0.00000000E+00
  3.70000000E+02  3.80000000E+01  0.00000000E+00
  3.70000000E+02  3.60000000E+01  0.00000000E+00
  3.70000000E+02  3.40000000E+01  0.00000000E+00
  3.70000000E+02  3.20000000E+01  0.00000000E+00
  3.70000000E+02  3.00000000E+01  0.00000000E+00
  3.70000000E+02  2.80000000E+01  0.00000000E+00
  3.70000000E+02  2.60000000E+01  0.00000000E+00
  3.70000000E+02  2.40000000E+01  0.00000000E+00
  3.70000000E+02  2.20000000E+01  0.00000000E+00
  3.70000000E+02  2.00000000E+01  0.00000000E+00
  3.70000000E+02  1.80000000E+01  0.00000000E+00
  3.70000000E+02  1.60000000E+01  0.00000000E+00
  3.70000000E+02  1.40000000E+01  0.00000000E+00
  3.70000000E+02  1.20000000E+01  0.00000000E+00
  3.70000000E+02  1.00000000E+01  0.00000000E+00
  3.70000000E+02  8.00000000E+00  0.00000000E+00
  3.70000000E+02  6.00000000E+00  0.00000000E+00
  3.70000000E+02  4.00000000E+00  0.00000000E+00
  3.70000000E+02  2.00000000E+00  0.00000000E+00
  3.70000000E+02 -3.33066907E-14  0.00000000E+00
  3.80000000E+02  1.00000000E+02  0.00000000E+00
  3.80000000E+02  9.80000000E+01  0.00000000E+00
  3.80000000E+02  9.60000000E+01  0.00000000E+00
  3.80000000E+02  9.40000000E+01  0.00000000E+00
  3.80000000E+02  9.20000000E+01  0.00000000E+00
  3.80000000E+02  9.00000000E+01  0.00000000E+00
  3.80000000E+02  8.80000000E+01  0.00000000E+00
  3.80000000E+02  8.60000000E+01  0.00000000E+00
  3.80000000E+02  8.40000000E+01  0.00000000E+00
  3.80000000E+02  8.20000000E+01  0.00000000E+00
  3.80000000E+02  8.00000000E+01  0.00000000E+00
  3.80000000E+02  7.80000000E+01  0.00000000E+00
  3.80000000E+02  7.60000000E+01  0.00000000E+00
  3.80000000E+02  7.40000000E+01  0.00000000E+00
  3.80000000E+02  7.20000000E+01  0.00000000E+00
  3.80000000E+02  7.00000000E+01  0.00000000E+00
  3.80000000E+02  6.80000000E+01  0.00000000E+00
  3.80000000E+02  6.60000000E+01  0.00000000E+00
  3.80000000E+02  6.40000000E+01  0.00000000E+00
  3.80000000E+02  6.20000000E+01  0.00000000E+00
  3.80000000E+02  6.00000000E+01  0.00000000E+00
  3.80000000E+02  5.80000000E+01  0.00000000E+00
  3.80000000E+02  5.60000000E+01  0.00000000E+00
  3.80000000E+02  5.40000000E+01  0.00000000E+00
  3.80000000E+02  5.20000000E+01  0.00000000E+00
  3.80000000E+02  5.00000000E+01  0.00000000E+00
  3.80000000E+02  4.80000000E+01  0.00000000E+00
  3.80000000E+02  4.60000000E+01  0.00000000E+00
  3.80000000E+02  4.40000000E+01  0.00000000E+00
  3.80000000E+02  4.20000000E+01  0.00000000E+00
  3.80000000E+02  4.00000000E+01  0.00000000E+00
  3.80000000E+02  3.80000000E+01  0.00000000E+00
  3.80000000E+02  3.60000000E+01  0.00000000E+00
  3.80000000E+02  3.40000000E+01  0.00000000E+00
  3.80000000E+02  3.20000000E+01  0.00000000E+00
  3.80000000E+02  3.00000000E+01  0.00000000E+00
  3.80000000E+02  2.80000000E+01  0.00000000E+00
  3.80000000E+02  2.60000000E+01  0.00000000E+00
  3.80000000E+02  2.40000000E+01  0.00000000E+00
  3.80000000E+02  2.20000000E+01  0.00000000E+00
  3.80000000E+02  2.00000000E+01  0.00000000E+00
  3.80000000E+02  1.80000000E+01  0.00000000E+00
  3.80000000E+02  1.60000000E+01  0.00000000E+00
  3.80000000E+02  1.40000000E+01  0.00000000E+00
  3.80000000E+02  1.20000000E+01  0.00000000E+00
  3.80000000E+02  1.00000000E+01  0.00000000E+00
  3.80000000E+02  8.00000000E+00  0.00000000E+00
  3.80000000E+02  6.00000000E+00  0.00000000E+00
  3.80000000E+02  4.00000000E+00  0.00000000E+00
  3.80000000E+02  2.00000000E+00  0.00000000E+00
  3.80000000E+02 -3.33066907E-14  0.00000000E+00
  3.90000000E+02  1.00000000E+02  0.00000000E+00
  3.90000000E+02  9.80000000E+01  0.00000000E+00
  3.90000000E+02  9.60000000E+01  0.00000000E+00
  3.90000000E+02  9.40000000E+01  0.00000000E+00
  3.90000000E+02  9.20000000E+01  0.00000000E+00
  3.90000000E+02  9.00000000E+01  0.00000000E+00
  3.90000000E+02  8.80000000E+01  0.00000000E+00
  3.90000000E+02  8.60000000E+01  0.00000000E+00
  3.90000000E+02  8.40000000E+01  0.00000000E+00
  3.90000000E+02  8.20000000E+01  0.00000000E+00
  3.90000000E+02  8.00000000E+01  0.00000000E+00
  3.90000000E+02  7.80000000E+01  0.00000000E+00
  3.90000000E+02  7.60000000E+01  0.00000000E+00
  3.90000000E+02  7.40000000E+01  0.00000000E+00
  3.90000000E+02  7.20000000E+01  0.00000000E+00
  3.90000000E+02  7.00000000E+01  0.00000000E+00
  3.90000000E+02  6.80000000E+01  0.00000000E+00
  3.90000000E+02  6.60000000E+01  0.00000000E+00
  3.90000000E+02  6.40000000E+01  0.00000000E+00
  3.90000000E+02  6.20000000E+01  0.00000000E+00
  3.90000000E+02  6.00000000E+01  0.00000000E+00
  3.90000000E+02  5.80000000E+01  0.00000000E+00
  3.90000000E+02  5.60000000E+01  0.00000000E+00
  3.90000000E+02  5.40000000E+01  0.00000000E+00
  3.90000000E+02  5.20000000E+01  0.00000000E+00
  3.90000000E+02  5.00000000E+01  0.00000000E+00
  3.90000000E+02  4.80000000E+01  0.00000000E+00
  3.90000000E+02  4.60000000E+01  0.00000000E+00
  3.90000000E+02  4.40000000E+01  0.00000000E+00
  3.90000000E+02  4.20000000E+01  0.00000000E+00
  3.90000000E+02  4.00000000E+01  0.00000000E+00
  3.90000000E+02  3.80000000E+01  0.00000000E+00
  3.90000000E+02  3.60000000E+01  0.00000000E+00
  3.90000000E+02  3.40000000E+01  0.00000000E+00
  3.90000000E+02  3.20000000E+01  0.00000000E+00
  3.90000000E+02  3.00000000E+01  0.00000000E+00
  3.90000000E+02  2.80000000E+01  0.00000000E+00
  3.90000000E+02  2.60000000E+01  0.00000000E+00
  3.90000000E+02  2.40000000E+01  0.00000000E+00
  3.90000000E+02  2.20000000E+01  0.00000000E+00
  3.90000000E+02  2.00000000E+01  0.00000000E+00
  3.90000000E+02  1.80000000E+01  0.00000000E+00
  3.90000000E+02  1.60000000E+01  0.00000000E+00
  3.90000000E+02  1.40000000E+01  0.00000000E+00
  3.90000000E+02  1.20000000E+01  0.00000000E+00
  3.90000000E+02  1.00000000E+01  0.00000000E+00
  3.90000000E+02  8.00000000E+00  0.00000000E+00
  3.90000000E+02  6.00000000E+00  0.00000000E+00
  3.90000000E+02  4.00000000E+00  0.00000000E+00
  3.90000000E+02  2.00000000E+00  0.00000000E+00
  3.90000000E+02 -3.33066907E-14  0.00000000E+00
  4.00000000E+02  1.00000000E+02  0.00000000E+00
  4.00000000E+02  9.80000000E+01  0.00000000E+00
  4.00000000E+02  9.60000000E+01  0.00000000E+00
  4.00000000E+02  9.40000000E+01  0.00000000E+00
  4.00000000E+02  9.20000000E+01  0.00000000E+00
  4.00000000E+02  9.00000000E+01  0.00000000E+00
  4.00000000E+02  8.80000000E+01  0.00000000E+00
  4.00000000E+02  8.60000000E+01  0.00000000E+00
  4.00000000E+02  8.40000000E+01  0.00000000E+00
  4.00000000E+02  8.20000000E+01  0.00000000E+00
  4.00000000E+02  8.00000000E+01  0.00000000E+00
  4.00000000E+02  7.80000000E+01  0.00000000E+00
  4.00000000E+02  7.60000000E+01  0.00000000E+00
  4.00000000E+02  7.40000000E+01  0.00000000E+00
  4.00000000E+02  7.20000000E+01  0.00000000E+00
  4.00000000E+02  7.00000000E+01  0.00000000E+00
  4.00000000E+02  6.80000000E+01  0.00000000E+00
  4.00000000E+02  6.60000000E+01  0.00000000E+00
  4.00000000E+02  6.40000000E+01  0.00000000E+00
  4.00000000E+02  6.20000000E+01  0.00000000E+00
  4.00000000E+02  6.00000000E+01  0.00000000E+00
  4.00000000E+02  5.80000000E+01  0.00000000E+00
  4.00000000E+02  5.60000000E+01  0.00000000E+00
  4.00000000E+02  5.40000000E+01  0.00000000E+00
  4.00000000E+02  5.20000000E+01  0.00000000E+00
  4.00000000E+02  5.00000000E+01  0.00000000E+00
  4.00000000E+02  4.80000000E+01  0.00000000E+00
  4.00000000E+02  4.60000000E+01  0.00000000E+00
  4.00000000E+02  4.40000000E+01  0.00000000E+00
  4.00000000E+02  4.20000000E+01  0.00000000E+00
  4.00000000E+02  4.00000000E+01  0.00000000E+00
  4.00000000E+02  3.80000000E+01  0.00000000E+00
  4.00000000E+02  3.60000000E+01  0.00000000E+00
  4.00000000E+02  3.40000000E+01  0.00000000E+00
  4.00000000E+02  3.20000000E+01  0.00000000E+00
  4.00000000E+02  3.00000000E+01  0.00000000E+00
  4.00000000E+02  2.80000000E+01  0.00000000E+00
  4.00000000E+02  2.60000000E+01  0.00000000E+00
  4.00000000E+02  2.40000000E+01  0.00000000E+00
  4.00000000E+02  2.20000000E+01  0.00000000E+00
  4.00000000E+02  2.00000000E+01  0.00000000E+00
  4.00000000E+02  1.80000000E+01  0.00000000E+00
  4.00000000E+02  1.60000000E+01  0.00000000E+00
  4.00000000E+02  1.40000000E+01  0.00000000E+00
  4.00000000E+02  1.20000000E+01  0.00000000E+00
  4.00000000E+02  1.00000000E+01  0.00000000E+00
  4.00000000E+02  8.00000000E+00  0.00000000E+00
  4.00000000E+02  6.00000000E+00  0.00000000E+00
  4.00000000E+02  4.00000000E+00  0.00000000E+00
  4.00000000E+02  2.00000000E+00  0.00000000E+00
  4.00000000E+02 -3.33066907E-14  0.00000000E+00
  4.10000000E+02  1.00000000E+02  0.00000000E+00
  4.10000000E+02  9.80000000E+01  0.00000000E+00
  4.10000000E+02  9.60000000E+01  0.00000000E+00
  4.10000000E+02  9.40000000E+01  0.00000000E+00
  4.10000000E+02  9.20000000E+01  0.00000000E+00
  4.10000000E+02  9.00000000E+01  0.00000000E+00
  4.10000000E+02  8.80000000E+01  0.00000000E+00
  4.10000000E+02  8.60000000E+01  0.00000000E+00
  4.10000000E+02  8.40000000E+01  0.00000000E+00
  4.10000000E+02  8.20000000E+01  0.00000000E+00
  4.10000000E+02  8.00000000E+01  0.00000000E+00
  4.10000000E+02  7.80000000E+01  0.00000000E+00
  4.10000000E+02  7.60000000E+01  0.00000000E+00
  4.10000000E+02  7.40000000E+01  0.00000000E+00
  4.10000000E+02  7.20000000E+01  0.00000000E+00
  4.10000000E+02  7.00000000E+01  0.00000000E+00
  4.10000000E+02  6.80000000E+01  0.00000000E+00
  4.10000000E+02  6.60000000E+01  0.00000000E+00
  4.10000000E+02  6.40000000E+01  0.00000000E+00
  4.10000000E+02  6.20000000E+01  0.00000000E+00
  4.10000000E+02  6.00000000E+01  0.00000000E+00
  4.10000000E+02  5.80000000E+01  0.00000000E+00
  4.10000000E+02  5.60000000E+01  0.00000000E+00
  4.10000000E+02  5.40000000E+01  0.00000000E+00
  4.10000000E+02  5.20000000E+01  0.00000000E+00
  4.10000000E+02  5.00000000E+01  0.00000000E+00
  4.10000000E+02  4.80000000E+01  0.00000000E+00
  4.10000000E+02  4.60000000E+01  0.00000000E+00
  4.10000000E+02  4.40000000E+01  0.00000000E+00
  4.10000000E+02  4.20000000E+01  0.00000000E+00
  4.10000000E+02  4.00000000E+01  0.00000000E+00
  4.10000000E+02  3.80000000E+01  0.00000000E+00
  4.10000000E+02  3.60000000E+01  0.00000000E+00
  4.10000000E+02  3.40000000E+01  0.00000000E+00
  4.10000000E+02  3.20000000E+01  0.00000000E+00
  4.10000000E+02  3.00000000E+01  0.00000000E+00
  4.10000000E+02  2.80000000E+01  0.00000000E+00
  4.10000000E+02  2.60000000E+01  0.00000000E+00
  4.10000000E+02  2.40000000E+01  0.00000000E+00
  4.10000000E+02  2.20000000E+01  0.00000000E+00
  4.10000000E+02  2.00000000E+01  0.00000000E+00
  4.10000000E+02  1.80000000E+01  0.00000000E+00
  4.10000000E+02  1.60000000E+01  0.00000000E+00
  4.10000000E+02  1.40000000E+01  0.00000000E+00
  4.10000000E+02  1.20000000E+01  0.00000000E+00
  4.10000000E+02  1.00000000E+01  0.00000000E+00
  4.10000000E+02  8.00000000E+00  0.00000000E+00
  4.10000000E+02  6.00000000E+00  0.00000000E+00
  4.10000000E+02  4.00000000E+00  0.00000000E+00
  4.10000000E+02  2.00000000E+00  0.00000000E+00
  4.10000000E+02 -3.33066907E-14  0.00000000E+00
  4.20000000E+02  1.00000000E+02  0.00000000E+00
  4.20000000E+02  9.80000000E+01  0.00000000E+00
  4.20000000E+02  9.60000000E+01  0.00000000E+00
  4.20000000E+02  9.40000000E+01  0.00000000E+00
  4.20000000E+02  9.20000000E+01  0.00000000E+00
  4.20000000E+02  9.00000000E+01  0.00000000E+00
  4.20000000E+02  8.80000000E+01  0.00000000E+00
  4.20000000E+02  8.60000000E+01  0.00000000E+00
  4.20000000E+02  8.40000000E+01  0.00000000E+00
  4.20000000E+02  8.20000000E+01  0.00000000E+00
  4.20000000E+02  8.00000000E+01  0.00000000E+00
  4.20000000E+02  7.80000000E+01  0.00000000E+00
  4.20000000E+02  7.60000000E+01  0.00000000E+00
  4.20000000E+02  7.40000000E+01  0.00000000E+00
  4.20000000E+02  7.20000000E+01  0.00000000E+00
  4.20000000E+02  7.00000000E+01  0.00000000E+00
  4.20000000E+02  6.80000000E+01  0.00000000E+00
  4.20000000E+02  6.60000000E+01  0.00000000E+00
  4.20000000E+02  6.40000000E+01  0.00000000E+00
  4.20000000E+02  6.20000000E+01  0.00000000E+00
  4.20000000E+02  6.00000000E+01  0.00000000E+00
  4.20000000E+02  5.80000000E+01  0.00000000E+00
  4.20000000E+02  5.60000000E+01  0.00000000E+00
  4.20000000E+02  5.40000000E+01  0.00000000E+00
  4.20000000E+02  5.20000000E+01  0.00000000E+00
  4.20000000E+02  5.00000000E+01  0.00000000E+00
  4.20000000E+02  4.80000000E+01  0.00000000E+00
  4.20000000E+02  4.60000000E+01  0.00000000E+00
  4.20000000E+02  4.40000000E+01  0.00000000E+00
  4.20000000E+02  4.20000000E+01  0.00000000E+00
  4.20000000E+02  4.00000000E+01  0.00000000E+00
  4.20000000E+02  3.80000000E+01  0.00000000E+00
  4.20000000E+02  3.60000000E+01  0.00000000E+00
  4.20000000E+02  3.40000000E+01  0.00000000E+00
  4.20000000E+02  3.20000000E+01  0.00000000E+00
  4.20000000E+02  3.00000000E+01  0.00000000E+00
  4.20000000E+02  2.80000000E+01  0.00000000E+00
  4.20000000E+02  2.60000000E+01  0.00000000E+00
  4.20000000E+02  2.40000000E+01  0.00000000E+00
  4.20000000E+02  2.20000000E+01  0.00000000E+00
  4.20000000E+02  2.00000000E+01  0.00000000E+00
  4.20000000E+02  1.80000000E+01  0.00000000E+00
  4.20000000E+02  1.60000000E+01  0.00000000E+00
  4.20000000E+02  1.40000000E+01  0.00000000E+00
  4.20000000E+02  1.20000000E+01  0.00000000E+00
  4.20000000E+02  1.00000000E+01  0.00000000E+00
  4.20000000E+02  8.00000000E+00  0.00000000E+00
  4.20000000E+02  6.00000000E+00  0.00000000E+00
  4.20000000E+02  4.00000000E+00  0.00000000E+00
  4.20000000E+02  2.00000000E+00  0.00000000E+00
  4.20000000E+02 -3.33066907E-14  0.00000000E+00
  4.30000000E+02  1.00000000E+02  0.00000000E+00
  4.30000000E+02  9.80000000E+01  0.00000000E+00
  4.30000000E+02  9.60000000E+01  0.00000000E+00
  4.30000000E+02  9.40000000E+01  0.00000000E+00
  4.30000000E+02  9.20000000E+01  0.00000000E+00
  4.30000000E+02  9.00000000E+01  0.00000000E+00
  4.30000000E+02  8.80000000E+01  0.00000000E+00
  4.30000000E+02  8.60000000E+01  0.00000000E+00
  4.30000000E+02  8.40000000E+01  0.00000000E+00
  4.30000000E+02  8.20000000E+01  0.00000000E+00
  4.30000000E+02  8.00000000E+01  0.00000000E+00
  4.30000000E+02  7.80000000E+01  0.00000000E+00
  4.30000000E+02  7.60000000E+01  0.00000000E+00
  4.30000000E+02  7.40000000E+01  0.00000000E+00
  4.30000000E+02  7.20000000E+01  0.00000000E+00
  4.30000000E+02  7.00000000E+01  0.00000000E+00
  4.30000000E+02  6.80000000E+01  0.00000000E+00
  4.30000000E+02  6.60000000E+01  0.00000000E+00
  4.30000000E+02  6.40000000E+01  0.00000000E+00
  4.30000000E+02  6.20000000E+01  0.00000000E+00
  4.30000000E+02  6.00000000E+01  0.00000000E+00
  4.30000000E+02  5.80000000E+01  0.00000000E+00
  4.30000000E+02  5.60000000E+01  0.00000000E+00
  4.30000000E+02  5.40000000E+01  0.00000000E+00
  4.30000000E+02  5.20000000E+01  0.00000000E+00
  4.30000000E+02  5.00000000E+01  0.00000000E+00
  4.30000000E+02  4.80000000E+01  0.00000000E+00
  4.30000000E+02  4.60000000E+01  0.00000000E+00
  4.30000000E+02  4.40000000E+01  0.00000000E+00
  4.30000000E+02  4.20000000E+01  0.00000000E+00
  4.30000000E+02  4.00000000E+01  0.00000000E+00
  4.30000000E+02  3.80000000E+01  0.00000000E+00
  4.30000000E+02  3.60000000E+01  0.00000000E+00
  4.30000000E+02  3.40000000E+01  0.00000000E+00
  4.30000000E+02  3.20000000E+01  0.00000000E+00
  4.30000000E+02  3.00000000E+01  0.00000000E+00
  4.30000000E+02  2.80000000E+01  0.00000000E+00
  4.30000000E+02  2.60000000E+01  0.00000000E+00
  4.30000000E+02  2.40000000E+01  0.00000000E+00
  4.30000000E+02  2.20000000E+01  0.00000000E+00
  4.30000000E+02  2.00000000E+01  0.00000000E+00
  4.30000000E+02  1.80000000E+01  0.00000000E+00
  4.30000000E+02  1.60000000E+01  0.00000000E+00
  4.30000000E+02  1.40000000E+01  0.00000000E+00
  4.30000000E+02  1.20000000E+01  0.00000000E+00
  4.30000000E+02  1.00000000E+01  0.00000000E+00
  4.30000000E+02  8.00000000E+00  0.00000000E+00
  4.30000000E+02  6.00000000E+00  0.00000000E+00
  4.30000000E+02  4.00000000E+00  0.00000000E+00
  4.30000000E+02  2.00000000E+00  0.00000000E+00
  4.30000000E+02 -3.33066907E-14  0.00000000E+00
  4.40000000E+02  1.00000000E+02  0.00000000E+00
  4.40000000E+02  9.80000000E+01  0.00000000E+00
  4.40000000E+02  9.60000000E+01  0.00000000E+00
  4.40000000E+02  9.40000000E+01  0.00000000E+00
  4.40000000E+02  9.20000000E+01  0.00000000E+00
  4.40000000E+02  9.00000000E+01  0.00000000E+00
  4.40000000E+02  8.80000000E+01  0.00000000E+00
  4.40000000E+02  8.60000000E+01  0.00000000E+00
  4.40000000E+02  8.40000000E+01  0.00000000E+00
  4.40000000E+02  8.20000000E+01  0.00000000E+00
  4.40000000E+02  8.00000000E+01  0.00000000E+00
  4.40000000E+02  7.80000000E+01  0.00000000E+00
  4.40000000E+02  7.60000000E+01  0.00000000E+00
  4.40000000E+02  7.40000000E+01  0.00000000E+00
  4.40000000E+02  7.20000000E+01  0.00000000E+00
  4.40000000E+02  7.00000000E+01  0.00000000E+00
  4.40000000E+02  6.80000000E+01  0.00000000E+00
  4.40000000E+02  6.60000000E+01  0.00000000E+00
  4.40000000E+02  6.40000000E+01  0.00000000E+00
  4.40000000E+02  6.20000000E+01  0.00000000E+00
  4.40000000E+02  6.00000000E+01  0.00000000E+00
  4.40000000E+02  5.80000000E+01  0.00000000E+00
  4.40000000E+02  5.60000000E+01  0.00000000E+00
  4.40000000E+02  5.40000000E+01  0.00000000E+00
  4.40000000E+02  5.20000000E+01  0.00000000E+00
  4.40000000E+02  5.00000000E+01  0.00000000E+00
  4.40000000E+02  4.80000000E+01  0.00000000E+00
  4.40000000E+02  4.60000000E+01  0.00000000E+00
  4.40000000E+02  4.40000000E+01  0.00000000E+00
  4.40000000E+02  4.20000000E+01  0.00000000E+00
  4.40000000E+02  4.00000000E+01  0.00000000E+00
  4.40000000E+02  3.80000000E+01  0.00000000E+00
  4.40000000E+02  3.60000000E+01  0.00000000E+00
  4.40000000E+02  3.40000000E+01  0.00000000E+00
  4.40000000E+02  3.20000000E+01  0.00000000E+00
  4.40000000E+02  3.00000000E+01  0.00000000E+00
  4.40000000E+02  2.80000000E+01  0.00000000E+00
  4.40000000E+02  2.60000000E+01  0.00000000E+00
  4.40000000E+02  2.40000000E+01  0.00000000E+00
  4.40000000E+02  2.20000000E+01  0.00000000E+00
  4.40000000E+02  2.00000000E+01  0.00000000E+00
  4.40000000E+02  1.80000000E+01  0.00000000E+00
  4.40000000E+02  1.60000000E+01  0.00000000E+00
  4.40000000E+02  1.40000000E+01  0.00000000E+00
  4.40000000E+02  1.20000000E+01  0.00000000E+00
  4.40000000E+02  1.00000000E+01  0.00000000E+00
  4.40000000E+02  8.00000000E+00  0.00000000E+00
  4.40000000E+02  6.00000000E+00  0.00000000E+00
  4.40000000E+02  4.00000000E+00  0.00000000E+00
  4.40000000E+02  2.00000000E+00  0.00000000E+00
  4.40000000E+02 -3.33066907E-14  0.00000000E+00
  4.50000000E+02  1.00000000E+02  0.00000000E+00
  4.50000000E+02  9.80000000E+01  0.00000000E+00
  4.50000000E+02  9.60000000E+01  0.00000000E+00
  4.50000000E+02  9.40000000E+01  0.00000000E+00
  4.50000000E+02  9.20000000E+01  0.00000000E+00
  4.50000000E+02  9.00000000E+01  0.00000000E+00
  4.50000000E+02  8.80000000E+01  0.00000000E+00
  4.50000000E+02  8.60000000E+01  0.00000000E+00
  4.50000000E+02  8.40000000E+01  0.00000000E+00
  4.50000000E+02  8.20000000E+01  0.00000000E+00
  4.50000000E+02  8.00000000E+01  0.00000000E+00
  4.50000000E+02  7.80000000E+01  0.00000000E+00
  4.50000000E+02  7.60000000E+01  0.00000000E+00
  4.50000000E+02  7.40000000E+01  0.00000000E+00
  4.50000000E+02  7.20000000E+01  0.00000000E+00
  4.50000000E+02  7.00000000E+01  0.00000000E+00
  4.50000000E+02  6.80000000E+01  0.00000000E+00
  4.50000000E+02  6.60000000E+01  0.00000000E+00
  4.50000000E+02  6.40000000E+01  0.00000000E+00
  4.50000000E+02  6.20000000E+01  0.00000000E+00
  4.50000000E+02  6.00000000E+01  0.00000000E+00
  4.50000000E+02  5.80000000E+01  0.00000000E+00
  4.50000000E+02  5.60000000E+01  0.00000000E+00
  4.50000000E+02  5.40000000E+01  0.00000000E+00
  4.50000000E+02  5.20000000E+01  0.00000000E+00
  4.50000000E+02  5.00000000E+01  0.00000000E+00
  4.50000000E+02  4.80000000E+01  0.00000000E+00
  4.50000000E+02  4.60000000E+01  0.00000000E+00
  4.50000000E+02  4.40000000E+01  0.00000000E+00
  4.50000000E+02  4.20000000E+01  0.00000000E+00
  4.50000000E+02  4.00000000E+01  0.00000000E+00
  4.50000000E+02  3.80000000E+01  0.00000000E+00
  4.50000000E+02  3.60000000E+01  0.00000000E+00
  4.50000000E+02  3.40000000E+01  0.00000000E+00
  4.50000000E+02  3.20000000E+01  0.00000000E+00
  4.50000000E+02  3.00000000E+01  0.00000000E+00
  4.50000000E+02  2.80000000E+01  0.00000000E+00
  4.50000000E+02  2.60000000E+01  0.00000000E+00
  4.50000000E+02  2.40000000E+01  0.00000000E+00
  4.50000000E+02  2.20000000E+01  0.00000000E+00
  4.50000000E+02  2.00000000E+01  0.00000000E+00
  4.50000000E+02  1.80000000E+01  0.00000000E+00
  4.50000000E+02  1.60000000E+01  0.00000000E+00
  4.50000000E+02  1.40000000E+01  0.00000000E+00
  4.50000000E+02  1.20000000E+01  0.00000000E+00
  4.50000000E+02  1.00000000E+01  0.00000000E+00
  4.50000000E+02  8.00000000E+00  0.00000000E+00
  4.50000000E+02  6.00000000E+00  0.00000000E+00
  4.50000000E+02  4.00000000E+00  0.00000000E+00
  4.50000000E+02  2.00000000E+00  0.00000000E+00
  4.50000000E+02 -3.33066907E-14  0.00000000E+00
  4.60000000E+02  1.00000000E+02  0.00000000E+00
  4.60000000E+02  9.80000000E+01  0.00000000E+00
  4.60000000E+02  9.60000000E+01  0.00000000E+00
  4.60000000E+02  9.40000000E+01  0.00000000E+00
  4.60000000E+02  9.20000000E+01  0.00000000E+00
  4.60000000E+02  9.00000000E+01  0.00000000E+00
  4.60000000E+02  8.80000000E+01  0.00000000E+00
  4.60000000E+02  8.60000000E+01  0.00000000E+00
  4.60000000E+02  8.40000000E+01  0.00000000E+00
  4.60000000E+02  8.20000000E+01  0.00000000E+00
  4.60000000E+02  8.00000000E+01  0.00000000E+00
  4.60000000E+02  7.80000000E+01  0.00000000E+00
  4.60000000E+02  7.60000000E+01  0.00000000E+00
  4.60000000E+02  7.40000000E+01  0.00000000E+00
  4.60000000E+02  7.20000000E+01  0.00000000E+00
  4.60000000E+02  7.00000000E+01  0.00000000E+00
  4.60000000E+02  6.80000000E+01  0.00000000E+00
  4.60000000E+02  6.60000000E+01  0.00000000E+00
  4.60000000E+02  6.40000000E+01  0.00000000E+00
  4.60000000E+02  6.20000000E+01  0.00000000E+00
  4.60000000E+02  6.00000000E+01  0.00000000E+00
  4.60000000E+02  5.80000000E+01  0.00000000E+00
  4.60000000E+02  5.60000000E+01  0.00000000E+00
  4.60000000E+02  5.40000000E+01  0.00000000E+00
  4.60000000E+02  5.20000000E+01  0.00000000E+00
  4.60000000E+02  5.00000000E+01  0.00000000E+00
  4.60000000E+02  4.80000000E+01  0.00000000E+00
  4.60000000E+02  4.60000000E+01  0.00000000E+00
  4.60000000E+02  4.40000000E+01  0.00000000E+00
  4.60000000E+02  4.20000000E+01  0.00000000E+00
  4.60000000E+02  4.00000000E+01  0.00000000E+00
  4.60000000E+02  3.80000000E+01  0.00000000E+00
  4.60000000E+02  3.60000000E+01  0.00000000E+00
  4.60000000E+02  3.40000000E+01  0.00000000E+00
  4.60000000E+02  3.20000000E+01  0.00000000E+00
  4.60000000E+02  3.00000000E+01  0.00000000E+00
  4.60000000E+02  2.80000000E+01  0.00000000E+00
  4.60000000E+02  2.60000000E+01  0.00000000E+00
  4.60000000E+02  2.40000000E+01  0.00000000E+00
  4.60000000E+02  2.20000000E+01  0.00000000E+00
  4.60000000E+02  2.00000000E+01  0.00000000E+00
  4.60000000E+02  1.80000000E+01  0.00000000E+00
  4.60000000E+02  1.60000000E+01  0.00000000E+00
  4.60000000E+02  1.40000000E+01  0.00000000E+00
  4.60000000E+02  1.20000000E+01  0.00000000E+00
  4.60000000E+02  1.00000000E+01  0.00000000E+00
  4.60000000E+02  8.00000000E+00  0.00000000E+00
  4.60000000E+02  6.00000000E+00  0.00000000E+00
  4.60000000E+02  4.00000000E+00  0.00000000E+00
  4.60000000E+02  2.00000000E+00  0.00000000E+00
  4.60000000E+02 -3.33066907E-14  0.00000000E+00
  4.70000000E+02  1.00000000E+02  0.00000000E+00
  4.70000000E+02  9.80000000E+01  0.00000000E+00
  4.70000000E+02  9.60000000E+01  0.00000000E+00
  4.70000000E+02  9.40000000E+01  0.00000000E+00
  4.70000000E+02  9.20000000E+01  0.00000000E+00
  4.70000000E+02  9.00000000E+01  0.00000000E+00
  4.70000000E+02  8.80000000E+01  0.00000000E+00
  4.70000000E+02  8.60000000E+01  0.00000000E+00
  4.70000000E+02  8.40000000E+01  0.00000000E+00
  4.70000000E+02  8.20000000E+01  0.00000000E+00
  4.70000000E+02  8.00000000E+01  0.00000000E+00
  4.70000000E+02  7.80000000E+01  0.00000000E+00
  4.70000000E+02  7.60000000E+01  0.00000000E+00
  4.70000000E+02  7.40000000E+01  0.00000000E+00
  4.70000000E+02  7.20000000E+01  0.00000000E+00
  4.70000000E+02  7.00000000E+01  0.00000000E+00
  4.70000000E+02  6.80000000E+01  0.00000000E+00
  4.70000000E+02  6.60000000E+01  0.00000000E+00
  4.70000000E+02  6.40000000E+01  0.00000000E+00
  4.70000000E+02  6.20000000E+01  0.00000000E+00
  4.70000000E+02  6.00000000E+01  0.00000000E+00
  4.70000000E+02  5.80000000E+01  0.00000000E+00
  4.70000000E+02  5.60000000E+01  0.00000000E+00
  4.70000000E+02  5.40000000E+01  0.00000000E+00
  4.70000000E+02  5.20000000E+01  0.00000000E+00
  4.70000000E+02  5.00000000E+01  0.00000000E+00
  4.70000000E+02  4.80000000E+01  0.00000000E+00
  4.70000000E+02  4.60000000E+01  0.00000000E+00
  4.70000000E+02  4.40000000E+01  0.00000000E+00
  4.70000000E+02  4.20000000E+01  0.00000000E+00
  4.70000000E+02  4.00000000E+01  0.00000000E+00
  4.70000000E+02  3.80000000E+01  0.00000000E+00
  4.70000000E+02  3.60000000E+01  0.00000000E+00
  4.70000000E+02  3.40000000E+01  0.00000000E+00
  4.70000000E+02  3.20000000E+01  0.00000000E+00
  4.70000000E+02  3.00000000E+01  0.00000000E+00
  4.70000000E+02  2.80000000E+01  0.00000000E+00
  4.70000000E+02  2.60000000E+01  0.00000000E+00
  4.70000000E+02  2.40000000E+01  0.00000000E+00
  4.70000000E+02  2.20000000E+01  0.00000000E+00
  4.70000000E+02  2.00000000E+01  0.00000000E+00
  4.70000000E+02  1.80000000E+01  0.00000000E+00
  4.70000000E+02  1.60000000E+01  0.00000000E+00
  4.70000000E+02  1.40000000E+01  0.00000000E+00
  4.70000000E+02  1.20000000E+01  0.00000000E+00
  4.70000000E+02  1.00000000E+01  0.00000000E+00
  4.70000000E+02  8.00000000E+00  0.00000000E+00
  4.70000000E+02  6.00000000E+00  0.00000000E+00
  4.70000000E+02  4.00000000E+00  0.00000000E+00
  4.70000000E+02  2.00000000E+00  0.00000000E+00
  4.70000000E+02 -3.33066907E-14  0.00000000E+00
  4.80000000E+02  1.00000000E+02  0.00000000E+00
  4.80000000E+02  9.80000000E+01  0.00000000E+00
  4.80000000E+02  9.60000000E+01  0.00000000E+00
  4.80000000E+02  9.40000000E+01  0.00000000E+00
  4.80000000E+02  9.20000000E+01  0.00000000E+00
  4.80000000E+02  9.00000000E+01  0.00000000E+00
  4.80000000E+02  8.80000000E+01  0.00000000E+00
  4.80000000E+02  8.60000000E+01  0.00000000E+00
  4.80000000E+02  8.40000000E+01  0.00000000E+00
  4.80000000E+02  8.20000000E+01  0.00000000E+00
  4.80000000E+02  8.00000000E+01  0.00000000E+00
  4.80000000E+02  7.80000000E+01  0.00000000E+00
  4.80000000E+02  7.60000000E+01  0.00000000E+00
  4.80000000E+02  7.40000000E+01  0.00000000E+00
  4.80000000E+02  7.20000000E+01  0.00000000E+00
  4.80000000E+02  7.00000000E+01  0.00000000E+00
  4.80000000E+02  6.80000000E+01  0.00000000E+00
  4.80000000E+02  6.60000000E+01  0.00000000E+00
  4.80000000E+02  6.40000000E+01  0.00000000E+00
  4.80000000E+02  6.20000000E+01  0.00000000E+00
  4.80000000E+02  6.00000000E+01  0.00000000E+00
  4.80000000E+02  5.80000000E+01  0.00000000E+00
  4.80000000E+02  5.60000000E+01  0.00000000E+00
  4.80000000E+02  5.40000000E+01  0.00000000E+00
  4.80000000E+02  5.20000000E+01  0.00000000E+00
  4.80000000E+02  5.00000000E+01  0.00000000E+00
  4.80000000E+02  4.80000000E+01  0.00000000E+00
  4.80000000E+02  4.60000000E+01  0.00000000E+00
  4.80000000E+02  4.40000000E+01  0.00000000E+00
  4.80000000E+02  4.20000000E+01  0.00000000E+00
  4.80000000E+02  4.00000000E+01  0.00000000E+00
  4.80000000E+02  3.80000000E+01  0.00000000E+00
  4.80000000E+02  3.60000000E+01  0.00000000E+00
  4.80000000E+02  3.40000000E+01  0.00000000E+00
  4.80000000E+02  3.20000000E+01  0.00000000E+00
  4.80000000E+02  3.00000000E+01  0.00000000E+00
  4.80000000E+02  2.80000000E+01  0.00000000E+00
  4.80000000E+02  2.60000000E+01  0.00000000E+00
  4.80000000E+02  2.40000000E+01  0.00000000E+00
  4.80000000E+02  2.20000000E+01  0.00000000E+00
  4.80000000E+02  2.00000000E+01  0.00000000E+00
  4.80000000E+02  1.80000000E+01  0.00000000E+00
  4.80000000E+02  1.60000000E+01  0.00000000E+00
  4.80000000E+02  1.40000000E+01  0.00000000E+00
  4.80000000E+02  1.20000000E+01  0.00000000E+00
  4.80000000E+02  1.00000000E+01  0.00000000E+00
  4.80000000E+02  8.00000000E+00  0.00000000E+00
  4.80000000E+02  6.00000000E+00  0.00000000E+00
  4.80000000E+02  4.00000000E+00  0.00000000E+00
  4.80000000E+02  2.00000000E+00  0.00000000E+00
  4.80000000E+02 -3.33066907E-14  0.00000000E+00
  4.90000000E+02  1.00000000E+02  0.00000000E+00
  4.90000000E+02  9.80000000E+01  0.00000000E+00
  4.90000000E+02  9.60000000E+01  0.00000000E+00
  4.90000000E+02  9.40000000E+01  0.00000000E+00
  4.90000000E+02  9.20000000E+01  0.00000000E+00
  4.90000000E+02  9.00000000E+01  0.00000000E+00
  4.90000000E+02  8.80000000E+01  0.00000000E+00
  4.90000000E+02  8.60000000E+01  0.00000000E+00
  4.90000000E+02  8.40000000E+01  0.00000000E+00
  4.90000000E+02  8.20000000E+01  0.00000000E+00
  4.90000000E+02  8.00000000E+01  0.00000000E+00
  4.90000000E+02  7.80000000E+01  0.00000000E+00
  4.90000000E+02  7.60000000E+01  0.00000000E+00
  4.90000000E+02  7.40000000E+01  0.00000000E+00
  4.90000000E+02  7.20000000E+01  0.00000000E+00
  4.90000000E+02  7.00000000E+01  0.00000000E+00
  4.90000000E+02  6.80000000E+01  0.00000000E+00
  4.90000000E+02  6.60000000E+01  0.00000000E+00
  4.90000000E+02  6.40000000E+01  0.00000000E+00
  4.90000000E+02  6.20000000E+01  0.00000000E+00
  4.90000000E+02  6.00000000E+01  0.00000000E+00
  4.90000000E+02  5.80000000E+01  0.00000000E+00
  4.90000000E+02  5.60000000E+01  0.00000000E+00
  4.90000000E+02  5.40000000E+01  0.00000000E+00
  4.90000000E+02  5.20000000E+01  0.00000000E+00
  4.90000000E+02  5.00000000E+01  0.00000000E+00
  4.90000000E+02  4.80000000E+01  0.00000000E+00
  4.90000000E+02  4.60000000E+01  0.00000000E+00
  4.90000000E+02  4.40000000E+01  0.00000000E+00
  4.90000000E+02  4.20000000E+01  0.00000000E+00
  4.90000000E+02  4.00000000E+01  0.00000000E+00
  4.90000000E+02  3.80000000E+01  0.00000000E+00
  4.90000000E+02  3.60000000E+01  0.00000000E+00
  4.90000000E+02  3.40000000E+01  0.00000000E+00
  4.90000000E+02  3.20000000E+01  0.00000000E+00
  4.90000000E+02  3.00000000E+01  0.00000000E+00
  4.90000000E+02  2.80000000E+01  0.00000000E+00
  4.90000000E+02  2.60000000E+01  0.00000000E+00
  4.90000000E+02  2.40000000E+01  0.00000000E+00
  4.90000000E+02  2.20000000E+01  0.00000000E+00
  4.90000000E+02  2.00000000E+01  0.00000000E+00
  4.90000000E+02  1.80000000E+01  0.00000000E+00
  4.90000000E+02  1.60000000E+01  0.00000000E+00
  4.90000000E+02  1.40000000E+01  0.00000000E+00
  4.90000000E+02  1.20000000E+01  0.00000000E+00
  4.90000000E+02  1.00000000E+01  0.00000000E+00
  4.90000000E+02  8.00000000E+00  0.00000000E+00
  4.90000000E+02  6.00000000E+00  0.00000000E+00
  4.90000000E+02  4.00000000E+00  0.00000000E+00
  4.90000000E+02  2.00000000E+00  0.00000000E+00
  4.90000000E+02 -3.33066907E-14  0.00000000E+00
  5.00000000E+02  1.00000000E+02  0.00000000E+00
  5.00000000E+02  9.80000000E+01  0.00000000E+00
  5.00000000E+02  9.60000000E+01  0.00000000E+00
  5.00000000E+02  9.40000000E+01  0.00000000E+00
  5.00000000E+02  9.20000000E+01  0.00000000E+00
  5.00000000E+02  9.00000000E+01  0.00000000E+00
  5.00000000E+02  8.80000000E+01  0.00000000E+00
  5.00000000E+02  8.60000000E+01  0.00000000E+00
  5.00000000E+02  8.40000000E+01  0.00000000E+00
  5.00000000E+02  8.20000000E+01  0.00000000E+00
  5.00000000E+02  8.00000000E+01  0.00000000E+00
  5.00000000E+02  7.80000000E+01  0.00000000E+00
  5.00000000E+02  7.60000000E+01  0.00000000E+00
  5.00000000E+02  7.40000000E+01  0.00000000E+00
  5.00000000E+02  7.20000000E+01  0.00000000E+00
  5.00000000E+02  7.00000000E+01  0.00000000E+00
  5.00000000E+02  6.80000000E+01  0.00000000E+00
  5.00000000E+02  6.60000000E+01  0.00000000E+00
  5.00000000E+02  6.40000000E+01  0.00000000E+00
  5.00000000E+02  6.20000000E+01  0.00000000E+00
  5.00000000E+02  6.00000000E+01  0.00000000E+00
  5.00000000E+02  5.80000000E+01  0.00000000E+00
  5.00000000E+02  5.60000000E+01  0.00000000E+00
  5.00000000E+02  5.40000000E+01  0.00000000E+00
  5.00000000E+02  5.20000000E+01  0.00000000E+00
  5.00000000E+02  5.00000000E+01  0.00000000E+00
  5.00000000E+02  4.80000000E+01  0.00000000E+00
  5.00000000E+02  4.60000000E+01  0.00000000E+00
  5.00000000E+02  4.40000000E+01  0.00000000E+00
  5.00000000E+02  4.20000000E+01  0.00000000E+00
  5.00000000E+02  4.00000000E+01  0.00000000E+00
  5.00000000E+02  3.80000000E+01  0.00000000E+00
  5.00000000E+02  3.60000000E+01  0.00000000E+00
  5.00000000E+02  3.40000000E+01  0.00000000E+00
  5.00000000E+02  3.20000000E+01  0.00000000E+00
  5.00000000E+02  3.00000000E+01  0.00000000E+00
  5.00000000E+02  2.80000000E+01  0.00000000E+00
  5.00000000E+02  2.60000000E+01  0.00000000E+00
  5.00000000E+02  2.40000000E+01  0.00000000E+00
  5.00000000E+02  2.20000000E+01  0.00000000E+00
  5.00000000E+02  2.00000000E+01  0.00000000E+00
  5.00000000E+02  1.80000000E+01  0.00000000E+00
  5.00000000E+02  1.60000000E+01  0.00000000E+00
  5.00000000E+02  1.40000000E+01  0.00000000E+00
  5.00000000E+02  1.20000000E+01  0.00000000E+00
  5.00000000E+02  1.00000000E+01  0.00000000E+00
  5.00000000E+02  8.00000000E+00  0.00000000E+00
  5.00000000E+02  6.00000000E+00  0.00000000E+00
  5.00000000E+02  4.00000000E+00  0.00000000E+00
  5.00000000E+02  2.00000000E+00  0.00000000E+00
  5.00000000E+02 -3.33066907E-14  0.00000000E+00
  5.10000000E+02  1.00000000E+02  0.00000000E+00
  5.10000000E+02  9.80000000E+01  0.00000000E+00
  5.10000000E+02  9.60000000E+01  0.00000000E+00
  5.10000000E+02  9.40000000E+01  0.00000000E+00
  5.10000000E+02  9.20000000E+01  0.00000000E+00
  5.10000000E+02  9.00000000E+01  0.00000000E+00
  5.10000000E+02  8.80000000E+01  0.00000000E+00
  5.10000000E+02  8.60000000E+01  0.00000000E+00
  5.10000000E+02  8.40000000E+01  0.00000000E+00
  5.10000000E+02  8.20000000E+01  0.00000000E+00
  5.10000000E+02  8.00000000E+01  0.00000000E+00
  5.10000000E+02  7.80000000E+01  0.00000000E+00
  5.10000000E+02  7.60000000E+01  0.00000000E+00
  5.10000000E+02  7.40000000E+01  0.00000000E+00
  5.10000000E+02  7.20000000E+01  0.00000000E+00
  5.10000000E+02  7.00000000E+01  0.00000000E+00
  5.10000000E+02  6.80000000E+01  0.00000000E+00
  5.10000000E+02  6.60000000E+01  0.00000000E+00
  5.10000000E+02  6.40000000E+01  0.00000000E+00
  5.10000000E+02  6.20000000E+01  0.00000000E+00
  5.10000000E+02  6.00000000E+01  0.00000000E+00
  5.10000000E+02  5.80000000E+01  0.00000000E+00
  5.10000000E+02  5.60000000E+01  0.00000000E+00
  5.10000000E+02  5.40000000E+01  0.00000000E+00
  5.10000000E+02  5.20000000E+01  0.00000000E+00
  5.10000000E+02  5.00000000E+01  0.00000000E+00
  5.10000000E+02  4.80000000E+01  0.00000000E+00
  5.10000000E+02  4.60000000E+01  0.00000000E+00
  5.10000000E+02  4.40000000E+01  0.00000000E+00
  5.10000000E+02  4.20000000E+01  0.00000000E+00
  5.10000000E+02  4.00000000E+01  0.00000000E+00
  5.10000000E+02  3.80000000E+01  0.00000000E+00
  5.10000000E+02  3.60000000E+01  0.00000000E+00
  5.10000000E+02  3.40000000E+01  0.00000000E+00
  5.10000000E+02  3.20000000E+01  0.00000000E+00
  5.10000000E+02  3.00000000E+01  0.00000000E+00
  5.10000000E+02  2.80000000E+01  0.00000000E+00
  5.10000000E+02  2.60000000E+01  0.00000000E+00
  5.10000000E+02  2.40000000E+01  0.00000000E+00
  5.10000000E+02  2.20000000E+01  0.00000000E+00
  5.10000000E+02  2.00000000E+01  0.00000000E+00
  5.10000000E+02  1.80000000E+01  0.00000000E+00
  5.10000000E+02  1.60000000E+01  0.00000000E+00
  5.10000000E+02  1.40000000E+01  0.00000000E+00
  5.10000000E+02  1.20000000E+01  0.00000000E+00
  5.10000000E+02  1.00000000E+01  0.00000000E+00
  5.10000000E+02  8.00000000E+00  0.00000000E+00
  5.10000000E+02  6.00000000E+00  0.00000000E+00
  5.10000000E+02  4.00000000E+00  0.00000000E+00
  5.10000000E+02  2.00000000E+00  0.00000000E+00
  5.10000000E+02 -3.33066907E-14  0.00000000E+00
  5.20000000E+02  1.00000000E+02  0.00000000E+00
  5.20000000E+02  9.80000000E+01  0.00000000E+00
  5.20000000E+02  9.60000000E+01  0.00000000E+00
  5.20000000E+02  9.40000000E+01  0.00000000E+00
  5.20000000E+02  9.20000000E+01  0.00000000E+00
  5.20000000E+02  9.00000000E+01  0.00000000E+00
  5.20000000E+02  8.80000000E+01  0.00000000E+00
  5.20000000E+02  8.60000000E+01  0.00000000E+00
  5.20000000E+02  8.40000000E+01  0.00000000E+00
  5.20000000E+02  8.20000000E+01  0.00000000E+00
  5.20000000E+02  8.00000000E+01  0.00000000E+00
  5.20000000E+02  7.80000000E+01  0.00000000E+00
  5.20000000E+02  7.60000000E+01  0.00000000E+00
  5.20000000E+02  7.40000000E+01  0.00000000E+00
  5.20000000E+02  7.20000000E+01  0.00000000E+00
  5.20000000E+02  7.00000000E+01  0.00000000E+00
  5.20000000E+02  6.80000000E+01  0.00000000E+00
  5.20000000E+02  6.60000000E+01  0.00000000E+00
  5.20000000E+02  6.40000000E+01  0.00000000E+00
  5.20000000E+02  6.20000000E+01  0.00000000E+00
  5.20000000E+02  6.00000000E+01  0.00000000E+00
  5.20000000E+02  5.80000000E+01  0.00000000E+00
  5.20000000E+02  5.60000000E+01  0.00000000E+00
  5.20000000E+02  5.40000000E+01  0.00000000E+00
  5.20000000E+02  5.20000000E+01  0.00000000E+00
  5.20000000E+02  5.00000000E+01  0.00000000E+00
  5.20000000E+02  4.80000000E+01  0.00000000E+00
  5.20000000E+02  4.60000000E+01  0.00000000E+00
  5.20000000E+02  4.40000000E+01  0.00000000E+00
  5.20000000E+02  4.20000000E+01  0.00000000E+00
  5.20000000E+02  4.00000000E+01  0.00000000E+00
  5.20000000E+02  3.80000000E+01  0.00000000E+00
  5.20000000E+02  3.60000000E+01  0.00000000E+00
  5.20000000E+02  3.40000000E+01  0.00000000E+00
  5.20000000E+02  3.20000000E+01  0.00000000E+00
  5.20000000E+02  3.00000000E+01  0.00000000E+00
  5.20000000E+02  2.80000000E+01  0.00000000E+00
  5.20000000E+02  2.60000000E+01  0.00000000E+00
  5.20000000E+02  2.40000000E+01  0.00000000E+00
  5.20000000E+02  2.20000000E+01  0.00000000E+00
  5.20000000E+02  2.00000000E+01  0.00000000E+00
  5.20000000E+02  1.80000000E+01  0.00000000E+00
  5.20000000E+02  1.60000000E+01  0.00000000E+00
  5.20000000E+02  1.40000000E+01  0.00000000E+00
  5.20000000E+02  1.20000000E+01  0.00000000E+00
  5.20000000E+02  1.00000000E+01  0.00000000E+00
  5.20000000E+02  8.00000000E+00  0.00000000E+00
  5.20000000E+02  6.00000000E+00  0.00000000E+00
  5.20000000E+02  4.00000000E+00  0.00000000E+00
  5.20000000E+02  2.00000000E+00  0.00000000E+00
  5.20000000E+02 -3.33066907E-14  0.00000000E+00
  5.30000000E+02  1.00000000E+02  0.00000000E+00
  5.30000000E+02  9.80000000E+01  0.00000000E+00
  5.30000000E+02  9.60000000E+01  0.00000000E+00
  5.30000000E+02  9.40000000E+01  0.00000000E+00
  5.30000000E+02  9.20000000E+01  0.00000000E+00
  5.30000000E+02  9.00000000E+01  0.00000000E+00
  5.30000000E+02  8.80000000E+01  0.00000000E+00
  5.30000000E+02  8.60000000E+01  0.00000000E+00
  5.30000000E+02  8.40000000E+01  0.00000000E+00
  5.30000000E+02  8.20000000E+01  0.00000000E+00
  5.30000000E+02  8.00000000E+01  0.00000000E+00
  5.30000000E+02  7.80000000E+01  0.00000000E+00
  5.30000000E+02  7.60000000E+01  0.00000000E+00
  5.30000000E+02  7.40000000E+01  0.00000000E+00
  5.30000000E+02  7.20000000E+01  0.00000000E+00
  5.30000000E+02  7.00000000E+01  0.00000000E+00
  5.30000000E+02  6.80000000E+01  0.00000000E+00
  5.30000000E+02  6.60000000E+01  0.00000000E+00
  5.30000000E+02  6.40000000E+01  0.00000000E+00
  5.30000000E+02  6.20000000E+01  0.00000000E+00
  5.30000000E+02  6.00000000E+01  0.00000000E+00
  5.30000000E+02  5.80000000E+01  0.00000000E+00
  5.30000000E+02  5.60000000E+01  0.00000000E+00
  5.30000000E+02  5.40000000E+01  0.00000000E+00
  5.30000000E+02  5.20000000E+01  0.00000000E+00
  5.30000000E+02  5.00000000E+01  0.00000000E+00
  5.30000000E+02  4.80000000E+01  0.00000000E+00
  5.30000000E+02  4.60000000E+01  0.00000000E+00
  5.30000000E+02  4.40000000E+01  0.00000000E+00
  5.30000000E+02  4.20000000E+01  0.00000000E+00
  5.30000000E+02  4.00000000E+01  0.00000000E+00
  5.30000000E+02  3.80000000E+01  0.00000000E+00
  5.30000000E+02  3.60000000E+01  0.00000000E+00
  5.30000000E+02  3.40000000E+01  0.00000000E+00
  5.30000000E+02  3.20000000E+01  0.00000000E+00
  5.30000000E+02  3.00000000E+01  0.00000000E+00
  5.30000000E+02  2.80000000E+01  0.00000000E+00
  5.30000000E+02  2.60000000E+01  0.00000000E+00
  5.30000000E+02  2.40000000E+01  0.00000000E+00
  5.30000000E+02  2.20000000E+01  0.00000000E+00
  5.30000000E+02  2.00000000E+01  0.00000000E+00
  5.30000000E+02  1.80000000E+01  0.00000000E+00
  5.30000000E+02  1.60000000E+01  0.00000000E+00
  5.30000000E+02  1.40000000E+01  0.00000000E+00
  5.30000000E+02  1.20000000E+01  0.00000000E+00
  5.30000000E+02  1.00000000E+01  0.00000000E+00
  5.30000000E+02  8.00000000E+00  0.00000000E+00
  5.30000000E+02  6.00000000E+00  0.00000000E+00
  5.30000000E+02  4.00000000E+00  0.00000000E+00
  5.30000000E+02  2.00000000E+00  0.00000000E+00
  5.30000000E+02 -3.33066907E-14  0.00000000E+00
  5.40000000E+02  1.00000000E+02  0.00000000E+00
  5.40000000E+02  9.80000000E+01  0.00000000E+00
  5.40000000E+02  9.60000000E+01  0.00000000E+00
  5.40000000E+02  9.40000000E+01  0.00000000E+00
  5.40000000E+02  9.20000000E+01  0.00000000E+00
  5.40000000E+02  9.00000000E+01  0.00000000E+00
  5.40000000E+02  8.80000000E+01  0.00000000E+00
  5.40000000E+02  8.60000000E+01  0.00000000E+00
  5.40000000E+02  8.40000000E+01  0.00000000E+00
  5.40000000E+02  8.20000000E+01  0.00000000E+00
  5.40000000E+02  8.00000000E+01  0.00000000E+00
  5.40000000E+02  7.80000000E+01  0.00000000E+00
  5.40000000E+02  7.60000000E+01  0.00000000E+00
  5.40000000E+02  7.40000000E+01  0.00000000E+00
  5.40000000E+02  7.20000000E+01  0.00000000E+00
  5.40000000E+02  7.00000000E+01  0.00000000E+00
  5.40000000E+02  6.80000000E+01  0.00000000E+00
  5.40000000E+02  6.60000000E+01  0.00000000E+00
  5.40000000E+02  6.40000000E+01  0.00000000E+00
  5.40000000E+02  6.20000000E+01  0.00000000E+00
  5.40000000E+02  6.00000000E+01  0.00000000E+00
  5.40000000E+02  5.80000000E+01  0.00000000E+00
  5.40000000E+02  5.60000000E+01  0.00000000E+00
  5.40000000E+02  5.40000000E+01  0.00000000E+00
  5.40000000E+02  5.20000000E+01  0.00000000E+00
  5.40000000E+02  5.00000000E+01  0.00000000E+00
  5.40000000E+02  4.80000000E+01  0.00000000E+00
  5.40000000E+02  4.60000000E+01  0.00000000E+00
  5.40000000E+02  4.40000000E+01  0.00000000E+00
  5.40000000E+02  4.20000000E+01  0.00000000E+00
  5.40000000E+02  4.00000000E+01  0.00000000E+00
  5.40000000E+02  3.80000000E+01  0.00000000E+00
  5.40000000E+02  3.60000000E+01  0.00000000E+00
  5.40000000E+02  3.40000000E+01  0.00000000E+00
  5.40000000E+02  3.20000000E+01  0.00000000E+00
  5.40000000E+02  3.00000000E+01  0.00000000E+00
  5.40000000E+02  2.80000000E+01  0.00000000E+00
  5.40000000E+02  2.60000000E+01  0.00000000E+00
  5.40000000E+02  2.40000000E+01  0.00000000E+00
  5.40000000E+02  2.20000000E+01  0.00000000E+00
  5.40000000E+02  2.00000000E+01  0.00000000E+00
  5.40000000E+02  1.80000000E+01  0.00000000E+00
  5.40000000E+02  1.60000000E+01  0.00000000E+00
  5.40000000E+02  1.40000000E+01  0.00000000E+00
  5.40000000E+02  1.20000000E+01  0.00000000E+00
  5.40000000E+02  1.00000000E+01  0.00000000E+00
  5.40000000E+02  8.00000000E+00  0.00000000E+00
  5.40000000E+02  6.00000000E+00  0.00000000E+00
  5.40000000E+02  4.00000000E+00  0.00000000E+00
  5.40000000E+02  2.00000000E+00  0.00000000E+00
  5.40000000E+02 -3.33066907E-14  0.00000000E+00
  5.50000000E+02  1.00000000E+02  0.00000000E+00
  5.50000000E+02  9.80000000E+01  0.00000000E+00
  5.50000000E+02  9.60000000E+01  0.00000000E+00
  5.50000000E+02  9.40000000E+01  0.00000000E+00
  5.50000000E+02  9.20000000E+01  0.00000000E+00
  5.50000000E+02  9.00000000E+01  0.00000000E+00
  5.50000000E+02  8.80000000E+01  0.00000000E+00
  5.50000000E+02  8.60000000E+01  0.00000000E+00
  5.50000000E+02  8.40000000E+01  0.00000000E+00
  5.50000000E+02  8.20000000E+01  0.00000000E+00
  5.50000000E+02  8.00000000E+01  0.00000000E+00
  5.50000000E+02  7.80000000E+01  0.00000000E+00
  5.50000000E+02  7.60000000E+01  0.00000000E+00
  5.50000000E+02  7.40000000E+01  0.00000000E+00
  5.50000000E+02  7.20000000E+01  0.00000000E+00
  5.50000000E+02  7.00000000E+01  0.00000000E+00
  5.50000000E+02  6.80000000E+01  0.00000000E+00
  5.50000000E+02  6.60000000E+01  0.00000000E+00
  5.50000000E+02  6.40000000E+01  0.00000000E+00
  5.50000000E+02  6.20000000E+01  0.00000000E+00
  5.50000000E+02  6.00000000E+01  0.00000000E+00
  5.50000000E+02  5.80000000E+01  0.00000000E+00
  5.50000000E+02  5.60000000E+01  0.00000000E+00
  5.50000000E+02  5.40000000E+01  0.00000000E+00
  5.50000000E+02  5.20000000E+01  0.00000000E+00
  5.50000000E+02  5.00000000E+01  0.00000000E+00
  5.50000000E+02  4.80000000E+01  0.00000000E+00
  5.50000000E+02  4.60000000E+01  0.00000000E+00
  5.50000000E+02  4.40000000E+01  0.00000000E+00
  5.50000000E+02  4.20000000E+01  0.00000000E+00
  5.50000000E+02  4.00000000E+01  0.00000000E+00
  5.50000000E+02  3.80000000E+01  0.00000000E+00
  5.50000000E+02  3.60000000E+01  0.00000000E+00
  5.50000000E+02  3.40000000E+01  0.00000000E+00
  5.50000000E+02  3.20000000E+01  0.00000000E+00
  5.50000000E+02  3.00000000E+01  0.00000000E+00
  5.50000000E+02  2.80000000E+01  0.00000000E+00
  5.50000000E+02  2.60000000E+01  0.00000000E+00
  5.50000000E+02  2.40000000E+01  0.00000000E+00
  5.50000000E+02  2.20000000E+01  0.00000000E+00
  5.50000000E+02  2.00000000E+01  0.00000000E+00
  5.50000000E+02  1.80000000E+01  0.00000000E+00
  5.50000000E+02  1.60000000E+01  0.00000000E+00
  5.50000000E+02  1.40000000E+01  0.00000000E+00
  5.50000000E+02  1.20000000E+01  0.00000000E+00
  5.50000000E+02  1.00000000E+01  0.00000000E+00
  5.50000000E+02  8.00000000E+00  0.00000000E+00
  5.50000000E+02  6.00000000E+00  0.00000000E+00
  5.50000000E+02  4.00000000E+00  0.00000000E+00
  5.50000000E+02  2.00000000E+00  0.00000000E+00
  5.50000000E+02 -3.33066907E-14  0.00000000E+00
  5.60000000E+02  1.00000000E+02  0.00000000E+00
  5.60000000E+02  9.80000000E+01  0.00000000E+00
  5.60000000E+02  9.60000000E+01  0.00000000E+00
  5.60000000E+02  9.40000000E+01  0.00000000E+00
  5.60000000E+02  9.20000000E+01  0.00000000E+00
  5.60000000E+02  9.00000000E+01  0.00000000E+00
  5.60000000E+02  8.80000000E+01  0.00000000E+00
  5.60000000E+02  8.60000000E+01  0.00000000E+00
  5.60000000E+02  8.40000000E+01  0.00000000E+00
  5.60000000E+02  8.20000000E+01  0.00000000E+00
  5.60000000E+02  8.00000000E+01  0.00000000E+00
  5.60000000E+02  7.80000000E+01  0.00000000E+00
  5.60000000E+02  7.60000000E+01  0.00000000E+00
  5.60000000E+02  7.40000000E+01  0.00000000E+00
  5.60000000E+02  7.20000000E+01  0.00000000E+00
  5.60000000E+02  7.00000000E+01  0.00000000E+00
  5.60000000E+02  6.80000000E+01  0.00000000E+00
  5.60000000E+02  6.60000000E+01  0.00000000E+00
  5.60000000E+02  6.40000000E+01  0.00000000E+00
  5.60000000E+02  6.20000000E+01  0.00000000E+00
  5.60000000E+02  6.00000000E+01  0.00000000E+00
  5.60000000E+02  5.80000000E+01  0.00000000E+00
  5.60000000E+02  5.60000000E+01  0.00000000E+00
  5.60000000E+02  5.40000000E+01  0.00000000E+00
  5.60000000E+02  5.20000000E+01  0.00000000E+00
  5.60000000E+02  5.00000000E+01  0.00000000E+00
  5.60000000E+02  4.80000000E+01  0.00000000E+00
  5.60000000E+02  4.60000000E+01  0.00000000E+00
  5.60000000E+02  4.40000000E+01  0.00000000E+00
  5.60000000E+02  4.20000000E+01  0.00000000E+00
  5.60000000E+02  4.00000000E+01  0.00000000E+00
  5.60000000E+02  3.80000000E+01  0.00000000E+00
  5.60000000E+02  3.60000000E+01  0.00000000E+00
  5.60000000E+02  3.40000000E+01  0.00000000E+00
  5.60000000E+02  3.20000000E+01  0.00000000E+00
  5.60000000E+02  3.00000000E+01  0.00000000E+00
  5.60000000E+02  2.80000000E+01  0.00000000E+00
  5.60000000E+02  2.60000000E+01  0.00000000E+00
  5.60000000E+02  2.40000000E+01  0.00000000E+00
  5.60000000E+02  2.20000000E+01  0.00000000E+00
  5.60000000E+02  2.00000000E+01  0.00000000E+00
  5.60000000E+02  1.80000000E+01  0.00000000E+00
  5.60000000E+02  1.60000000E+01  0.00000000E+00
  5.60000000E+02  1.40000000E+01  0.00000000E+00
  5.60000000E+02  1.20000000E+01  0.00000000E+00
  5.60000000E+02  1.00000000E+01  0.00000000E+00
  5.60000000E+02  8.00000000E+00  0.00000000E+00
  5.60000000E+02  6.00000000E+00  0.00000000E+00
  5.60000000E+02  4.00000000E+00  0.00000000E+00
  5.60000000E+02  2.00000000E+00  0.00000000E+00
  5.60000000E+02 -3.33066907E-14  0.00000000E+00
  5.70000000E+02  1.00000000E+02  0.00000000E+00
  5.70000000E+02  9.80000000E+01  0.00000000E+00
  5.70000000E+02  9.60000000E+01  0.00000000E+00
  5.70000000E+02  9.40000000E+01  0.00000000E+00
  5.70000000E+02  9.20000000E+01  0.00000000E+00
  5.70000000E+02  9.00000000E+01  0.00000000E+00
  5.70000000E+02  8.80000000E+01  0.00000000E+00
  5.70000000E+02  8.60000000E+01  0.00000000E+00
  5.70000000E+02  8.40000000E+01  0.00000000E+00
  5.70000000E+02  8.20000000E+01  0.00000000E+00
  5.70000000E+02  8.00000000E+01  0.00000000E+00
  5.70000000E+02  7.80000000E+01  0.00000000E+00
  5.70000000E+02  7.60000000E+01  0.00000000E+00
  5.70000000E+02  7.40000000E+01  0.00000000E+00
  5.70000000E+02  7.20000000E+01  0.00000000E+00
  5.70000000E+02  7.00000000E+01  0.00000000E+00
  5.70000000E+02  6.80000000E+01  0.00000000E+00
  5.70000000E+02  6.60000000E+01  0.00000000E+00
  5.70000000E+02  6.40000000E+01  0.00000000E+00
  5.70000000E+02  6.20000000E+01  0.00000000E+00
  5.70000000E+02  6.00000000E+01  0.00000000E+00
  5.70000000E+02  5.80000000E+01  0.00000000E+00
  5.70000000E+02  5.60000000E+01  0.00000000E+00
  5.70000000E+02  5.40000000E+01  0.00000000E+00
  5.70000000E+02  5.20000000E+01  0.00000000E+00
  5.70000000E+02  5.00000000E+01  0.00000000E+00
  5.70000000E+02  4.80000000E+01  0.00000000E+00
  5.70000000E+02  4.60000000E+01  0.00000000E+00
  5.70000000E+02  4.40000000E+01  0.00000000E+00
  5.70000000E+02  4.20000000E+01  0.00000000E+00
  5.70000000E+02  4.00000000E+01  0.00000000E+00
  5.70000000E+02  3.80000000E+01  0.00000000E+00
  5.70000000E+02  3.60000000E+01  0.00000000E+00
  5.70000000E+02  3.40000000E+01  0.00000000E+00
  5.70000000E+02  3.20000000E+01  0.00000000E+00
  5.70000000E+02  3.00000000E+01  0.00000000E+00
  5.70000000E+02  2.80000000E+01  0.00000000E+00
  5.70000000E+02  2.60000000E+01  0.00000000E+00
  5.70000000E+02  2.40000000E+01  0.00000000E+00
  5.70000000E+02  2.20000000E+01  0.00000000E+00
  5.70000000E+02  2.00000000E+01  0.00000000E+00
  5.70000000E+02  1.80000000E+01  0.00000000E+00
  5.70000000E+02  1.60000000E+01  0.00000000E+00
  5.70000000E+02  1.40000000E+01  0.00000000E+00
  5.70000000E+02  1.20000000E+01  0.00000000E+00
  5.70000000E+02  1.00000000E+01  0.00000000E+00
  5.70000000E+02  8.00000000E+00  0.00000000E+00
  5.70000000E+02  6.00000000E+00  0.00000000E+00
  5.70000000E+02  4.00000000E+00  0.00000000E+00
  5.70000000E+02  2.00000000E+00  0.00000000E+00
  5.70000000E+02 -3.33066907E-14  0.00000000E+00
  5.80000000E+02  1.00000000E+02  0.00000000E+00
  5.80000000E+02  9.80000000E+01  0.00000000E+00
  5.80000000E+02  9.60000000E+01  0.00000000E+00
  5.80000000E+02  9.40000000E+01  0.00000000E+00
  5.80000000E+02  9.20000000E+01  0.00000000E+00
  5.80000000E+02  9.00000000E+01  0.00000000E+00
  5.80000000E+02  8.80000000E+01  0.00000000E+00
  5.80000000E+02  8.60000000E+01  0.00000000E+00
  5.80000000E+02  8.40000000E+01  0.00000000E+00
  5.80000000E+02  8.20000000E+01  0.00000000E+00
  5.80000000E+02  8.00000000E+01  0.00000000E+00
  5.80000000E+02  7.80000000E+01  0.00000000E+00
  5.80000000E+02  7.60000000E+01  0.00000000E+00
  5.80000000E+02  7.40000000E+01  0.00000000E+00
  5.80000000E+02  7.20000000E+01  0.00000000E+00
  5.80000000E+02  7.00000000E+01  0.00000000E+00
  5.80000000E+02  6.80000000E+01  0.00000000E+00
  5.80000000E+02  6.60000000E+01  0.00000000E+00
  5.80000000E+02  6.40000000E+01  0.00000000E+00
  5.80000000E+02  6.20000000E+01  0.00000000E+00
  5.80000000E+02  6.00000000E+01  0.00000000E+00
  5.80000000E+02  5.80000000E+01  0.00000000E+00
  5.80000000E+02  5.60000000E+01  0.00000000E+00
  5.80000000E+02  5.40000000E+01  0.00000000E+00
  5.80000000E+02  5.20000000E+01  0.00000000E+00
  5.80000000E+02  5.00000000E+01  0.00000000E+00
  5.80000000E+02  4.80000000E+01  0.00000000E+00
  5.80000000E+02  4.60000000E+01  0.00000000E+00
  5.80000000E+02  4.40000000E+01  0.00000000E+00
  5.80000000E+02  4.20000000E+01  0.00000000E+00
  5.80000000E+02  4.00000000E+01  0.00000000E+00
  5.80000000E+02  3.80000000E+01  0.00000000E+00
  5.80000000E+02  3.60000000E+01  0.00000000E+00
  5.80000000E+02  3.40000000E+01  0.00000000E+00
  5.80000000E+02  3.20000000E+01  0.00000000E+00
  5.80000000E+02  3.00000000E+01  0.00000000E+00
  5.80000000E+02  2.80000000E+01  0.00000000E+00
  5.80000000E+02  2.60000000E+01  0.00000000E+00
  5.80000000E+02  2.40000000E+01  0.00000000E+00
  5.80000000E+02  2.20000000E+01  0.00000000E+00
  5.80000000E+02  2.00000000E+01  0.00000000E+00
  5.80000000E+02  1.80000000E+01  0.00000000E+00
  5.80000000E+02  1.60000000E+01  0.00000000E+00
  5.80000000E+02  1.40000000E+01  0.00000000E+00
  5.80000000E+02  1.20000000E+01  0.00000000E+00
  5.80000000E+02  1.00000000E+01  0.00000000E+00
  5.80000000E+02  8.00000000E+00  0.00000000E+00
  5.80000000E+02  6.00000000E+00  0.00000000E+00
  5.80000000E+02  4.00000000E+00  0.00000000E+00
  5.80000000E+02  2.00000000E+00  0.00000000E+00
  5.80000000E+02 -3.33066907E-14  0.00000000E+00
  5.90000000E+02  1.00000000E+02  0.00000000E+00
  5.90000000E+02  9.80000000E+01  0.00000000E+00
  5.90000000E+02  9.60000000E+01  0.00000000E+00
  5.90000000E+02  9.40000000E+01  0.00000000E+00
  5.90000000E+02  9.20000000E+01  0.00000000E+00
  5.90000000E+02  9.00000000E+01  0.00000000E+00
  5.90000000E+02  8.80000000E+01  0.00000000E+00
  5.90000000E+02  8.60000000E+01  0.00000000E+00
  5.90000000E+02  8.40000000E+01  0.00000000E+00
  5.90000000E+02  8.20000000E+01  0.00000000E+00
  5.90000000E+02  8.00000000E+01  0.00000000E+00
  5.90000000E+02  7.80000000E+01  0.00000000E+00
  5.90000000E+02  7.60000000E+01  0.00000000E+00
  5.90000000E+02  7.40000000E+01  0.00000000E+00
  5.90000000E+02  7.20000000E+01  0.00000000E+00
  5.90000000E+02  7.00000000E+01  0.00000000E+00
  5.90000000E+02  6.80000000E+01  0.00000000E+00
  5.90000000E+02  6.60000000E+01  0.00000000E+00
  5.90000000E+02  6.40000000E+01  0.00000000E+00
  5.90000000E+02  6.20000000E+01  0.00000000E+00
  5.90000000E+02  6.00000000E+01  0.00000000E+00
  5.90000000E+02  5.80000000E+01  0.00000000E+00
  5.90000000E+02  5.60000000E+01  0.00000000E+00
  5.90000000E+02  5.40000000E+01  0.00000000E+00
  5.90000000E+02  5.20000000E+01  0.00000000E+00
  5.90000000E+02  5.00000000E+01  0.00000000E+00
  5.90000000E+02  4.80000000E+01  0.00000000E+00
  5.90000000E+02  4.60000000E+01  0.00000000E+00
  5.90000000E+02  4.40000000E+01  0.00000000E+00
  5.90000000E+02  4.20000000E+01  0.00000000E+00
  5.90000000E+02  4.00000000E+01  0.00000000E+00
  5.90000000E+02  3.80000000E+01  0.00000000E+00
  5.90000000E+02  3.60000000E+01  0.00000000E+00
  5.90000000E+02  3.40000000E+01  0.00000000E+00
  5.90000000E+02  3.20000000E+01  0.00000000E+00
  5.90000000E+02  3.00000000E+01  0.00000000E+00
  5.90000000E+02  2.80000000E+01  0.00000000E+00
  5.90000000E+02  2.60000000E+01  0.00000000E+00
  5.90000000E+02  2.40000000E+01  0.00000000E+00
  5.90000000E+02  2.20000000E+01  0.00000000E+00
  5.90000000E+02  2.00000000E+01  0.00000000E+00
  5.90000000E+02  1.80000000E+01  0.00000000E+00
  5.90000000E+02  1.60000000E+01  0.00000000E+00
  5.90000000E+02  1.40000000E+01  0.00000000E+00
  5.90000000E+02  1.20000000E+01  0.00000000E+00
  5.90000000E+02  1.00000000E+01  0.00000000E+00
  5.90000000E+02  8.00000000E+00  0.00000000E+00
  5.90000000E+02  6.00000000E+00  0.00000000E+00
  5.90000000E+02  4.00000000E+00  0.00000000E+00
  5.90000000E+02  2.00000000E+00  0.00000000E+00
  5.90000000E+02 -3.33066907E-14  0.00000000E+00
  6.00000000E+02  1.00000000E+02  0.00000000E+00
  6.00000000E+02  9.80000000E+01  0.00000000E+00
  6.00000000E+02  9.60000000E+01  0.00000000E+00
  6.00000000E+02  9.40000000E+01  0.00000000E+00
  6.00000000E+02  9.20000000E+01  0.00000000E+00
  6.00000000E+02  9.00000000E+01  0.00000000E+00
  6.00000000E+02  8.80000000E+01  0.00000000E+00
  6.00000000E+02  8.60000000E+01  0.00000000E+00
  6.00000000E+02  8.40000000E+01  0.00000000E+00
  6.00000000E+02  8.20000000E+01  0.00000000E+00
  6.00000000E+02  8.00000000E+01  0.00000000E+00
  6.00000000E+02  7.80000000E+01  0.00000000E+00
  6.00000000E+02  7.60000000E+01  0.00000000E+00
  6.00000000E+02  7.40000000E+01  0.00000000E+00
  6.00000000E+02  7.20000000E+01  0.00000000E+00
  6.00000000E+02  7.00000000E+01  0.00000000E+00
  6.00000000E+02  6.80000000E+01  0.00000000E+00
  6.00000000E+02  6.60000000E+01  0.00000000E+00
  6.00000000E+02  6.40000000E+01  0.00000000E+00
  6.00000000E+02  6.20000000E+01  0.00000000E+00
  6.00000000E+02  6.00000000E+01  0.00000000E+00
  6.00000000E+02  5.80000000E+01  0.00000000E+00
  6.00000000E+02  5.60000000E+01  0.00000000E+00
  6.00000000E+02  5.40000000E+01  0.00000000E+00
  6.00000000E+02  5.20000000E+01  0.00000000E+00
  6.00000000E+02  5.00000000E+01  0.00000000E+00
  6.00000000E+02  4.80000000E+01  0.00000000E+00
  6.00000000E+02  4.60000000E+01  0.00000000E+00
  6.00000000E+02  4.40000000E+01  0.00000000E+00
  6.00000000E+02  4.20000000E+01  0.00000000E+00
  6.00000000E+02  4.00000000E+01  0.00000000E+00
  6.00000000E+02  3.80000000E+01  0.00000000E+00
  6.00000000E+02  3.60000000E+01  0.00000000E+00
  6.00000000E+02  3.40000000E+01  0.00000000E+00
  6.00000000E+02  3.20000000E+01  0.00000000E+00
  6.00000000E+02  3.00000000E+01  0.00000000E+00
  6.00000000E+02  2.80000000E+01  0.00000000E+00
  6.00000000E+02  2.60000000E+01  0.00000000E+00
  6.00000000E+02  2.40000000E+01  0.00000000E+00
  6.00000000E+02  2.20000000E+01  0.00000000E+00
  6.00000000E+02  2.00000000E+01  0.00000000E+00
  6.00000000E+02  1.80000000E+01  0.00000000E+00
  6.00000000E+02  1.60000000E+01  0.00000000E+00
  6.00000000E+02  1.40000000E+01  0.00000000E+00
  6.00000000E+02  1.20000000E+01  0.00000000E+00
  6.00000000E+02  1.00000000E+01  0.00000000E+00
  6.00000000E+02  8.00000000E+00  0.00000000E+00
  6.00000000E+02  6.00000000E+00  0.00000000E+00
  6.00000000E+02  4.00000000E+00  0.00000000E+00
  6.00000000E+02  2.00000000E+00  0.00000000E+00
  6.00000000E+02 -3.33066907E-14  0.00000000E+00
  6.10000000E+02  1.00000000E+02  0.00000000E+00
  6.10000000E+02  9.80000000E+01  0.00000000E+00
  6.10000000E+02  9.60000000E+01  0.00000000E+00
  6.10000000E+02  9.40000000E+01  0.00000000E+00
  6.10000000E+02  9.20000000E+01  0.00000000E+00
  6.10000000E+02  9.00000000E+01  0.00000000E+00
  6.10000000E+02  8.80000000E+01  0.00000000E+00
  6.10000000E+02  8.60000000E+01  0.00000000E+00
  6.10000000E+02  8.40000000E+01  0.00000000E+00
  6.10000000E+02  8.20000000E+01  0.00000000E+00
  6.10000000E+02  8.00000000E+01  0.00000000E+00
  6.10000000E+02  7.80000000E+01  0.00000000E+00
  6.10000000E+02  7.60000000E+01  0.00000000E+00
  6.10000000E+02  7.40000000E+01  0.00000000E+00
  6.10000000E+02  7.20000000E+01  0.00000000E+00
  6.10000000E+02  7.00000000E+01  0.00000000E+00
  6.10000000E+02  6.80000000E+01  0.00000000E+00
  6.10000000E+02  6.60000000E+01  0.00000000E+00
  6.10000000E+02  6.40000000E+01  0.00000000E+00
  6.10000000E+02  6.20000000E+01  0.00000000E+00
  6.10000000E+02  6.00000000E+01  0.00000000E+00
  6.10000000E+02  5.80000000E+01  0.00000000E+00
  6.10000000E+02  5.60000000E+01  0.00000000E+00
  6.10000000E+02  5.40000000E+01  0.00000000E+00
  6.10000000E+02  5.20000000E+01  0.00000000E+00
  6.10000000E+02  5.00000000E+01  0.00000000E+00
  6.10000000E+02  4.80000000E+01  0.00000000E+00
  6.10000000E+02  4.60000000E+01  0.00000000E+00
  6.10000000E+02  4.40000000E+01  0.00000000E+00
  6.10000000E+02  4.20000000E+01  0.00000000E+00
  6.10000000E+02  4.00000000E+01  0.00000000E+00
  6.10000000E+02  3.80000000E+01  0.00000000E+00
  6.10000000E+02  3.60000000E+01  0.00000000E+00
  6.10000000E+02  3.40000000E+01  0.00000000E+00
  6.10000000E+02  3.20000000E+01  0.00000000E+00
  6.10000000E+02  3.00000000E+01  0.00000000E+00
  6.10000000E+02  2.80000000E+01  0.00000000E+00
  6.10000000E+02  2.60000000E+01  0.00000000E+00
  6.10000000E+02  2.40000000E+01  0.00000000E+00
  6.10000000E+02  2.20000000E+01  0.00000000E+00
  6.10000000E+02  2.00000000E+01  0.00000000E+00
  6.10000000E+02  1.80000000E+01  0.00000000E+00
  6.10000000E+02  1.60000000E+01  0.00000000E+00
  6.10000000E+02  1.40000000E+01  0.00000000E+00
  6.10000000E+02  1.20000000E+01  0.00000000E+00
  6.10000000E+02  1.00000000E+01  0.00000000E+00
  6.10000000E+02  8.00000000E+00  0.00000000E+00
  6.10000000E+02  6.00000000E+00  0.00000000E+00
  6.10000000E+02  4.00000000E+00  0.00000000E+00
  6.10000000E+02  2.00000000E+00  0.00000000E+00
  6.10000000E+02 -3.33066907E-14  0.00000000E+00
  6.20000000E+02  1.00000000E+02  0.00000000E+00
  6.20000000E+02  9.80000000E+01  0.00000000E+00
  6.20000000E+02  9.60000000E+01  0.00000000E+00
  6.20000000E+02  9.40000000E+01  0.00000000E+00
  6.20000000E+02  9.20000000E+01  0.00000000E+00
  6.20000000E+02  9.00000000E+01  0.00000000E+00
  6.20000000E+02  8.80000000E+01  0.00000000E+00
  6.20000000E+02  8.60000000E+01  0.00000000E+00
  6.20000000E+02  8.40000000E+01  0.00000000E+00
  6.20000000E+02  8.20000000E+01  0.00000000E+00
  6.20000000E+02  8.00000000E+01  0.00000000E+00
  6.20000000E+02  7.80000000E+01  0.00000000E+00
  6.20000000E+02  7.60000000E+01  0.00000000E+00
  6.20000000E+02  7.40000000E+01  0.00000000E+00
  6.20000000E+02  7.20000000E+01  0.00000000E+00
  6.20000000E+02  7.00000000E+01  0.00000000E+00
  6.20000000E+02  6.80000000E+01  0.00000000E+00
  6.20000000E+02  6.60000000E+01  0.00000000E+00
  6.20000000E+02  6.40000000E+01  0.00000000E+00
  6.20000000E+02  6.20000000E+01  0.00000000E+00
  6.20000000E+02  6.00000000E+01  0.00000000E+00
  6.20000000E+02  5.80000000E+01  0.00000000E+00
  6.20000000E+02  5.60000000E+01  0.00000000E+00
  6.20000000E+02  5.40000000E+01  0.00000000E+00
  6.20000000E+02  5.20000000E+01  0.00000000E+00
  6.20000000E+02  5.00000000E+01  0.00000000E+00
  6.20000000E+02  4.80000000E+01  0.00000000E+00
  6.20000000E+02  4.60000000E+01  0.00000000E+00
  6.20000000E+02  4.40000000E+01  0.00000000E+00
  6.20000000E+02  4.20000000E+01  0.00000000E+00
  6.20000000E+02  4.00000000E+01  0.00000000E+00
  6.20000000E+02  3.80000000E+01  0.00000000E+00
  6.20000000E+02  3.60000000E+01  0.00000000E+00
  6.20000000E+02  3.40000000E+01  0.00000000E+00
  6.20000000E+02  3.20000000E+01  0.00000000E+00
  6.20000000E+02  3.00000000E+01  0.00000000E+00
  6.20000000E+02  2.80000000E+01  0.00000000E+00
  6.20000000E+02  2.60000000E+01  0.00000000E+00
  6.20000000E+02  2.40000000E+01  0.00000000E+00
  6.20000000E+02  2.20000000E+01  0.00000000E+00
  6.20000000E+02  2.00000000E+01  0.00000000E+00
  6.20000000E+02  1.80000000E+01  0.00000000E+00
  6.20000000E+02  1.60000000E+01  0.00000000E+00
  6.20000000E+02  1.40000000E+01  0.00000000E+00
  6.20000000E+02  1.20000000E+01  0.00000000E+00
  6.20000000E+02  1.00000000E+01  0.00000000E+00
  6.20000000E+02  8.00000000E+00  0.00000000E+00
  6.20000000E+02  6.00000000E+00  0.00000000E+00
  6.20000000E+02  4.00000000E+00  0.00000000E+00
  6.20000000E+02  2.00000000E+00  0.00000000E+00
  6.20000000E+02 -3.33066907E-14  0.00000000E+00
  6.30000000E+02  1.00000000E+02  0.00000000E+00
  6.30000000E+02  9.80000000E+01  0.00000000E+00
  6.30000000E+02  9.60000000E+01  0.00000000E+00
  6.30000000E+02  9.40000000E+01  0.00000000E+00
  6.30000000E+02  9.20000000E+01  0.00000000E+00
  6.30000000E+02  9.00000000E+01  0.00000000E+00
  6.30000000E+02  8.80000000E+01  0.00000000E+00
  6.30000000E+02  8.60000000E+01  0.00000000E+00
  6.30000000E+02  8.40000000E+01  0.00000000E+00
  6.30000000E+02  8.20000000E+01  0.00000000E+00
  6.30000000E+02  8.00000000E+01  0.00000000E+00
  6.30000000E+02  7.80000000E+01  0.00000000E+00
  6.30000000E+02  7.60000000E+01  0.00000000E+00
  6.30000000E+02  7.40000000E+01  0.00000000E+00
  6.30000000E+02  7.20000000E+01  0.00000000E+00
  6.30000000E+02  7.00000000E+01  0.00000000E+00
  6.30000000E+02  6.80000000E+01  0.00000000E+00
  6.30000000E+02  6.60000000E+01  0.00000000E+00
  6.30000000E+02  6.40000000E+01  0.00000000E+00
  6.30000000E+02  6.20000000E+01  0.00000000E+00
  6.30000000E+02  6.00000000E+01  0.00000000E+00
  6.30000000E+02  5.80000000E+01  0.00000000E+00
  6.30000000E+02  5.60000000E+01  0.00000000E+00
  6.30000000E+02  5.40000000E+01  0.00000000E+00
  6.30000000E+02  5.20000000E+01  0.00000000E+00
  6.30000000E+02  5.00000000E+01  0.00000000E+00
  6.30000000E+02  4.80000000E+01  0.00000000E+00
  6.30000000E+02  4.60000000E+01  0.00000000E+00
  6.30000000E+02  4.40000000E+01  0.00000000E+00
  6.30000000E+02  4.20000000E+01  0.00000000E+00
  6.30000000E+02  4.00000000E+01  0.00000000E+00
  6.30000000E+02  3.80000000E+01  0.00000000E+00
  6.30000000E+02  3.60000000E+01  0.00000000E+00
  6.30000000E+02  3.40000000E+01  0.00000000E+00
  6.30000000E+02  3.20000000E+01  0.00000000E+00
  6.30000000E+02  3.00000000E+01  0.00000000E+00
  6.30000000E+02  2.80000000E+01  0.00000000E+00
  6.30000000E+02  2.60000000E+01  0.00000000E+00
  6.30000000E+02  2.40000000E+01  0.00000000E+00
  6.30000000E+02  2.20000000E+01  0.00000000E+00
  6.30000000E+02  2.00000000E+01  0.00000000E+00
  6.30000000E+02  1.80000000E+01  0.00000000E+00
  6.30000000E+02  1.60000000E+01  0.00000000E+00
  6.30000000E+02  1.40000000E+01  0.00000000E+00
  6.30000000E+02  1.20000000E+01  0.00000000E+00
  6.30000000E+02  1.00000000E+01  0.00000000E+00
  6.30000000E+02  8.00000000E+00  0.00000000E+00
  6.30000000E+02  6.00000000E+00  0.00000000E+00
  6.30000000E+02  4.00000000E+00  0.00000000E+00
  6.30000000E+02  2.00000000E+00  0.00000000E+00
  6.30000000E+02 -3.33066907E-14  0.00000000E+00
  6.40000000E+02  1.00000000E+02  0.00000000E+00
  6.40000000E+02  9.80000000E+01  0.00000000E+00
  6.40000000E+02  9.60000000E+01  0.00000000E+00
  6.40000000E+02  9.40000000E+01  0.00000000E+00
  6.40000000E+02  9.20000000E+01  0.00000000E+00
  6.40000000E+02  9.00000000E+01  0.00000000E+00
  6.40000000E+02  8.80000000E+01  0.00000000E+00
  6.40000000E+02  8.60000000E+01  0.00000000E+00
  6.40000000E+02  8.40000000E+01  0.00000000E+00
  6.40000000E+02  8.20000000E+01  0.00000000E+00
  6.40000000E+02  8.00000000E+01  0.00000000E+00
  6.40000000E+02  7.80000000E+01  0.00000000E+00
  6.40000000E+02  7.60000000E+01  0.00000000E+00
  6.40000000E+02  7.40000000E+01  0.00000000E+00
  6.40000000E+02  7.20000000E+01  0.00000000E+00
  6.40000000E+02  7.00000000E+01  0.00000000E+00
  6.40000000E+02  6.80000000E+01  0.00000000E+00
  6.40000000E+02  6.60000000E+01  0.00000000E+00
  6.40000000E+02  6.40000000E+01  0.00000000E+00
  6.40000000E+02  6.20000000E+01  0.00000000E+00
  6.40000000E+02  6.00000000E+01  0.00000000E+00
  6.40000000E+02  5.80000000E+01  0.00000000E+00
  6.40000000E+02  5.60000000E+01  0.00000000E+00
  6.40000000E+02  5.40000000E+01  0.00000000E+00
  6.40000000E+02  5.20000000E+01  0.00000000E+00
  6.40000000E+02  5.00000000E+01  0.00000000E+00
  6.40000000E+02  4.80000000E+01  0.00000000E+00
  6.40000000E+02  4.60000000E+01  0.00000000E+00
  6.40000000E+02  4.40000000E+01  0.00000000E+00
  6.40000000E+02  4.20000000E+01  0.00000000E+00
  6.40000000E+02  4.00000000E+01  0.00000000E+00
  6.40000000E+02  3.80000000E+01  0.00000000E+00
  6.40000000E+02  3.60000000E+01  0.00000000E+00
  6.40000000E+02  3.40000000E+01  0.00000000E+00
  6.40000000E+02  3.20000000E+01  0.00000000E+00
  6.40000000E+02  3.00000000E+01  0.00000000E+00
  6.40000000E+02  2.80000000E+01  0.00000000E+00
  6.40000000E+02  2.60000000E+01  0.00000000E+00
  6.40000000E+02  2.40000000E+01  0.00000000E+00
  6.40000000E+02  2.20000000E+01  0.00000000E+00
  6.40000000E+02  2.00000000E+01  0.00000000E+00
  6.40000000E+02  1.80000000E+01  0.00000000E+00
  6.40000000E+02  1.60000000E+01  0.00000000E+00
  6.40000000E+02  1.40000000E+01  0.00000000E+00
  6.40000000E+02  1.20000000E+01  0.00000000E+00
  6.40000000E+02  1.00000000E+01  0.00000000E+00
  6.40000000E+02  8.00000000E+00  0.00000000E+00
  6.40000000E+02  6.00000000E+00  0.00000000E+00
  6.40000000E+02  4.00000000E+00  0.00000000E+00
  6.40000000E+02  2.00000000E+00  0.00000000E+00
  6.40000000E+02 -3.33066907E-14  0.00000000E+00
  6.50000000E+02  1.00000000E+02  0.00000000E+00
  6.50000000E+02  9.80000000E+01  0.00000000E+00
  6.50000000E+02  9.60000000E+01  0.00000000E+00
  6.50000000E+02  9.40000000E+01  0.00000000E+00
  6.50000000E+02  9.20000000E+01  0.00000000E+00
  6.50000000E+02  9.00000000E+01  0.00000000E+00
  6.50000000E+02  8.80000000E+01  0.00000000E+00
  6.50000000E+02  8.60000000E+01  0.00000000E+00
  6.50000000E+02  8.40000000E+01  0.00000000E+00
  6.50000000E+02  8.20000000E+01  0.00000000E+00
  6.50000000E+02  8.00000000E+01  0.00000000E+00
  6.50000000E+02  7.80000000E+01  0.00000000E+00
  6.50000000E+02  7.60000000E+01  0.00000000E+00
  6.50000000E+02  7.40000000E+01  0.00000000E+00
  6.50000000E+02  7.20000000E+01  0.00000000E+00
  6.50000000E+02  7.00000000E+01  0.00000000E+00
  6.50000000E+02  6.80000000E+01  0.00000000E+00
  6.50000000E+02  6.60000000E+01  0.00000000E+00
  6.50000000E+02  6.40000000E+01  0.00000000E+00
  6.50000000E+02  6.20000000E+01  0.00000000E+00
  6.50000000E+02  6.00000000E+01  0.00000000E+00
  6.50000000E+02  5.80000000E+01  0.00000000E+00
  6.50000000E+02  5.60000000E+01  0.00000000E+00
  6.50000000E+02  5.40000000E+01  0.00000000E+00
  6.50000000E+02  5.20000000E+01  0.00000000E+00
  6.50000000E+02  5.00000000E+01  0.00000000E+00
  6.50000000E+02  4.80000000E+01  0.00000000E+00
  6.50000000E+02  4.60000000E+01  0.00000000E+00
  6.50000000E+02  4.40000000E+01  0.00000000E+00
  6.50000000E+02  4.20000000E+01  0.00000000E+00
  6.50000000E+02  4.00000000E+01  0.00000000E+00
  6.50000000E+02  3.80000000E+01  0.00000000E+00
  6.50000000E+02  3.60000000E+01  0.00000000E+00
  6.50000000E+02  3.40000000E+01  0.00000000E+00
  6.50000000E+02  3.20000000E+01  0.00000000E+00
  6.50000000E+02  3.00000000E+01  0.00000000E+00
  6.50000000E+02  2.80000000E+01  0.00000000E+00
  6.50000000E+02  2.60000000E+01  0.00000000E+00
  6.50000000E+02  2.40000000E+01  0.00000000E+00
  6.50000000E+02  2.20000000E+01  0.00000000E+00
  6.50000000E+02  2.00000000E+01  0.00000000E+00
  6.50000000E+02  1.80000000E+01  0.00000000E+00
  6.50000000E+02  1.60000000E+01  0.00000000E+00
  6.50000000E+02  1.40000000E+01  0.00000000E+00
  6.50000000E+02  1.20000000E+01  0.00000000E+00
  6.50000000E+02  1.00000000E+01  0.00000000E+00
  6.50000000E+02  8.00000000E+00  0.00000000E+00
  6.50000000E+02  6.00000000E+00  0.00000000E+00
  6.50000000E+02  4.00000000E+00  0.00000000E+00
  6.50000000E+02  2.00000000E+00  0.00000000E+00
  6.50000000E+02 -3.33066907E-14  0.00000000E+00
  6.60000000E+02  1.00000000E+02  0.00000000E+00
  6.60000000E+02  9.80000000E+01  0.00000000E+00
  6.60000000E+02  9.60000000E+01  0.00000000E+00
  6.60000000E+02  9.40000000E+01  0.00000000E+00
  6.60000000E+02  9.20000000E+01  0.00000000E+00
  6.60000000E+02  9.00000000E+01  0.00000000E+00
  6.60000000E+02  8.80000000E+01  0.00000000E+00
  6.60000000E+02  8.60000000E+01  0.00000000E+00
  6.60000000E+02  8.40000000E+01  0.00000000E+00
  6.60000000E+02  8.20000000E+01  0.00000000E+00
  6.60000000E+02  8.00000000E+01  0.00000000E+00
  6.60000000E+02  7.80000000E+01  0.00000000E+00
  6.60000000E+02  7.60000000E+01  0.00000000E+00
  6.60000000E+02  7.40000000E+01  0.00000000E+00
  6.60000000E+02  7.20000000E+01  0.00000000E+00
  6.60000000E+02  7.00000000E+01  0.00000000E+00
  6.60000000E+02  6.80000000E+01  0.00000000E+00
  6.60000000E+02  6.60000000E+01  0.00000000E+00
  6.60000000E+02  6.40000000E+01  0.00000000E+00
  6.60000000E+02  6.20000000E+01  0.00000000E+00
  6.60000000E+02  6.00000000E+01  0.00000000E+00
  6.60000000E+02  5.80000000E+01  0.00000000E+00
  6.60000000E+02  5.60000000E+01  0.00000000E+00
  6.60000000E+02  5.40000000E+01  0.00000000E+00
  6.60000000E+02  5.20000000E+01  0.00000000E+00
  6.60000000E+02  5.00000000E+01  0.00000000E+00
  6.60000000E+02  4.80000000E+01  0.00000000E+00
  6.60000000E+02  4.60000000E+01  0.00000000E+00
  6.60000000E+02  4.40000000E+01  0.00000000E+00
  6.60000000E+02  4.20000000E+01  0.00000000E+00
  6.60000000E+02  4.00000000E+01  0.00000000E+00
  6.60000000E+02  3.80000000E+01  0.00000000E+00
  6.60000000E+02  3.60000000E+01  0.00000000E+00
  6.60000000E+02  3.40000000E+01  0.00000000E+00
  6.60000000E+02  3.20000000E+01  0.00000000E+00
  6.60000000E+02  3.00000000E+01  0.00000000E+00
  6.60000000E+02  2.80000000E+01  0.00000000E+00
  6.60000000E+02  2.60000000E+01  0.00000000E+00
  6.60000000E+02  2.40000000E+01  0.00000000E+00
  6.60000000E+02  2.20000000E+01  0.00000000E+00
  6.60000000E+02  2.00000000E+01  0.00000000E+00
  6.60000000E+02  1.80000000E+01  0.00000000E+00
  6.60000000E+02  1.60000000E+01  0.00000000E+00
  6.60000000E+02  1.40000000E+01  0.00000000E+00
  6.60000000E+02  1.20000000E+01  0.00000000E+00
  6.60000000E+02  1.00000000E+01  0.00000000E+00
  6.60000000E+02  8.00000000E+00  0.00000000E+00
  6.60000000E+02  6.00000000E+00  0.00000000E+00
  6.60000000E+02  4.00000000E+00  0.00000000E+00
  6.60000000E+02  2.00000000E+00  0.00000000E+00
  6.60000000E+02 -3.33066907E-14  0.00000000E+00
  6.70000000E+02  1.00000000E+02  0.00000000E+00
  6.70000000E+02  9.80000000E+01  0.00000000E+00
  6.70000000E+02  9.60000000E+01  0.00000000E+00
  6.70000000E+02  9.40000000E+01  0.00000000E+00
  6.70000000E+02  9.20000000E+01  0.00000000E+00
  6.70000000E+02  9.00000000E+01  0.00000000E+00
  6.70000000E+02  8.80000000E+01  0.00000000E+00
  6.70000000E+02  8.60000000E+01  0.00000000E+00
  6.70000000E+02  8.40000000E+01  0.00000000E+00
  6.70000000E+02  8.20000000E+01  0.00000000E+00
  6.70000000E+02  8.00000000E+01  0.00000000E+00
  6.70000000E+02  7.80000000E+01  0.00000000E+00
  6.70000000E+02  7.60000000E+01  0.00000000E+00
  6.70000000E+02  7.40000000E+01  0.00000000E+00
  6.70000000E+02  7.20000000E+01  0.00000000E+00
  6.70000000E+02  7.00000000E+01  0.00000000E+00
  6.70000000E+02  6.80000000E+01  0.00000000E+00
  6.70000000E+02  6.60000000E+01  0.00000000E+00
  6.70000000E+02  6.40000000E+01  0.00000000E+00
  6.70000000E+02  6.20000000E+01  0.00000000E+00
  6.70000000E+02  6.00000000E+01  0.00000000E+00
  6.70000000E+02  5.80000000E+01  0.00000000E+00
  6.70000000E+02  5.60000000E+01  0.00000000E+00
  6.70000000E+02  5.40000000E+01  0.00000000E+00
  6.70000000E+02  5.20000000E+01  0.00000000E+00
  6.70000000E+02  5.00000000E+01  0.00000000E+00
  6.70000000E+02  4.80000000E+01  0.00000000E+00
  6.70000000E+02  4.60000000E+01  0.00000000E+00
  6.70000000E+02  4.40000000E+01  0.00000000E+00
  6.70000000E+02  4.20000000E+01  0.00000000E+00
  6.70000000E+02  4.00000000E+01  0.00000000E+00
  6.70000000E+02  3.80000000E+01  0.00000000E+00
  6.70000000E+02  3.60000000E+01  0.00000000E+00
  6.70000000E+02  3.40000000E+01  0.00000000E+00
  6.70000000E+02  3.20000000E+01  0.00000000E+00
  6.70000000E+02  3.00000000E+01  0.00000000E+00
  6.70000000E+02  2.80000000E+01  0.00000000E+00
  6.70000000E+02  2.60000000E+01  0.00000000E+00
  6.70000000E+02  2.40000000E+01  0.00000000E+00
  6.70000000E+02  2.20000000E+01  0.00000000E+00
  6.70000000E+02  2.00000000E+01  0.00000000E+00
  6.70000000E+02  1.80000000E+01  0.00000000E+00
  6.70000000E+02  1.60000000E+01  0.00000000E+00
  6.70000000E+02  1.40000000E+01  0.00000000E+00
  6.70000000E+02  1.20000000E+01  0.00000000E+00
  6.70000000E+02  1.00000000E+01  0.00000000E+00
  6.70000000E+02  8.00000000E+00  0.00000000E+00
  6.70000000E+02  6.00000000E+00  0.00000000E+00
  6.70000000E+02  4.00000000E+00  0.00000000E+00
  6.70000000E+02  2.00000000E+00  0.00000000E+00
  6.70000000E+02 -3.33066907E-14  0.00000000E+00
  6.80000000E+02  1.00000000E+02  0.00000000E+00
  6.80000000E+02  9.80000000E+01  0.00000000E+00
  6.80000000E+02  9.60000000E+01  0.00000000E+00
  6.80000000E+02  9.40000000E+01  0.00000000E+00
  6.80000000E+02  9.20000000E+01  0.00000000E+00
  6.80000000E+02  9.00000000E+01  0.00000000E+00
  6.80000000E+02  8.80000000E+01  0.00000000E+00
  6.80000000E+02  8.60000000E+01  0.00000000E+00
  6.80000000E+02  8.40000000E+01  0.00000000E+00
  6.80000000E+02  8.20000000E+01  0.00000000E+00
  6.80000000E+02  8.00000000E+01  0.00000000E+00
  6.80000000E+02  7.80000000E+01  0.00000000E+00
  6.80000000E+02  7.60000000E+01  0.00000000E+00
  6.80000000E+02  7.40000000E+01  0.00000000E+00
  6.80000000E+02  7.20000000E+01  0.00000000E+00
  6.80000000E+02  7.00000000E+01  0.00000000E+00
  6.80000000E+02  6.80000000E+01  0.00000000E+00
  6.80000000E+02  6.60000000E+01  0.00000000E+00
  6.80000000E+02  6.40000000E+01  0.00000000E+00
  6.80000000E+02  6.20000000E+01  0.00000000E+00
  6.80000000E+02  6.00000000E+01  0.00000000E+00
  6.80000000E+02  5.80000000E+01  0.00000000E+00
  6.80000000E+02  5.60000000E+01  0.00000000E+00
  6.80000000E+02  5.40000000E+01  0.00000000E+00
  6.80000000E+02  5.20000000E+01  0.00000000E+00
  6.80000000E+02  5.00000000E+01  0.00000000E+00
  6.80000000E+02  4.80000000E+01  0.00000000E+00
  6.80000000E+02  4.60000000E+01  0.00000000E+00
  6.80000000E+02  4.40000000E+01  0.00000000E+00
  6.80000000E+02  4.20000000E+01  0.00000000E+00
  6.80000000E+02  4.00000000E+01  0.00000000E+00
  6.80000000E+02  3.80000000E+01  0.00000000E+00
  6.80000000E+02  3.60000000E+01  0.00000000E+00
  6.80000000E+02  3.40000000E+01  0.00000000E+00
  6.80000000E+02  3.20000000E+01  0.00000000E+00
  6.80000000E+02  3.00000000E+01  0.00000000E+00
  6.80000000E+02  2.80000000E+01  0.00000000E+00
  6.80000000E+02  2.60000000E+01  0.00000000E+00
  6.80000000E+02  2.40000000E+01  0.00000000E+00
  6.80000000E+02  2.20000000E+01  0.00000000E+00
  6.80000000E+02  2.00000000E+01  0.00000000E+00
  6.80000000E+02  1.80000000E+01  0.00000000E+00
  6.80000000E+02  1.60000000E+01  0.00000000E+00
  6.80000000E+02  1.40000000E+01  0.00000000E+00
  6.80000000E+02  1.20000000E+01  0.00000000E+00
  6.80000000E+02  1.00000000E+01  0.00000000E+00
  6.80000000E+02  8.00000000E+00  0.00000000E+00
  6.80000000E+02  6.00000000E+00  0.00000000E+00
  6.80000000E+02  4.00000000E+00  0.00000000E+00
  6.80000000E+02  2.00000000E+00  0.00000000E+00
  6.80000000E+02 -3.33066907E-14  0.00000000E+00
  6.90000000E+02  1.00000000E+02  0.00000000E+00
  6.90000000E+02  9.80000000E+01  0.00000000E+00
  6.90000000E+02  9.60000000E+01  0.00000000E+00
  6.90000000E+02  9.40000000E+01  0.00000000E+00
  6.90000000E+02  9.20000000E+01  0.00000000E+00
  6.90000000E+02  9.00000000E+01  0.00000000E+00
  6.90000000E+02  8.80000000E+01  0.00000000E+00
  6.90000000E+02  8.60000000E+01  0.00000000E+00
  6.90000000E+02  8.40000000E+01  0.00000000E+00
  6.90000000E+02  8.20000000E+01  0.00000000E+00
  6.90000000E+02  8.00000000E+01  0.00000000E+00
  6.90000000E+02  7.80000000E+01  0.00000000E+00
  6.90000000E+02  7.60000000E+01  0.00000000E+00
  6.90000000E+02  7.40000000E+01  0.00000000E+00
  6.90000000E+02  7.20000000E+01  0.00000000E+00
  6.90000000E+02  7.00000000E+01  0.00000000E+00
  6.90000000E+02  6.80000000E+01  0.00000000E+00
  6.90000000E+02  6.60000000E+01  0.00000000E+00
  6.90000000E+02  6.40000000E+01  0.00000000E+00
  6.90000000E+02  6.20000000E+01  0.00000000E+00
  6.90000000E+02  6.00000000E+01  0.00000000E+00
  6.90000000E+02  5.80000000E+01  0.00000000E+00
  6.90000000E+02  5.60000000E+01  0.00000000E+00
  6.90000000E+02  5.40000000E+01  0.00000000E+00
  6.90000000E+02  5.20000000E+01  0.00000000E+00
  6.90000000E+02  5.00000000E+01  0.00000000E+00
  6.90000000E+02  4.80000000E+01  0.00000000E+00
  6.90000000E+02  4.60000000E+01  0.00000000E+00
  6.90000000E+02  4.40000000E+01  0.00000000E+00
  6.90000000E+02  4.20000000E+01  0.00000000E+00
  6.90000000E+02  4.00000000E+01  0.00000000E+00
  6.90000000E+02  3.80000000E+01  0.00000000E+00
  6.90000000E+02  3.60000000E+01  0.00000000E+00
  6.90000000E+02  3.40000000E+01  0.00000000E+00
  6.90000000E+02  3.20000000E+01  0.00000000E+00
  6.90000000E+02  3.00000000E+01  0.00000000E+00
  6.90000000E+02  2.80000000E+01  0.00000000E+00
  6.90000000E+02  2.60000000E+01  0.00000000E+00
  6.90000000E+02  2.40000000E+01  0.00000000E+00
  6.90000000E+02  2.20000000E+01  0.00000000E+00
  6.90000000E+02  2.00000000E+01  0.00000000E+00
  6.90000000E+02  1.80000000E+01  0.00000000E+00
  6.90000000E+02  1.60000000E+01  0.00000000E+00
  6.90000000E+02  1.40000000E+01  0.00000000E+00
  6.90000000E+02  1.20000000E+01  0.00000000E+00
  6.90000000E+02  1.00000000E+01  0.00000000E+00
  6.90000000E+02  8.00000000E+00  0.00000000E+00
  6.90000000E+02  6.00000000E+00  0.00000000E+00
  6.90000000E+02  4.00000000E+00  0.00000000E+00
  6.90000000E+02  2.00000000E+00  0.00000000E+00
  6.90000000E+02 -3.33066907E-14  0.00000000E+00
  7.00000000E+02  1.00000000E+02  0.00000000E+00
  7.00000000E+02  9.80000000E+01  0.00000000E+00
  7.00000000E+02  9.60000000E+01  0.00000000E+00
  7.00000000E+02  9.40000000E+01  0.00000000E+00
  7.00000000E+02  9.20000000E+01  0.00000000E+00
  7.00000000E+02  9.00000000E+01  0.00000000E+00
  7.00000000E+02  8.80000000E+01  0.00000000E+00
  7.00000000E+02  8.60000000E+01  0.00000000E+00
  7.00000000E+02  8.40000000E+01  0.00000000E+00
  7.00000000E+02  8.20000000E+01  0.00000000E+00
  7.00000000E+02  8.00000000E+01  0.00000000E+00
  7.00000000E+02  7.80000000E+01  0.00000000E+00
  7.00000000E+02  7.60000000E+01  0.00000000E+00
  7.00000000E+02  7.40000000E+01  0.00000000E+00
  7.00000000E+02  7.20000000E+01  0.00000000E+00
  7.00000000E+02  7.00000000E+01  0.00000000E+00
  7.00000000E+02  6.80000000E+01  0.00000000E+00
  7.00000000E+02  6.60000000E+01  0.00000000E+00
  7.00000000E+02  6.40000000E+01  0.00000000E+00
  7.00000000E+02  6.20000000E+01  0.00000000E+00
  7.00000000E+02  6.00000000E+01  0.00000000E+00
  7.00000000E+02  5.80000000E+01  0.00000000E+00
  7.00000000E+02  5.60000000E+01  0.00000000E+00
  7.00000000E+02  5.40000000E+01  0.00000000E+00
  7.00000000E+02  5.20000000E+01  0.00000000E+00
  7.00000000E+02  5.00000000E+01  0.00000000E+00
  7.00000000E+02  4.80000000E+01  0.00000000E+00
  7.00000000E+02  4.60000000E+01  0.00000000E+00
  7.00000000E+02  4.40000000E+01  0.00000000E+00
  7.00000000E+02  4.20000000E+01  0.00000000E+00
  7.00000000E+02  4.00000000E+01  0.00000000E+00
  7.00000000E+02  3.80000000E+01  0.00000000E+00
  7.00000000E+02  3.60000000E+01  0.00000000E+00
  7.00000000E+02  3.40000000E+01  0.00000000E+00
  7.00000000E+02  3.20000000E+01  0.00000000E+00
  7.00000000E+02  3.00000000E+01  0.00000000E+00
  7.00000000E+02  2.80000000E+01  0.00000000E+00
  7.00000000E+02  2.60000000E+01  0.00000000E+00
  7.00000000E+02  2.40000000E+01  0.00000000E+00
  7.00000000E+02  2.20000000E+01  0.00000000E+00
  7.00000000E+02  2.00000000E+01  0.00000000E+00
  7.00000000E+02  1.80000000E+01  0.00000000E+00
  7.00000000E+02  1.60000000E+01  0.00000000E+00
  7.00000000E+02  1.40000000E+01  0.00000000E+00
  7.00000000E+02  1.20000000E+01  0.00000000E+00
  7.00000000E+02  1.00000000E+01  0.00000000E+00
  7.00000000E+02  8.00000000E+00  0.00000000E+00
  7.00000000E+02  6.00000000E+00  0.00000000E+00
  7.00000000E+02  4.00000000E+00  0.00000000E+00
  7.00000000E+02  2.00000000E+00  0.00000000E+00
  7.00000000E+02 -3.33066907E-14  0.00000000E+00
  7.10000000E+02  1.00000000E+02  0.00000000E+00
  7.10000000E+02  9.80000000E+01  0.00000000E+00
  7.10000000E+02  9.60000000E+01  0.00000000E+00
  7.10000000E+02  9.40000000E+01  0.00000000E+00
  7.10000000E+02  9.20000000E+01  0.00000000E+00
  7.10000000E+02  9.00000000E+01  0.00000000E+00
  7.10000000E+02  8.80000000E+01  0.00000000E+00
  7.10000000E+02  8.60000000E+01  0.00000000E+00
  7.10000000E+02  8.40000000E+01  0.00000000E+00
  7.10000000E+02  8.20000000E+01  0.00000000E+00
  7.10000000E+02  8.00000000E+01  0.00000000E+00
  7.10000000E+02  7.80000000E+01  0.00000000E+00
  7.10000000E+02  7.60000000E+01  0.00000000E+00
  7.10000000E+02  7.40000000E+01  0.00000000E+00
  7.10000000E+02  7.20000000E+01  0.00000000E+00
  7.10000000E+02  7.00000000E+01  0.00000000E+00
  7.10000000E+02  6.80000000E+01  0.00000000E+00
  7.10000000E+02  6.60000000E+01  0.00000000E+00
  7.10000000E+02  6.40000000E+01  0.00000000E+00
  7.10000000E+02  6.20000000E+01  0.00000000E+00
  7.10000000E+02  6.00000000E+01  0.00000000E+00
  7.10000000E+02  5.80000000E+01  0.00000000E+00
  7.10000000E+02  5.60000000E+01  0.00000000E+00
  7.10000000E+02  5.40000000E+01  0.00000000E+00
  7.10000000E+02  5.20000000E+01  0.00000000E+00
  7.10000000E+02  5.00000000E+01  0.00000000E+00
  7.10000000E+02  4.80000000E+01  0.00000000E+00
  7.10000000E+02  4.60000000E+01  0.00000000E+00
  7.10000000E+02  4.40000000E+01  0.00000000E+00
  7.10000000E+02  4.20000000E+01  0.00000000E+00
  7.10000000E+02  4.00000000E+01  0.00000000E+00
  7.10000000E+02  3.80000000E+01  0.00000000E+00
  7.10000000E+02  3.60000000E+01  0.00000000E+00
  7.10000000E+02  3.40000000E+01  0.00000000E+00
  7.10000000E+02  3.20000000E+01  0.00000000E+00
  7.10000000E+02  3.00000000E+01  0.00000000E+00
  7.10000000E+02  2.80000000E+01  0.00000000E+00
  7.10000000E+02  2.60000000E+01  0.00000000E+00
  7.10000000E+02  2.40000000E+01  0.00000000E+00
  7.10000000E+02  2.20000000E+01  0.00000000E+00
  7.10000000E+02  2.00000000E+01  0.00000000E+00
  7.10000000E+02  1.80000000E+01  0.00000000E+00
  7.10000000E+02  1.60000000E+01  0.00000000E+00
  7.10000000E+02  1.40000000E+01  0.00000000E+00
  7.10000000E+02  1.20000000E+01  0.00000000E+00
  7.10000000E+02  1.00000000E+01  0.00000000E+00
  7.10000000E+02  8.00000000E+00  0.00000000E+00
  7.10000000E+02  6.00000000E+00  0.00000000E+00
  7.10000000E+02  4.00000000E+00  0.00000000E+00
  7.10000000E+02  2.00000000E+00  0.00000000E+00
  7.10000000E+02 -3.33066907E-14  0.00000000E+00
  7.20000000E+02  1.00000000E+02  0.00000000E+00
  7.20000000E+02  9.80000000E+01  0.00000000E+00
  7.20000000E+02  9.60000000E+01  0.00000000E+00
  7.20000000E+02  9.40000000E+01  0.00000000E+00
  7.20000000E+02  9.20000000E+01  0.00000000E+00
  7.20000000E+02  9.00000000E+01  0.00000000E+00
  7.20000000E+02  8.80000000E+01  0.00000000E+00
  7.20000000E+02  8.60000000E+01  0.00000000E+00
  7.20000000E+02  8.40000000E+01  0.00000000E+00
  7.20000000E+02  8.20000000E+01  0.00000000E+00
  7.20000000E+02  8.00000000E+01  0.00000000E+00
  7.20000000E+02  7.80000000E+01  0.00000000E+00
  7.20000000E+02  7.60000000E+01  0.00000000E+00
  7.20000000E+02  7.40000000E+01  0.00000000E+00
  7.20000000E+02  7.20000000E+01  0.00000000E+00
  7.20000000E+02  7.00000000E+01  0.00000000E+00
  7.20000000E+02  6.80000000E+01  0.00000000E+00
  7.20000000E+02  6.60000000E+01  0.00000000E+00
  7.20000000E+02  6.40000000E+01  0.00000000E+00
  7.20000000E+02  6.20000000E+01  0.00000000E+00
  7.20000000E+02  6.00000000E+01  0.00000000E+00
  7.20000000E+02  5.80000000E+01  0.00000000E+00
  7.20000000E+02  5.60000000E+01  0.00000000E+00
  7.20000000E+02  5.40000000E+01  0.00000000E+00
  7.20000000E+02  5.20000000E+01  0.00000000E+00
  7.20000000E+02  5.00000000E+01  0.00000000E+00
  7.20000000E+02  4.80000000E+01  0.00000000E+00
  7.20000000E+02  4.60000000E+01  0.00000000E+00
  7.20000000E+02  4.40000000E+01  0.00000000E+00
  7.20000000E+02  4.20000000E+01  0.00000000E+00
  7.20000000E+02  4.00000000E+01  0.00000000E+00
  7.20000000E+02  3.80000000E+01  0.00000000E+00
  7.20000000E+02  3.60000000E+01  0.00000000E+00
  7.20000000E+02  3.40000000E+01  0.00000000E+00
  7.20000000E+02  3.20000000E+01  0.00000000E+00
  7.20000000E+02  3.00000000E+01  0.00000000E+00
  7.20000000E+02  2.80000000E+01  0.00000000E+00
  7.20000000E+02  2.60000000E+01  0.00000000E+00
  7.20000000E+02  2.40000000E+01  0.00000000E+00
  7.20000000E+02  2.20000000E+01  0.00000000E+00
  7.20000000E+02  2.00000000E+01  0.00000000E+00
  7.20000000E+02  1.80000000E+01  0.00000000E+00
  7.20000000E+02  1.60000000E+01  0.00000000E+00
  7.20000000E+02  1.40000000E+01  0.00000000E+00
  7.20000000E+02  1.20000000E+01  0.00000000E+00
  7.20000000E+02  1.00000000E+01  0.00000000E+00
  7.20000000E+02  8.00000000E+00  0.00000000E+00
  7.20000000E+02  6.00000000E+00  0.00000000E+00
  7.20000000E+02  4.00000000E+00  0.00000000E+00
  7.20000000E+02  2.00000000E+00  0.00000000E+00
  7.20000000E+02 -3.33066907E-14  0.00000000E+00
  7.30000000E+02  1.00000000E+02  0.00000000E+00
  7.30000000E+02  9.80000000E+01  0.00000000E+00
  7.30000000E+02  9.60000000E+01  0.00000000E+00
  7.30000000E+02  9.40000000E+01  0.00000000E+00
  7.30000000E+02  9.20000000E+01  0.00000000E+00
  7.30000000E+02  9.00000000E+01  0.00000000E+00
  7.30000000E+02  8.80000000E+01  0.00000000E+00
  7.30000000E+02  8.60000000E+01  0.00000000E+00
  7.30000000E+02  8.40000000E+01  0.00000000E+00
  7.30000000E+02  8.20000000E+01  0.00000000E+00
  7.30000000E+02  8.00000000E+01  0.00000000E+00
  7.30000000E+02  7.80000000E+01  0.00000000E+00
  7.30000000E+02  7.60000000E+01  0.00000000E+00
  7.30000000E+02  7.40000000E+01  0.00000000E+00
  7.30000000E+02  7.20000000E+01  0.00000000E+00
  7.30000000E+02  7.00000000E+01  0.00000000E+00
  7.30000000E+02  6.80000000E+01  0.00000000E+00
  7.30000000E+02  6.60000000E+01  0.00000000E+00
  7.30000000E+02  6.40000000E+01  0.00000000E+00
  7.30000000E+02  6.20000000E+01  0.00000000E+00
  7.30000000E+02  6.00000000E+01  0.00000000E+00
  7.30000000E+02  5.80000000E+01  0.00000000E+00
  7.30000000E+02  5.60000000E+01  0.00000000E+00
  7.30000000E+02  5.40000000E+01  0.00000000E+00
  7.30000000E+02  5.20000000E+01  0.00000000E+00
  7.30000000E+02  5.00000000E+01  0.00000000E+00
  7.30000000E+02  4.80000000E+01  0.00000000E+00
  7.30000000E+02  4.60000000E+01  0.00000000E+00
  7.30000000E+02  4.40000000E+01  0.00000000E+00
  7.30000000E+02  4.20000000E+01  0.00000000E+00
  7.30000000E+02  4.00000000E+01  0.00000000E+00
  7.30000000E+02  3.80000000E+01  0.00000000E+00
  7.30000000E+02  3.60000000E+01  0.00000000E+00
  7.30000000E+02  3.40000000E+01  0.00000000E+00
  7.30000000E+02  3.20000000E+01  0.00000000E+00
  7.30000000E+02  3.00000000E+01  0.00000000E+00
  7.30000000E+02  2.80000000E+01  0.00000000E+00
  7.30000000E+02  2.60000000E+01  0.00000000E+00
  7.30000000E+02  2.40000000E+01  0.00000000E+00
  7.30000000E+02  2.20000000E+01  0.00000000E+00
  7.30000000E+02  2.00000000E+01  0.00000000E+00
  7.30000000E+02  1.80000000E+01  0.00000000E+00
  7.30000000E+02  1.60000000E+01  0.00000000E+00
  7.30000000E+02  1.40000000E+01  0.00000000E+00
  7.30000000E+02  1.20000000E+01  0.00000000E+00
  7.30000000E+02  1.00000000E+01  0.00000000E+00
  7.30000000E+02  8.00000000E+00  0.00000000E+00
  7.30000000E+02  6.00000000E+00  0.00000000E+00
  7.30000000E+02  4.00000000E+00  0.00000000E+00
  7.30000000E+02  2.00000000E+00  0.00000000E+00
  7.30000000E+02 -3.33066907E-14  0.00000000E+00
  7.40000000E+02  1.00000000E+02  0.00000000E+00
  7.40000000E+02  9.80000000E+01  0.00000000E+00
  7.40000000E+02  9.60000000E+01  0.00000000E+00
  7.40000000E+02  9.40000000E+01  0.00000000E+00
  7.40000000E+02  9.20000000E+01  0.00000000E+00
  7.40000000E+02  9.00000000E+01  0.00000000E+00
  7.40000000E+02  8.80000000E+01  0.00000000E+00
  7.40000000E+02  8.60000000E+01  0.00000000E+00
  7.40000000E+02  8.40000000E+01  0.00000000E+00
  7.40000000E+02  8.20000000E+01  0.00000000E+00
  7.40000000E+02  8.00000000E+01  0.00000000E+00
  7.40000000E+02  7.80000000E+01  0.00000000E+00
  7.40000000E+02  7.60000000E+01  0.00000000E+00
  7.40000000E+02  7.40000000E+01  0.00000000E+00
  7.40000000E+02  7.20000000E+01  0.00000000E+00
  7.40000000E+02  7.00000000E+01  0.00000000E+00
  7.40000000E+02  6.80000000E+01  0.00000000E+00
  7.40000000E+02  6.60000000E+01  0.00000000E+00
  7.40000000E+02  6.40000000E+01  0.00000000E+00
  7.40000000E+02  6.20000000E+01  0.00000000E+00
  7.40000000E+02  6.00000000E+01  0.00000000E+00
  7.40000000E+02  5.80000000E+01  0.00000000E+00
  7.40000000E+02  5.60000000E+01  0.00000000E+00
  7.40000000E+02  5.40000000E+01  0.00000000E+00
  7.40000000E+02  5.20000000E+01  0.00000000E+00
  7.40000000E+02  5.00000000E+01  0.00000000E+00
  7.40000000E+02  4.80000000E+01  0.00000000E+00
  7.40000000E+02  4.60000000E+01  0.00000000E+00
  7.40000000E+02  4.40000000E+01  0.00000000E+00
  7.40000000E+02  4.20000000E+01  0.00000000E+00
  7.40000000E+02  4.00000000E+01  0.00000000E+00
  7.40000000E+02  3.80000000E+01  0.00000000E+00
  7.40000000E+02  3.60000000E+01  0.00000000E+00
  7.40000000E+02  3.40000000E+01  0.00000000E+00
  7.40000000E+02  3.20000000E+01  0.00000000E+00
  7.40000000E+02  3.00000000E+01  0.00000000E+00
  7.40000000E+02  2.80000000E+01  0.00000000E+00
  7.40000000E+02  2.60000000E+01  0.00000000E+00
  7.40000000E+02  2.40000000E+01  0.00000000E+00
  7.40000000E+02  2.20000000E+01  0.00000000E+00
  7.40000000E+02  2.00000000E+01  0.00000000E+00
  7.40000000E+02  1.80000000E+01  0.00000000E+00
  7.40000000E+02  1.60000000E+01  0.00000000E+00
  7.40000000E+02  1.40000000E+01  0.00000000E+00
  7.40000000E+02  1.20000000E+01  0.00000000E+00
  7.40000000E+02  1.00000000E+01  0.00000000E+00
  7.40000000E+02  8.00000000E+00  0.00000000E+00
  7.40000000E+02  6.00000000E+00  0.00000000E+00
  7.40000000E+02  4.00000000E+00  0.00000000E+00
  7.40000000E+02  2.00000000E+00  0.00000000E+00
  7.40000000E+02 -3.33066907E-14  0.00000000E+00
  7.50000000E+02  1.00000000E+02  0.00000000E+00
  7.50000000E+02  9.80000000E+01  0.00000000E+00
  7.50000000E+02  9.60000000E+01  0.00000000E+00
  7.50000000E+02  9.40000000E+01  0.00000000E+00
  7.50000000E+02  9.20000000E+01  0.00000000E+00
  7.50000000E+02  9.00000000E+01  0.00000000E+00
  7.50000000E+02  8.80000000E+01  0.00000000E+00
  7.50000000E+02  8.60000000E+01  0.00000000E+00
  7.50000000E+02  8.40000000E+01  0.00000000E+00
  7.50000000E+02  8.20000000E+01  0.00000000E+00
  7.50000000E+02  8.00000000E+01  0.00000000E+00
  7.50000000E+02  7.80000000E+01  0.00000000E+00
  7.50000000E+02  7.60000000E+01  0.00000000E+00
  7.50000000E+02  7.40000000E+01  0.00000000E+00
  7.50000000E+02  7.20000000E+01  0.00000000E+00
  7.50000000E+02  7.00000000E+01  0.00000000E+00
  7.50000000E+02  6.80000000E+01  0.00000000E+00
  7.50000000E+02  6.60000000E+01  0.00000000E+00
  7.50000000E+02  6.40000000E+01  0.00000000E+00
  7.50000000E+02  6.20000000E+01  0.00000000E+00
  7.50000000E+02  6.00000000E+01  0.00000000E+00
  7.50000000E+02  5.80000000E+01  0.00000000E+00
  7.50000000E+02  5.60000000E+01  0.00000000E+00
  7.50000000E+02  5.40000000E+01  0.00000000E+00
  7.50000000E+02  5.20000000E+01  0.00000000E+00
  7.50000000E+02  5.00000000E+01  0.00000000E+00
  7.50000000E+02  4.80000000E+01  0.00000000E+00
  7.50000000E+02  4.60000000E+01  0.00000000E+00
  7.50000000E+02  4.40000000E+01  0.00000000E+00
  7.50000000E+02  4.20000000E+01  0.00000000E+00
  7.50000000E+02  4.00000000E+01  0.00000000E+00
  7.50000000E+02  3.80000000E+01  0.00000000E+00
  7.50000000E+02  3.60000000E+01  0.00000000E+00
  7.50000000E+02  3.40000000E+01  0.00000000E+00
  7.50000000E+02  3.20000000E+01  0.00000000E+00
  7.50000000E+02  3.00000000E+01  0.00000000E+00
  7.50000000E+02  2.80000000E+01  0.00000000E+00
  7.50000000E+02  2.60000000E+01  0.00000000E+00
  7.50000000E+02  2.40000000E+01  0.00000000E+00
  7.50000000E+02  2.20000000E+01  0.00000000E+00
  7.50000000E+02  2.00000000E+01  0.00000000E+00
  7.50000000E+02  1.80000000E+01  0.00000000E+00
  7.50000000E+02  1.60000000E+01  0.00000000E+00
  7.50000000E+02  1.40000000E+01  0.00000000E+00
  7.50000000E+02  1.20000000E+01  0.00000000E+00
  7.50000000E+02  1.00000000E+01  0.00000000E+00
  7.50000000E+02  8.00000000E+00  0.00000000E+00
  7.50000000E+02  6.00000000E+00  0.00000000E+00
  7.50000000E+02  4.00000000E+00  0.00000000E+00
  7.50000000E+02  2.00000000E+00  0.00000000E+00
  7.50000000E+02 -3.33066907E-14  0.00000000E+00
  7.60000000E+02  1.00000000E+02  0.00000000E+00
  7.60000000E+02  9.80000000E+01  0.00000000E+00
  7.60000000E+02  9.60000000E+01  0.00000000E+00
  7.60000000E+02  9.40000000E+01  0.00000000E+00
  7.60000000E+02  9.20000000E+01  0.00000000E+00
  7.60000000E+02  9.00000000E+01  0.00000000E+00
  7.60000000E+02  8.80000000E+01  0.00000000E+00
  7.60000000E+02  8.60000000E+01  0.00000000E+00
  7.60000000E+02  8.40000000E+01  0.00000000E+00
  7.60000000E+02  8.20000000E+01  0.00000000E+00
  7.60000000E+02  8.00000000E+01  0.00000000E+00
  7.60000000E+02  7.80000000E+01  0.00000000E+00
  7.60000000E+02  7.60000000E+01  0.00000000E+00
  7.60000000E+02  7.40000000E+01  0.00000000E+00
  7.60000000E+02  7.20000000E+01  0.00000000E+00
  7.60000000E+02  7.00000000E+01  0.00000000E+00
  7.60000000E+02  6.80000000E+01  0.00000000E+00
  7.60000000E+02  6.60000000E+01  0.00000000E+00
  7.60000000E+02  6.40000000E+01  0.00000000E+00
  7.60000000E+02  6.20000000E+01  0.00000000E+00
  7.60000000E+02  6.00000000E+01  0.00000000E+00
  7.60000000E+02  5.80000000E+01  0.00000000E+00
  7.60000000E+02  5.60000000E+01  0.00000000E+00
  7.60000000E+02  5.40000000E+01  0.00000000E+00
  7.60000000E+02  5.20000000E+01  0.00000000E+00
  7.60000000E+02  5.00000000E+01  0.00000000E+00
  7.60000000E+02  4.80000000E+01  0.00000000E+00
  7.60000000E+02  4.60000000E+01  0.00000000E+00
  7.60000000E+02  4.40000000E+01  0.00000000E+00
  7.60000000E+02  4.20000000E+01  0.00000000E+00
  7.60000000E+02  4.00000000E+01  0.00000000E+00
  7.60000000E+02  3.80000000E+01  0.00000000E+00
  7.60000000E+02  3.60000000E+01  0.00000000E+00
  7.60000000E+02  3.40000000E+01  0.00000000E+00
  7.60000000E+02  3.20000000E+01  0.00000000E+00
  7.60000000E+02  3.00000000E+01  0.00000000E+00
  7.60000000E+02  2.80000000E+01  0.00000000E+00
  7.60000000E+02  2.60000000E+01  0.00000000E+00
  7.60000000E+02  2.40000000E+01  0.00000000E+00
  7.60000000E+02  2.20000000E+01  0.00000000E+00
  7.60000000E+02  2.00000000E+01  0.00000000E+00
  7.60000000E+02  1.80000000E+01  0.00000000E+00
  7.60000000E+02  1.60000000E+01  0.00000000E+00
  7.60000000E+02  1.40000000E+01  0.00000000E+00
  7.60000000E+02  1.20000000E+01  0.00000000E+00
  7.60000000E+02  1.00000000E+01  0.00000000E+00
  7.60000000E+02  8.00000000E+00  0.00000000E+00
  7.60000000E+02  6.00000000E+00  0.00000000E+00
  7.60000000E+02  4.00000000E+00  0.00000000E+00
  7.60000000E+02  2.00000000E+00  0.00000000E+00
  7.60000000E+02 -3.33066907E-14  0.00000000E+00
  7.70000000E+02  1.00000000E+02  0.00000000E+00
  7.70000000E+02  9.80000000E+01  0.00000000E+00
  7.70000000E+02  9.60000000E+01  0.00000000E+00
  7.70000000E+02  9.40000000E+01  0.00000000E+00
  7.70000000E+02  9.20000000E+01  0.00000000E+00
  7.70000000E+02  9.00000000E+01  0.00000000E+00
  7.70000000E+02  8.80000000E+01  0.00000000E+00
  7.70000000E+02  8.60000000E+01  0.00000000E+00
  7.70000000E+02  8.40000000E+01  0.00000000E+00
  7.70000000E+02  8.20000000E+01  0.00000000E+00
  7.70000000E+02  8.00000000E+01  0.00000000E+00
  7.70000000E+02  7.80000000E+01  0.00000000E+00
  7.70000000E+02  7.60000000E+01  0.00000000E+00
  7.70000000E+02  7.40000000E+01  0.00000000E+00
  7.70000000E+02  7.20000000E+01  0.00000000E+00
  7.70000000E+02  7.00000000E+01  0.00000000E+00
  7.70000000E+02  6.80000000E+01  0.00000000E+00
  7.70000000E+02  6.60000000E+01  0.00000000E+00
  7.70000000E+02  6.40000000E+01  0.00000000E+00
  7.70000000E+02  6.20000000E+01  0.00000000E+00
  7.70000000E+02  6.00000000E+01  0.00000000E+00
  7.70000000E+02  5.80000000E+01  0.00000000E+00
  7.70000000E+02  5.60000000E+01  0.00000000E+00
  7.70000000E+02  5.40000000E+01  0.00000000E+00
  7.70000000E+02  5.20000000E+01  0.00000000E+00
  7.70000000E+02  5.00000000E+01  0.00000000E+00
  7.70000000E+02  4.80000000E+01  0.00000000E+00
  7.70000000E+02  4.60000000E+01  0.00000000E+00
  7.70000000E+02  4.40000000E+01  0.00000000E+00
  7.70000000E+02  4.20000000E+01  0.00000000E+00
  7.70000000E+02  4.00000000E+01  0.00000000E+00
  7.70000000E+02  3.80000000E+01  0.00000000E+00
  7.70000000E+02  3.60000000E+01  0.00000000E+00
  7.70000000E+02  3.40000000E+01  0.00000000E+00
  7.70000000E+02  3.20000000E+01  0.00000000E+00
  7.70000000E+02  3.00000000E+01  0.00000000E+00
  7.70000000E+02  2.80000000E+01  0.00000000E+00
  7.70000000E+02  2.60000000E+01  0.00000000E+00
  7.70000000E+02  2.40000000E+01  0.00000000E+00
  7.70000000E+02  2.20000000E+01  0.00000000E+00
  7.70000000E+02  2.00000000E+01  0.00000000E+00
  7.70000000E+02  1.80000000E+01  0.00000000E+00
  7.70000000E+02  1.60000000E+01  0.00000000E+00
  7.70000000E+02  1.40000000E+01  0.00000000E+00
  7.70000000E+02  1.20000000E+01  0.00000000E+00
  7.70000000E+02  1.00000000E+01  0.00000000E+00
  7.70000000E+02  8.00000000E+00  0.00000000E+00
  7.70000000E+02  6.00000000E+00  0.00000000E+00
  7.70000000E+02  4.00000000E+00  0.00000000E+00
  7.70000000E+02  2.00000000E+00  0.00000000E+00
  7.70000000E+02 -3.33066907E-14  0.00000000E+00
  7.80000000E+02  1.00000000E+02  0.00000000E+00
  7.80000000E+02  9.80000000E+01  0.00000000E+00
  7.80000000E+02  9.60000000E+01  0.00000000E+00
  7.80000000E+02  9.40000000E+01  0.00000000E+00
  7.80000000E+02  9.20000000E+01  0.00000000E+00
  7.80000000E+02  9.00000000E+01  0.00000000E+00
  7.80000000E+02  8.80000000E+01  0.00000000E+00
  7.80000000E+02  8.60000000E+01  0.00000000E+00
  7.80000000E+02  8.40000000E+01  0.00000000E+00
  7.80000000E+02  8.20000000E+01  0.00000000E+00
  7.80000000E+02  8.00000000E+01  0.00000000E+00
  7.80000000E+02  7.80000000E+01  0.00000000E+00
  7.80000000E+02  7.60000000E+01  0.00000000E+00
  7.80000000E+02  7.40000000E+01  0.00000000E+00
  7.80000000E+02  7.20000000E+01  0.00000000E+00
  7.80000000E+02  7.00000000E+01  0.00000000E+00
  7.80000000E+02  6.80000000E+01  0.00000000E+00
  7.80000000E+02  6.60000000E+01  0.00000000E+00
  7.80000000E+02  6.40000000E+01  0.00000000E+00
  7.80000000E+02  6.20000000E+01  0.00000000E+00
  7.80000000E+02  6.00000000E+01  0.00000000E+00
  7.80000000E+02  5.80000000E+01  0.00000000E+00
  7.80000000E+02  5.60000000E+01  0.00000000E+00
  7.80000000E+02  5.40000000E+01  0.00000000E+00
  7.80000000E+02  5.20000000E+01  0.00000000E+00
  7.80000000E+02  5.00000000E+01  0.00000000E+00
  7.80000000E+02  4.80000000E+01  0.00000000E+00
  7.80000000E+02  4.60000000E+01  0.00000000E+00
  7.80000000E+02  4.40000000E+01  0.00000000E+00
  7.80000000E+02  4.20000000E+01  0.00000000E+00
  7.80000000E+02  4.00000000E+01  0.00000000E+00
  7.80000000E+02  3.80000000E+01  0.00000000E+00
  7.80000000E+02  3.60000000E+01  0.00000000E+00
  7.80000000E+02  3.40000000E+01  0.00000000E+00
  7.80000000E+02  3.20000000E+01  0.00000000E+00
  7.80000000E+02  3.00000000E+01  0.00000000E+00
  7.80000000E+02  2.80000000E+01  0.00000000E+00
  7.80000000E+02  2.60000000E+01  0.00000000E+00
  7.80000000E+02  2.40000000E+01  0.00000000E+00
  7.80000000E+02  2.20000000E+01  0.00000000E+00
  7.80000000E+02  2.00000000E+01  0.00000000E+00
  7.80000000E+02  1.80000000E+01  0.00000000E+00
  7.80000000E+02  1.60000000E+01  0.00000000E+00
  7.80000000E+02  1.40000000E+01  0.00000000E+00
  7.80000000E+02  1.20000000E+01  0.00000000E+00
  7.80000000E+02  1.00000000E+01  0.00000000E+00
  7.80000000E+02  8.00000000E+00  0.00000000E+00
  7.80000000E+02  6.00000000E+00  0.00000000E+00
  7.80000000E+02  4.00000000E+00  0.00000000E+00
  7.80000000E+02  2.00000000E+00  0.00000000E+00
  7.80000000E+02 -3.33066907E-14  0.00000000E+00
  7.90000000E+02  1.00000000E+02  0.00000000E+00
  7.90000000E+02  9.80000000E+01  0.00000000E+00
  7.90000000E+02  9.60000000E+01  0.00000000E+00
  7.90000000E+02  9.40000000E+01  0.00000000E+00
  7.90000000E+02  9.20000000E+01  0.00000000E+00
  7.90000000E+02  9.00000000E+01  0.00000000E+00
  7.90000000E+02  8.80000000E+01  0.00000000E+00
  7.90000000E+02  8.60000000E+01  0.00000000E+00
  7.90000000E+02  8.40000000E+01  0.00000000E+00
  7.90000000E+02  8.20000000E+01  0.00000000E+00
  7.90000000E+02  8.00000000E+01  0.00000000E+00
  7.90000000E+02  7.80000000E+01  0.00000000E+00
  7.90000000E+02  7.60000000E+01  0.00000000E+00
  7.90000000E+02  7.40000000E+01  0.00000000E+00
  7.90000000E+02  7.20000000E+01  0.00000000E+00
  7.90000000E+02  7.00000000E+01  0.00000000E+00
  7.90000000E+02  6.80000000E+01  0.00000000E+00
  7.90000000E+02  6.60000000E+01  0.00000000E+00
  7.90000000E+02  6.40000000E+01  0.00000000E+00
  7.90000000E+02  6.20000000E+01  0.00000000E+00
  7.90000000E+02  6.00000000E+01  0.00000000E+00
  7.90000000E+02  5.80000000E+01  0.00000000E+00
  7.90000000E+02  5.60000000E+01  0.00000000E+00
  7.90000000E+02  5.40000000E+01  0.00000000E+00
  7.90000000E+02  5.20000000E+01  0.00000000E+00
  7.90000000E+02  5.00000000E+01  0.00000000E+00
  7.90000000E+02  4.80000000E+01  0.00000000E+00
  7.90000000E+02  4.60000000E+01  0.00000000E+00
  7.90000000E+02  4.40000000E+01  0.00000000E+00
  7.90000000E+02  4.20000000E+01  0.00000000E+00
  7.90000000E+02  4.00000000E+01  0.00000000E+00
  7.90000000E+02  3.80000000E+01  0.00000000E+00
  7.90000000E+02  3.60000000E+01  0.00000000E+00
  7.90000000E+02  3.40000000E+01  0.00000000E+00
  7.90000000E+02  3.20000000E+01  0.00000000E+00
  7.90000000E+02  3.00000000E+01  0.00000000E+00
  7.90000000E+02  2.80000000E+01  0.00000000E+00
  7.90000000E+02  2.60000000E+01  0.00000000E+00
  7.90000000E+02  2.40000000E+01  0.00000000E+00
  7.90000000E+02  2.20000000E+01  0.00000000E+00
  7.90000000E+02  2.00000000E+01  0.00000000E+00
  7.90000000E+02  1.80000000E+01  0.00000000E+00
  7.90000000E+02  1.60000000E+01  0.00000000E+00
  7.90000000E+02  1.40000000E+01  0.00000000E+00
  7.90000000E+02  1.20000000E+01  0.00000000E+00
  7.90000000E+02  1.00000000E+01  0.00000000E+00
  7.90000000E+02  8.00000000E+00  0.00000000E+00
  7.90000000E+02  6.00000000E+00  0.00000000E+00
  7.90000000E+02  4.00000000E+00  0.00000000E+00
  7.90000000E+02  2.00000000E+00  0.00000000E+00
  7.90000000E+02 -3.33066907E-14  0.00000000E+00
  8.00000000E+02  1.00000000E+02  0.00000000E+00
  8.00000000E+02  9.80000000E+01  0.00000000E+00
  8.00000000E+02  9.60000000E+01  0.00000000E+00
  8.00000000E+02  9.40000000E+01  0.00000000E+00
  8.00000000E+02  9.20000000E+01  0.00000000E+00
  8.00000000E+02  9.00000000E+01  0.00000000E+00
  8.00000000E+02  8.80000000E+01  0.00000000E+00
  8.00000000E+02  8.60000000E+01  0.00000000E+00
  8.00000000E+02  8.40000000E+01  0.00000000E+00
  8.00000000E+02  8.20000000E+01  0.00000000E+00
  8.00000000E+02  8.00000000E+01  0.00000000E+00
  8.00000000E+02  7.80000000E+01  0.00000000E+00
  8.00000000E+02  7.60000000E+01  0.00000000E+00
  8.00000000E+02  7.40000000E+01  0.00000000E+00
  8.00000000E+02  7.20000000E+01  0.00000000E+00
  8.00000000E+02  7.00000000E+01  0.00000000E+00
  8.00000000E+02  6.80000000E+01  0.00000000E+00
  8.00000000E+02  6.60000000E+01  0.00000000E+00
  8.00000000E+02  6.40000000E+01  0.00000000E+00
  8.00000000E+02  6.20000000E+01  0.00000000E+00
  8.00000000E+02  6.00000000E+01  0.00000000E+00
  8.00000000E+02  5.80000000E+01  0.00000000E+00
  8.00000000E+02  5.60000000E+01  0.00000000E+00
  8.00000000E+02  5.40000000E+01  0.00000000E+00
  8.00000000E+02  5.20000000E+01  0.00000000E+00
  8.00000000E+02  5.00000000E+01  0.00000000E+00
  8.00000000E+02  4.80000000E+01  0.00000000E+00
  8.00000000E+02  4.60000000E+01  0.00000000E+00
  8.00000000E+02  4.40000000E+01  0.00000000E+00
  8.00000000E+02  4.20000000E+01  0.00000000E+00
  8.00000000E+02  4.00000000E+01  0.00000000E+00
  8.00000000E+02  3.80000000E+01  0.00000000E+00
  8.00000000E+02  3.60000000E+01  0.00000000E+00
  8.00000000E+02  3.40000000E+01  0.00000000E+00
  8.00000000E+02  3.20000000E+01  0.00000000E+00
  8.00000000E+02  3.00000000E+01  0.00000000E+00
  8.00000000E+02  2.80000000E+01  0.00000000E+00
  8.00000000E+02  2.60000000E+01  0.00000000E+00
  8.00000000E+02  2.40000000E+01  0.00000000E+00
  8.00000000E+02  2.20000000E+01  0.00000000E+00
  8.00000000E+02  2.00000000E+01  0.00000000E+00
  8.00000000E+02  1.80000000E+01  0.00000000E+00
  8.00000000E+02  1.60000000E+01  0.00000000E+00
  8.00000000E+02  1.40000000E+01  0.00000000E+00
  8.00000000E+02  1.20000000E+01  0.00000000E+00
  8.00000000E+02  1.00000000E+01  0.00000000E+00
  8.00000000E+02  8.00000000E+00  0.00000000E+00
  8.00000000E+02  6.00000000E+00  0.00000000E+00
  8.00000000E+02  4.00000000E+00  0.00000000E+00
  8.00000000E+02  2.00000000E+00  0.00000000E+00
  8.00000000E+02 -3.33066907E-14  0.00000000E+00
  8.10000000E+02  1.00000000E+02  0.00000000E+00
  8.10000000E+02  9.80000000E+01  0.00000000E+00
  8.10000000E+02  9.60000000E+01  0.00000000E+00
  8.10000000E+02  9.40000000E+01  0.00000000E+00
  8.10000000E+02  9.20000000E+01  0.00000000E+00
  8.10000000E+02  9.00000000E+01  0.00000000E+00
  8.10000000E+02  8.80000000E+01  0.00000000E+00
  8.10000000E+02  8.60000000E+01  0.00000000E+00
  8.10000000E+02  8.40000000E+01  0.00000000E+00
  8.10000000E+02  8.20000000E+01  0.00000000E+00
  8.10000000E+02  8.00000000E+01  0.00000000E+00
  8.10000000E+02  7.80000000E+01  0.00000000E+00
  8.10000000E+02  7.60000000E+01  0.00000000E+00
  8.10000000E+02  7.40000000E+01  0.00000000E+00
  8.10000000E+02  7.20000000E+01  0.00000000E+00
  8.10000000E+02  7.00000000E+01  0.00000000E+00
  8.10000000E+02  6.80000000E+01  0.00000000E+00
  8.10000000E+02  6.60000000E+01  0.00000000E+00
  8.10000000E+02  6.40000000E+01  0.00000000E+00
  8.10000000E+02  6.20000000E+01  0.00000000E+00
  8.10000000E+02  6.00000000E+01  0.00000000E+00
  8.10000000E+02  5.80000000E+01  0.00000000E+00
  8.10000000E+02  5.60000000E+01  0.00000000E+00
  8.10000000E+02  5.40000000E+01  0.00000000E+00
  8.10000000E+02  5.20000000E+01  0.00000000E+00
  8.10000000E+02  5.00000000E+01  0.00000000E+00
  8.10000000E+02  4.80000000E+01  0.00000000E+00
  8.10000000E+02  4.60000000E+01  0.00000000E+00
  8.10000000E+02  4.40000000E+01  0.00000000E+00
  8.10000000E+02  4.20000000E+01  0.00000000E+00
  8.10000000E+02  4.00000000E+01  0.00000000E+00
  8.10000000E+02  3.80000000E+01  0.00000000E+00
  8.10000000E+02  3.60000000E+01  0.00000000E+00
  8.10000000E+02  3.40000000E+01  0.00000000E+00
  8.10000000E+02  3.20000000E+01  0.00000000E+00
  8.10000000E+02  3.00000000E+01  0.00000000E+00
  8.10000000E+02  2.80000000E+01  0.00000000E+00
  8.10000000E+02  2.60000000E+01  0.00000000E+00
  8.10000000E+02  2.40000000E+01  0.00000000E+00
  8.10000000E+02  2.20000000E+01  0.00000000E+00
  8.10000000E+02  2.00000000E+01  0.00000000E+00
  8.10000000E+02  1.80000000E+01  0.00000000E+00
  8.10000000E+02  1.60000000E+01  0.00000000E+00
  8.10000000E+02  1.40000000E+01  0.00000000E+00
  8.10000000E+02  1.20000000E+01  0.00000000E+00
  8.10000000E+02  1.00000000E+01  0.00000000E+00
  8.10000000E+02  8.00000000E+00  0.00000000E+00
  8.10000000E+02  6.00000000E+00  0.00000000E+00
  8.10000000E+02  4.00000000E+00  0.00000000E+00
  8.10000000E+02  2.00000000E+00  0.00000000E+00
  8.10000000E+02 -3.33066907E-14  0.00000000E+00
  8.20000000E+02  1.00000000E+02  0.00000000E+00
  8.20000000E+02  9.80000000E+01  0.00000000E+00
  8.20000000E+02  9.60000000E+01  0.00000000E+00
  8.20000000E+02  9.40000000E+01  0.00000000E+00
  8.20000000E+02  9.20000000E+01  0.00000000E+00
  8.20000000E+02  9.00000000E+01  0.00000000E+00
  8.20000000E+02  8.80000000E+01  0.00000000E+00
  8.20000000E+02  8.60000000E+01  0.00000000E+00
  8.20000000E+02  8.40000000E+01  0.00000000E+00
  8.20000000E+02  8.20000000E+01  0.00000000E+00
  8.20000000E+02  8.00000000E+01  0.00000000E+00
  8.20000000E+02  7.80000000E+01  0.00000000E+00
  8.20000000E+02  7.60000000E+01  0.00000000E+00
  8.20000000E+02  7.40000000E+01  0.00000000E+00
  8.20000000E+02  7.20000000E+01  0.00000000E+00
  8.20000000E+02  7.00000000E+01  0.00000000E+00
  8.20000000E+02  6.80000000E+01  0.00000000E+00
  8.20000000E+02  6.60000000E+01  0.00000000E+00
  8.20000000E+02  6.40000000E+01  0.00000000E+00
  8.20000000E+02  6.20000000E+01  0.00000000E+00
  8.20000000E+02  6.00000000E+01  0.00000000E+00
  8.20000000E+02  5.80000000E+01  0.00000000E+00
  8.20000000E+02  5.60000000E+01  0.00000000E+00
  8.20000000E+02  5.40000000E+01  0.00000000E+00
  8.20000000E+02  5.20000000E+01  0.00000000E+00
  8.20000000E+02  5.00000000E+01  0.00000000E+00
  8.20000000E+02  4.80000000E+01  0.00000000E+00
  8.20000000E+02  4.60000000E+01  0.00000000E+00
  8.20000000E+02  4.40000000E+01  0.00000000E+00
  8.20000000E+02  4.20000000E+01  0.00000000E+00
  8.20000000E+02  4.00000000E+01  0.00000000E+00
  8.20000000E+02  3.80000000E+01  0.00000000E+00
  8.20000000E+02  3.60000000E+01  0.00000000E+00
  8.20000000E+02  3.40000000E+01  0.00000000E+00
  8.20000000E+02  3.20000000E+01  0.00000000E+00
  8.20000000E+02  3.00000000E+01  0.00000000E+00
  8.20000000E+02  2.80000000E+01  0.00000000E+00
  8.20000000E+02  2.60000000E+01  0.00000000E+00
  8.20000000E+02  2.40000000E+01  0.00000000E+00
  8.20000000E+02  2.20000000E+01  0.00000000E+00
  8.20000000E+02  2.00000000E+01  0.00000000E+00
  8.20000000E+02  1.80000000E+01  0.00000000E+00
  8.20000000E+02  1.60000000E+01  0.00000000E+00
  8.20000000E+02  1.40000000E+01  0.00000000E+00
  8.20000000E+02  1.20000000E+01  0.00000000E+00
  8.20000000E+02  1.00000000E+01  0.00000000E+00
  8.20000000E+02  8.00000000E+00  0.00000000E+00
  8.20000000E+02  6.00000000E+00  0.00000000E+00
  8.20000000E+02  4.00000000E+00  0.00000000E+00
  8.20000000E+02  2.00000000E+00  0.00000000E+00
  8.20000000E+02 -3.33066907E-14  0.00000000E+00
  8.30000000E+02  1.00000000E+02  0.00000000E+00
  8.30000000E+02  9.80000000E+01  0.00000000E+00
  8.30000000E+02  9.60000000E+01  0.00000000E+00
  8.30000000E+02  9.40000000E+01  0.00000000E+00
  8.30000000E+02  9.20000000E+01  0.00000000E+00
  8.30000000E+02  9.00000000E+01  0.00000000E+00
  8.30000000E+02  8.80000000E+01  0.00000000E+00
  8.30000000E+02  8.60000000E+01  0.00000000E+00
  8.30000000E+02  8.40000000E+01  0.00000000E+00
  8.30000000E+02  8.20000000E+01  0.00000000E+00
  8.30000000E+02  8.00000000E+01  0.00000000E+00
  8.30000000E+02  7.80000000E+01  0.00000000E+00
  8.30000000E+02  7.60000000E+01  0.00000000E+00
  8.30000000E+02  7.40000000E+01  0.00000000E+00
  8.30000000E+02  7.20000000E+01  0.00000000E+00
  8.30000000E+02  7.00000000E+01  0.00000000E+00
  8.30000000E+02  6.80000000E+01  0.00000000E+00
  8.30000000E+02  6.60000000E+01  0.00000000E+00
  8.30000000E+02  6.40000000E+01  0.00000000E+00
  8.30000000E+02  6.20000000E+01  0.00000000E+00
  8.30000000E+02  6.00000000E+01  0.00000000E+00
  8.30000000E+02  5.80000000E+01  0.00000000E+00
  8.30000000E+02  5.60000000E+01  0.00000000E+00
  8.30000000E+02  5.40000000E+01  0.00000000E+00
  8.30000000E+02  5.20000000E+01  0.00000000E+00
  8.30000000E+02  5.00000000E+01  0.00000000E+00
  8.30000000E+02  4.80000000E+01  0.00000000E+00
  8.30000000E+02  4.60000000E+01  0.00000000E+00
  8.30000000E+02  4.40000000E+01  0.00000000E+00
  8.30000000E+02  4.20000000E+01  0.00000000E+00
  8.30000000E+02  4.00000000E+01  0.00000000E+00
  8.30000000E+02  3.80000000E+01  0.00000000E+00
  8.30000000E+02  3.60000000E+01  0.00000000E+00
  8.30000000E+02  3.40000000E+01  0.00000000E+00
  8.30000000E+02  3.20000000E+01  0.00000000E+00
  8.30000000E+02  3.00000000E+01  0.00000000E+00
  8.30000000E+02  2.80000000E+01  0.00000000E+00
  8.30000000E+02  2.60000000E+01  0.00000000E+00
  8.30000000E+02  2.40000000E+01  0.00000000E+00
  8.30000000E+02  2.20000000E+01  0.00000000E+00
  8.30000000E+02  2.00000000E+01  0.00000000E+00
  8.30000000E+02  1.80000000E+01  0.00000000E+00
  8.30000000E+02  1.60000000E+01  0.00000000E+00
  8.30000000E+02  1.40000000E+01  0.00000000E+00
  8.30000000E+02  1.20000000E+01  0.00000000E+00
  8.30000000E+02  1.00000000E+01  0.00000000E+00
  8.30000000E+02  8.00000000E+00  0.00000000E+00
  8.30000000E+02  6.00000000E+00  0.00000000E+00
  8.30000000E+02  4.00000000E+00  0.00000000E+00
  8.30000000E+02  2.00000000E+00  0.00000000E+00
  8.30000000E+02 -3.33066907E-14  0.00000000E+00
  8.40000000E+02  1.00000000E+02  0.00000000E+00
  8.40000000E+02  9.80000000E+01  0.00000000E+00
  8.40000000E+02  9.60000000E+01  0.00000000E+00
  8.40000000E+02  9.40000000E+01  0.00000000E+00
  8.40000000E+02  9.20000000E+01  0.00000000E+00
  8.40000000E+02  9.00000000E+01  0.00000000E+00
  8.40000000E+02  8.80000000E+01  0.00000000E+00
  8.40000000E+02  8.60000000E+01  0.00000000E+00
  8.40000000E+02  8.40000000E+01  0.00000000E+00
  8.40000000E+02  8.20000000E+01  0.00000000E+00
  8.40000000E+02  8.00000000E+01  0.00000000E+00
  8.40000000E+02  7.80000000E+01  0.00000000E+00
  8.40000000E+02  7.60000000E+01  0.00000000E+00
  8.40000000E+02  7.40000000E+01  0.00000000E+00
  8.40000000E+02  7.20000000E+01  0.00000000E+00
  8.40000000E+02  7.00000000E+01  0.00000000E+00
  8.40000000E+02  6.80000000E+01  0.00000000E+00
  8.40000000E+02  6.60000000E+01  0.00000000E+00
  8.40000000E+02  6.40000000E+01  0.00000000E+00
  8.40000000E+02  6.20000000E+01  0.00000000E+00
  8.40000000E+02  6.00000000E+01  0.00000000E+00
  8.40000000E+02  5.80000000E+01  0.00000000E+00
  8.40000000E+02  5.60000000E+01  0.00000000E+00
  8.40000000E+02  5.40000000E+01  0.00000000E+00
  8.40000000E+02  5.20000000E+01  0.00000000E+00
  8.40000000E+02  5.00000000E+01  0.00000000E+00
  8.40000000E+02  4.80000000E+01  0.00000000E+00
  8.40000000E+02  4.60000000E+01  0.00000000E+00
  8.40000000E+02  4.40000000E+01  0.00000000E+00
  8.40000000E+02  4.20000000E+01  0.00000000E+00
  8.40000000E+02  4.00000000E+01  0.00000000E+00
  8.40000000E+02  3.80000000E+01  0.00000000E+00
  8.40000000E+02  3.60000000E+01  0.00000000E+00
  8.40000000E+02  3.40000000E+01  0.00000000E+00
  8.40000000E+02  3.20000000E+01  0.00000000E+00
  8.40000000E+02  3.00000000E+01  0.00000000E+00
  8.40000000E+02  2.80000000E+01  0.00000000E+00
  8.40000000E+02  2.60000000E+01  0.00000000E+00
  8.40000000E+02  2.40000000E+01  0.00000000E+00
  8.40000000E+02  2.20000000E+01  0.00000000E+00
  8.40000000E+02  2.00000000E+01  0.00000000E+00
  8.40000000E+02  1.80000000E+01  0.00000000E+00
  8.40000000E+02  1.60000000E+01  0.00000000E+00
  8.40000000E+02  1.40000000E+01  0.00000000E+00
  8.40000000E+02  1.20000000E+01  0.00000000E+00
  8.40000000E+02  1.00000000E+01  0.00000000E+00
  8.40000000E+02  8.00000000E+00  0.00000000E+00
  8.40000000E+02  6.00000000E+00  0.00000000E+00
  8.40000000E+02  4.00000000E+00  0.00000000E+00
  8.40000000E+02  2.00000000E+00  0.00000000E+00
  8.40000000E+02 -3.33066907E-14  0.00000000E+00
  8.50000000E+02  1.00000000E+02  0.00000000E+00
  8.50000000E+02  9.80000000E+01  0.00000000E+00
  8.50000000E+02  9.60000000E+01  0.00000000E+00
  8.50000000E+02  9.40000000E+01  0.00000000E+00
  8.50000000E+02  9.20000000E+01  0.00000000E+00
  8.50000000E+02  9.00000000E+01  0.00000000E+00
  8.50000000E+02  8.80000000E+01  0.00000000E+00
  8.50000000E+02  8.60000000E+01  0.00000000E+00
  8.50000000E+02  8.40000000E+01  0.00000000E+00
  8.50000000E+02  8.20000000E+01  0.00000000E+00
  8.50000000E+02  8.00000000E+01  0.00000000E+00
  8.50000000E+02  7.80000000E+01  0.00000000E+00
  8.50000000E+02  7.60000000E+01  0.00000000E+00
  8.50000000E+02  7.40000000E+01  0.00000000E+00
  8.50000000E+02  7.20000000E+01  0.00000000E+00
  8.50000000E+02  7.00000000E+01  0.00000000E+00
  8.50000000E+02  6.80000000E+01  0.00000000E+00
  8.50000000E+02  6.60000000E+01  0.00000000E+00
  8.50000000E+02  6.40000000E+01  0.00000000E+00
  8.50000000E+02  6.20000000E+01  0.00000000E+00
  8.50000000E+02  6.00000000E+01  0.00000000E+00
  8.50000000E+02  5.80000000E+01  0.00000000E+00
  8.50000000E+02  5.60000000E+01  0.00000000E+00
  8.50000000E+02  5.40000000E+01  0.00000000E+00
  8.50000000E+02  5.20000000E+01  0.00000000E+00
  8.50000000E+02  5.00000000E+01  0.00000000E+00
  8.50000000E+02  4.80000000E+01  0.00000000E+00
  8.50000000E+02  4.60000000E+01  0.00000000E+00
  8.50000000E+02  4.40000000E+01  0.00000000E+00
  8.50000000E+02  4.20000000E+01  0.00000000E+00
  8.50000000E+02  4.00000000E+01  0.00000000E+00
  8.50000000E+02  3.80000000E+01  0.00000000E+00
  8.50000000E+02  3.60000000E+01  0.00000000E+00
  8.50000000E+02  3.40000000E+01  0.00000000E+00
  8.50000000E+02  3.20000000E+01  0.00000000E+00
  8.50000000E+02  3.00000000E+01  0.00000000E+00
  8.50000000E+02  2.80000000E+01  0.00000000E+00
  8.50000000E+02  2.60000000E+01  0.00000000E+00
  8.50000000E+02  2.40000000E+01  0.00000000E+00
  8.50000000E+02  2.20000000E+01  0.00000000E+00
  8.50000000E+02  2.00000000E+01  0.00000000E+00
  8.50000000E+02  1.80000000E+01  0.00000000E+00
  8.50000000E+02  1.60000000E+01  0.00000000E+00
  8.50000000E+02  1.40000000E+01  0.00000000E+00
  8.50000000E+02  1.20000000E+01  0.00000000E+00
  8.50000000E+02  1.00000000E+01  0.00000000E+00
  8.50000000E+02  8.00000000E+00  0.00000000E+00
  8.50000000E+02  6.00000000E+00  0.00000000E+00
  8.50000000E+02  4.00000000E+00  0.00000000E+00
  8.50000000E+02  2.00000000E+00  0.00000000E+00
  8.50000000E+02 -3.33066907E-14  0.00000000E+00
  8.60000000E+02  1.00000000E+02  0.00000000E+00
  8.60000000E+02  9.80000000E+01  0.00000000E+00
  8.60000000E+02  9.60000000E+01  0.00000000E+00
  8.60000000E+02  9.40000000E+01  0.00000000E+00
  8.60000000E+02  9.20000000E+01  0.00000000E+00
  8.60000000E+02  9.00000000E+01  0.00000000E+00
  8.60000000E+02  8.80000000E+01  0.00000000E+00
  8.60000000E+02  8.60000000E+01  0.00000000E+00
  8.60000000E+02  8.40000000E+01  0.00000000E+00
  8.60000000E+02  8.20000000E+01  0.00000000E+00
  8.60000000E+02  8.00000000E+01  0.00000000E+00
  8.60000000E+02  7.80000000E+01  0.00000000E+00
  8.60000000E+02  7.60000000E+01  0.00000000E+00
  8.60000000E+02  7.40000000E+01  0.00000000E+00
  8.60000000E+02  7.20000000E+01  0.00000000E+00
  8.60000000E+02  7.00000000E+01  0.00000000E+00
  8.60000000E+02  6.80000000E+01  0.00000000E+00
  8.60000000E+02  6.60000000E+01  0.00000000E+00
  8.60000000E+02  6.40000000E+01  0.00000000E+00
  8.60000000E+02  6.20000000E+01  0.00000000E+00
  8.60000000E+02  6.00000000E+01  0.00000000E+00
  8.60000000E+02  5.80000000E+01  0.00000000E+00
  8.60000000E+02  5.60000000E+01  0.00000000E+00
  8.60000000E+02  5.40000000E+01  0.00000000E+00
  8.60000000E+02  5.20000000E+01  0.00000000E+00
  8.60000000E+02  5.00000000E+01  0.00000000E+00
  8.60000000E+02  4.80000000E+01  0.00000000E+00
  8.60000000E+02  4.60000000E+01  0.00000000E+00
  8.60000000E+02  4.40000000E+01  0.00000000E+00
  8.60000000E+02  4.20000000E+01  0.00000000E+00
  8.60000000E+02  4.00000000E+01  0.00000000E+00
  8.60000000E+02  3.80000000E+01  0.00000000E+00
  8.60000000E+02  3.60000000E+01  0.00000000E+00
  8.60000000E+02  3.40000000E+01  0.00000000E+00
  8.60000000E+02  3.20000000E+01  0.00000000E+00
  8.60000000E+02  3.00000000E+01  0.00000000E+00
  8.60000000E+02  2.80000000E+01  0.00000000E+00
  8.60000000E+02  2.60000000E+01  0.00000000E+00
  8.60000000E+02  2.40000000E+01  0.00000000E+00
  8.60000000E+02  2.20000000E+01  0.00000000E+00
  8.60000000E+02  2.00000000E+01  0.00000000E+00
  8.60000000E+02  1.80000000E+01  0.00000000E+00
  8.60000000E+02  1.60000000E+01  0.00000000E+00
  8.60000000E+02  1.40000000E+01  0.00000000E+00
  8.60000000E+02  1.20000000E+01  0.00000000E+00
  8.60000000E+02  1.00000000E+01  0.00000000E+00
  8.60000000E+02  8.00000000E+00  0.00000000E+00
  8.60000000E+02  6.00000000E+00  0.00000000E+00
  8.60000000E+02  4.00000000E+00  0.00000000E+00
  8.60000000E+02  2.00000000E+00  0.00000000E+00
  8.60000000E+02 -3.33066907E-14  0.00000000E+00
  8.70000000E+02  1.00000000E+02  0.00000000E+00
  8.70000000E+02  9.80000000E+01  0.00000000E+00
  8.70000000E+02  9.60000000E+01  0.00000000E+00
  8.70000000E+02  9.40000000E+01  0.00000000E+00
  8.70000000E+02  9.20000000E+01  0.00000000E+00
  8.70000000E+02  9.00000000E+01  0.00000000E+00
  8.70000000E+02  8.80000000E+01  0.00000000E+00
  8.70000000E+02  8.60000000E+01  0.00000000E+00
  8.70000000E+02  8.40000000E+01  0.00000000E+00
  8.70000000E+02  8.20000000E+01  0.00000000E+00
  8.70000000E+02  8.00000000E+01  0.00000000E+00
  8.70000000E+02  7.80000000E+01  0.00000000E+00
  8.70000000E+02  7.60000000E+01  0.00000000E+00
  8.70000000E+02  7.40000000E+01  0.00000000E+00
  8.70000000E+02  7.20000000E+01  0.00000000E+00
  8.70000000E+02  7.00000000E+01  0.00000000E+00
  8.70000000E+02  6.80000000E+01  0.00000000E+00
  8.70000000E+02  6.60000000E+01  0.00000000E+00
  8.70000000E+02  6.40000000E+01  0.00000000E+00
  8.70000000E+02  6.20000000E+01  0.00000000E+00
  8.70000000E+02  6.00000000E+01  0.00000000E+00
  8.70000000E+02  5.80000000E+01  0.00000000E+00
  8.70000000E+02  5.60000000E+01  0.00000000E+00
  8.70000000E+02  5.40000000E+01  0.00000000E+00
  8.70000000E+02  5.20000000E+01  0.00000000E+00
  8.70000000E+02  5.00000000E+01  0.00000000E+00
  8.70000000E+02  4.80000000E+01  0.00000000E+00
  8.70000000E+02  4.60000000E+01  0.00000000E+00
  8.70000000E+02  4.40000000E+01  0.00000000E+00
  8.70000000E+02  4.20000000E+01  0.00000000E+00
  8.70000000E+02  4.00000000E+01  0.00000000E+00
  8.70000000E+02  3.80000000E+01  0.00000000E+00
  8.70000000E+02  3.60000000E+01  0.00000000E+00
  8.70000000E+02  3.40000000E+01  0.00000000E+00
  8.70000000E+02  3.20000000E+01  0.00000000E+00
  8.70000000E+02  3.00000000E+01  0.00000000E+00
  8.70000000E+02  2.80000000E+01  0.00000000E+00
  8.70000000E+02  2.60000000E+01  0.00000000E+00
  8.70000000E+02  2.40000000E+01  0.00000000E+00
  8.70000000E+02  2.20000000E+01  0.00000000E+00
  8.70000000E+02  2.00000000E+01  0.00000000E+00
  8.70000000E+02  1.80000000E+01  0.00000000E+00
  8.70000000E+02  1.60000000E+01  0.00000000E+00
  8.70000000E+02  1.40000000E+01  0.00000000E+00
  8.70000000E+02  1.20000000E+01  0.00000000E+00
  8.70000000E+02  1.00000000E+01  0.00000000E+00
  8.70000000E+02  8.00000000E+00  0.00000000E+00
  8.70000000E+02  6.00000000E+00  0.00000000E+00
  8.70000000E+02  4.00000000E+00  0.00000000E+00
  8.70000000E+02  2.00000000E+00  0.00000000E+00
  8.70000000E+02 -3.33066907E-14  0.00000000E+00
  8.80000000E+02  1.00000000E+02  0.00000000E+00
  8.80000000E+02  9.80000000E+01  0.00000000E+00
  8.80000000E+02  9.60000000E+01  0.00000000E+00
  8.80000000E+02  9.40000000E+01  0.00000000E+00
  8.80000000E+02  9.20000000E+01  0.00000000E+00
  8.80000000E+02  9.00000000E+01  0.00000000E+00
  8.80000000E+02  8.80000000E+01  0.00000000E+00
  8.80000000E+02  8.60000000E+01  0.00000000E+00
  8.80000000E+02  8.40000000E+01  0.00000000E+00
  8.80000000E+02  8.20000000E+01  0.00000000E+00
  8.80000000E+02  8.00000000E+01  0.00000000E+00
  8.80000000E+02  7.80000000E+01  0.00000000E+00
  8.80000000E+02  7.60000000E+01  0.00000000E+00
  8.80000000E+02  7.40000000E+01  0.00000000E+00
  8.80000000E+02  7.20000000E+01  0.00000000E+00
  8.80000000E+02  7.00000000E+01  0.00000000E+00
  8.80000000E+02  6.80000000E+01  0.00000000E+00
  8.80000000E+02  6.60000000E+01  0.00000000E+00
  8.80000000E+02  6.40000000E+01  0.00000000E+00
  8.80000000E+02  6.20000000E+01  0.00000000E+00
  8.80000000E+02  6.00000000E+01  0.00000000E+00
  8.80000000E+02  5.80000000E+01  0.00000000E+00
  8.80000000E+02  5.60000000E+01  0.00000000E+00
  8.80000000E+02  5.40000000E+01  0.00000000E+00
  8.80000000E+02  5.20000000E+01  0.00000000E+00
  8.80000000E+02  5.00000000E+01  0.00000000E+00
  8.80000000E+02  4.80000000E+01  0.00000000E+00
  8.80000000E+02  4.60000000E+01  0.00000000E+00
  8.80000000E+02  4.40000000E+01  0.00000000E+00
  8.80000000E+02  4.20000000E+01  0.00000000E+00
  8.80000000E+02  4.00000000E+01  0.00000000E+00
  8.80000000E+02  3.80000000E+01  0.00000000E+00
  8.80000000E+02  3.60000000E+01  0.00000000E+00
  8.80000000E+02  3.40000000E+01  0.00000000E+00
  8.80000000E+02  3.20000000E+01  0.00000000E+00
  8.80000000E+02  3.00000000E+01  0.00000000E+00
  8.80000000E+02  2.80000000E+01  0.00000000E+00
  8.80000000E+02  2.60000000E+01  0.00000000E+00
  8.80000000E+02  2.40000000E+01  0.00000000E+00
  8.80000000E+02  2.20000000E+01  0.00000000E+00
  8.80000000E+02  2.00000000E+01  0.00000000E+00
  8.80000000E+02  1.80000000E+01  0.00000000E+00
  8.80000000E+02  1.60000000E+01  0.00000000E+00
  8.80000000E+02  1.40000000E+01  0.00000000E+00
  8.80000000E+02  1.20000000E+01  0.00000000E+00
  8.80000000E+02  1.00000000E+01  0.00000000E+00
  8.80000000E+02  8.00000000E+00  0.00000000E+00
  8.80000000E+02  6.00000000E+00  0.00000000E+00
  8.80000000E+02  4.00000000E+00  0.00000000E+00
  8.80000000E+02  2.00000000E+00  0.00000000E+00
  8.80000000E+02 -3.33066907E-14  0.00000000E+00
  8.90000000E+02  1.00000000E+02  0.00000000E+00
  8.90000000E+02  9.80000000E+01  0.00000000E+00
  8.90000000E+02  9.60000000E+01  0.00000000E+00
  8.90000000E+02  9.40000000E+01  0.00000000E+00
  8.90000000E+02  9.20000000E+01  0.00000000E+00
  8.90000000E+02  9.00000000E+01  0.00000000E+00
  8.90000000E+02  8.80000000E+01  0.00000000E+00
  8.90000000E+02  8.60000000E+01  0.00000000E+00
  8.90000000E+02  8.40000000E+01  0.00000000E+00
  8.90000000E+02  8.20000000E+01  0.00000000E+00
  8.90000000E+02  8.00000000E+01  0.00000000E+00
  8.90000000E+02  7.80000000E+01  0.00000000E+00
  8.90000000E+02  7.60000000E+01  0.00000000E+00
  8.90000000E+02  7.40000000E+01  0.00000000E+00
  8.90000000E+02  7.20000000E+01  0.00000000E+00
  8.90000000E+02  7.00000000E+01  0.00000000E+00
  8.90000000E+02  6.80000000E+01  0.00000000E+00
  8.90000000E+02  6.60000000E+01  0.00000000E+00
  8.90000000E+02  6.40000000E+01  0.00000000E+00
  8.90000000E+02  6.20000000E+01  0.00000000E+00
  8.90000000E+02  6.00000000E+01  0.00000000E+00
  8.90000000E+02  5.80000000E+01  0.00000000E+00
  8.90000000E+02  5.60000000E+01  0.00000000E+00
  8.90000000E+02  5.40000000E+01  0.00000000E+00
  8.90000000E+02  5.20000000E+01  0.00000000E+00
  8.90000000E+02  5.00000000E+01  0.00000000E+00
  8.90000000E+02  4.80000000E+01  0.00000000E+00
  8.90000000E+02  4.60000000E+01  0.00000000E+00
  8.90000000E+02  4.40000000E+01  0.00000000E+00
  8.90000000E+02  4.20000000E+01  0.00000000E+00
  8.90000000E+02  4.00000000E+01  0.00000000E+00
  8.90000000E+02  3.80000000E+01  0.00000000E+00
  8.90000000E+02  3.60000000E+01  0.00000000E+00
  8.90000000E+02  3.40000000E+01  0.00000000E+00
  8.90000000E+02  3.20000000E+01  0.00000000E+00
  8.90000000E+02  3.00000000E+01  0.00000000E+00
  8.90000000E+02  2.80000000E+01  0.00000000E+00
  8.90000000E+02  2.60000000E+01  0.00000000E+00
  8.90000000E+02  2.40000000E+01  0.00000000E+00
  8.90000000E+02  2.20000000E+01  0.00000000E+00
  8.90000000E+02  2.00000000E+01  0.00000000E+00
  8.90000000E+02  1.80000000E+01  0.00000000E+00
  8.90000000E+02  1.60000000E+01  0.00000000E+00
  8.90000000E+02  1.40000000E+01  0.00000000E+00
  8.90000000E+02  1.20000000E+01  0.00000000E+00
  8.90000000E+02  1.00000000E+01  0.00000000E+00
  8.90000000E+02  8.00000000E+00  0.00000000E+00
  8.90000000E+02  6.00000000E+00  0.00000000E+00
  8.90000000E+02  4.00000000E+00  0.00000000E+00
  8.90000000E+02  2.00000000E+00  0.00000000E+00
  8.90000000E+02 -3.33066907E-14  0.00000000E+00
  9.00000000E+02  1.00000000E+02  0.00000000E+00
  9.00000000E+02  9.80000000E+01  0.00000000E+00
  9.00000000E+02  9.60000000E+01  0.00000000E+00
  9.00000000E+02  9.40000000E+01  0.00000000E+00
  9.00000000E+02  9.20000000E+01  0.00000000E+00
  9.00000000E+02  9.00000000E+01  0.00000000E+00
  9.00000000E+02  8.80000000E+01  0.00000000E+00
  9.00000000E+02  8.60000000E+01  0.00000000E+00
  9.00000000E+02  8.40000000E+01  0.00000000E+00
  9.00000000E+02  8.20000000E+01  0.00000000E+00
  9.00000000E+02  8.00000000E+01  0.00000000E+00
  9.00000000E+02  7.80000000E+01  0.00000000E+00
  9.00000000E+02  7.60000000E+01  0.00000000E+00
  9.00000000E+02  7.40000000E+01  0.00000000E+00
  9.00000000E+02  7.20000000E+01  0.00000000E+00
  9.00000000E+02  7.00000000E+01  0.00000000E+00
  9.00000000E+02  6.80000000E+01  0.00000000E+00
  9.00000000E+02  6.60000000E+01  0.00000000E+00
  9.00000000E+02  6.40000000E+01  0.00000000E+00
  9.00000000E+02  6.20000000E+01  0.00000000E+00
  9.00000000E+02  6.00000000E+01  0.00000000E+00
  9.00000000E+02  5.80000000E+01  0.00000000E+00
  9.00000000E+02  5.60000000E+01  0.00000000E+00
  9.00000000E+02  5.40000000E+01  0.00000000E+00
  9.00000000E+02  5.20000000E+01  0.00000000E+00
  9.00000000E+02  5.00000000E+01  0.00000000E+00
  9.00000000E+02  4.80000000E+01  0.00000000E+00
  9.00000000E+02  4.60000000E+01  0.00000000E+00
  9.00000000E+02  4.40000000E+01  0.00000000E+00
  9.00000000E+02  4.20000000E+01  0.00000000E+00
  9.00000000E+02  4.00000000E+01  0.00000000E+00
  9.00000000E+02  3.80000000E+01  0.00000000E+00
  9.00000000E+02  3.60000000E+01  0.00000000E+00
  9.00000000E+02  3.40000000E+01  0.00000000E+00
  9.00000000E+02  3.20000000E+01  0.00000000E+00
  9.00000000E+02  3.00000000E+01  0.00000000E+00
  9.00000000E+02  2.80000000E+01  0.00000000E+00
  9.00000000E+02  2.60000000E+01  0.00000000E+00
  9.00000000E+02  2.40000000E+01  0.00000000E+00
  9.00000000E+02  2.20000000E+01  0.00000000E+00
  9.00000000E+02  2.00000000E+01  0.00000000E+00
  9.00000000E+02  1.80000000E+01  0.00000000E+00
  9.00000000E+02  1.60000000E+01  0.00000000E+00
  9.00000000E+02  1.40000000E+01  0.00000000E+00
  9.00000000E+02  1.20000000E+01  0.00000000E+00
  9.00000000E+02  1.00000000E+01  0.00000000E+00
  9.00000000E+02  8.00000000E+00  0.00000000E+00
  9.00000000E+02  6.00000000E+00  0.00000000E+00
  9.00000000E+02  4.00000000E+00  0.00000000E+00
  9.00000000E+02  2.00000000E+00  0.00000000E+00
  9.00000000E+02 -3.33066907E-14  0.00000000E+00
  9.10000000E+02  1.00000000E+02  0.00000000E+00
  9.10000000E+02  9.80000000E+01  0.00000000E+00
  9.10000000E+02  9.60000000E+01  0.00000000E+00
  9.10000000E+02  9.40000000E+01  0.00000000E+00
  9.10000000E+02  9.20000000E+01  0.00000000E+00
  9.10000000E+02  9.00000000E+01  0.00000000E+00
  9.10000000E+02  8.80000000E+01  0.00000000E+00
  9.10000000E+02  8.60000000E+01  0.00000000E+00
  9.10000000E+02  8.40000000E+01  0.00000000E+00
  9.10000000E+02  8.20000000E+01  0.00000000E+00
  9.10000000E+02  8.00000000E+01  0.00000000E+00
  9.10000000E+02  7.80000000E+01  0.00000000E+00
  9.10000000E+02  7.60000000E+01  0.00000000E+00
  9.10000000E+02  7.40000000E+01  0.00000000E+00
  9.10000000E+02  7.20000000E+01  0.00000000E+00
  9.10000000E+02  7.00000000E+01  0.00000000E+00
  9.10000000E+02  6.80000000E+01  0.00000000E+00
  9.10000000E+02  6.60000000E+01  0.00000000E+00
  9.10000000E+02  6.40000000E+01  0.00000000E+00
  9.10000000E+02  6.20000000E+01  0.00000000E+00
  9.10000000E+02  6.00000000E+01  0.00000000E+00
  9.10000000E+02  5.80000000E+01  0.00000000E+00
  9.10000000E+02  5.60000000E+01  0.00000000E+00
  9.10000000E+02  5.40000000E+01  0.00000000E+00
  9.10000000E+02  5.20000000E+01  0.00000000E+00
  9.10000000E+02  5.00000000E+01  0.00000000E+00
  9.10000000E+02  4.80000000E+01  0.00000000E+00
  9.10000000E+02  4.60000000E+01  0.00000000E+00
  9.10000000E+02  4.40000000E+01  0.00000000E+00
  9.10000000E+02  4.20000000E+01  0.00000000E+00
  9.10000000E+02  4.00000000E+01  0.00000000E+00
  9.10000000E+02  3.80000000E+01  0.00000000E+00
  9.10000000E+02  3.60000000E+01  0.00000000E+00
  9.10000000E+02  3.40000000E+01  0.00000000E+00
  9.10000000E+02  3.20000000E+01  0.00000000E+00
  9.10000000E+02  3.00000000E+01  0.00000000E+00
  9.10000000E+02  2.80000000E+01  0.00000000E+00
  9.10000000E+02  2.60000000E+01  0.00000000E+00
  9.10000000E+02  2.40000000E+01  0.00000000E+00
  9.10000000E+02  2.20000000E+01  0.00000000E+00
  9.10000000E+02  2.00000000E+01  0.00000000E+00
  9.10000000E+02  1.80000000E+01  0.00000000E+00
  9.10000000E+02  1.60000000E+01  0.00000000E+00
  9.10000000E+02  1.40000000E+01  0.00000000E+00
  9.10000000E+02  1.20000000E+01  0.00000000E+00
  9.10000000E+02  1.00000000E+01  0.00000000E+00
  9.10000000E+02  8.00000000E+00  0.00000000E+00
  9.10000000E+02  6.00000000E+00  0.00000000E+00
  9.10000000E+02  4.00000000E+00  0.00000000E+00
  9.10000000E+02  2.00000000E+00  0.00000000E+00
  9.10000000E+02 -3.33066907E-14  0.00000000E+00
  9.20000000E+02  1.00000000E+02  0.00000000E+00
  9.20000000E+02  9.80000000E+01  0.00000000E+00
  9.20000000E+02  9.60000000E+01  0.00000000E+00
  9.20000000E+02  9.40000000E+01  0.00000000E+00
  9.20000000E+02  9.20000000E+01  0.00000000E+00
  9.20000000E+02  9.00000000E+01  0.00000000E+00
  9.20000000E+02  8.80000000E+01  0.00000000E+00
  9.20000000E+02  8.60000000E+01  0.00000000E+00
  9.20000000E+02  8.40000000E+01  0.00000000E+00
  9.20000000E+02  8.20000000E+01  0.00000000E+00
  9.20000000E+02  8.00000000E+01  0.00000000E+00
  9.20000000E+02  7.80000000E+01  0.00000000E+00
  9.20000000E+02  7.60000000E+01  0.00000000E+00
  9.20000000E+02  7.40000000E+01  0.00000000E+00
  9.20000000E+02  7.20000000E+01  0.00000000E+00
  9.20000000E+02  7.00000000E+01  0.00000000E+00
  9.20000000E+02  6.80000000E+01  0.00000000E+00
  9.20000000E+02  6.60000000E+01  0.00000000E+00
  9.20000000E+02  6.40000000E+01  0.00000000E+00
  9.20000000E+02  6.20000000E+01  0.00000000E+00
  9.20000000E+02  6.00000000E+01  0.00000000E+00
  9.20000000E+02  5.80000000E+01  0.00000000E+00
  9.20000000E+02  5.60000000E+01  0.00000000E+00
  9.20000000E+02  5.40000000E+01  0.00000000E+00
  9.20000000E+02  5.20000000E+01  0.00000000E+00
  9.20000000E+02  5.00000000E+01  0.00000000E+00
  9.20000000E+02  4.80000000E+01  0.00000000E+00
  9.20000000E+02  4.60000000E+01  0.00000000E+00
  9.20000000E+02  4.40000000E+01  0.00000000E+00
  9.20000000E+02  4.20000000E+01  0.00000000E+00
  9.20000000E+02  4.00000000E+01  0.00000000E+00
  9.20000000E+02  3.80000000E+01  0.00000000E+00
  9.20000000E+02  3.60000000E+01  0.00000000E+00
  9.20000000E+02  3.40000000E+01  0.00000000E+00
  9.20000000E+02  3.20000000E+01  0.00000000E+00
  9.20000000E+02  3.00000000E+01  0.00000000E+00
  9.20000000E+02  2.80000000E+01  0.00000000E+00
  9.20000000E+02  2.60000000E+01  0.00000000E+00
  9.20000000E+02  2.40000000E+01  0.00000000E+00
  9.20000000E+02  2.20000000E+01  0.00000000E+00
  9.20000000E+02  2.00000000E+01  0.00000000E+00
  9.20000000E+02  1.80000000E+01  0.00000000E+00
  9.20000000E+02  1.60000000E+01  0.00000000E+00
  9.20000000E+02  1.40000000E+01  0.00000000E+00
  9.20000000E+02  1.20000000E+01  0.00000000E+00
  9.20000000E+02  1.00000000E+01  0.00000000E+00
  9.20000000E+02  8.00000000E+00  0.00000000E+00
  9.20000000E+02  6.00000000E+00  0.00000000E+00
  9.20000000E+02  4.00000000E+00  0.00000000E+00
  9.20000000E+02  2.00000000E+00  0.00000000E+00
  9.20000000E+02 -3.33066907E-14  0.00000000E+00
  9.30000000E+02  1.00000000E+02  0.00000000E+00
  9.30000000E+02  9.80000000E+01  0.00000000E+00
  9.30000000E+02  9.60000000E+01  0.00000000E+00
  9.30000000E+02  9.40000000E+01  0.00000000E+00
  9.30000000E+02  9.20000000E+01  0.00000000E+00
  9.30000000E+02  9.00000000E+01  0.00000000E+00
  9.30000000E+02  8.80000000E+01  0.00000000E+00
  9.30000000E+02  8.60000000E+01  0.00000000E+00
  9.30000000E+02  8.40000000E+01  0.00000000E+00
  9.30000000E+02  8.20000000E+01  0.00000000E+00
  9.30000000E+02  8.00000000E+01  0.00000000E+00
  9.30000000E+02  7.80000000E+01  0.00000000E+00
  9.30000000E+02  7.60000000E+01  0.00000000E+00
  9.30000000E+02  7.40000000E+01  0.00000000E+00
  9.30000000E+02  7.20000000E+01  0.00000000E+00
  9.30000000E+02  7.00000000E+01  0.00000000E+00
  9.30000000E+02  6.80000000E+01  0.00000000E+00
  9.30000000E+02  6.60000000E+01  0.00000000E+00
  9.30000000E+02  6.40000000E+01  0.00000000E+00
  9.30000000E+02  6.20000000E+01  0.00000000E+00
  9.30000000E+02  6.00000000E+01  0.00000000E+00
  9.30000000E+02  5.80000000E+01  0.00000000E+00
  9.30000000E+02  5.60000000E+01  0.00000000E+00
  9.30000000E+02  5.40000000E+01  0.00000000E+00
  9.30000000E+02  5.20000000E+01  0.00000000E+00
  9.30000000E+02  5.00000000E+01  0.00000000E+00
  9.30000000E+02  4.80000000E+01  0.00000000E+00
  9.30000000E+02  4.60000000E+01  0.00000000E+00
  9.30000000E+02  4.40000000E+01  0.00000000E+00
  9.30000000E+02  4.20000000E+01  0.00000000E+00
  9.30000000E+02  4.00000000E+01  0.00000000E+00
  9.30000000E+02  3.80000000E+01  0.00000000E+00
  9.30000000E+02  3.60000000E+01  0.00000000E+00
  9.30000000E+02  3.40000000E+01  0.00000000E+00
  9.30000000E+02  3.20000000E+01  0.00000000E+00
  9.30000000E+02  3.00000000E+01  0.00000000E+00
  9.30000000E+02  2.80000000E+01  0.00000000E+00
  9.30000000E+02  2.60000000E+01  0.00000000E+00
  9.30000000E+02  2.40000000E+01  0.00000000E+00
  9.30000000E+02  2.20000000E+01  0.00000000E+00
  9.30000000E+02  2.00000000E+01  0.00000000E+00
  9.30000000E+02  1.80000000E+01  0.00000000E+00
  9.30000000E+02  1.60000000E+01  0.00000000E+00
  9.30000000E+02  1.40000000E+01  0.00000000E+00
  9.30000000E+02  1.20000000E+01  0.00000000E+00
  9.30000000E+02  1.00000000E+01  0.00000000E+00
  9.30000000E+02  8.00000000E+00  0.00000000E+00
  9.30000000E+02  6.00000000E+00  0.00000000E+00
  9.30000000E+02  4.00000000E+00  0.00000000E+00
  9.30000000E+02  2.00000000E+00  0.00000000E+00
  9.30000000E+02 -3.33066907E-14  0.00000000E+00
  9.40000000E+02  1.00000000E+02  0.00000000E+00
  9.40000000E+02  9.80000000E+01  0.00000000E+00
  9.40000000E+02  9.60000000E+01  0.00000000E+00
  9.40000000E+02  9.40000000E+01  0.00000000E+00
  9.40000000E+02  9.20000000E+01  0.00000000E+00
  9.40000000E+02  9.00000000E+01  0.00000000E+00
  9.40000000E+02  8.80000000E+01  0.00000000E+00
  9.40000000E+02  8.60000000E+01  0.00000000E+00
  9.40000000E+02  8.40000000E+01  0.00000000E+00
  9.40000000E+02  8.20000000E+01  0.00000000E+00
  9.40000000E+02  8.00000000E+01  0.00000000E+00
  9.40000000E+02  7.80000000E+01  0.00000000E+00
  9.40000000E+02  7.60000000E+01  0.00000000E+00
  9.40000000E+02  7.40000000E+01  0.00000000E+00
  9.40000000E+02  7.20000000E+01  0.00000000E+00
  9.40000000E+02  7.00000000E+01  0.00000000E+00
  9.40000000E+02  6.80000000E+01  0.00000000E+00
  9.40000000E+02  6.60000000E+01  0.00000000E+00
  9.40000000E+02  6.40000000E+01  0.00000000E+00
  9.40000000E+02  6.20000000E+01  0.00000000E+00
  9.40000000E+02  6.00000000E+01  0.00000000E+00
  9.40000000E+02  5.80000000E+01  0.00000000E+00
  9.40000000E+02  5.60000000E+01  0.00000000E+00
  9.40000000E+02  5.40000000E+01  0.00000000E+00
  9.40000000E+02  5.20000000E+01  0.00000000E+00
  9.40000000E+02  5.00000000E+01  0.00000000E+00
  9.40000000E+02  4.80000000E+01  0.00000000E+00
  9.40000000E+02  4.60000000E+01  0.00000000E+00
  9.40000000E+02  4.40000000E+01  0.00000000E+00
  9.40000000E+02  4.20000000E+01  0.00000000E+00
  9.40000000E+02  4.00000000E+01  0.00000000E+00
  9.40000000E+02  3.80000000E+01  0.00000000E+00
  9.40000000E+02  3.60000000E+01  0.00000000E+00
  9.40000000E+02  3.40000000E+01  0.00000000E+00
  9.40000000E+02  3.20000000E+01  0.00000000E+00
  9.40000000E+02  3.00000000E+01  0.00000000E+00
  9.40000000E+02  2.80000000E+01  0.00000000E+00
  9.40000000E+02  2.60000000E+01  0.00000000E+00
  9.40000000E+02  2.40000000E+01  0.00000000E+00
  9.40000000E+02  2.20000000E+01  0.00000000E+00
  9.40000000E+02  2.00000000E+01  0.00000000E+00
  9.40000000E+02  1.80000000E+01  0.00000000E+00
  9.40000000E+02  1.60000000E+01  0.00000000E+00
  9.40000000E+02  1.40000000E+01  0.00000000E+00
  9.40000000E+02  1.20000000E+01  0.00000000E+00
  9.40000000E+02  1.00000000E+01  0.00000000E+00
  9.40000000E+02  8.00000000E+00  0.00000000E+00
  9.40000000E+02  6.00000000E+00  0.00000000E+00
  9.40000000E+02  4.00000000E+00  0.00000000E+00
  9.40000000E+02  2.00000000E+00  0.00000000E+00
  9.40000000E+02 -3.33066907E-14  0.00000000E+00
  9.50000000E+02  1.00000000E+02  0.00000000E+00
  9.50000000E+02  9.80000000E+01  0.00000000E+00
  9.50000000E+02  9.60000000E+01  0.00000000E+00
  9.50000000E+02  9.40000000E+01  0.00000000E+00
  9.50000000E+02  9.20000000E+01  0.00000000E+00
  9.50000000E+02  9.00000000E+01  0.00000000E+00
  9.50000000E+02  8.80000000E+01  0.00000000E+00
  9.50000000E+02  8.60000000E+01  0.00000000E+00
  9.50000000E+02  8.40000000E+01  0.00000000E+00
  9.50000000E+02  8.20000000E+01  0.00000000E+00
  9.50000000E+02  8.00000000E+01  0.00000000E+00
  9.50000000E+02  7.80000000E+01  0.00000000E+00
  9.50000000E+02  7.60000000E+01  0.00000000E+00
  9.50000000E+02  7.40000000E+01  0.00000000E+00
  9.50000000E+02  7.20000000E+01  0.00000000E+00
  9.50000000E+02  7.00000000E+01  0.00000000E+00
  9.50000000E+02  6.80000000E+01  0.00000000E+00
  9.50000000E+02  6.60000000E+01  0.00000000E+00
  9.50000000E+02  6.40000000E+01  0.00000000E+00
  9.50000000E+02  6.20000000E+01  0.00000000E+00
  9.50000000E+02  6.00000000E+01  0.00000000E+00
  9.50000000E+02  5.80000000E+01  0.00000000E+00
  9.50000000E+02  5.60000000E+01  0.00000000E+00
  9.50000000E+02  5.40000000E+01  0.00000000E+00
  9.50000000E+02  5.20000000E+01  0.00000000E+00
  9.50000000E+02  5.00000000E+01  0.00000000E+00
  9.50000000E+02  4.80000000E+01  0.00000000E+00
  9.50000000E+02  4.60000000E+01  0.00000000E+00
  9.50000000E+02  4.40000000E+01  0.00000000E+00
  9.50000000E+02  4.20000000E+01  0.00000000E+00
  9.50000000E+02  4.00000000E+01  0.00000000E+00
  9.50000000E+02  3.80000000E+01  0.00000000E+00
  9.50000000E+02  3.60000000E+01  0.00000000E+00
  9.50000000E+02  3.40000000E+01  0.00000000E+00
  9.50000000E+02  3.20000000E+01  0.00000000E+00
  9.50000000E+02  3.00000000E+01  0.00000000E+00
  9.50000000E+02  2.80000000E+01  0.00000000E+00
  9.50000000E+02  2.60000000E+01  0.00000000E+00
  9.50000000E+02  2.40000000E+01  0.00000000E+00
  9.50000000E+02  2.20000000E+01  0.00000000E+00
  9.50000000E+02  2.00000000E+01  0.00000000E+00
  9.50000000E+02  1.80000000E+01  0.00000000E+00
  9.50000000E+02  1.60000000E+01  0.00000000E+00
  9.50000000E+02  1.40000000E+01  0.00000000E+00
  9.50000000E+02  1.20000000E+01  0.00000000E+00
  9.50000000E+02  1.00000000E+01  0.00000000E+00
  9.50000000E+02  8.00000000E+00  0.00000000E+00
  9.50000000E+02  6.00000000E+00  0.00000000E+00
  9.50000000E+02  4.00000000E+00  0.00000000E+00
  9.50000000E+02  2.00000000E+00  0.00000000E+00
  9.50000000E+02 -3.33066907E-14  0.00000000E+00
  9.60000000E+02  1.00000000E+02  0.00000000E+00
  9.60000000E+02  9.80000000E+01  0.00000000E+00
  9.60000000E+02  9.60000000E+01  0.00000000E+00
  9.60000000E+02  9.40000000E+01  0.00000000E+00
  9.60000000E+02  9.20000000E+01  0.00000000E+00
  9.60000000E+02  9.00000000E+01  0.00000000E+00
  9.60000000E+02  8.80000000E+01  0.00000000E+00
  9.60000000E+02  8.60000000E+01  0.00000000E+00
  9.60000000E+02  8.40000000E+01  0.00000000E+00
  9.60000000E+02  8.20000000E+01  0.00000000E+00
  9.60000000E+02  8.00000000E+01  0.00000000E+00
  9.60000000E+02  7.80000000E+01  0.00000000E+00
  9.60000000E+02  7.60000000E+01  0.00000000E+00
  9.60000000E+02  7.40000000E+01  0.00000000E+00
  9.60000000E+02  7.20000000E+01  0.00000000E+00
  9.60000000E+02  7.00000000E+01  0.00000000E+00
  9.60000000E+02  6.80000000E+01  0.00000000E+00
  9.60000000E+02  6.60000000E+01  0.00000000E+00
  9.60000000E+02  6.40000000E+01  0.00000000E+00
  9.60000000E+02  6.20000000E+01  0.00000000E+00
  9.60000000E+02  6.00000000E+01  0.00000000E+00
  9.60000000E+02  5.80000000E+01  0.00000000E+00
  9.60000000E+02  5.60000000E+01  0.00000000E+00
  9.60000000E+02  5.40000000E+01  0.00000000E+00
  9.60000000E+02  5.20000000E+01  0.00000000E+00
  9.60000000E+02  5.00000000E+01  0.00000000E+00
  9.60000000E+02  4.80000000E+01  0.00000000E+00
  9.60000000E+02  4.60000000E+01  0.00000000E+00
  9.60000000E+02  4.40000000E+01  0.00000000E+00
  9.60000000E+02  4.20000000E+01  0.00000000E+00
  9.60000000E+02  4.00000000E+01  0.00000000E+00
  9.60000000E+02  3.80000000E+01  0.00000000E+00
  9.60000000E+02  3.60000000E+01  0.00000000E+00
  9.60000000E+02  3.40000000E+01  0.00000000E+00
  9.60000000E+02  3.20000000E+01  0.00000000E+00
  9.60000000E+02  3.00000000E+01  0.00000000E+00
  9.60000000E+02  2.80000000E+01  0.00000000E+00
  9.60000000E+02  2.60000000E+01  0.00000000E+00
  9.60000000E+02  2.40000000E+01  0.00000000E+00
  9.60000000E+02  2.20000000E+01  0.00000000E+00
  9.60000000E+02  2.00000000E+01  0.00000000E+00
  9.60000000E+02  1.80000000E+01  0.00000000E+00
  9.60000000E+02  1.60000000E+01  0.00000000E+00
  9.60000000E+02  1.40000000E+01  0.00000000E+00
  9.60000000E+02  1.20000000E+01  0.00000000E+00
  9.60000000E+02  1.00000000E+01  0.00000000E+00
  9.60000000E+02  8.00000000E+00  0.00000000E+00
  9.60000000E+02  6.00000000E+00  0.00000000E+00
  9.60000000E+02  4.00000000E+00  0.00000000E+00
  9.60000000E+02  2.00000000E+00  0.00000000E+00
  9.60000000E+02 -3.33066907E-14  0.00000000E+00
  9.70000000E+02  1.00000000E+02  0.00000000E+00
  9.70000000E+02  9.80000000E+01  0.00000000E+00
  9.70000000E+02  9.60000000E+01  0.00000000E+00
  9.70000000E+02  9.40000000E+01  0.00000000E+00
  9.70000000E+02  9.20000000E+01  0.00000000E+00
  9.70000000E+02  9.00000000E+01  0.00000000E+00
  9.70000000E+02  8.80000000E+01  0.00000000E+00
  9.70000000E+02  8.60000000E+01  0.00000000E+00
  9.70000000E+02  8.40000000E+01  0.00000000E+00
  9.70000000E+02  8.20000000E+01  0.00000000E+00
  9.70000000E+02  8.00000000E+01  0.00000000E+00
  9.70000000E+02  7.80000000E+01  0.00000000E+00
  9.70000000E+02  7.60000000E+01  0.00000000E+00
  9.70000000E+02  7.40000000E+01  0.00000000E+00
  9.70000000E+02  7.20000000E+01  0.00000000E+00
  9.70000000E+02  7.00000000E+01  0.00000000E+00
  9.70000000E+02  6.80000000E+01  0.00000000E+00
  9.70000000E+02  6.60000000E+01  0.00000000E+00
  9.70000000E+02  6.40000000E+01  0.00000000E+00
  9.70000000E+02  6.20000000E+01  0.00000000E+00
  9.70000000E+02  6.00000000E+01  0.00000000E+00
  9.70000000E+02  5.80000000E+01  0.00000000E+00
  9.70000000E+02  5.60000000E+01  0.00000000E+00
  9.70000000E+02  5.40000000E+01  0.00000000E+00
  9.70000000E+02  5.20000000E+01  0.00000000E+00
  9.70000000E+02  5.00000000E+01  0.00000000E+00
  9.70000000E+02  4.80000000E+01  0.00000000E+00
  9.70000000E+02  4.60000000E+01  0.00000000E+00
  9.70000000E+02  4.40000000E+01  0.00000000E+00
  9.70000000E+02  4.20000000E+01  0.00000000E+00
  9.70000000E+02  4.00000000E+01  0.00000000E+00
  9.70000000E+02  3.80000000E+01  0.00000000E+00
  9.70000000E+02  3.60000000E+01  0.00000000E+00
  9.70000000E+02  3.40000000E+01  0.00000000E+00
  9.70000000E+02  3.20000000E+01  0.00000000E+00
  9.70000000E+02  3.00000000E+01  0.00000000E+00
  9.70000000E+02  2.80000000E+01  0.00000000E+00
  9.70000000E+02  2.60000000E+01  0.00000000E+00
  9.70000000E+02  2.40000000E+01  0.00000000E+00
  9.70000000E+02  2.20000000E+01  0.00000000E+00
  9.70000000E+02  2.00000000E+01  0.00000000E+00
  9.70000000E+02  1.80000000E+01  0.00000000E+00
  9.70000000E+02  1.60000000E+01  0.00000000E+00
  9.70000000E+02  1.40000000E+01  0.00000000E+00
  9.70000000E+02  1.20000000E+01  0.00000000E+00
  9.70000000E+02  1.00000000E+01  0.00000000E+00
  9.70000000E+02  8.00000000E+00  0.00000000E+00
  9.70000000E+02  6.00000000E+00  0.00000000E+00
  9.70000000E+02  4.00000000E+00  0.00000000E+00
  9.70000000E+02  2.00000000E+00  0.00000000E+00
  9.70000000E+02 -3.33066907E-14  0.00000000E+00
  9.80000000E+02  1.00000000E+02  0.00000000E+00
  9.80000000E+02  9.80000000E+01  0.00000000E+00
  9.80000000E+02  9.60000000E+01  0.00000000E+00
  9.80000000E+02  9.40000000E+01  0.00000000E+00
  9.80000000E+02  9.20000000E+01  0.00000000E+00
  9.80000000E+02  9.00000000E+01  0.00000000E+00
  9.80000000E+02  8.80000000E+01  0.00000000E+00
  9.80000000E+02  8.60000000E+01  0.00000000E+00
  9.80000000E+02  8.40000000E+01  0.00000000E+00
  9.80000000E+02  8.20000000E+01  0.00000000E+00
  9.80000000E+02  8.00000000E+01  0.00000000E+00
  9.80000000E+02  7.80000000E+01  0.00000000E+00
  9.80000000E+02  7.60000000E+01  0.00000000E+00
  9.80000000E+02  7.40000000E+01  0.00000000E+00
  9.80000000E+02  7.20000000E+01  0.00000000E+00
  9.80000000E+02  7.00000000E+01  0.00000000E+00
  9.80000000E+02  6.80000000E+01  0.00000000E+00
  9.80000000E+02  6.60000000E+01  0.00000000E+00
  9.80000000E+02  6.40000000E+01  0.00000000E+00
  9.80000000E+02  6.20000000E+01  0.00000000E+00
  9.80000000E+02  6.00000000E+01  0.00000000E+00
  9.80000000E+02  5.80000000E+01  0.00000000E+00
  9.80000000E+02  5.60000000E+01  0.00000000E+00
  9.80000000E+02  5.40000000E+01  0.00000000E+00
  9.80000000E+02  5.20000000E+01  0.00000000E+00
  9.80000000E+02  5.00000000E+01  0.00000000E+00
  9.80000000E+02  4.80000000E+01  0.00000000E+00
  9.80000000E+02  4.60000000E+01  0.00000000E+00
  9.80000000E+02  4.40000000E+01  0.00000000E+00
  9.80000000E+02  4.20000000E+01  0.00000000E+00
  9.80000000E+02  4.00000000E+01  0.00000000E+00
  9.80000000E+02  3.80000000E+01  0.00000000E+00
  9.80000000E+02  3.60000000E+01  0.00000000E+00
  9.80000000E+02  3.40000000E+01  0.00000000E+00
  9.80000000E+02  3.20000000E+01  0.00000000E+00
  9.80000000E+02  3.00000000E+01  0.00000000E+00
  9.80000000E+02  2.80000000E+01  0.00000000E+00
  9.80000000E+02  2.60000000E+01  0.00000000E+00
  9.80000000E+02  2.40000000E+01  0.00000000E+00
  9.80000000E+02  2.20000000E+01  0.00000000E+00
  9.80000000E+02  2.00000000E+01  0.00000000E+00
  9.80000000E+02  1.80000000E+01  0.00000000E+00
  9.80000000E+02  1.60000000E+01  0.00000000E+00
  9.80000000E+02  1.40000000E+01  0.00000000E+00
  9.80000000E+02  1.20000000E+01  0.00000000E+00
  9.80000000E+02  1.00000000E+01  0.00000000E+00
  9.80000000E+02  8.00000000E+00  0.00000000E+00
  9.80000000E+02  6.00000000E+00  0.00000000E+00
  9.80000000E+02  4.00000000E+00  0.00000000E+00
  9.80000000E+02  2.00000000E+00  0.00000000E+00
  9.80000000E+02 -3.33066907E-14  0.00000000E+00
  9.90000000E+02  1.00000000E+02  0.00000000E+00
  9.90000000E+02  9.80000000E+01  0.00000000E+00
  9.90000000E+02  9.60000000E+01  0.00000000E+00
  9.90000000E+02  9.40000000E+01  0.00000000E+00
  9.90000000E+02  9.20000000E+01  0.00000000E+00
  9.90000000E+02  9.00000000E+01  0.00000000E+00
  9.90000000E+02  8.80000000E+01  0.00000000E+00
  9.90000000E+02  8.60000000E+01  0.00000000E+00
  9.90000000E+02  8.40000000E+01  0.00000000E+00
  9.90000000E+02  8.20000000E+01  0.00000000E+00
  9.90000000E+02  8.00000000E+01  0.00000000E+00
  9.90000000E+02  7.80000000E+01  0.00000000E+00
  9.90000000E+02  7.60000000E+01  0.00000000E+00
  9.90000000E+02  7.40000000E+01  0.00000000E+00
  9.90000000E+02  7.20000000E+01  0.00000000E+00
  9.90000000E+02  7.00000000E+01  0.00000000E+00
  9.90000000E+02  6.80000000E+01  0.00000000E+00
  9.90000000E+02  6.60000000E+01  0.00000000E+00
  9.90000000E+02  6.40000000E+01  0.00000000E+00
  9.90000000E+02  6.20000000E+01  0.00000000E+00
  9.90000000E+02  6.00000000E+01  0.00000000E+00
  9.90000000E+02  5.80000000E+01  0.00000000E+00
  9.90000000E+02  5.60000000E+01  0.00000000E+00
  9.90000000E+02  5.40000000E+01  0.00000000E+00
  9.90000000E+02  5.20000000E+01  0.00000000E+00
  9.90000000E+02  5.00000000E+01  0.00000000E+00
  9.90000000E+02  4.80000000E+01  0.00000000E+00
  9.90000000E+02  4.60000000E+01  0.00000000E+00
  9.90000000E+02  4.40000000E+01  0.00000000E+00
  9.90000000E+02  4.20000000E+01  0.00000000E+00
  9.90000000E+02  4.00000000E+01  0.00000000E+00
  9.90000000E+02  3.80000000E+01  0.00000000E+00
  9.90000000E+02  3.60000000E+01  0.00000000E+00
  9.90000000E+02  3.40000000E+01  0.00000000E+00
  9.90000000E+02  3.20000000E+01  0.00000000E+00
  9.90000000E+02  3.00000000E+01  0.00000000E+00
  9.90000000E+02  2.80000000E+01  0.00000000E+00
  9.90000000E+02  2.60000000E+01  0.00000000E+00
  9.90000000E+02  2.40000000E+01  0.00000000E+00
  9.90000000E+02  2.20000000E+01  0.00000000E+00
  9.90000000E+02  2.00000000E+01  0.00000000E+00
  9.90000000E+02  1.80000000E+01  0.00000000E+00
  9.90000000E+02  1.60000000E+01  0.00000000E+00
  9.90000000E+02  1.40000000E+01  0.00000000E+00
  9.90000000E+02  1.20000000E+01  0.00000000E+00
  9.90000000E+02  1.00000000E+01  0.00000000E+00
  9.90000000E+02  8.00000000E+00  0.00000000E+00
  9.90000000E+02  6.00000000E+00  0.00000000E+00
  9.90000000E+02  4.00000000E+00  0.00000000E+00
  9.90000000E+02  2.00000000E+00  0.00000000E+00
  9.90000000E+02 -3.33066907E-14  0.00000000E+00
  1.00000000E+03  1.00000000E+02  0.00000000E+00
  1.00000000E+03  9.80000000E+01  0.00000000E+00
  1.00000000E+03  9.60000000E+01  0.00000000E+00
  1.00000000E+03  9.40000000E+01  0.00000000E+00
  1.00000000E+03  9.20000000E+01  0.00000000E+00
  1.00000000E+03  9.00000000E+01  0.00000000E+00
  1.00000000E+03  8.80000000E+01  0.00000000E+00
  1.00000000E+03  8.60000000E+01  0.00000000E+00
  1.00000000E+03  8.40000000E+01  0.00000000E+00
  1.00000000E+03  8.20000000E+01  0.00000000E+00
  1.00000000E+03  8.00000000E+01  0.00000000E+00
  1.00000000E+03  7.80000000E+01  0.00000000E+00
  1.00000000E+03  7.60000000E+01  0.00000000E+00
  1.00000000E+03  7.40000000E+01  0.00000000E+00
  1.00000000E+03  7.20000000E+01  0.00000000E+00
  1.00000000E+03  7.00000000E+01  0.00000000E+00
  1.00000000E+03  6.80000000E+01  0.00000000E+00
  1.00000000E+03  6.60000000E+01  0.00000000E+00
  1.00000000E+03  6.40000000E+01  0.00000000E+00
  1.00000000E+03  6.20000000E+01  0.00000000E+00
  1.00000000E+03  6.00000000E+01  0.00000000E+00
  1.00000000E+03  5.80000000E+01  0.00000000E+00
  1.00000000E+03  5.60000000E+01  0.00000000E+00
  1.00000000E+03  5.40000000E+01  0.00000000E+00
  1.00000000E+03  5.20000000E+01  0.00000000E+00
  1.00000000E+03  5.00000000E+01  0.00000000E+00
  1.00000000E+03  4.80000000E+01  0.00000000E+00
  1.00000000E+03  4.60000000E+01  0.00000000E+00
  1.00000000E+03  4.40000000E+01  0.00000000E+00
  1.00000000E+03  4.20000000E+01  0.00000000E+00
  1.00000000E+03  4.00000000E+01  0.00000000E+00
  1.00000000E+03  3.80000000E+01  0.00000000E+00
  1.00000000E+03  3.60000000E+01  0.00000000E+00
  1.00000000E+03  3.40000000E+01  0.00000000E+00
  1.00000000E+03  3.20000000E+01  0.00000000E+00
  1.00000000E+03  3.00000000E+01  0.00000000E+00
  1.00000000E+03  2.80000000E+01  0.00000000E+00
  1.00000000E+03  2.60000000E+01  0.00000000E+00
  1.00000000E+03  2.40000000E+01  0.00000000E+00
  1.00000000E+03  2.20000000E+01  0.00000000E+00
  1.00000000E+03  2.00000000E+01  0.00000000E+00
  1.00000000E+03  1.80000000E+01  0.00000000E+00
  1.00000000E+03  1.60000000E+01  0.00000000E+00
  1.00000000E+03  1.40000000E+01  0.00000000E+00
  1.00000000E+03  1.20000000E+01  0.00000000E+00
  1.00000000E+03  1.00000000E+01  0.00000000E+00
  1.00000000E+03  8.00000000E+00  0.00000000E+00
  1.00000000E+03  6.00000000E+00  0.00000000E+00
  1.00000000E+03  4.00000000E+00  0.00000000E+00
  1.00000000E+03  2.00000000E+00  0.00000000E+00
  1.00000000E+03 -3.33066907E-14  0.00000000E+00
CELLS      5000     25000
         4           0           1          52          51
         4           1           2          53          52
         4           2           3          54          53
         4           3           4          55          54
         4           4           5          56          55
         4           5           6          57          56
         4           6           7          58          57
         4           7           8          59          58
         4           8           9          60          59
         4           9          10          61          60
         4          10          11          62          61
         4          11          12          63          62
         4          12          13          64          63
         4          13          14          65          64
         4          14          15          66          65
         4          15          16          67          66
         4          16          17          68          67
         4          17          18          69          68
         4          18          19          70          69
         4          19          20          71          70
         4          20          21          72          71
         4          21          22          73          72
         4          22          23          74          73
         4          23          24          75          74
         4          24          25          76          75
         4          25          26          77          76
         4          26          27          78          77
         4          27          28          79          78
         4          28          29          80          79
         4          29          30          81          80
         4          30          31          82          81
         4          31          32          83          82
         4          32          33          84          83
         4          33          34          85          84
         4          34          35          86          85
         4          35          36          87          86
         4          36          37          88          87
         4          37          38          89          88
         4          38          39          90          89
         4          39          40          91          90
         4          40          41          92          91
         4          41          42          93          92
         4          42          43          94          93
         4          43          44          95          94
         4          44          45          96          95
         4          45          46          97          96
         4          46          47          98          97
         4          47          48          99          98
         4          48          49         100          99
         4          49          50         101         100
         4          51          52         103         102
         4          52          53         104         103
         4          53          54         105         104
         4          54          55         106         105
         4          55          56         107         106
         4          56          57         108         107
         4          57          58         109         108
         4          58          59         110         109
         4          59          60         111         110
         4          60          61         112         111
         4          61          62         113         112
         4          62          63         114         113
         4          63          64         115         114
         4          64          65         116         115
         4          65          66         117         116
         4          66          67         118         117
         4          67          68         119         118
         4          68          69         120         119
         4          69          70         121         120
         4          70          71         122         121
         4          71          72         123         122
         4          72          73         124         123
         4          73          74         125         124
         4          74          75         126         125
         4          75          76         127         126
         4          76          77         128         127
         4          77          78         129         128
         4          78          79         130         129
         4          79          80         131         130
         4          80          81         132         131
         4          81          82         133         132
         4          82          83         134         133
         4          83          84         135         134
         4          84          85         136         135
         4          85          86         137         136
         4          86          87         138         137
         4          87          88         139         138
         4          88          89         140         139
         4          89          90         141         140
         4          90          91         142         141
         4          91          92         143         142
         4          92          93         144         143
         4          93          94         145         144
         4          94          95         146         145
         4          95          96         147         146
         4          96          97         148         147
         4          97          98         149         148
         4          98          99         150         149
         4          99         100         151         150
         4         100         101         152         151
         4         102         103         154         153
         4         103         104         155         154
         4         104         105         156         155
         4         105         106         157         156
         4         106         107         158         157
         4         107         108         159         158
         4         108         109         160         159
         4         109         110         161         160
         4         110         111         162         161
         4         111         112         163         162
         4         112         113         164         163
         4         113         114         165         164
         4         114         115         166         165
         4         115         116         167         166
         4         116         117         168         167
         4         117         118         169         168
         4         118         119         170         169
         4         119         120         171         170
         4         120         121         172         171
         4         121         122         173         172
         4         122         123         174         173
         4         123         124         175         174
         4         124         125         176         175
         4         125         126         177         176
         4         126         127         178         177
         4         127         128         179         178
         4         128         129         180         179
         4         129         130         181         180
         4         130         131         182         181
         4         131         132         183         182
         4         132         133         184         183
         4         133         134         185         184
         4         134         135         186         185
         4         135         136         187         186
         4         136         137         188         187
         4         137         138         189         188
         4         138         139         190         189
         4         139         140         191         190
         4         140         141         192         191
         4         141         142         193         192
         4         142         143         194         193
         4         143         144         195         194
         4         144         145         196         195
         4         145         146         197         196
         4         146         147         198         197
         4         147         148         199         198
         4         148         149         200         199
         4         149         150         201         200
         4         150         151         202         201
         4         151         152         203         202
         4         153         154         205         204
         4         154         155         206         205
         4         155         156         207         206
         4         156         157         208         207
         4         157         158         209         208
         4         158         159         210         209
         4         159         160         211         210
         4         160         161         212         211
         4         161         162         213         212
         4         162         163         214         213
         4         163         164         215         214
         4         164         165         216         215
         4         165         166         217         216
         4         166         167         218         217
         4         167         168         219         218
         4         168         169         220         219
         4         169         170         221         220
         4         170         171         222         221
         4         171         172         223         222
         4         172         173         224         223
         4         173         174         225         224
         4         174         175         226         225
         4         175         176         227         226
         4         176         177         228         227
         4         177         178         229         228
         4         178         179         230         229
         4         179         180         231         230
         4         180         181         232         231
         4         181         182         233         232
         4         182         183         234         233
         4         183         184         235         234
         4         184         185         236         235
         4         185         186         237         236
         4         186         187         238         237
         4         187         188         239         238
         4         188         189         240         239
         4         189         190         241         240
         4         190         191         242         241
         4         191         192         243         242
         4         192         193         244         243
         4         193         194         245         244
         4         194         195         246         245
         4         195         196         247         246
         4         196         197         248         247
         4         197         198         249         248
         4         198         199         250         249
         4         199         200         251         250
         4         200         201         252         251
         4         201         202         253         252
         4         202         203         254         253
         4         204         205         256         255
         4         205         206         257         256
         4         206         207         258         257
         4         207         208         259         258
         4         208         209         260         259
         4         209         210         261         260
         4         210         211         262         261
         4         211         212         263         262
         4         212         213         264         263
         4         213         214         265         264
         4         214         215         266         265
         4         215         216         267         266
         4         216         217         268         267
         4         217         218         269         268
         4         218         219         270         269
         4         219         220         271         270
         4         220         221         272         271
         4         221         222         273         272
         4         222         223         274         273
         4         223         224         275         274
         4         224         225         276         275
         4         225         226         277         276
         4         226         227         278         277
         4         227         228         279         278
         4         228         229         280         279
         4         229         230         281         280
         4         230         231         282         281
         4         231         232         283         282
         4         232         233         284         283
         4         233         234         285         284
         4         234         235         286         285
         4         235         236         287         286
         4         236         237         288         287
         4         237         238         289         288
         4         238         239         290         289
         4         239         240         291         290
         4         240         241         292         291
         4         241         242         293         292
         4         242         243         294         293
         4         243         244         295         294
         4         244         245         296         295
         4         245         246         297         296
         4         246         247         298         297
         4         247         248         299         298
         4         248         249         300         299
         4         249         250         301         300
         4         250         251         302         301
         4         251         252         303         302
         4         252         253         304         303
         4         253         254         305         304
         4         255         256         307         306
         4         256         257         308         307
         4         257         258         309         308
         4         258         259         310         309
         4         259         260         311         310
         4         260         261         312         311
         4         261         262         313         312
         4         262         263         314         313
         4         263         264         315         314
         4         264         265         316         315
         4         265         266         317         316
         4         266         267         318         317
         4         267         268         319         318
         4         268         269         320         319
         4         269         270         321         320
         4         270         271         322         321
         4         271         272         323         322
         4         272         273         324         323
         4         273         274         325         324
         4         274         275         326         325
         4         275         276         327         326
         4         276         277         328         327
         4         277         278         329         328
         4         278         279         330         329
         4         279         280         331         330
         4         280         281         332         331
         4         281         282         333         332
         4         282         283         334         333
         4         283         284         335         334
         4         284         285         336         335
         4         285         286         337         336
         4         286         287         338         337
         4         287         288         339         338
         4         288         289         340         339
         4         289         290         341         340
         4         290         291         342         341
         4         291         292         343         342
         4         292         293         344         343
         4         293         294         345         344
         4         294         295         346         345
         4         295         296         347         346
         4         296         297         348         347
         4         297         298         349         348
         4         298         299         350         349
         4         299         300         351         350
         4         300         301         352         351
         4         301         302         353         352
         4         302         303         354         353
         4         303         304         355         354
         4         304         305         356         355
         4         306         307         358         357
         4         307         308         359         358
         4         308         309         360         359
         4         309         310         361         360
         4         310         311         362         361
         4         311         312         363         362
         4         312         313         364         363
         4         313         314         365         364
         4         314         315         366         365
         4         315         316         367         366
         4         316         317         368         367
         4         317         318         369         368
         4         318         319         370         369
         4         319         320         371         370
         4         320         321         372         371
         4         321         322         373         372
         4         322         323         374         373
         4         323         324         375         374
         4         324         325         376         375
         4         325         326         377         376
         4         326         327         378         377
         4         327         328         379         378
         4         328         329         380         379
         4         329         330         381         380
         4         330         331         382         381
         4         331         332         383         382
         4         332         333         384         383
         4         333         334         385         384
         4         334         335         386         385
         4         335         336         387         386
         4         336         337         388         387
         4         337         338         389         388
         4         338         339         390         389
         4         339         340         391         390
         4         340         341         392         391
         4         341         342         393         392
         4         342         343         394         393
         4         343         344         395         394
         4         344         345         396         395
         4         345         346         397         396
         4         346         347         398         397
         4         347         348         399         398
         4         348         349         400         399
         4         349         350         401         400
         4         350         351         402         401
         4         351         352         403         402
         4         352         353         404         403
         4         353         354         405         404
         4         354         355         406         405
         4         355         356         407         406
         4         357         358         409         408
         4         358         359         410         409
         4         359         360         411         410
         4         360         361         412         411
         4         361         362         413         412
         4         362         363         414         413
         4         363         364         415         414
         4         364         365         416         415
         4         365         366         417         416
         4         366         367         418         417
         4         367         368         419         418
         4         368         369         420         419
         4         369         370         421         420
         4         370         371         422         421
         4         371         372         423         422
         4         372         373         424         423
         4         373         374         425         424
         4         374         375         426         425
         4         375         376         427         426
         4         376         377         428         427
         4         377         378         429         428
         4         378         379         430         429
         4         379         380         431         430
         4         380         381         432         431
         4         381         382         433         432
         4         382         383         434         433
         4         383         384         435         434
         4         384         385         436         435
         4         385         386         437         436
         4         386         387         438         437
         4         387         388         439         438
         4         388         389         440         439
         4         389         390         441         440
         4         390         391         442         441
         4         391         392         443         442
         4         392         393         444         443
         4         393         394         445         444
         4         394         395         446         445
         4         395         396         447         446
         4         396         397         448         447
         4         397         398         449         448
         4         398         399         450         449
         4         399         400         451         450
         4         400         401         452         451
         4         401         402         453         452
         4         402         403         454         453
         4         403         404         455         454
         4         404         405         456         455
         4         405         406         457         456
         4         406         407         458         457
         4         408         409         460         459
         4         409         410         461         460
         4         410         411         462         461
         4         411         412         463         462
         4         412         413         464         463
         4         413         414         465         464
         4         414         415         466         465
         4         415         416         467         466
         4         416         417         468         467
         4         417         418         469         468
         4         418         419         470         469
         4         419         420         471         470
         4         420         421         472         471
         4         421         422         473         472
         4         422         423         474         473
         4         423         424         475         474
         4         424         425         476         475
         4         425         426         477         476
         4         426         427         478         477
         4         427         428         479         478
         4         428         429         480         479
         4         429         430         481         480
         4         430         431         482         481
         4         431         432         483         482
         4         432         433         484         483
         4         433         434         485         484
         4         434         435         486         485
         4         435         436         487         486
         4         436         437         488         487
         4         437         438         489         488
         4         438         439         490         489
         4         439         440         491         490
         4         440         441         492         491
         4         441         442         493         492
         4         442         443         494         493
         4         443         444         495         494
         4         444         445         496         495
         4         445         446         497         496
         4         446         447         498         497
         4         447         448         499         498
         4         448         449         500         499
         4         449         450         501         500
         4         450         451         502         501
         4         451         452         503         502
         4         452         453         504         503
         4         453         454         505         504
         4         454         455         506         505
         4         455         456         507         506
         4         456         457         508         507
         4         457         458         509         508
         4         459         460         511         510
         4         460         461         512         511
         4         461         462         513         512
         4         462         463         514         513
         4         463         464         515         514
         4         464         465         516         515
         4         465         466         517         516
         4         466         467         518         517
         4         467         468         519         518
         4         468         469         520         519
         4         469         470         521         520
         4         470         471         522         521
         4         471         472         523         522
         4         472         473         524         523
         4         473         474         525         524
         4         474         475         526         525
         4         475         476         527         526
         4         476         477         528         527
         4         477         478         529         528
         4         478         479         530         529
         4         479         480         531         530
         4         480         481         532         531
         4         481         482         533         532
         4         482         483         534         533
         4         483         484         535         534
         4         484         485         536         535
         4         485         486         537         536
         4         486         487         538         537
         4         487         488         539         538
         4         488         489         540         539
         4         489         490         541         540
         4         490         491         542         541
         4         491         492         543         542
         4         492         493         544         543
         4         493         494         545         544
         4         494         495         546         545
         4         495         496         547         546
         4         496         497         548         547
         4         497         498         549         548
         4         498         499         550         549
         4         499         500         551         550
         4         500         501         552         551
         4         501         502         553         552
         4         502         503         554         553
         4         503         504         555         554
         4         504         505         556         555
         4         505         506         557         556
         4         506         507         558         557
         4         507         508         559         558
         4         508         509         560         559
         4         510         511         562         561
         4         511         512         563         562
         4         512         513         564         563
         4         513         514         565         564
         4         514         515         566         565
         4         515         516         567         566
         4         516         517         568         567
         4         517         518         569         568
         4         518         519         570         569
         4         519         520         571         570
         4         520         521         572         571
         4         521         522         573         572
         4         522         523         574         573
         4         523         524         575         574
         4         524         525         576         575
         4         525         526         577         576
         4         526         527         578         577
         4         527         528         579         578
         4         528         529         580         579
         4         529         530         581         580
         4         530         531         582         581
         4         531         532         583         582
         4         532         533         584         583
         4         533         534         585         584
         4         534         535         586         585
         4         535         536         587         586
         4         536         537         588         587
         4         537         538         589         588
         4         538         539         590         589
         4         539         540         591         590
         4         540         541         592         591
         4         541         542         593         592
         4         542         543         594         593
         4         543         544         595         594
         4         544         545         596         595
         4         545         546         597         596
         4         546         547         598         597
         4         547         548         599         598
         4         548         549         600         599
         4         549         550         601         600
         4         550         551         602         601
         4         551         552         603         602
         4         552         553         604         603
         4         553         554         605         604
         4         554         555         606         605
         4         555         556         607         606
         4         556         557         608         607
         4         557         558         609         608
         4         558         559         610         609
         4         559         560         611         610
         4         561         562         613         612
         4         562         563         614         613
         4         563         564         615         614
         4         564         565         616         615
         4         565         566         617         616
         4         566         567         618         617
         4         567         568         619         618
         4         568         569         620         619
         4         569         570         621         620
         4         570         571         622         621
         4         571         572         623         622
         4         572         573         624         623
         4         573         574         625         624
         4         574         575         626         625
         4         575         576         627         626
         4         576         577         628         627
         4         577         578         629         628
         4         578         579         630         629
         4         579         580         631         630
         4         580         581         632         631
         4         581         582         633         632
         4         582         583         634         633
         4         583         584         635         634
         4         584         585         636         635
         4         585         586         637         636
         4         586         587         638         637
         4         587         588         639         638
         4         588         589         640         639
         4         589         590         641         640
         4         590         591         642         641
         4         591         592         643         642
         4         592         593         644         643
         4         593         594         645         644
         4         594         595         646         645
         4         595         596         647         646
         4         596         597         648         647
         4         597         598         649         648
         4         598         599         650         649
         4         599         600         651         650
         4         600         601         652         651
         4         601         602         653         652
         4         602         603         654         653
         4         603         604         655         654
         4         604         605         656         655
         4         605         606         657         656
         4         606         607         658         657
         4         607         608         659         658
         4         608         609         660         659
         4         609         610         661         660
         4         610         611         662         661
         4         612         613         664         663
         4         613         614         665         664
         4         614         615         666         665
         4         615         616         667         666
         4         616         617         668         667
         4         617         618         669         668
         4         618         619         670         669
         4         619         620         671         670
         4         620         621         672         671
         4         621         622         673         672
         4         622         623         674         673
         4         623         624         675         674
         4         624         625         676         675
         4         625         626         677         676
         4         626         627         678         677
         4         627         628         679         678
         4         628         629         680         679
         4         629         630         681         680
         4         630         631         682         681
         4         631         632         683         682
         4         632         633         684         683
         4         633         634         685         684
         4         634         635         686         685
         4         635         636         687         686
         4         636         637         688         687
         4         637         638         689         688
         4         638         639         690         689
         4         639         640         691         690
         4         640         641         692         691
         4         641         642         693         692
         4         642         643         694         693
         4         643         644         695         694
         4         644         645         696         695
         4         645         646         697         696
         4         646         647         698         697
         4         647         648         699         698
         4         648         649         700         699
         4         649         650         701         700
         4         650         651         702         701
         4         651         652         703         702
         4         652         653         704         703
         4         653         654         705         704
         4         654         655         706         705
         4         655         656         707         706
         4         656         657         708         707
         4         657         658         709         708
         4         658         659         710         709
         4         659         660         711         710
         4         660         661         712         711
         4         661         662         713         712
         4         663         664         715         714
         4         664         665         716         715
         4         665         666         717         716
         4         666         667         718         717
         4         667         668         719         718
         4         668         669         720         719
         4         669         670         721         720
         4         670         671         722         721
         4         671         672         723         722
         4         672         673         724         723
         4         673         674         725         724
         4         674         675         726         725
         4         675         676         727         726
         4         676         677         728         727
         4         677         678         729         728
         4         678         679         730         729
         4         679         680         731         730
         4         680         681         732         731
         4         681         682         733         732
         4         682         683         734         733
         4         683         684         735         734
         4         684         685         736         735
         4         685         686         737         736
         4         686         687         738         737
         4         687         688         739         738
         4         688         689         740         739
         4         689         690         741         740
         4         690         691         742         741
         4         691         692         743         742
         4         692         693         744         743
         4         693         694         745         744
         4         694         695         746         745
         4         695         696         747         746
         4         696         697         748         747
         4         697         698         749         748
         4         698         699         750         749
         4         699         700         751         750
         4         700         701         752         751
         4         701         702         753         752
         4         702         703         754         753
         4         703         704         755         754
         4         704         705         756         755
         4         705         706         757         756
         4         706         707         758         757
         4         707         708         759         758
         4         708         709         760         759
         4         709         710         761         760
         4         710         711         762         761
         4         711         712         763         762
         4         712         713         764         763
         4         714         715         766         765
         4         715         716         767         766
         4         716         717         768         767
         4         717         718         769         768
         4         718         719         770         769
         4         719         720         771         770
         4         720         721         772         771
         4         721         722         773         772
         4         722         723         774         773
         4         723         724         775         774
         4         724         725         776         775
         4         725         726         777         776
         4         726         727         778         777
         4         727         728         779         778
         4         728         729         780         779
         4         729         730         781         780
         4         730         731         782         781
         4         731         732         783         782
         4         732         733         784         783
         4         733         734         785         784
         4         734         735         786         785
         4         735         736         787         786
         4         736         737         788         787
         4         737         738         789         788
         4         738         739         790         789
         4         739         740         791         790
         4         740         741         792         791
         4         741         742         793         792
         4         742         743         794         793
         4         743         744         795         794
         4         744         745         796         795
         4         745         746         797         796
         4         746         747         798         797
         4         747         748         799         798
         4         748         749         800         799
         4         749         750         801         800
         4         750         751         802         801
         4         751         752         803         802
         4         752         753         804         803
         4         753         754         805         804
         4         754         755         806         805
         4         755         756         807         806
         4         756         757         808         807
         4         757         758         809         808
         4         758         759         810         809
         4         759         760         811         810
         4         760         761         812         811
         4         761         762         813         812
         4         762         763         814         813
         4         763         764         815         814
         4         765         766         817         816
         4         766         767         818         817
         4         767         768         819         818
         4         768         769         820         819
         4         769         770         821         820
         4         770         771         822         821
         4         771         772         823         822
         4         772         773         824         823
         4         773         774         825         824
         4         774         775         826         825
         4         775         776         827         826
         4         776         777         828         827
         4         777         778         829         828
         4         778         779         830         829
         4         779         780         831         830
         4         780         781         832         831
         4         781         782         833         832
         4         782         783         834         833
         4         783         784         835         834
         4         784         785         836         835
         4         785         786         837         836
         4         786         787         838         837
         4         787         788         839         838
         4         788         789         840         839
         4         789         790         841         840
         4         790         791         842         841
         4         791         792         843         842
         4         792         793         844         843
         4         793         794         845         844
         4         794         795         846         845
         4         795         796         847         846
         4         796         797         848         847
         4         797         798         849         848
         4         798         799         850         849
         4         799         800         851         850
         4         800         801         852         851
         4         801         802         853         852
         4         802         803         854         853
         4         803         804         855         854
         4         804         805         856         855
         4         805         806         857         856
         4         806         807         858         857
         4         807         808         859         858
         4         808         809         860         859
         4         809         810         861         860
         4         810         811         862         861
         4         811         812         863         862
         4         812         813         864         863
         4         813         814         865         864
         4         814         815         866         865
         4         816         817         868         867
         4         817         818         869         868
         4         818         819         870         869
         4         819         820         871         870
         4         820         821         872         871
         4         821         822         873         872
         4         822         823         874         873
         4         823         824         875         874
         4         824         825         876         875
         4         825         826         877         876
         4         826         827         878         877
         4         827         828         879         878
         4         828         829         880         879
         4         829         830         881         880
         4         830         831         882         881
         4         831         832         883         882
         4         832         833         884         883
         4         833         834         885         884
         4         834         835         886         885
         4         835         836         887         886
         4         836         837         888         887
         4         837         838         889         888
         4         838         839         890         889
         4         839         840         891         890
         4         840         841         892         891
         4         841         842         893         892
         4         842         843         894         893
         4         843         844         895         894
         4         844         845         896         895
         4         845         846         897         896
         4         846         847         898         897
         4         847         848         899         898
         4         848         849         900         899
         4         849         850         901         900
         4         850         851         902         901
         4         851         852         903         902
         4         852         853         904         903
         4         853         854         905         904
         4         854         855         906         905
         4         855         856         907         906
         4         856         857         908         907
         4         857         858         909         908
         4         858         859         910         909
         4         859         860         911         910
         4         860         861         912         911
         4         861         862         913         912
         4         862         863         914         913
         4         863         864         915         914
         4         864         865         916         915
         4         865         866         917         916
         4         867         868         919         918
         4         868         869         920         919
         4         869         870         921         920
         4         870         871         922         921
         4         871         872         923         922
         4         872         873         924         923
         4         873         874         925         924
         4         874         875         926         925
         4         875         876         927         926
         4         876         877         928         927
         4         877         878         929         928
         4         878         879         930         929
         4         879         880         931         930
         4         880         881         932         931
         4         881         882         933         932
         4         882         883         934         933
         4         883         884         935         934
         4         884         885         936         935
         4         885         886         937         936
         4         886         887         938         937
         4         887         888         939         938
         4         888         889         940         939
         4         889         890         941         940
         4         890         891         942         941
         4         891         892         943         942
         4         892         893         944         943
         4         893         894         945         944
         4         894         895         946         945
         4         895         896         947         946
         4         896         897         948         947
         4         897         898         949         948
         4         898         899         950         949
         4         899         900         951         950
         4         900         901         952         951
         4         901         902         953         952
         4         902         903         954         953
         4         903         904         955         954
         4         904         905         956         955
         4         905         906         957         956
         4         906         907         958         957
         4         907         908         959         958
         4         908         909         960         959
         4         909         910         961         960
         4         910         911         962         961
         4         911         912         963         962
         4         912         913         964         963
         4         913         914         965         964
         4         914         915         966         965
         4         915         916         967         966
         4         916         917         968         967
         4         918         919         970         969
         4         919         920         971         970
         4         920         921         972         971
         4         921         922         973         972
         4         922         923         974         973
         4         923         924         975         974
         4         924         925         976         975
         4         925         926         977         976
         4         926         927         978         977
         4         927         928         979         978
         4         928         929         980         979
         4         929         930         981         980
         4         930         931         982         981
         4         931         932         983         982
         4         932         933         984         983
         4         933         934         985         984
         4         934         935         986         985
         4         935         936         987         986
         4         936         937         988         987
         4         937         938         989         988
         4         938         939         990         989
         4         939         940         991         990
         4         940         941         992         991
         4         941         942         993         992
         4         942         943         994         993
         4         943         944         995         994
         4         944         945         996         995
         4         945         946         997         996
         4         946         947         998         997
         4         947         948         999         998
         4         948         949        1000         999
         4         949         950        1001        1000
         4         950         951        1002        1001
         4         951         952        1003        1002
         4         952         953        1004        1003
         4         953         954        1005        1004
         4         954         955        1006        1005
         4         955         956        1007        1006
         4         956         957        1008        1007
         4         957         958        1009        1008
         4         958         959        1010        1009
         4         959         960        1011        1010
         4         960         961        1012        1011
         4         961         962        1013        1012
         4         962         963        1014        1013
         4         963         964        1015        1014
         4         964         965        1016        1015
         4         965         966        1017        1016
         4         966         967        1018        1017
         4         967         968        1019        1018
         4         969         970        1021        1020
         4         970         971        1022        1021
         4         971         972        1023        1022
         4         972         973        1024        1023
         4         973         974        1025        1024
         4         974         975        1026        1025
         4         975         976        1027        1026
         4         976         977        1028        1027
         4         977         978        1029        1028
         4         978         979        1030        1029
         4         979         980        1031        1030
         4         980         981        1032        1031
         4         981         982        1033        1032
         4         982         983        1034        1033
         4         983         984        1035        1034
         4         984         985        1036        1035
         4         985         986        1037        1036
         4         986         987        1038        1037
         4         987         988        1039        1038
         4         988         989        1040        1039
         4         989         990        1041        1040
         4         990         991        1042        1041
         4         991         992        1043        1042
         4         992         993        1044        1043
         4         993         994        1045        1044
         4         994         995        1046        1045
         4         995         996        1047        1046
         4         996         997        1048        1047
         4         997         998        1049        1048
         4         998         999        1050        1049
         4         999        1000        1051        1050
         4        1000        1001        1052        1051
         4        1001        1002        1053        1052
         4        1002        1003        1054        1053
         4        1003        1004        1055        1054
         4        1004        1005        1056        1055
         4        1005        1006        1057        1056
         4        1006        1007        1058        1057
         4        1007        1008        1059        1058
         4        1008        1009        1060        1059
         4        1009        1010        1061        1060
         4        1010        1011        1062        1061
         4        1011        1012        1063        1062
         4        1012        1013        1064        1063
         4        1013        1014        1065        1064
         4        1014        1015        1066        1065
         4        1015        1016        1067        1066
         4        1016        1017        1068        1067
         4        1017        1018        1069        1068
         4        1018        1019        1070        1069
         4        1020        1021        1072        1071
         4        1021        1022        1073        1072
         4        1022        1023        1074        1073
         4        1023        1024        1075        1074
         4        1024        1025        1076        1075
         4        1025        1026        1077        1076
         4        1026        1027        1078        1077
         4        1027        1028        1079        1078
         4        1028        1029        1080        1079
         4        1029        1030        1081        1080
         4        1030        1031        1082        1081
         4        1031        1032        1083        1082
         4        1032        1033        1084        1083
         4        1033        1034        1085        1084
         4        1034        1035        1086        1085
         4        1035        1036        1087        1086
         4        1036        1037        1088        1087
         4        1037        1038        1089        1088
         4        1038        1039        1090        1089
         4        1039        1040        1091        1090
         4        1040        1041        1092        1091
         4        1041        1042        1093        1092
         4        1042        1043        1094        1093
         4        1043        1044        1095        1094
         4        1044        1045        1096        1095
         4        1045        1046        1097        1096
         4        1046        1047        1098        1097
         4        1047        1048        1099        1098
         4        1048        1049        1100        1099
         4        1049        1050        1101        1100
         4        1050        1051        1102        1101
         4        1051        1052        1103        1102
         4        1052        1053        1104        1103
         4        1053        1054        1105        1104
         4        1054        1055        1106        1105
         4        1055        1056        1107        1106
         4        1056        1057        1108        1107
         4        1057        1058        1109        1108
         4        1058        1059        1110        1109
         4        1059        1060        1111        1110
         4        1060        1061        1112        1111
         4        1061        1062        1113        1112
         4        1062        1063        1114        1113
         4        1063        1064        1115        1114
         4        1064        1065        1116        1115
         4        1065        1066        1117        1116
         4        1066        1067        1118        1117
         4        1067        1068        1119        1118
         4        1068        1069        1120        1119
         4        1069        1070        1121        1120
         4        1071        1072        1123        1122
         4        1072        1073        1124        1123
         4        1073        1074        1125        1124
         4        1074        1075        1126        1125
         4        1075        1076        1127        1126
         4        1076        1077        1128        1127
         4        1077        1078        1129        1128
         4        1078        1079        1130        1129
         4        1079        1080        1131        1130
         4        1080        1081        1132        1131
         4        1081        1082        1133        1132
         4        1082        1083        1134        1133
         4        1083        1084        1135        1134
         4        1084        1085        1136        1135
         4        1085        1086        1137        1136
         4        1086        1087        1138        1137
         4        1087        1088        1139        1138
         4        1088        1089        1140        1139
         4        1089        1090        1141        1140
         4        1090        1091        1142        1141
         4        1091        1092        1143        1142
         4        1092        1093        1144        1143
         4        1093        1094        1145        1144
         4        1094        1095        1146        1145
         4        1095        1096        1147        1146
         4        1096        1097        1148        1147
         4        1097        1098        1149        1148
         4        1098        1099        1150        1149
         4        1099        1100        1151        1150
         4        1100        1101        1152        1151
         4        1101        1102        1153        1152
         4        1102        1103        1154        1153
         4        1103        1104        1155        1154
         4        1104        1105        1156        1155
         4        1105        1106        1157        1156
         4        1106        1107        1158        1157
         4        1107        1108        1159        1158
         4        1108        1109        1160        1159
         4        1109        1110        1161        1160
         4        1110        1111        1162        1161
         4        1111        1112        1163        1162
         4        1112        1113        1164        1163
         4        1113        1114        1165        1164
         4        1114        1115        1166        1165
         4        1115        1116        1167        1166
         4        1116        1117        1168        1167
         4        1117        1118        1169        1168
         4        1118        1119        1170        1169
         4        1119        1120        1171        1170
         4        1120        1121        1172        1171
         4        1122        1123        1174        1173
         4        1123        1124        1175        1174
         4        1124        1125        1176        1175
         4        1125        1126        1177        1176
         4        1126        1127        1178        1177
         4        1127        1128        1179        1178
         4        1128        1129        1180        1179
         4        1129        1130        1181        1180
         4        1130        1131        1182        1181
         4        1131        1132        1183        1182
         4        1132        1133        1184        1183
         4        1133        1134        1185        1184
         4        1134        1135        1186        1185
         4        1135        1136        1187        1186
         4        1136        1137        1188        1187
         4        1137        1138        1189        1188
         4        1138        1139        1190        1189
         4        1139        1140        1191        1190
         4        1140        1141        1192        1191
         4        1141        1142        1193        1192
         4        1142        1143        1194        1193
         4        1143        1144        1195        1194
         4        1144        1145        1196        1195
         4        1145        1146        1197        1196
         4        1146        1147        1198        1197
         4        1147        1148        1199        1198
         4        1148        1149        1200        1199
         4        1149        1150        1201        1200
         4        1150        1151        1202        1201
         4        1151        1152        1203        1202
         4        1152        1153        1204        1203
         4        1153        1154        1205        1204
         4        1154        1155        1206        1205
         4        1155        1156        1207        1206
         4        1156        1157        1208        1207
         4        1157        1158        1209        1208
         4        1158        1159        1210        1209
         4        1159        1160        1211        1210
         4        1160        1161        1212        1211
         4        1161        1162        1213        1212
         4        1162        1163        1214        1213
         4        1163        1164        1215        1214
         4        1164        1165        1216        1215
         4        1165        1166        1217        1216
         4        1166        1167        1218        1217
         4        1167        1168        1219        1218
         4        1168        1169        1220        1219
         4        1169        1170        1221        1220
         4        1170        1171        1222        1221
         4        1171        1172        1223        1222
         4        1173        1174        1225        1224
         4        1174        1175        1226        1225
         4        1175        1176        1227        1226
         4        1176        1177        1228        1227
         4        1177        1178        1229        1228
         4        1178        1179        1230        1229
         4        1179        1180        1231        1230
         4        1180        1181        1232        1231
         4        1181        1182        1233        1232
         4        1182        1183        1234        1233
         4        1183        1184        1235        1234
         4        1184        1185        1236        1235
         4        1185        1186        1237        1236
         4        1186        1187        1238        1237
         4        1187        1188        1239        1238
         4        1188        1189        1240        1239
         4        1189        1190        1241        1240
         4        1190        1191        1242        1241
         4        1191        1192        1243        1242
         4        1192        1193        1244        1243
         4        1193        1194        1245        1244
         4        1194        1195        1246        1245
         4        1195        1196        1247        1246
         4        1196        1197        1248        1247
         4        1197        1198        1249        1248
         4        1198        1199        1250        1249
         4        1199        1200        1251        1250
         4        1200        1201        1252        1251
         4        1201        1202        1253        1252
         4        1202        1203        1254        1253
         4        1203        1204        1255        1254
         4        1204        1205        1256        1255
         4        1205        1206        1257        1256
         4        1206        1207        1258        1257
         4        1207        1208        1259        1258
         4        1208        1209        1260        1259
         4        1209        1210        1261        1260
         4        1210        1211        1262        1261
         4        1211        1212        1263        1262
         4        1212        1213        1264        1263
         4        1213        1214        1265        1264
         4        1214        1215        1266        1265
         4        1215        1216        1267        1266
         4        1216        1217        1268        1267
         4        1217        1218        1269        1268
         4        1218        1219        1270        1269
         4        1219        1220        1271        1270
         4        1220        1221        1272        1271
         4        1221        1222        1273        1272
         4        1222        1223        1274        1273
         4        1224        1225        1276        1275
         4        1225        1226        1277        1276
         4        1226        1227        1278        1277
         4        1227        1228        1279        1278
         4        1228        1229        1280        1279
         4        1229        1230        1281        1280
         4        1230        1231        1282        1281
         4        1231        1232        1283        1282
         4        1232        1233        1284        1283
         4        1233        1234        1285        1284
         4        1234        1235        1286        1285
         4        1235        1236        1287        1286
         4        1236        1237        1288        1287
         4        1237        1238        1289        1288
         4        1238        1239        1290        1289
         4        1239        1240        1291        1290
         4        1240        1241        1292        1291
         4        1241        1242        1293        1292
         4        1242        1243        1294        1293
         4        1243        1244        1295        1294
         4        1244        1245        1296        1295
         4        1245        1246        1297        1296
         4        1246        1247        1298        1297
         4        1247        1248        1299        1298
         4        1248        1249        1300        1299
         4        1249        1250        1301        1300
         4        1250        1251        1302        1301
         4        1251        1252        1303        1302
         4        1252        1253        1304        1303
         4        1253        1254        1305        1304
         4        1254        1255        1306        1305
         4        1255        1256        1307        1306
         4        1256        1257        1308        1307
         4        1257        1258        1309        1308
         4        1258        1259        1310        1309
         4        1259        1260        1311        1310
         4        1260        1261        1312        1311
         4        1261        1262        1313        1312
         4        1262        1263        1314        1313
         4        1263        1264        1315        1314
         4        1264        1265        1316        1315
         4        1265        1266        1317        1316
         4        1266        1267        1318        1317
         4        1267        1268        1319        1318
         4        1268        1269        1320        1319
         4        1269        1270        1321        1320
         4        1270        1271        1322        1321
         4        1271        1272        1323        1322
         4        1272        1273        1324        1323
         4        1273        1274        1325        1324
         4        1275        1276        1327        1326
         4        1276        1277        1328        1327
         4        1277        1278        1329        1328
         4        1278        1279        1330        1329
         4        1279        1280        1331        1330
         4        1280        1281        1332        1331
         4        1281        1282        1333        1332
         4        1282        1283        1334        1333
         4        1283        1284        1335        1334
         4        1284        1285        1336        1335
         4        1285        1286        1337        1336
         4        1286        1287        1338        1337
         4        1287        1288        1339        1338
         4        1288        1289        1340        1339
         4        1289        1290        1341        1340
         4        1290        1291        1342        1341
         4        1291        1292        1343        1342
         4        1292        1293        1344        1343
         4        1293        1294        1345        1344
         4        1294        1295        1346        1345
         4        1295        1296        1347        1346
         4        1296        1297        1348        1347
         4        1297        1298        1349        1348
         4        1298        1299        1350        1349
         4        1299        1300        1351        1350
         4        1300        1301        1352        1351
         4        1301        1302        1353        1352
         4        1302        1303        1354        1353
         4        1303        1304        1355        1354
         4        1304        1305        1356        1355
         4        1305        1306        1357        1356
         4        1306        1307        1358        1357
         4        1307        1308        1359        1358
         4        1308        1309        1360        1359
         4        1309        1310        1361        1360
         4        1310        1311        1362        1361
         4        1311        1312        1363        1362
         4        1312        1313        1364        1363
         4        1313        1314        1365        1364
         4        1314        1315        1366        1365
         4        1315        1316        1367        1366
         4        1316        1317        1368        1367
         4        1317        1318        1369        1368
         4        1318        1319        1370        1369
         4        1319        1320        1371        1370
         4        1320        1321        1372        1371
         4        1321        1322        1373        1372
         4        1322        1323        1374        1373
         4        1323        1324        1375        1374
         4        1324        1325        1376        1375
         4        1326        1327        1378        1377
         4        1327        1328        1379        1378
         4        1328        1329        1380        1379
         4        1329        1330        1381        1380
         4        1330        1331        1382        1381
         4        1331        1332        1383        1382
         4        1332        1333        1384        1383
         4        1333        1334        1385        1384
         4        1334        1335        1386        1385
         4        1335        1336        1387        1386
         4        1336        1337        1388        1387
         4        1337        1338        1389        1388
         4        1338        1339        1390        1389
         4        1339        1340        1391        1390
         4        1340        1341        1392        1391
         4        1341        1342        1393        1392
         4        1342        1343        1394        1393
         4        1343        1344        1395        1394
         4        1344        1345        1396        1395
         4        1345        1346        1397        1396
         4        1346        1347        1398        1397
         4        1347        1348        1399        1398
         4        1348        1349        1400        1399
         4        1349        1350        1401        1400
         4        1350        1351        1402        1401
         4        1351        1352        1403        1402
         4        1352        1353        1404        1403
         4        1353        1354        1405        1404
         4        1354        1355        1406        1405
         4        1355        1356        1407        1406
         4        1356        1357        1408        1407
         4        1357        1358        1409        1408
         4        1358        1359        1410        1409
         4        1359        1360        1411        1410
         4        1360        1361        1412        1411
         4        1361        1362        1413        1412
         4        1362        1363        1414        1413
         4        1363        1364        1415        1414
         4        1364        1365        1416        1415
         4        1365        1366        1417        1416
         4        1366        1367        1418        1417
         4        1367        1368        1419        1418
         4        1368        1369        1420        1419
         4        1369        1370        1421        1420
         4        1370        1371        1422        1421
         4        1371        1372        1423        1422
         4        1372        1373        1424        1423
         4        1373        1374        1425        1424
         4        1374        1375        1426        1425
         4        1375        1376        1427        1426
         4        1377        1378        1429        1428
         4        1378        1379        1430        1429
         4        1379        1380        1431        1430
         4        1380        1381        1432        1431
         4        1381        1382        1433        1432
         4        1382        1383        1434        1433
         4        1383        1384        1435        1434
         4        1384        1385        1436        1435
         4        1385        1386        1437        1436
         4        1386        1387        1438        1437
         4        1387        1388        1439        1438
         4        1388        1389        1440        1439
         4        1389        1390        1441        1440
         4        1390        1391        1442        1441
         4        1391        1392        1443        1442
         4        1392        1393        1444        1443
         4        1393        1394        1445        1444
         4        1394        1395        1446        1445
         4        1395        1396        1447        1446
         4        1396        1397        1448        1447
         4        1397        1398        1449        1448
         4        1398        1399        1450        1449
         4        1399        1400        1451        1450
         4        1400        1401        1452        1451
         4        1401        1402        1453        1452
         4        1402        1403        1454        1453
         4        1403        1404        1455        1454
         4        1404        1405        1456        1455
         4        1405        1406        1457        1456
         4        1406        1407        1458        1457
         4        1407        1408        1459        1458
         4        1408        1409        1460        1459
         4        1409        1410        1461        1460
         4        1410        1411        1462        1461
         4        1411        1412        1463        1462
         4        1412        1413        1464        1463
         4        1413        1414        1465        1464
         4        1414        1415        1466        1465
         4        1415        1416        1467        1466
         4        1416        1417        1468        1467
         4        1417        1418        1469        1468
         4        1418        1419        1470        1469
         4        1419        1420        1471        1470
         4        1420        1421        1472        1471
         4        1421        1422        1473        1472
         4        1422        1423        1474        1473
         4        1423        1424        1475        1474
         4        1424        1425        1476        1475
         4        1425        1426        1477        1476
         4        1426        1427        1478        1477
         4        1428        1429        1480        1479
         4        1429        1430        1481        1480
         4        1430        1431        1482        1481
         4        1431        1432        1483        1482
         4        1432        1433        1484        1483
         4        1433        1434        1485        1484
         4        1434        1435        1486        1485
         4        1435        1436        1487        1486
         4        1436        1437        1488        1487
         4        1437        1438        1489        1488
         4        1438        1439        1490        1489
         4        1439        1440        1491        1490
         4        1440        1441        1492        1491
         4        1441        1442        1493        1492
         4        1442        1443        1494        1493
         4        1443        1444        1495        1494
         4        1444        1445        1496        1495
         4        1445        1446        1497        1496
         4        1446        1447        1498        1497
         4        1447        1448        1499        1498
         4        1448        1449        1500        1499
         4        1449        1450        1501        1500
         4        1450        1451        1502        1501
         4        1451        1452        1503        1502
         4        1452        1453        1504        1503
         4        1453        1454        1505        1504
         4        1454        1455        1506        1505
         4        1455        1456        1507        1506
         4        1456        1457        1508        1507
         4        1457        1458        1509        1508
         4        1458        1459        1510        1509
         4        1459        1460        1511        1510
         4        1460        1461        1512        1511
         4        1461        1462        1513        1512
         4        1462        1463        1514        1513
         4        1463        1464        1515        1514
         4        1464        1465        1516        1515
         4        1465        1466        1517        1516
         4        1466        1467        1518        1517
         4        1467        1468        1519        1518
         4        1468        1469        1520        1519
         4        1469        1470        1521        1520
         4        1470        1471        1522        1521
         4        1471        1472        1523        1522
         4        1472        1473        1524        1523
         4        1473        1474        1525        1524
         4        1474        1475        1526        1525
         4        1475        1476        1527        1526
         4        1476        1477        1528        1527
         4        1477        1478        1529        1528
         4        1479        1480        1531        1530
         4        1480        1481        1532        1531
         4        1481        1482        1533        1532
         4        1482        1483        1534        1533
         4        1483        1484        1535        1534
         4        1484        1485        1536        1535
         4        1485        1486        1537        1536
         4        1486        1487        1538        1537
         4        1487        1488        1539        1538
         4        1488        1489        1540        1539
         4        1489        1490        1541        1540
         4        1490        1491        1542        1541
         4        1491        1492        1543        1542
         4        1492        1493        1544        1543
         4        1493        1494        1545        1544
         4        1494        1495        1546        1545
         4        1495        1496        1547        1546
         4        1496        1497        1548        1547
         4        1497        1498        1549        1548
         4        1498        1499        1550        1549
         4        1499        1500        1551        1550
         4        1500        1501        1552        1551
         4        1501        1502        1553        1552
         4        1502        1503        1554        1553
         4        1503        1504        1555        1554
         4        1504        1505        1556        1555
         4        1505        1506        1557        1556
         4        1506        1507        1558        1557
         4        1507        1508        1559        1558
         4        1508        1509        1560        1559
         4        1509        1510        1561        1560
         4        1510        1511        1562        1561
         4        1511        1512        1563        1562
         4        1512        1513        1564        1563
         4        1513        1514        1565        1564
         4        1514        1515        1566        1565
         4        1515        1516        1567        1566
         4        1516        1517        1568        1567
         4        1517        1518        1569        1568
         4        1518        1519        1570        1569
         4        1519        1520        1571        1570
         4        1520        1521        1572        1571
         4        1521        1522        1573        1572
         4        1522        1523        1574        1573
         4        1523        1524        1575        1574
         4        1524        1525        1576        1575
         4        1525        1526        1577        1576
         4        1526        1527        1578        1577
         4        1527        1528        1579        1578
         4        1528        1529        1580        1579
         4        1530        1531        1582        1581
         4        1531        1532        1583        1582
         4        1532        1533        1584        1583
         4        1533        1534        1585        1584
         4        1534        1535        1586        1585
         4        1535        1536        1587        1586
         4        1536        1537        1588        1587
         4        1537        1538        1589        1588
         4        1538        1539        1590        1589
         4        1539        1540        1591        1590
         4        1540        1541        1592        1591
         4        1541        1542        1593        1592
         4        1542        1543        1594        1593
         4        1543        1544        1595        1594
         4        1544        1545        1596        1595
         4        1545        1546        1597        1596
         4        1546        1547        1598        1597
         4        1547        1548        1599        1598
         4        1548        1549        1600        1599
         4        1549        1550        1601        1600
         4        1550        1551        1602        1601
         4        1551        1552        1603        1602
         4        1552        1553        1604        1603
         4        1553        1554        1605        1604
         4        1554        1555        1606        1605
         4        1555        1556        1607        1606
         4        1556        1557        1608        1607
         4        1557        1558        1609        1608
         4        1558        1559        1610        1609
         4        1559        1560        1611        1610
         4        1560        1561        1612        1611
         4        1561        1562        1613        1612
         4        1562        1563        1614        1613
         4        1563        1564        1615        1614
         4        1564        1565        1616        1615
         4        1565        1566        1617        1616
         4        1566        1567        1618        1617
         4        1567        1568        1619        1618
         4        1568        1569        1620        1619
         4        1569        1570        1621        1620
         4        1570        1571        1622        1621
         4        1571        1572        1623        1622
         4        1572        1573        1624        1623
         4        1573        1574        1625        1624
         4        1574        1575        1626        1625
         4        1575        1576        1627        1626
         4        1576        1577        1628        1627
         4        1577        1578        1629        1628
         4        1578        1579        1630        1629
         4        1579        1580        1631        1630
         4        1581        1582        1633        1632
         4        1582        1583        1634        1633
         4        1583        1584        1635        1634
         4        1584        1585        1636        1635
         4        1585        1586        1637        1636
         4        1586        1587        1638        1637
         4        1587        1588        1639        1638
         4        1588        1589        1640        1639
         4        1589        1590        1641        1640
         4        1590        1591        1642        1641
         4        1591        1592        1643        1642
         4        1592        1593        1644        1643
         4        1593        1594        1645        1644
         4        1594        1595        1646        1645
         4        1595        1596        1647        1646
         4        1596        1597        1648        1647
         4        1597        1598        1649        1648
         4        1598        1599        1650        1649
         4        1599        1600        1651        1650
         4        1600        1601        1652        1651
         4        1601        1602        1653        1652
         4        1602        1603        1654        1653
         4        1603        1604        1655        1654
         4        1604        1605        1656        1655
         4        1605        1606        1657        1656
         4        1606        1607        1658        1657
         4        1607        1608        1659        1658
         4        1608        1609        1660        1659
         4        1609        1610        1661        1660
         4        1610        1611        1662        1661
         4        1611        1612        1663        1662
         4        1612        1613        1664        1663
         4        1613        1614        1665        1664
         4        1614        1615        1666        1665
         4        1615        1616        1667        1666
         4        1616        1617        1668        1667
         4        1617        1618        1669        1668
         4        1618        1619        1670        1669
         4        1619        1620        1671        1670
         4        1620        1621        1672        1671
         4        1621        1622        1673        1672
         4        1622        1623        1674        1673
         4        1623        1624        1675        1674
         4        1624        1625        1676        1675
         4        1625        1626        1677        1676
         4        1626        1627        1678        1677
         4        1627        1628        1679        1678
         4        1628        1629        1680        1679
         4        1629        1630        1681        1680
         4        1630        1631        1682        1681
         4        1632        1633        1684        1683
         4        1633        1634        1685        1684
         4        1634        1635        1686        1685
         4        1635        1636        1687        1686
         4        1636        1637        1688        1687
         4        1637        1638        1689        1688
         4        1638        1639        1690        1689
         4        1639        1640        1691        1690
         4        1640        1641        1692        1691
         4        1641        1642        1693        1692
         4        1642        1643        1694        1693
         4        1643        1644        1695        1694
         4        1644        1645        1696        1695
         4        1645        1646        1697        1696
         4        1646        1647        1698        1697
         4        1647        1648        1699        1698
         4        1648        1649        1700        1699
         4        1649        1650        1701        1700
         4        1650        1651        1702        1701
         4        1651        1652        1703        1702
         4        1652        1653        1704        1703
         4        1653        1654        1705        1704
         4        1654        1655        1706        1705
         4        1655        1656        1707        1706
         4        1656        1657        1708        1707
         4        1657        1658        1709        1708
         4        1658        1659        1710        1709
         4        1659        1660        1711        1710
         4        1660        1661        1712        1711
         4        1661        1662        1713        1712
         4        1662        1663        1714        1713
         4        1663        1664        1715        1714
         4        1664        1665        1716        1715
         4        1665        1666        1717        1716
         4        1666        1667        1718        1717
         4        1667        1668        1719        1718
         4        1668        1669        1720        1719
         4        1669        1670        1721        1720
         4        1670        1671        1722        1721
         4        1671        1672        1723        1722
         4        1672        1673        1724        1723
         4        1673        1674        1725        1724
         4        1674        1675        1726        1725
         4        1675        1676        1727        1726
         4        1676        1677        1728        1727
         4        1677        1678        1729        1728
         4        1678        1679        1730        1729
         4        1679        1680        1731        1730
         4        1680        1681        1732        1731
         4        1681        1682        1733        1732
         4        1683        1684        1735        1734
         4        1684        1685        1736        1735
         4        1685        1686        1737        1736
         4        1686        1687        1738        1737
         4        1687        1688        1739        1738
         4        1688        1689        1740        1739
         4        1689        1690        1741        1740
         4        1690        1691        1742        1741
         4        1691        1692        1743        1742
         4        1692        1693        1744        1743
         4        1693        1694        1745        1744
         4        1694        1695        1746        1745
         4        1695        1696        1747        1746
         4        1696        1697        1748        1747
         4        1697        1698        1749        1748
         4        1698        1699        1750        1749
         4        1699        1700        1751        1750
         4        1700        1701        1752        1751
         4        1701        1702        1753        1752
         4        1702        1703        1754        1753
         4        1703        1704        1755        1754
         4        1704        1705        1756        1755
         4        1705        1706        1757        1756
         4        1706        1707        1758        1757
         4        1707        1708        1759        1758
         4        1708        1709        1760        1759
         4        1709        1710        1761        1760
         4        1710        1711        1762        1761
         4        1711        1712        1763        1762
         4        1712        1713        1764        1763
         4        1713        1714        1765        1764
         4        1714        1715        1766        1765
         4        1715        1716        1767        1766
         4        1716        1717        1768        1767
         4        1717        1718        1769        1768
         4        1718        1719        1770        1769
         4        1719        1720        1771        1770
         4        1720        1721        1772        1771
         4        1721        1722        1773        1772
         4        1722        1723        1774        1773
         4        1723        1724        1775        1774
         4        1724        1725        1776        1775
         4        1725        1726        1777        1776
         4        1726        1727        1778        1777
         4        1727        1728        1779        1778
         4        1728        1729        1780        1779
         4        1729        1730        1781        1780
         4        1730        1731        1782        1781
         4        1731        1732        1783        1782
         4        1732        1733        1784        1783
         4        1734        1735        1786        1785
         4        1735        1736        1787        1786
         4        1736        1737        1788        1787
         4        1737        1738        1789        1788
         4        1738        1739        1790        1789
         4        1739        1740        1791        1790
         4        1740        1741        1792        1791
         4        1741        1742        1793        1792
         4        1742        1743        1794        1793
         4        1743        1744        1795        1794
         4        1744        1745        1796        1795
         4        1745        1746        1797        1796
         4        1746        1747        1798        1797
         4        1747        1748        1799        1798
         4        1748        1749        1800        1799
         4        1749        1750        1801        1800
         4        1750        1751        1802        1801
         4        1751        1752        1803        1802
         4        1752        1753        1804        1803
         4        1753        1754        1805        1804
         4        1754        1755        1806        1805
         4        1755        1756        1807        1806
         4        1756        1757        1808        1807
         4        1757        1758        1809        1808
         4        1758        1759        1810        1809
         4        1759        1760        1811        1810
         4        1760        1761        1812        1811
         4        1761        1762        1813        1812
         4        1762        1763        1814        1813
         4        1763        1764        1815        1814
         4        1764        1765        1816        1815
         4        1765        1766        1817        1816
         4        1766        1767        1818        1817
         4        1767        1768        1819        1818
         4        1768        1769        1820        1819
         4        1769        1770        1821        1820
         4        1770        1771        1822        1821
         4        1771        1772        1823        1822
         4        1772        1773        1824        1823
         4        1773        1774        1825        1824
         4        1774        1775        1826        1825
         4        1775        1776        1827        1826
         4        1776        1777        1828        1827
         4        1777        1778        1829        1828
         4        1778        1779        1830        1829
         4        1779        1780        1831        1830
         4        1780        1781        1832        1831
         4        1781        1782        1833        1832
         4        1782        1783        1834        1833
         4        1783        1784        1835        1834
         4        1785        1786        1837        1836
         4        1786        1787        1838        1837
         4        1787        1788        1839        1838
         4        1788        1789        1840        1839
         4        1789        1790        1841        1840
         4        1790        1791        1842        1841
         4        1791        1792        1843        1842
         4        1792        1793        1844        1843
         4        1793        1794        1845        1844
         4        1794        1795        1846        1845
         4        1795        1796        1847        1846
         4        1796        1797        1848        1847
         4        1797        1798        1849        1848
         4        1798        1799        1850        1849
         4        1799        1800        1851        1850
         4        1800        1801        1852        1851
         4        1801        1802        1853        1852
         4        1802        1803        1854        1853
         4        1803        1804        1855        1854
         4        1804        1805        1856        1855
         4        1805        1806        1857        1856
         4        1806        1807        1858        1857
         4        1807        1808        1859        1858
         4        1808        1809        1860        1859
         4        1809        1810        1861        1860
         4        1810        1811        1862        1861
         4        1811        1812        1863        1862
         4        1812        1813        1864        1863
         4        1813        1814        1865        1864
         4        1814        1815        1866        1865
         4        1815        1816        1867        1866
         4        1816        1817        1868        1867
         4        1817        1818        1869        1868
         4        1818        1819        1870        1869
         4        1819        1820        1871        1870
         4        1820        1821        1872        1871
         4        1821        1822        1873        1872
         4        1822        1823        1874        1873
         4        1823        1824        1875        1874
         4        1824        1825        1876        1875
         4        1825        1826        1877        1876
         4        1826        1827        1878        1877
         4        1827        1828        1879        1878
         4        1828        1829        1880        1879
         4        1829        1830        1881        1880
         4        1830        1831        1882        1881
         4        1831        1832        1883        1882
         4        1832        1833        1884        1883
         4        1833        1834        1885        1884
         4        1834        1835        1886        1885
         4        1836        1837        1888        1887
         4        1837        1838        1889        1888
         4        1838        1839        1890        1889
         4        1839        1840        1891        1890
         4        1840        1841        1892        1891
         4        1841        1842        1893        1892
         4        1842        1843        1894        1893
         4        1843        1844        1895        1894
         4        1844        1845        1896        1895
         4        1845        1846        1897        1896
         4        1846        1847        1898        1897
         4        1847        1848        1899        1898
         4        1848        1849        1900        1899
         4        1849        1850        1901        1900
         4        1850        1851        1902        1901
         4        1851        1852        1903        1902
         4        1852        1853        1904        1903
         4        1853        1854        1905        1904
         4        1854        1855        1906        1905
         4        1855        1856        1907        1906
         4        1856        1857        1908        1907
         4        1857        1858        1909        1908
         4        1858        1859        1910        1909
         4        1859        1860        1911        1910
         4        1860        1861        1912        1911
         4        1861        1862        1913        1912
         4        1862        1863        1914        1913
         4        1863        1864        1915        1914
         4        1864        1865        1916        1915
         4        1865        1866        1917        1916
         4        1866        1867        1918        1917
         4        1867        1868        1919        1918
         4        1868        1869        1920        1919
         4        1869        1870        1921        1920
         4        1870        1871        1922        1921
         4        1871        1872        1923        1922
         4        1872        1873        1924        1923
         4        1873        1874        1925        1924
         4        1874        1875        1926        1925
         4        1875        1876        1927        1926
         4        1876        1877        1928        1927
         4        1877        1878        1929        1928
         4        1878        1879        1930        1929
         4        1879        1880        1931        1930
         4        1880        1881        1932        1931
         4        1881        1882        1933        1932
         4        1882        1883        1934        1933
         4        1883        1884        1935        1934
         4        1884        1885        1936        1935
         4        1885        1886        1937        1936
         4        1887        1888        1939        1938
         4        1888        1889        1940        1939
         4        1889        1890        1941        1940
         4        1890        1891        1942        1941
         4        1891        1892        1943        1942
         4        1892        1893        1944        1943
         4        1893        1894        1945        1944
         4        1894        1895        1946        1945
         4        1895        1896        1947        1946
         4        1896        1897        1948        1947
         4        1897        1898        1949        1948
         4        1898        1899        1950        1949
         4        1899        1900        1951        1950
         4        1900        1901        1952        1951
         4        1901        1902        1953        1952
         4        1902        1903        1954        1953
         4        1903        1904        1955        1954
         4        1904        1905        1956        1955
         4        1905        1906        1957        1956
         4        1906        1907        1958        1957
         4        1907        1908        1959        1958
         4        1908        1909        1960        1959
         4        1909        1910        1961        1960
         4        1910        1911        1962        1961
         4        1911        1912        1963        1962
         4        1912        1913        1964        1963
         4        1913        1914        1965        1964
         4        1914        1915        1966        1965
         4        1915        1916        1967        1966
         4        1916        1917        1968        1967
         4        1917        1918        1969        1968
         4        1918        1919        1970        1969
         4        1919        1920        1971        1970
         4        1920        1921        1972        1971
         4        1921        1922        1973        1972
         4        1922        1923        1974        1973
         4        1923        1924        1975        1974
         4        1924        1925        1976        1975
         4        1925        1926        1977        1976
         4        1926        1927        1978        1977
         4        1927        1928        1979        1978
         4        1928        1929        1980        1979
         4        1929        1930        1981        1980
         4        1930        1931        1982        1981
         4        1931        1932        1983        1982
         4        1932        1933        1984        1983
         4        1933        1934        1985        1984
         4        1934        1935        1986        1985
         4        1935        1936        1987        1986
         4        1936        1937        1988        1987
         4        1938        1939        1990        1989
         4        1939        1940        1991        1990
         4        1940        1941        1992        1991
         4        1941        1942        1993        1992
         4        1942        1943        1994        1993
         4        1943        1944        1995        1994
         4        1944        1945        1996        1995
         4        1945        1946        1997        1996
         4        1946        1947        1998        1997
         4        1947        1948        1999        1998
         4        1948        1949        2000        1999
         4        1949        1950        2001        2000
         4        1950        1951        2002        2001
         4        1951        1952        2003        2002
         4        1952        1953        2004        2003
         4        1953        1954        2005        2004
         4        1954        1955        2006        2005
         4        1955        1956        2007        2006
         4        1956        1957        2008        2007
         4        1957        1958        2009        2008
         4        1958        1959        2010        2009
         4        1959        1960        2011        2010
         4        1960        1961        2012        2011
         4        1961        1962        2013        2012
         4        1962        1963        2014        2013
         4        1963        1964        2015        2014
         4        1964        1965        2016        2015
         4        1965        1966        2017        2016
         4        1966        1967        2018        2017
         4        1967        1968        2019        2018
         4        1968        1969        2020        2019
         4        1969        1970        2021        2020
         4        1970        1971        2022        2021
         4        1971        1972        2023        2022
         4        1972        1973        2024        2023
         4        1973        1974        2025        2024
         4        1974        1975        2026        2025
         4        1975        1976        2027        2026
         4        1976        1977        2028        2027
         4        1977        1978        2029        2028
         4        1978        1979        2030        2029
         4        1979        1980        2031        2030
         4        1980        1981        2032        2031
         4        1981        1982        2033        2032
         4        1982        1983        2034        2033
         4        1983        1984        2035        2034
         4        1984        1985        2036        2035
         4        1985        1986        2037        2036
         4        1986        1987        2038        2037
         4        1987        1988        2039        2038
         4        1989        1990        2041        2040
         4        1990        1991        2042        2041
         4        1991        1992        2043        2042
         4        1992        1993        2044        2043
         4        1993        1994        2045        2044
         4        1994        1995        2046        2045
         4        1995        1996        2047        2046
         4        1996        1997        2048        2047
         4        1997        1998        2049        2048
         4        1998        1999        2050        2049
         4        1999        2000        2051        2050
         4        2000        2001        2052        2051
         4        2001        2002        2053        2052
         4        2002        2003        2054        2053
         4        2003        2004        2055        2054
         4        2004        2005        2056        2055
         4        2005        2006        2057        2056
         4        2006        2007        2058        2057
         4        2007        2008        2059        2058
         4        2008        2009        2060        2059
         4        2009        2010        2061        2060
         4        2010        2011        2062        2061
         4        2011        2012        2063        2062
         4        2012        2013        2064        2063
         4        2013        2014        2065        2064
         4        2014        2015        2066        2065
         4        2015        2016        2067        2066
         4        2016        2017        2068        2067
         4        2017        2018        2069        2068
         4        2018        2019        2070        2069
         4        2019        2020        2071        2070
         4        2020        2021        2072        2071
         4        2021        2022        2073        2072
         4        2022        2023        2074        2073
         4        2023        2024        2075        2074
         4        2024        2025        2076        2075
         4        2025        2026        2077        2076
         4        2026        2027        2078        2077
         4        2027        2028        2079        2078
         4        2028        2029        2080        2079
         4        2029        2030        2081        2080
         4        2030        2031        2082        2081
         4        2031        2032        2083        2082
         4        2032        2033        2084        2083
         4        2033        2034        2085        2084
         4        2034        2035        2086        2085
         4        2035        2036        2087        2086
         4        2036        2037        2088        2087
         4        2037        2038        2089        2088
         4        2038        2039        2090        2089
         4        2040        2041        2092        2091
         4        2041        2042        2093        2092
         4        2042        2043        2094        2093
         4        2043        2044        2095        2094
         4        2044        2045        2096        2095
         4        2045        2046        2097        2096
         4        2046        2047        2098        2097
         4        2047        2048        2099        2098
         4        2048        2049        2100        2099
         4        2049        2050        2101        2100
         4        2050        2051        2102        2101
         4        2051        2052        2103        2102
         4        2052        2053        2104        2103
         4        2053        2054        2105        2104
         4        2054        2055        2106        2105
         4        2055        2056        2107        2106
         4        2056        2057        2108        2107
         4        2057        2058        2109        2108
         4        2058        2059        2110        2109
         4        2059        2060        2111        2110
         4        2060        2061        2112        2111
         4        2061        2062        2113        2112
         4        2062        2063        2114        2113
         4        2063        2064        2115        2114
         4        2064        2065        2116        2115
         4        2065        2066        2117        2116
         4        2066        2067        2118        2117
         4        2067        2068        2119        2118
         4        2068        2069        2120        2119
         4        2069        2070        2121        2120
         4        2070        2071        2122        2121
         4        2071        2072        2123        2122
         4        2072        2073        2124        2123
         4        2073        2074        2125        2124
         4        2074        2075        2126        2125
         4        2075        2076        2127        2126
         4        2076        2077        2128        2127
         4        2077        2078        2129        2128
         4        2078        2079        2130        2129
         4        2079        2080        2131        2130
         4        2080        2081        2132        2131
         4        2081        2082        2133        2132
         4        2082        2083        2134        2133
         4        2083        2084        2135        2134
         4        2084        2085        2136        2135
         4        2085        2086        2137        2136
         4        2086        2087        2138        2137
         4        2087        2088        2139        2138
         4        2088        2089        2140        2139
         4        2089        2090        2141        2140
         4        2091        2092        2143        2142
         4        2092        2093        2144        2143
         4        2093        2094        2145        2144
         4        2094        2095        2146        2145
         4        2095        2096        2147        2146
         4        2096        2097        2148        2147
         4        2097        2098        2149        2148
         4        2098        2099        2150        2149
         4        2099        2100        2151        2150
         4        2100        2101        2152        2151
         4        2101        2102        2153        2152
         4        2102        2103        2154        2153
         4        2103        2104        2155        2154
         4        2104        2105        2156        2155
         4        2105        2106        2157        2156
         4        2106        2107        2158        2157
         4        2107        2108        2159        2158
         4        2108        2109        2160        2159
         4        2109        2110        2161        2160
         4        2110        2111        2162        2161
         4        2111        2112        2163        2162
         4        2112        2113        2164        2163
         4        2113        2114        2165        2164
         4        2114        2115        2166        2165
         4        2115        2116        2167        2166
         4        2116        2117        2168        2167
         4        2117        2118        2169        2168
         4        2118        2119        2170        2169
         4        2119        2120        2171        2170
         4        2120        2121        2172        2171
         4        2121        2122        2173        2172
         4        2122        2123        2174        2173
         4        2123        2124        2175        2174
         4        2124        2125        2176        2175
         4        2125        2126        2177        2176
         4        2126        2127        2178        2177
         4        2127        2128        2179        2178
         4        2128        2129        2180        2179
         4        2129        2130        2181        2180
         4        2130        2131        2182        2181
         4        2131        2132        2183        2182
         4        2132        2133        2184        2183
         4        2133        2134        2185        2184
         4        2134        2135        2186        2185
         4        2135        2136        2187        2186
         4        2136        2137        2188        2187
         4        2137        2138        2189        2188
         4        2138        2139        2190        2189
         4        2139        2140        2191        2190
         4        2140        2141        2192        2191
         4        2142        2143        2194        2193
         4        2143        2144        2195        2194
         4        2144        2145        2196        2195
         4        2145        2146        2197        2196
         4        2146        2147        2198        2197
         4        2147        2148        2199        2198
         4        2148        2149        2200        2199
         4        2149        2150        2201        2200
         4        2150        2151        2202        2201
         4        2151        2152        2203        2202
         4        2152        2153        2204        2203
         4        2153        2154        2205        2204
         4        2154        2155        2206        2205
         4        2155        2156        2207        2206
         4        2156        2157        2208        2207
         4        2157        2158        2209        2208
         4        2158        2159        2210        2209
         4        2159        2160        2211        2210
         4        2160        2161        2212        2211
         4        2161        2162        2213        2212
         4        2162        2163        2214        2213
         4        2163        2164        2215        2214
         4        2164        2165        2216        2215
         4        2165        2166        2217        2216
         4        2166        2167        2218        2217
         4        2167        2168        2219        2218
         4        2168        2169        2220        2219
         4        2169        2170        2221        2220
         4        2170        2171        2222        2221
         4        2171        2172        2223        2222
         4        2172        2173        2224        2223
         4        2173        2174        2225        2224
         4        2174        2175        2226        2225
         4        2175        2176        2227        2226
         4        2176        2177        2228        2227
         4        2177        2178        2229        2228
         4        2178        2179        2230        2229
         4        2179        2180        2231        2230
         4        2180        2181        2232        2231
         4        2181        2182        2233        2232
         4        2182        2183        2234        2233
         4        2183        2184        2235        2234
         4        2184        2185        2236        2235
         4        2185        2186        2237        2236
         4        2186        2187        2238        2237
         4        2187        2188        2239        2238
         4        2188        2189        2240        2239
         4        2189        2190        2241        2240
         4        2190        2191        2242        2241
         4        2191        2192        2243        2242
         4        2193        2194        2245        2244
         4        2194        2195        2246        2245
         4        2195        2196        2247        2246
         4        2196        2197        2248        2247
         4        2197        2198        2249        2248
         4        2198        2199        2250        2249
         4        2199        2200        2251        2250
         4        2200        2201        2252        2251
         4        2201        2202        2253        2252
         4        2202        2203        2254        2253
         4        2203        2204        2255        2254
         4        2204        2205        2256        2255
         4        2205        2206        2257        2256
         4        2206        2207        2258        2257
         4        2207        2208        2259        2258
         4        2208        2209        2260        2259
         4        2209        2210        2261        2260
         4        2210        2211        2262        2261
         4        2211        2212        2263        2262
         4        2212        2213        2264        2263
         4        2213        2214        2265        2264
         4        2214        2215        2266        2265
         4        2215        2216        2267        2266
         4        2216        2217        2268        2267
         4        2217        2218        2269        2268
         4        2218        2219        2270        2269
         4        2219        2220        2271        2270
         4        2220        2221        2272        2271
         4        2221        2222        2273        2272
         4        2222        2223        2274        2273
         4        2223        2224        2275        2274
         4        2224        2225        2276        2275
         4        2225        2226        2277        2276
         4        2226        2227        2278        2277
         4        2227        2228        2279        2278
         4        2228        2229        2280        2279
         4        2229        2230        2281        2280
         4        2230        2231        2282        2281
         4        2231        2232        2283        2282
         4        2232        2233        2284        2283
         4        2233        2234        2285        2284
         4        2234        2235        2286        2285
         4        2235        2236        2287        2286
         4        2236        2237        2288        2287
         4        2237        2238        2289        2288
         4        2238        2239        2290        2289
         4        2239        2240        2291        2290
         4        2240        2241        2292        2291
         4        2241        2242        2293        2292
         4        2242        2243        2294        2293
         4        2244        2245        2296        2295
         4        2245        2246        2297        2296
         4        2246        2247        2298        2297
         4        2247        2248        2299        2298
         4        2248        2249        2300        2299
         4        2249        2250        2301        2300
         4        2250        2251        2302        2301
         4        2251        2252        2303        2302
         4        2252        2253        2304        2303
         4        2253        2254        2305        2304
         4        2254        2255        2306        2305
         4        2255        2256        2307        2306
         4        2256        2257        2308        2307
         4        2257        2258        2309        2308
         4        2258        2259        2310        2309
         4        2259        2260        2311        2310
         4        2260        2261        2312        2311
         4        2261        2262        2313        2312
         4        2262        2263        2314        2313
         4        2263        2264        2315        2314
         4        2264        2265        2316        2315
         4        2265        2266        2317        2316
         4        2266        2267        2318        2317
         4        2267        2268        2319        2318
         4        2268        2269        2320        2319
         4        2269        2270        2321        2320
         4        2270        2271        2322        2321
         4        2271        2272        2323        2322
         4        2272        2273        2324        2323
         4        2273        2274        2325        2324
         4        2274        2275        2326        2325
         4        2275        2276        2327        2326
         4        2276        2277        2328        2327
         4        2277        2278        2329        2328
         4        2278        2279        2330        2329
         4        2279        2280        2331        2330
         4        2280        2281        2332        2331
         4        2281        2282        2333        2332
         4        2282        2283        2334        2333
         4        2283        2284        2335        2334
         4        2284        2285        2336        2335
         4        2285        2286        2337        2336
         4        2286        2287        2338        2337
         4        2287        2288        2339        2338
         4        2288        2289        2340        2339
         4        2289        2290        2341        2340
         4        2290        2291        2342        2341
         4        2291        2292        2343        2342
         4        2292        2293        2344        2343
         4        2293        2294        2345        2344
         4        2295        2296        2347        2346
         4        2296        2297        2348        2347
         4        2297        2298        2349        2348
         4        2298        2299        2350        2349
         4        2299        2300        2351        2350
         4        2300        2301        2352        2351
         4        2301        2302        2353        2352
         4        2302        2303        2354        2353
         4        2303        2304        2355        2354
         4        2304        2305        2356        2355
         4        2305        2306        2357        2356
         4        2306        2307        2358        2357
         4        2307        2308        2359        2358
         4        2308        2309        2360        2359
         4        2309        2310        2361        2360
         4        2310        2311        2362        2361
         4        2311        2312        2363        2362
         4        2312        2313        2364        2363
         4        2313        2314        2365        2364
         4        2314        2315        2366        2365
         4        2315        2316        2367        2366
         4        2316        2317        2368        2367
         4        2317        2318        2369        2368
         4        2318        2319        2370        2369
         4        2319        2320        2371        2370
         4        2320        2321        2372        2371
         4        2321        2322        2373        2372
         4        2322        2323        2374        2373
         4        2323        2324        2375        2374
         4        2324        2325        2376        2375
         4        2325        2326        2377        2376
         4        2326        2327        2378        2377
         4        2327        2328        2379        2378
         4        2328        2329        2380        2379
         4        2329        2330        2381        2380
         4        2330        2331        2382        2381
         4        2331        2332        2383        2382
         4        2332        2333        2384        2383
         4        2333        2334        2385        2384
         4        2334        2335        2386        2385
         4        2335        2336        2387        2386
         4        2336        2337        2388        2387
         4        2337        2338        2389        2388
         4        2338        2339        2390        2389
         4        2339        2340        2391        2390
         4        2340        2341        2392        2391
         4        2341        2342        2393        2392
         4        2342        2343        2394        2393
         4        2343        2344        2395        2394
         4        2344        2345        2396        2395
         4        2346        2347        2398        2397
         4        2347        2348        2399        2398
         4        2348        2349        2400        2399
         4        2349        2350        2401        2400
         4        2350        2351        2402        2401
         4        2351        2352        2403        2402
         4        2352        2353        2404        2403
         4        2353        2354        2405        2404
         4        2354        2355        2406        2405
         4        2355        2356        2407        2406
         4        2356        2357        2408        2407
         4        2357        2358        2409        2408
         4        2358        2359        2410        2409
         4        2359        2360        2411        2410
         4        2360        2361        2412        2411
         4        2361        2362        2413        2412
         4        2362        2363        2414        2413
         4        2363        2364        2415        2414
         4        2364        2365        2416        2415
         4        2365        2366        2417        2416
         4        2366        2367        2418        2417
         4        2367        2368        2419        2418
         4        2368        2369        2420        2419
         4        2369        2370        2421        2420
         4        2370        2371        2422        2421
         4        2371        2372        2423        2422
         4        2372        2373        2424        2423
         4        2373        2374        2425        2424
         4        2374        2375        2426        2425
         4        2375        2376        2427        2426
         4        2376        2377        2428        2427
         4        2377        2378        2429        2428
         4        2378        2379        2430        2429
         4        2379        2380        2431        2430
         4        2380        2381        2432        2431
         4        2381        2382        2433        2432
         4        2382        2383        2434        2433
         4        2383        2384        2435        2434
         4        2384        2385        2436        2435
         4        2385        2386        2437        2436
         4        2386        2387        2438        2437
         4        2387        2388        2439        2438
         4        2388        2389        2440        2439
         4        2389        2390        2441        2440
         4        2390        2391        2442        2441
         4        2391        2392        2443        2442
         4        2392        2393        2444        2443
         4        2393        2394        2445        2444
         4        2394        2395        2446        2445
         4        2395        2396        2447        2446
         4        2397        2398        2449        2448
         4        2398        2399        2450        2449
         4        2399        2400        2451        2450
         4        2400        2401        2452        2451
         4        2401        2402        2453        2452
         4        2402        2403        2454        2453
         4        2403        2404        2455        2454
         4        2404        2405        2456        2455
         4        2405        2406        2457        2456
         4        2406        2407        2458        2457
         4        2407        2408        2459        2458
         4        2408        2409        2460        2459
         4        2409        2410        2461        2460
         4        2410        2411        2462        2461
         4        2411        2412        2463        2462
         4        2412        2413        2464        2463
         4        2413        2414        2465        2464
         4        2414        2415        2466        2465
         4        2415        2416        2467        2466
         4        2416        2417        2468        2467
         4        2417        2418        2469        2468
         4        2418        2419        2470        2469
         4        2419        2420        2471        2470
         4        2420        2421        2472        2471
         4        2421        2422        2473        2472
         4        2422        2423        2474        2473
         4        2423        2424        2475        2474
         4        2424        2425        2476        2475
         4        2425        2426        2477        2476
         4        2426        2427        2478        2477
         4        2427        2428        2479        2478
         4        2428        2429        2480        2479
         4        2429        2430        2481        2480
         4        2430        2431        2482        2481
         4        2431        2432        2483        2482
         4        2432        2433        2484        2483
         4        2433        2434        2485        2484
         4        2434        2435        2486        2485
         4        2435        2436        2487        2486
         4        2436        2437        2488        2487
         4        2437        2438        2489        2488
         4        2438        2439        2490        2489
         4        2439        2440        2491        2490
         4        2440        2441        2492        2491
         4        2441        2442        2493        2492
         4        2442        2443        2494        2493
         4        2443        2444        2495        2494
         4        2444        2445        2496        2495
         4        2445        2446        2497        2496
         4        2446        2447        2498        2497
         4        2448        2449        2500        2499
         4        2449        2450        2501        2500
         4        2450        2451        2502        2501
         4        2451        2452        2503        2502
         4        2452        2453        2504        2503
         4        2453        2454        2505        2504
         4        2454        2455        2506        2505
         4        2455        2456        2507        2506
         4        2456        2457        2508        2507
         4        2457        2458        2509        2508
         4        2458        2459        2510        2509
         4        2459        2460        2511        2510
         4        2460        2461        2512        2511
         4        2461        2462        2513        2512
         4        2462        2463        2514        2513
         4        2463        2464        2515        2514
         4        2464        2465        2516        2515
         4        2465        2466        2517        2516
         4        2466        2467        2518        2517
         4        2467        2468        2519        2518
         4        2468        2469        2520        2519
         4        2469        2470        2521        2520
         4        2470        2471        2522        2521
         4        2471        2472        2523        2522
         4        2472        2473        2524        2523
         4        2473        2474        2525        2524
         4        2474        2475        2526        2525
         4        2475        2476        2527        2526
         4        2476        2477        2528        2527
         4        2477        2478        2529        2528
         4        2478        2479        2530        2529
         4        2479        2480        2531        2530
         4        2480        2481        2532        2531
         4        2481        2482        2533        2532
         4        2482        2483        2534        2533
         4        2483        2484        2535        2534
         4        2484        2485        2536        2535
         4        2485        2486        2537        2536
         4        2486        2487        2538        2537
         4        2487        2488        2539        2538
         4        2488        2489        2540        2539
         4        2489        2490        2541        2540
         4        2490        2491        2542        2541
         4        2491        2492        2543        2542
         4        2492        2493        2544        2543
         4        2493        2494        2545        2544
         4        2494        2495        2546        2545
         4        2495        2496        2547        2546
         4        2496        2497        2548        2547
         4        2497        2498        2549        2548
         4        2499        2500        2551        2550
         4        2500        2501        2552        2551
         4        2501        2502        2553        2552
         4        2502        2503        2554        2553
         4        2503        2504        2555        2554
         4        2504        2505        2556        2555
         4        2505        2506        2557        2556
         4        2506        2507        2558        2557
         4        2507        2508        2559        2558
         4        2508        2509        2560        2559
         4        2509        2510        2561        2560
         4        2510        2511        2562        2561
         4        2511        2512        2563        2562
         4        2512        2513        2564        2563
         4        2513        2514        2565        2564
         4        2514        2515        2566        2565
         4        2515        2516        2567        2566
         4        2516        2517        2568        2567
         4        2517        2518        2569        2568
         4        2518        2519        2570        2569
         4        2519        2520        2571        2570
         4        2520        2521        2572        2571
         4        2521        2522        2573        2572
         4        2522        2523        2574        2573
         4        2523        2524        2575        2574
         4        2524        2525        2576        2575
         4        2525        2526        2577        2576
         4        2526        2527        2578        2577
         4        2527        2528        2579        2578
         4        2528        2529        2580        2579
         4        2529        2530        2581        2580
         4        2530        2531        2582        2581
         4        2531        2532        2583        2582
         4        2532        2533        2584        2583
         4        2533        2534        2585        2584
         4        2534        2535        2586        2585
         4        2535        2536        2587        2586
         4        2536        2537        2588        2587
         4        2537        2538        2589        2588
         4        2538        2539        2590        2589
         4        2539        2540        2591        2590
         4        2540        2541        2592        2591
         4        2541        2542        2593        2592
         4        2542        2543        2594        2593
         4        2543        2544        2595        2594
         4        2544        2545        2596        2595
         4        2545        2546        2597        2596
         4        2546        2547        2598        2597
         4        2547        2548        2599        2598
         4        2548        2549        2600        2599
         4        2550        2551        2602        2601
         4        2551        2552        2603        2602
         4        2552        2553        2604        2603
         4        2553        2554        2605        2604
         4        2554        2555        2606        2605
         4        2555        2556        2607        2606
         4        2556        2557        2608        2607
         4        2557        2558        2609        2608
         4        2558        2559        2610        2609
         4        2559        2560        2611        2610
         4        2560        2561        2612        2611
         4        2561        2562        2613        2612
         4        2562        2563        2614        2613
         4        2563        2564        2615        2614
         4        2564        2565        2616        2615
         4        2565        2566        2617        2616
         4        2566        2567        2618        2617
         4        2567        2568        2619        2618
         4        2568        2569        2620        2619
         4        2569        2570        2621        2620
         4        2570        2571        2622        2621
         4        2571        2572        2623        2622
         4        2572        2573        2624        2623
         4        2573        2574        2625        2624
         4        2574        2575        2626        2625
         4        2575        2576        2627        2626
         4        2576        2577        2628        2627
         4        2577        2578        2629        2628
         4        2578        2579        2630        2629
         4        2579        2580        2631        2630
         4        2580        2581        2632        2631
         4        2581        2582        2633        2632
         4        2582        2583        2634        2633
         4        2583        2584        2635        2634
         4        2584        2585        2636        2635
         4        2585        2586        2637        2636
         4        2586        2587        2638        2637
         4        2587        2588        2639        2638
         4        2588        2589        2640        2639
         4        2589        2590        2641        2640
         4        2590        2591        2642        2641
         4        2591        2592        2643        2642
         4        2592        2593        2644        2643
         4        2593        2594        2645        2644
         4        2594        2595        2646        2645
         4        2595        2596        2647        2646
         4        2596        2597        2648        2647
         4        2597        2598        2649        2648
         4        2598        2599        2650        2649
         4        2599        2600        2651        2650
         4        2601        2602        2653        2652
         4        2602        2603        2654        2653
         4        2603        2604        2655        2654
         4        2604        2605        2656        2655
         4        2605        2606        2657        2656
         4        2606        2607        2658        2657
         4        2607        2608        2659        2658
         4        2608        2609        2660        2659
         4        2609        2610        2661        2660
         4        2610        2611        2662        2661
         4        2611        2612        2663        2662
         4        2612        2613        2664        2663
         4        2613        2614        2665        2664
         4        2614        2615        2666        2665
         4        2615        2616        2667        2666
         4        2616        2617        2668        2667
         4        2617        2618        2669        2668
         4        2618        2619        2670        2669
         4        2619        2620        2671        2670
         4        2620        2621        2672        2671
         4        2621        2622        2673        2672
         4        2622        2623        2674        2673
         4        2623        2624        2675        2674
         4        2624        2625        2676        2675
         4        2625        2626        2677        2676
         4        2626        2627        2678        2677
         4        2627        2628        2679        2678
         4        2628        2629        2680        2679
         4        2629        2630        2681        2680
         4        2630        2631        2682        2681
         4        2631        2632        2683        2682
         4        2632        2633        2684        2683
         4        2633        2634        2685        2684
         4        2634        2635        2686        2685
         4        2635        2636        2687        2686
         4        2636        2637        2688        2687
         4        2637        2638        2689        2688
         4        2638        2639        2690        2689
         4        2639        2640        2691        2690
         4        2640        2641        2692        2691
         4        2641        2642        2693        2692
         4        2642        2643        2694        2693
         4        2643        2644        2695        2694
         4        2644        2645        2696        2695
         4        2645        2646        2697        2696
         4        2646        2647        2698        2697
         4        2647        2648        2699        2698
         4        2648        2649        2700        2699
         4        2649        2650        2701        2700
         4        2650        2651        2702        2701
         4        2652        2653        2704        2703
         4        2653        2654        2705        2704
         4        2654        2655        2706        2705
         4        2655        2656        2707        2706
         4        2656        2657        2708        2707
         4        2657        2658        2709        2708
         4        2658        2659        2710        2709
         4        2659        2660        2711        2710
         4        2660        2661        2712        2711
         4        2661        2662        2713        2712
         4        2662        2663        2714        2713
         4        2663        2664        2715        2714
         4        2664        2665        2716        2715
         4        2665        2666        2717        2716
         4        2666        2667        2718        2717
         4        2667        2668        2719        2718
         4        2668        2669        2720        2719
         4        2669        2670        2721        2720
         4        2670        2671        2722        2721
         4        2671        2672        2723        2722
         4        2672        2673        2724        2723
         4        2673        2674        2725        2724
         4        2674        2675        2726        2725
         4        2675        2676        2727        2726
         4        2676        2677        2728        2727
         4        2677        2678        2729        2728
         4        2678        2679        2730        2729
         4        2679        2680        2731        2730
         4        2680        2681        2732        2731
         4        2681        2682        2733        2732
         4        2682        2683        2734        2733
         4        2683        2684        2735        2734
         4        2684        2685        2736        2735
         4        2685        2686        2737        2736
         4        2686        2687        2738        2737
         4        2687        2688        2739        2738
         4        2688        2689        2740        2739
         4        2689        2690        2741        2740
         4        2690        2691        2742        2741
         4        2691        2692        2743        2742
         4        2692        2693        2744        2743
         4        2693        2694        2745        2744
         4        2694        2695        2746        2745
         4        2695        2696        2747        2746
         4        2696        2697        2748        2747
         4        2697        2698        2749        2748
         4        2698        2699        2750        2749
         4        2699        2700        2751        2750
         4        2700        2701        2752        2751
         4        2701        2702        2753        2752
         4        2703        2704        2755        2754
         4        2704        2705        2756        2755
         4        2705        2706        2757        2756
         4        2706        2707        2758        2757
         4        2707        2708        2759        2758
         4        2708        2709        2760        2759
         4        2709        2710        2761        2760
         4        2710        2711        2762        2761
         4        2711        2712        2763        2762
         4        2712        2713        2764        2763
         4        2713        2714        2765        2764
         4        2714        2715        2766        2765
         4        2715        2716        2767        2766
         4        2716        2717        2768        2767
         4        2717        2718        2769        2768
         4        2718        2719        2770        2769
         4        2719        2720        2771        2770
         4        2720        2721        2772        2771
         4        2721        2722        2773        2772
         4        2722        2723        2774        2773
         4        2723        2724        2775        2774
         4        2724        2725        2776        2775
         4        2725        2726        2777        2776
         4        2726        2727        2778        2777
         4        2727        2728        2779        2778
         4        2728        2729        2780        2779
         4        2729        2730        2781        2780
         4        2730        2731        2782        2781
         4        2731        2732        2783        2782
         4        2732        2733        2784        2783
         4        2733        2734        2785        2784
         4        2734        2735        2786        2785
         4        2735        2736        2787        2786
         4        2736        2737        2788        2787
         4        2737        2738        2789        2788
         4        2738        2739        2790        2789
         4        2739        2740        2791        2790
         4        2740        2741        2792        2791
         4        2741        2742        2793        2792
         4        2742        2743        2794        2793
         4        2743        2744        2795        2794
         4        2744        2745        2796        2795
         4        2745        2746        2797        2796
         4        2746        2747        2798        2797
         4        2747        2748        2799        2798
         4        2748        2749        2800        2799
         4        2749        2750        2801        2800
         4        2750        2751        2802        2801
         4        2751        2752        2803        2802
         4        2752        2753        2804        2803
         4        2754        2755        2806        2805
         4        2755        2756        2807        2806
         4        2756        2757        2808        2807
         4        2757        2758        2809        2808
         4        2758        2759        2810        2809
         4        2759        2760        2811        2810
         4        2760        2761        2812        2811
         4        2761        2762        2813        2812
         4        2762        2763        2814        2813
         4        2763        2764        2815        2814
         4        2764        2765        2816        2815
         4        2765        2766        2817        2816
         4        2766        2767        2818        2817
         4        2767        2768        2819        2818
         4        2768        2769        2820        2819
         4        2769        2770        2821        2820
         4        2770        2771        2822        2821
         4        2771        2772        2823        2822
         4        2772        2773        2824        2823
         4        2773        2774        2825        2824
         4        2774        2775        2826        2825
         4        2775        2776        2827        2826
         4        2776        2777        2828        2827
         4        2777        2778        2829        2828
         4        2778        2779        2830        2829
         4        2779        2780        2831        2830
         4        2780        2781        2832        2831
         4        2781        2782        2833        2832
         4        2782        2783        2834        2833
         4        2783        2784        2835        2834
         4        2784        2785        2836        2835
         4        2785        2786        2837        2836
         4        2786        2787        2838        2837
         4        2787        2788        2839        2838
         4        2788        2789        2840        2839
         4        2789        2790        2841        2840
         4        2790        2791        2842        2841
         4        2791        2792        2843        2842
         4        2792        2793        2844        2843
         4        2793        2794        2845        2844
         4        2794        2795        2846        2845
         4        2795        2796        2847        2846
         4        2796        2797        2848        2847
         4        2797        2798        2849        2848
         4        2798        2799        2850        2849
         4        2799        2800        2851        2850
         4        2800        2801        2852        2851
         4        2801        2802        2853        2852
         4        2802        2803        2854        2853
         4        2803        2804        2855        2854
         4        2805        2806        2857        2856
         4        2806        2807        2858        2857
         4        2807        2808        2859        2858
         4        2808        2809        2860        2859
         4        2809        2810        2861        2860
         4        2810        2811        2862        2861
         4        2811        2812        2863        2862
         4        2812        2813        2864        2863
         4        2813        2814        2865        2864
         4        2814        2815        2866        2865
         4        2815        2816        2867        2866
         4        2816        2817        2868        2867
         4        2817        2818        2869        2868
         4        2818        2819        2870        2869
         4        2819        2820        2871        2870
         4        2820        2821        2872        2871
         4        2821        2822        2873        2872
         4        2822        2823        2874        2873
         4        2823        2824        2875        2874
         4        2824        2825        2876        2875
         4        2825        2826        2877        2876
         4        2826        2827        2878        2877
         4        2827        2828        2879        2878
         4        2828        2829        2880        2879
         4        2829        2830        2881        2880
         4        2830        2831        2882        2881
         4        2831        2832        2883        2882
         4        2832        2833        2884        2883
         4        2833        2834        2885        2884
         4        2834        2835        2886        2885
         4        2835        2836        2887        2886
         4        2836        2837        2888        2887
         4        2837        2838        2889        2888
         4        2838        2839        2890        2889
         4        2839        2840        2891        2890
         4        2840        2841        2892        2891
         4        2841        2842        2893        2892
         4        2842        2843        2894        2893
         4        2843        2844        2895        2894
         4        2844        2845        2896        2895
         4        2845        2846        2897        2896
         4        2846        2847        2898        2897
         4        2847        2848        2899        2898
         4        2848        2849        2900        2899
         4        2849        2850        2901        2900
         4        2850        2851        2902        2901
         4        2851        2852        2903        2902
         4        2852        2853        2904        2903
         4        2853        2854        2905        2904
         4        2854        2855        2906        2905
         4        2856        2857        2908        2907
         4        2857        2858        2909        2908
         4        2858        2859        2910        2909
         4        2859        2860        2911        2910
         4        2860        2861        2912        2911
         4        2861        2862        2913        2912
         4        2862        2863        2914        2913
         4        2863        2864        2915        2914
         4        2864        2865        2916        2915
         4        2865        2866        2917        2916
         4        2866        2867        2918        2917
         4        2867        2868        2919        2918
         4        2868        2869        2920        2919
         4        2869        2870        2921        2920
         4        2870        2871        2922        2921
         4        2871        2872        2923        2922
         4        2872        2873        2924        2923
         4        2873        2874        2925        2924
         4        2874        2875        2926        2925
         4        2875        2876        2927        2926
         4        2876        2877        2928        2927
         4        2877        2878        2929        2928
         4        2878        2879        2930        2929
         4        2879        2880        2931        2930
         4        2880        2881        2932        2931
         4        2881        2882        2933        2932
         4        2882        2883        2934        2933
         4        2883        2884        2935        2934
         4        2884        2885        2936        2935
         4        2885        2886        2937        2936
         4        2886        2887        2938        2937
         4        2887        2888        2939        2938
         4        2888        2889        2940        2939
         4        2889        2890        2941        2940
         4        2890        2891        2942        2941
         4        2891        2892        2943        2942
         4        2892        2893        2944        2943
         4        2893        2894        2945        2944
         4        2894        2895        2946        2945
         4        2895        2896        2947        2946
         4        2896        2897        2948        2947
         4        2897        2898        2949        2948
         4        2898        2899        2950        2949
         4        2899        2900        2951        2950
         4        2900        2901        2952        2951
         4        2901        2902        2953        2952
         4        2902        2903        2954        2953
         4        2903        2904        2955        2954
         4        2904        2905        2956        2955
         4        2905        2906        2957        2956
         4        2907        2908        2959        2958
         4        2908        2909        2960        2959
         4        2909        2910        2961        2960
         4        2910        2911        2962        2961
         4        2911        2912        2963        2962
         4        2912        2913        2964        2963
         4        2913        2914        2965        2964
         4        2914        2915        2966        2965
         4        2915        2916        2967        2966
         4        2916        2917        2968        2967
         4        2917        2918        2969        2968
         4        2918        2919        2970        2969
         4        2919        2920        2971        2970
         4        2920        2921        2972        2971
         4        2921        2922        2973        2972
         4        2922        2923        2974        2973
         4        2923        2924        2975        2974
         4        2924        2925        2976        2975
         4        2925        2926        2977        2976
         4        2926        2927        2978        2977
         4        2927        2928        2979        2978
         4        2928        2929        2980        2979
         4        2929        2930        2981        2980
         4        2930        2931        2982        2981
         4        2931        2932        2983        2982
         4        2932        2933        2984        2983
         4        2933        2934        2985        2984
         4        2934        2935        2986        2985
         4        2935        2936        2987        2986
         4        2936        2937        2988        2987
         4        2937        2938        2989        2988
         4        2938        2939        2990        2989
         4        2939        2940        2991        2990
         4        2940        2941        2992        2991
         4        2941        2942        2993        2992
         4        2942        2943        2994        2993
         4        2943        2944        2995        2994
         4        2944        2945        2996        2995
         4        2945        2946        2997        2996
         4        2946        2947        2998        2997
         4        2947        2948        2999        2998
         4        2948        2949        3000        2999
         4        2949        2950        3001        3000
         4        2950        2951        3002        3001
         4        2951        2952        3003        3002
         4        2952        2953        3004        3003
         4        2953        2954        3005        3004
         4        2954        2955        3006        3005
         4        2955        2956        3007        3006
         4        2956        2957        3008        3007
         4        2958        2959        3010        3009
         4        2959        2960        3011        3010
         4        2960        2961        3012        3011
         4        2961        2962        3013        3012
         4        2962        2963        3014        3013
         4        2963        2964        3015        3014
         4        2964        2965        3016        3015
         4        2965        2966        3017        3016
         4        2966        2967        3018        3017
         4        2967        2968        3019        3018
         4        2968        2969        3020        3019
         4        2969        2970        3021        3020
         4        2970        2971        3022        3021
         4        2971        2972        3023        3022
         4        2972        2973        3024        3023
         4        2973        2974        3025        3024
         4        2974        2975        3026        3025
         4        2975        2976        3027        3026
         4        2976        2977        3028        3027
         4        2977        2978        3029        3028
         4        2978        2979        3030        3029
         4        2979        2980        3031        3030
         4        2980        2981        3032        3031
         4        2981        2982        3033        3032
         4        2982        2983        3034        3033
         4        2983        2984        3035        3034
         4        2984        2985        3036        3035
         4        2985        2986        3037        3036
         4        2986        2987        3038        3037
         4        2987        2988        3039        3038
         4        2988        2989        3040        3039
         4        2989        2990        3041        3040
         4        2990        2991        3042        3041
         4        2991        2992        3043        3042
         4        2992        2993        3044        3043
         4        2993        2994        3045        3044
         4        2994        2995        3046        3045
         4        2995        2996        3047        3046
         4        2996        2997        3048        3047
         4        2997        2998        3049        3048
         4        2998        2999        3050        3049
         4        2999        3000        3051        3050
         4        3000        3001        3052        3051
         4        3001        3002        3053        3052
         4        3002        3003        3054        3053
         4        3003        3004        3055        3054
         4        3004        3005        3056        3055
         4        3005        3006        3057        3056
         4        3006        3007        3058        3057
         4        3007        3008        3059        3058
         4        3009        3010        3061        3060
         4        3010        3011        3062        3061
         4        3011        3012        3063        3062
         4        3012        3013        3064        3063
         4        3013        3014        3065        3064
         4        3014        3015        3066        3065
         4        3015        3016        3067        3066
         4        3016        3017        3068        3067
         4        3017        3018        3069        3068
         4        3018        3019        3070        3069
         4        3019        3020        3071        3070
         4        3020        3021        3072        3071
         4        3021        3022        3073        3072
         4        3022        3023        3074        3073
         4        3023        3024        3075        3074
         4        3024        3025        3076        3075
         4        3025        3026        3077        3076
         4        3026        3027        3078        3077
         4        3027        3028        3079        3078
         4        3028        3029        3080        3079
         4        3029        3030        3081        3080
         4        3030        3031        3082        3081
         4        3031        3032        3083        3082
         4        3032        3033        3084        3083
         4        3033        3034        3085        3084
         4        3034        3035        3086        3085
         4        3035        3036        3087        3086
         4        3036        3037        3088        3087
         4        3037        3038        3089        3088
         4        3038        3039        3090        3089
         4        3039        3040        3091        3090
         4        3040        3041        3092        3091
         4        3041        3042        3093        3092
         4        3042        3043        3094        3093
         4        3043        3044        3095        3094
         4        3044        3045        3096        3095
         4        3045        3046        3097        3096
         4        3046        3047        3098        3097
         4        3047        3048        3099        3098
         4        3048        3049        3100        3099
         4        3049        3050        3101        3100
         4        3050        3051        3102        3101
         4        3051        3052        3103        3102
         4        3052        3053        3104        3103
         4        3053        3054        3105        3104
         4        3054        3055        3106        3105
         4        3055        3056        3107        3106
         4        3056        3057        3108        3107
         4        3057        3058        3109        3108
         4        3058        3059        3110        3109
         4        3060        3061        3112        3111
         4        3061        3062        3113        3112
         4        3062        3063        3114        3113
         4        3063        3064        3115        3114
         4        3064        3065        3116        3115
         4        3065        3066        3117        3116
         4        3066        3067        3118        3117
         4        3067        3068        3119        3118
         4        3068        3069        3120        3119
         4        3069        3070        3121        3120
         4        3070        3071        3122        3121
         4        3071        3072        3123        3122
         4        3072        3073        3124        3123
         4        3073        3074        3125        3124
         4        3074        3075        3126        3125
         4        3075        3076        3127        3126
         4        3076        3077        3128        3127
         4        3077        3078        3129        3128
         4        3078        3079        3130        3129
         4        3079        3080        3131        3130
         4        3080        3081        3132        3131
         4        3081        3082        3133        3132
         4        3082        3083        3134        3133
         4        3083        3084        3135        3134
         4        3084        3085        3136        3135
         4        3085        3086        3137        3136
         4        3086        3087        3138        3137
         4        3087        3088        3139        3138
         4        3088        3089        3140        3139
         4        3089        3090        3141        3140
         4        3090        3091        3142        3141
         4        3091        3092        3143        3142
         4        3092        3093        3144        3143
         4        3093        3094        3145        3144
         4        3094        3095        3146        3145
         4        3095        3096        3147        3146
         4        3096        3097        3148        3147
         4        3097        3098        3149        3148
         4        3098        3099        3150        3149
         4        3099        3100        3151        3150
         4        3100        3101        3152        3151
         4        3101        3102        3153        3152
         4        3102        3103        3154        3153
         4        3103        3104        3155        3154
         4        3104        3105        3156        3155
         4        3105        3106        3157        3156
         4        3106        3107        3158        3157
         4        3107        3108        3159        3158
         4        3108        3109        3160        3159
         4        3109        3110        3161        3160
         4        3111        3112        3163        3162
         4        3112        3113        3164        3163
         4        3113        3114        3165        3164
         4        3114        3115        3166        3165
         4        3115        3116        3167        3166
         4        3116        3117        3168        3167
         4        3117        3118        3169        3168
         4        3118        3119        3170        3169
         4        3119        3120        3171        3170
         4        3120        3121        3172        3171
         4        3121        3122        3173        3172
         4        3122        3123        3174        3173
         4        3123        3124        3175        3174
         4        3124        3125        3176        3175
         4        3125        3126        3177        3176
         4        3126        3127        3178        3177
         4        3127        3128        3179        3178
         4        3128        3129        3180        3179
         4        3129        3130        3181        3180
         4        3130        3131        3182        3181
         4        3131        3132        3183        3182
         4        3132        3133        3184        3183
         4        3133        3134        3185        3184
         4        3134        3135        3186        3185
         4        3135        3136        3187        3186
         4        3136        3137        3188        3187
         4        3137        3138        3189        3188
         4        3138        3139        3190        3189
         4        3139        3140        3191        3190
         4        3140        3141        3192        3191
         4        3141        3142        3193        3192
         4        3142        3143        3194        3193
         4        3143        3144        3195        3194
         4        3144        3145        3196        3195
         4        3145        3146        3197        3196
         4        3146        3147        3198        3197
         4        3147        3148        3199        3198
         4        3148        3149        3200        3199
         4        3149        3150        3201        3200
         4        3150        3151        3202        3201
         4        3151        3152        3203        3202
         4        3152        3153        3204        3203
         4        3153        3154        3205        3204
         4        3154        3155        3206        3205
         4        3155        3156        3207        3206
         4        3156        3157        3208        3207
         4        3157        3158        3209        3208
         4        3158        3159        3210        3209
         4        3159        3160        3211        3210
         4        3160        3161        3212        3211
         4        3162        3163        3214        3213
         4        3163        3164        3215        3214
         4        3164        3165        3216        3215
         4        3165        3166        3217        3216
         4        3166        3167        3218        3217
         4        3167        3168        3219        3218
         4        3168        3169        3220        3219
         4        3169        3170        3221        3220
         4        3170        3171        3222        3221
         4        3171        3172        3223        3222
         4        3172        3173        3224        3223
         4        3173        3174        3225        3224
         4        3174        3175        3226        3225
         4        3175        3176        3227        3226
         4        3176        3177        3228        3227
         4        3177        3178        3229        3228
         4        3178        3179        3230        3229
         4        3179        3180        3231        3230
         4        3180        3181        3232        3231
         4        3181        3182        3233        3232
         4        3182        3183        3234        3233
         4        3183        3184        3235        3234
         4        3184        3185        3236        3235
         4        3185        3186        3237        3236
         4        3186        3187        3238        3237
         4        3187        3188        3239        3238
         4        3188        3189        3240        3239
         4        3189        3190        3241        3240
         4        3190        3191        3242        3241
         4        3191        3192        3243        3242
         4        3192        3193        3244        3243
         4        3193        3194        3245        3244
         4        3194        3195        3246        3245
         4        3195        3196        3247        3246
         4        3196        3197        3248        3247
         4        3197        3198        3249        3248
         4        3198        3199        3250        3249
         4        3199        3200        3251        3250
         4        3200        3201        3252        3251
         4        3201        3202        3253        3252
         4        3202        3203        3254        3253
         4        3203        3204        3255        3254
         4        3204        3205        3256        3255
         4        3205        3206        3257        3256
         4        3206        3207        3258        3257
         4        3207        3208        3259        3258
         4        3208        3209        3260        3259
         4        3209        3210        3261        3260
         4        3210        3211        3262        3261
         4        3211        3212        3263        3262
         4        3213        3214        3265        3264
         4        3214        3215        3266        3265
         4        3215        3216        3267        3266
         4        3216        3217        3268        3267
         4        3217        3218        3269        3268
         4        3218        3219        3270        3269
         4        3219        3220        3271        3270
         4        3220        3221        3272        3271
         4        3221        3222        3273        3272
         4        3222        3223        3274        3273
         4        3223        3224        3275        3274
         4        3224        3225        3276        3275
         4        3225        3226        3277        3276
         4        3226        3227        3278        3277
         4        3227        3228        3279        3278
         4        3228        3229        3280        3279
         4        3229        3230        3281        3280
         4        3230        3231        3282        3281
         4        3231        3232        3283        3282
         4        3232        3233        3284        3283
         4        3233        3234        3285        3284
         4        3234        3235        3286        3285
         4        3235        3236        3287        3286
         4        3236        3237        3288        3287
         4        3237        3238        3289        3288
         4        3238        3239        3290        3289
         4        3239        3240        3291        3290
         4        3240        3241        3292        3291
         4        3241        3242        3293        3292
         4        3242        3243        3294        3293
         4        3243        3244        3295        3294
         4        3244        3245        3296        3295
         4        3245        3246        3297        3296
         4        3246        3247        3298        3297
         4        3247        3248        3299        3298
         4        3248        3249        3300        3299
         4        3249        3250        3301        3300
         4        3250        3251        3302        3301
         4        3251        3252        3303        3302
         4        3252        3253        3304        3303
         4        3253        3254        3305        3304
         4        3254        3255        3306        3305
         4        3255        3256        3307        3306
         4        3256        3257        3308        3307
         4        3257        3258        3309        3308
         4        3258        3259        3310        3309
         4        3259        3260        3311        3310
         4        3260        3261        3312        3311
         4        3261        3262        3313        3312
         4        3262        3263        3314        3313
         4        3264        3265        3316        3315
         4        3265        3266        3317        3316
         4        3266        3267        3318        3317
         4        3267        3268        3319        3318
         4        3268        3269        3320        3319
         4        3269        3270        3321        3320
         4        3270        3271        3322        3321
         4        3271        3272        3323        3322
         4        3272        3273        3324        3323
         4        3273        3274        3325        3324
         4        3274        3275        3326        3325
         4        3275        3276        3327        3326
         4        3276        3277        3328        3327
         4        3277        3278        3329        3328
         4        3278        3279        3330        3329
         4        3279        3280        3331        3330
         4        3280        3281        3332        3331
         4        3281        3282        3333        3332
         4        3282        3283        3334        3333
         4        3283        3284        3335        3334
         4        3284        3285        3336        3335
         4        3285        3286        3337        3336
         4        3286        3287        3338        3337
         4        3287        3288        3339        3338
         4        3288        3289        3340        3339
         4        3289        3290        3341        3340
         4        3290        3291        3342        3341
         4        3291        3292        3343        3342
         4        3292        3293        3344        3343
         4        3293        3294        3345        3344
         4        3294        3295        3346        3345
         4        3295        3296        3347        3346
         4        3296        3297        3348        3347
         4        3297        3298        3349        3348
         4        3298        3299        3350        3349
         4        3299        3300        3351        3350
         4        3300        3301        3352        3351
         4        3301        3302        3353        3352
         4        3302        3303        3354        3353
         4        3303        3304        3355        3354
         4        3304        3305        3356        3355
         4        3305        3306        3357        3356
         4        3306        3307        3358        3357
         4        3307        3308        3359        3358
         4        3308        3309        3360        3359
         4        3309        3310        3361        3360
         4        3310        3311        3362        3361
         4        3311        3312        3363        3362
         4        3312        3313        3364        3363
         4        3313        3314        3365        3364
         4        3315        3316        3367        3366
         4        3316        3317        3368        3367
         4        3317        3318        3369        3368
         4        3318        3319        3370        3369
         4        3319        3320        3371        3370
         4        3320        3321        3372        3371
         4        3321        3322        3373        3372
         4        3322        3323        3374        3373
         4        3323        3324        3375        3374
         4        3324        3325        3376        3375
         4        3325        3326        3377        3376
         4        3326        3327        3378        3377
         4        3327        3328        3379        3378
         4        3328        3329        3380        3379
         4        3329        3330        3381        3380
         4        3330        3331        3382        3381
         4        3331        3332        3383        3382
         4        3332        3333        3384        3383
         4        3333        3334        3385        3384
         4        3334        3335        3386        3385
         4        3335        3336        3387        3386
         4        3336        3337        3388        3387
         4        3337        3338        3389        3388
         4        3338        3339        3390        3389
         4        3339        3340        3391        3390
         4        3340        3341        3392        3391
         4        3341        3342        3393        3392
         4        3342        3343        3394        3393
         4        3343        3344        3395        3394
         4        3344        3345        3396        3395
         4        3345        3346        3397        3396
         4        3346        3347        3398        3397
         4        3347        3348        3399        3398
         4        3348        3349        3400        3399
         4        3349        3350        3401        3400
         4        3350        3351        3402        3401
         4        3351        3352        3403        3402
         4        3352        3353        3404        3403
         4        3353        3354        3405        3404
         4        3354        3355        3406        3405
         4        3355        3356        3407        3406
         4        3356        3357        3408        3407
         4        3357        3358        3409        3408
         4        3358        3359        3410        3409
         4        3359        3360        3411        3410
         4        3360        3361        3412        3411
         4        3361        3362        3413        3412
         4        3362        3363        3414        3413
         4        3363        3364        3415        3414
         4        3364        3365        3416        3415
         4        3366        3367        3418        3417
         4        3367        3368        3419        3418
         4        3368        3369        3420        3419
         4        3369        3370        3421        3420
         4        3370        3371        3422        3421
         4        3371        3372        3423        3422
         4        3372        3373        3424        3423
         4        3373        3374        3425        3424
         4        3374        3375        3426        3425
         4        3375        3376        3427        3426
         4        3376        3377        3428        3427
         4        3377        3378        3429        3428
         4        3378        3379        3430        3429
         4        3379        3380        3431        3430
         4        3380        3381        3432        3431
         4        3381        3382        3433        3432
         4        3382        3383        3434        3433
         4        3383        3384        3435        3434
         4        3384        3385        3436        3435
         4        3385        3386        3437        3436
         4        3386        3387        3438        3437
         4        3387        3388        3439        3438
         4        3388        3389        3440        3439
         4        3389        3390        3441        3440
         4        3390        3391        3442        3441
         4        3391        3392        3443        3442
         4        3392        3393        3444        3443
         4        3393        3394        3445        3444
         4        3394        3395        3446        3445
         4        3395        3396        3447        3446
         4        3396        3397        3448        3447
         4        3397        3398        3449        3448
         4        3398        3399        3450        3449
         4        3399        3400        3451        3450
         4        3400        3401        3452        3451
         4        3401        3402        3453        3452
         4        3402        3403        3454        3453
         4        3403        3404        3455        3454
         4        3404        3405        3456        3455
         4        3405        3406        3457        3456
         4        3406        3407        3458        3457
         4        3407        3408        3459        3458
         4        3408        3409        3460        3459
         4        3409        3410        3461        3460
         4        3410        3411        3462        3461
         4        3411        3412        3463        3462
         4        3412        3413        3464        3463
         4        3413        3414        3465        3464
         4        3414        3415        3466        3465
         4        3415        3416        3467        3466
         4        3417        3418        3469        3468
         4        3418        3419        3470        3469
         4        3419        3420        3471        3470
         4        3420        3421        3472        3471
         4        3421        3422        3473        3472
         4        3422        3423        3474        3473
         4        3423        3424        3475        3474
         4        3424        3425        3476        3475
         4        3425        3426        3477        3476
         4        3426        3427        3478        3477
         4        3427        3428        3479        3478
         4        3428        3429        3480        3479
         4        3429        3430        3481        3480
         4        3430        3431        3482        3481
         4        3431        3432        3483        3482
         4        3432        3433        3484        3483
         4        3433        3434        3485        3484
         4        3434        3435        3486        3485
         4        3435        3436        3487        3486
         4        3436        3437        3488        3487
         4        3437        3438        3489        3488
         4        3438        3439        3490        3489
         4        3439        3440        3491        3490
         4        3440        3441        3492        3491
         4        3441        3442        3493        3492
         4        3442        3443        3494        3493
         4        3443        3444        3495        3494
         4        3444        3445        3496        3495
         4        3445        3446        3497        3496
         4        3446        3447        3498        3497
         4        3447        3448        3499        3498
         4        3448        3449        3500        3499
         4        3449        3450        3501        3500
         4        3450        3451        3502        3501
         4        3451        3452        3503        3502
         4        3452        3453        3504        3503
         4        3453        3454        3505        3504
         4        3454        3455        3506        3505
         4        3455        3456        3507        3506
         4        3456        3457        3508        3507
         4        3457        3458        3509        3508
         4        3458        3459        3510        3509
         4        3459        3460        3511        3510
         4        3460        3461        3512        3511
         4        3461        3462        3513        3512
         4        3462        3463        3514        3513
         4        3463        3464        3515        3514
         4        3464        3465        3516        3515
         4        3465        3466        3517        3516
         4        3466        3467        3518        3517
         4        3468        3469        3520        3519
         4        3469        3470        3521        3520
         4        3470        3471        3522        3521
         4        3471        3472        3523        3522
         4        3472        3473        3524        3523
         4        3473        3474        3525        3524
         4        3474        3475        3526        3525
         4        3475        3476        3527        3526
         4        3476        3477        3528        3527
         4        3477        3478        3529        3528
         4        3478        3479        3530        3529
         4        3479        3480        3531        3530
         4        3480        3481        3532        3531
         4        3481        3482        3533        3532
         4        3482        3483        3534        3533
         4        3483        3484        3535        3534
         4        3484        3485        3536        3535
         4        3485        3486        3537        3536
         4        3486        3487        3538        3537
         4        3487        3488        3539        3538
         4        3488        3489        3540        3539
         4        3489        3490        3541        3540
         4        3490        3491        3542        3541
         4        3491        3492        3543        3542
         4        3492        3493        3544        3543
         4        3493        3494        3545        3544
         4        3494        3495        3546        3545
         4        3495        3496        3547        3546
         4        3496        3497        3548        3547
         4        3497        3498        3549        3548
         4        3498        3499        3550        3549
         4        3499        3500        3551        3550
         4        3500        3501        3552        3551
         4        3501        3502        3553        3552
         4        3502        3503        3554        3553
         4        3503        3504        3555        3554
         4        3504        3505        3556        3555
         4        3505        3506        3557        3556
         4        3506        3507        3558        3557
         4        3507        3508        3559        3558
         4        3508        3509        3560        3559
         4        3509        3510        3561        3560
         4        3510        3511        3562        3561
         4        3511        3512        3563        3562
         4        3512        3513        3564        3563
         4        3513        3514        3565        3564
         4        3514        3515        3566        3565
         4        3515        3516        3567        3566
         4        3516        3517        3568        3567
         4        3517        3518        3569        3568
         4        3519        3520        3571        3570
         4        3520        3521        3572        3571
         4        3521        3522        3573        3572
         4        3522        3523        3574        3573
         4        3523        3524        3575        3574
         4        3524        3525        3576        3575
         4        3525        3526        3577        3576
         4        3526        3527        3578        3577
         4        3527        3528        3579        3578
         4        3528        3529        3580        3579
         4        3529        3530        3581        3580
         4        3530        3531        3582        3581
         4        3531        3532        3583        3582
         4        3532        3533        3584        3583
         4        3533        3534        3585        3584
         4        3534        3535        3586        3585
         4        3535        3536        3587        3586
         4        3536        3537        3588        3587
         4        3537        3538        3589        3588
         4        3538        3539        3590        3589
         4        3539        3540        3591        3590
         4        3540        3541        3592        3591
         4        3541        3542        3593        3592
         4        3542        3543        3594        3593
         4        3543        3544        3595        3594
         4        3544        3545        3596        3595
         4        3545        3546        3597        3596
         4        3546        3547        3598        3597
         4        3547        3548        3599        3598
         4        3548        3549        3600        3599
         4        3549        3550        3601        3600
         4        3550        3551        3602        3601
         4        3551        3552        3603        3602
         4        3552        3553        3604        3603
         4        3553        3554        3605        3604
         4        3554        3555        3606        3605
         4        3555        3556        3607        3606
         4        3556        3557        3608        3607
         4        3557        3558        3609        3608
         4        3558        3559        3610        3609
         4        3559        3560        3611        3610
         4        3560        3561        3612        3611
         4        3561        3562        3613        3612
         4        3562        3563        3614        3613
         4        3563        3564        3615        3614
         4        3564        3565        3616        3615
         4        3565        3566        3617        3616
         4        3566        3567        3618        3617
         4        3567        3568        3619        3618
         4        3568        3569        3620        3619
         4        3570        3571        3622        3621
         4        3571        3572        3623        3622
         4        3572        3573        3624        3623
         4        3573        3574        3625        3624
         4        3574        3575        3626        3625
         4        3575        3576        3627        3626
         4        3576        3577        3628        3627
         4        3577        3578        3629        3628
         4        3578        3579        3630        3629
         4        3579        3580        3631        3630
         4        3580        3581        3632        3631
         4        3581        3582        3633        3632
         4        3582        3583        3634        3633
         4        3583        3584        3635        3634
         4        3584        3585        3636        3635
         4        3585        3586        3637        3636
         4        3586        3587        3638        3637
         4        3587        3588        3639        3638
         4        3588        3589        3640        3639
         4        3589        3590        3641        3640
         4        3590        3591        3642        3641
         4        3591        3592        3643        3642
         4        3592        3593        3644        3643
         4        3593        3594        3645        3644
         4        3594        3595        3646        3645
         4        3595        3596        3647        3646
         4        3596        3597        3648        3647
         4        3597        3598        3649        3648
         4        3598        3599        3650        3649
         4        3599        3600        3651        3650
         4        3600        3601        3652        3651
         4        3601        3602        3653        3652
         4        3602        3603        3654        3653
         4        3603        3604        3655        3654
         4        3604        3605        3656        3655
         4        3605        3606        3657        3656
         4        3606        3607        3658        3657
         4        3607        3608        3659        3658
         4        3608        3609        3660        3659
         4        3609        3610        3661        3660
         4        3610        3611        3662        3661
         4        3611        3612        3663        3662
         4        3612        3613        3664        3663
         4        3613        3614        3665        3664
         4        3614        3615        3666        3665
         4        3615        3616        3667        3666
         4        3616        3617        3668        3667
         4        3617        3618        3669        3668
         4        3618        3619        3670        3669
         4        3619        3620        3671        3670
         4        3621        3622        3673        3672
         4        3622        3623        3674        3673
         4        3623        3624        3675        3674
         4        3624        3625        3676        3675
         4        3625        3626        3677        3676
         4        3626        3627        3678        3677
         4        3627        3628        3679        3678
         4        3628        3629        3680        3679
         4        3629        3630        3681        3680
         4        3630        3631        3682        3681
         4        3631        3632        3683        3682
         4        3632        3633        3684        3683
         4        3633        3634        3685        3684
         4        3634        3635        3686        3685
         4        3635        3636        3687        3686
         4        3636        3637        3688        3687
         4        3637        3638        3689        3688
         4        3638        3639        3690        3689
         4        3639        3640        3691        3690
         4        3640        3641        3692        3691
         4        3641        3642        3693        3692
         4        3642        3643        3694        3693
         4        3643        3644        3695        3694
         4        3644        3645        3696        3695
         4        3645        3646        3697        3696
         4        3646        3647        3698        3697
         4        3647        3648        3699        3698
         4        3648        3649        3700        3699
         4        3649        3650        3701        3700
         4        3650        3651        3702        3701
         4        3651        3652        3703        3702
         4        3652        3653        3704        3703
         4        3653        3654        3705        3704
         4        3654        3655        3706        3705
         4        3655        3656        3707        3706
         4        3656        3657        3708        3707
         4        3657        3658        3709        3708
         4        3658        3659        3710        3709
         4        3659        3660        3711        3710
         4        3660        3661        3712        3711
         4        3661        3662        3713        3712
         4        3662        3663        3714        3713
         4        3663        3664        3715        3714
         4        3664        3665        3716        3715
         4        3665        3666        3717        3716
         4        3666        3667        3718        3717
         4        3667        3668        3719        3718
         4        3668        3669        3720        3719
         4        3669        3670        3721        3720
         4        3670        3671        3722        3721
         4        3672        3673        3724        3723
         4        3673        3674        3725        3724
         4        3674        3675        3726        3725
         4        3675        3676        3727        3726
         4        3676        3677        3728        3727
         4        3677        3678        3729        3728
         4        3678        3679        3730        3729
         4        3679        3680        3731        3730
         4        3680        3681        3732        3731
         4        3681        3682        3733        3732
         4        3682        3683        3734        3733
         4        3683        3684        3735        3734
         4        3684        3685        3736        3735
         4        3685        3686        3737        3736
         4        3686        3687        3738        3737
         4        3687        3688        3739        3738
         4        3688        3689        3740        3739
         4        3689        3690        3741        3740
         4        3690        3691        3742        3741
         4        3691        3692        3743        3742
         4        3692        3693        3744        3743
         4        3693        3694        3745        3744
         4        3694        3695        3746        3745
         4        3695        3696        3747        3746
         4        3696        3697        3748        3747
         4        3697        3698        3749        3748
         4        3698        3699        3750        3749
         4        3699        3700        3751        3750
         4        3700        3701        3752        3751
         4        3701        3702        3753        3752
         4        3702        3703        3754        3753
         4        3703        3704        3755        3754
         4        3704        3705        3756        3755
         4        3705        3706        3757        3756
         4        3706        3707        3758        3757
         4        3707        3708        3759        3758
         4        3708        3709        3760        3759
         4        3709        3710        3761        3760
         4        3710        3711        3762        3761
         4        3711        3712        3763        3762
         4        3712        3713        3764        3763
         4        3713        3714        3765        3764
         4        3714        3715        3766        3765
         4        3715        3716        3767        3766
         4        3716        3717        3768        3767
         4        3717        3718        3769        3768
         4        3718        3719        3770        3769
         4        3719        3720        3771        3770
         4        3720        3721        3772        3771
         4        3721        3722        3773        3772
         4        3723        3724        3775        3774
         4        3724        3725        3776        3775
         4        3725        3726        3777        3776
         4        3726        3727        3778        3777
         4        3727        3728        3779        3778
         4        3728        3729        3780        3779
         4        3729        3730        3781        3780
         4        3730        3731        3782        3781
         4        3731        3732        3783        3782
         4        3732        3733        3784        3783
         4        3733        3734        3785        3784
         4        3734        3735        3786        3785
         4        3735        3736        3787        3786
         4        3736        3737        3788        3787
         4        3737        3738        3789        3788
         4        3738        3739        3790        3789
         4        3739        3740        3791        3790
         4        3740        3741        3792        3791
         4        3741        3742        3793        3792
         4        3742        3743        3794        3793
         4        3743        3744        3795        3794
         4        3744        3745        3796        3795
         4        3745        3746        3797        3796
         4        3746        3747        3798        3797
         4        3747        3748        3799        3798
         4        3748        3749        3800        3799
         4        3749        3750        3801        3800
         4        3750        3751        3802        3801
         4        3751        3752        3803        3802
         4        3752        3753        3804        3803
         4        3753        3754        3805        3804
         4        3754        3755        3806        3805
         4        3755        3756        3807        3806
         4        3756        3757        3808        3807
         4        3757        3758        3809        3808
         4        3758        3759        3810        3809
         4        3759        3760        3811        3810
         4        3760        3761        3812        3811
         4        3761        3762        3813        3812
         4        3762        3763        3814        3813
         4        3763        3764        3815        3814
         4        3764        3765        3816        3815
         4        3765        3766        3817        3816
         4        3766        3767        3818        3817
         4        3767        3768        3819        3818
         4        3768        3769        3820        3819
         4        3769        3770        3821        3820
         4        3770        3771        3822        3821
         4        3771        3772        3823        3822
         4        3772        3773        3824        3823
         4        3774        3775        3826        3825
         4        3775        3776        3827        3826
         4        3776        3777        3828        3827
         4        3777        3778        3829        3828
         4        3778        3779        3830        3829
         4        3779        3780        3831        3830
         4        3780        3781        3832        3831
         4        3781        3782        3833        3832
         4        3782        3783        3834        3833
         4        3783        3784        3835        3834
         4        3784        3785        3836        3835
         4        3785        3786        3837        3836
         4        3786        3787        3838        3837
         4        3787        3788        3839        3838
         4        3788        3789        3840        3839
         4        3789        3790        3841        3840
         4        3790        3791        3842        3841
         4        3791        3792        3843        3842
         4        3792        3793        3844        3843
         4        3793        3794        3845        3844
         4        3794        3795        3846        3845
         4        3795        3796        3847        3846
         4        3796        3797        3848        3847
         4        3797        3798        3849        3848
         4        3798        3799        3850        3849
         4        3799        3800        3851        3850
         4        3800        3801        3852        3851
         4        3801        3802        3853        3852
         4        3802        3803        3854        3853
         4        3803        3804        3855        3854
         4        3804        3805        3856        3855
         4        3805        3806        3857        3856
         4        3806        3807        3858        3857
         4        3807        3808        3859        3858
         4        3808        3809        3860        3859
         4        3809        3810        3861        3860
         4        3810        3811        3862        3861
         4        3811        3812        3863        3862
         4        3812        3813        3864        3863
         4        3813        3814        3865        3864
         4        3814        3815        3866        3865
         4        3815        3816        3867        3866
         4        3816        3817        3868        3867
         4        3817        3818        3869        3868
         4        3818        3819        3870        3869
         4        3819        3820        3871        3870
         4        3820        3821        3872        3871
         4        3821        3822        3873        3872
         4        3822        3823        3874        3873
         4        3823        3824        3875        3874
         4        3825        3826        3877        3876
         4        3826        3827        3878        3877
         4        3827        3828        3879        3878
         4        3828        3829        3880        3879
         4        3829        3830        3881        3880
         4        3830        3831        3882        3881
         4        3831        3832        3883        3882
         4        3832        3833        3884        3883
         4        3833        3834        3885        3884
         4        3834        3835        3886        3885
         4        3835        3836        3887        3886
         4        3836        3837        3888        3887
         4        3837        3838        3889        3888
         4        3838        3839        3890        3889
         4        3839        3840        3891        3890
         4        3840        3841        3892        3891
         4        3841        3842        3893        3892
         4        3842        3843        3894        3893
         4        3843        3844        3895        3894
         4        3844        3845        3896        3895
         4        3845        3846        3897        3896
         4        3846        3847        3898        3897
         4        3847        3848        3899        3898
         4        3848        3849        3900        3899
         4        3849        3850        3901        3900
         4        3850        3851        3902        3901
         4        3851        3852        3903        3902
         4        3852        3853        3904        3903
         4        3853        3854        3905        3904
         4        3854        3855        3906        3905
         4        3855        3856        3907        3906
         4        3856        3857        3908        3907
         4        3857        3858        3909        3908
         4        3858        3859        3910        3909
         4        3859        3860        3911        3910
         4        3860        3861        3912        3911
         4        3861        3862        3913        3912
         4        3862        3863        3914        3913
         4        3863        3864        3915        3914
         4        3864        3865        3916        3915
         4        3865        3866        3917        3916
         4        3866        3867        3918        3917
         4        3867        3868        3919        3918
         4        3868        3869        3920        3919
         4        3869        3870        3921        3920
         4        3870        3871        3922        3921
         4        3871        3872        3923        3922
         4        3872        3873        3924        3923
         4        3873        3874        3925        3924
         4        3874        3875        3926        3925
         4        3876        3877        3928        3927
         4        3877        3878        3929        3928
         4        3878        3879        3930        3929
         4        3879        3880        3931        3930
         4        3880        3881        3932        3931
         4        3881        3882        3933        3932
         4        3882        3883        3934        3933
         4        3883        3884        3935        3934
         4        3884        3885        3936        3935
         4        3885        3886        3937        3936
         4        3886        3887        3938        3937
         4        3887        3888        3939        3938
         4        3888        3889        3940        3939
         4        3889        3890        3941        3940
         4        3890        3891        3942        3941
         4        3891        3892        3943        3942
         4        3892        3893        3944        3943
         4        3893        3894        3945        3944
         4        3894        3895        3946        3945
         4        3895        3896        3947        3946
         4        3896        3897        3948        3947
         4        3897        3898        3949        3948
         4        3898        3899        3950        3949
         4        3899        3900        3951        3950
         4        3900        3901        3952        3951
         4        3901        3902        3953        3952
         4        3902        3903        3954        3953
         4        3903        3904        3955        3954
         4        3904        3905        3956        3955
         4        3905        3906        3957        3956
         4        3906        3907        3958        3957
         4        3907        3908        3959        3958
         4        3908        3909        3960        3959
         4        3909        3910        3961        3960
         4        3910        3911        3962        3961
         4        3911        3912        3963        3962
         4        3912        3913        3964        3963
         4        3913        3914        3965        3964
         4        3914        3915        3966        3965
         4        3915        3916        3967        3966
         4        3916        3917        3968        3967
         4        3917        3918        3969        3968
         4        3918        3919        3970        3969
         4        3919        3920        3971        3970
         4        3920        3921        3972        3971
         4        3921        3922        3973        3972
         4        3922        3923        3974        3973
         4        3923        3924        3975        3974
         4        3924        3925        3976        3975
         4        3925        3926        3977        3976
         4        3927        3928        3979        3978
         4        3928        3929        3980        3979
         4        3929        3930        3981        3980
         4        3930        3931        3982        3981
         4        3931        3932        3983        3982
         4        3932        3933        3984        3983
         4        3933        3934        3985        3984
         4        3934        3935        3986        3985
         4        3935        3936        3987        3986
         4        3936        3937        3988        3987
         4        3937        3938        3989        3988
         4        3938        3939        3990        3989
         4        3939        3940        3991        3990
         4        3940        3941        3992        3991
         4        3941        3942        3993        3992
         4        3942        3943        3994        3993
         4        3943        3944        3995        3994
         4        3944        3945        3996        3995
         4        3945        3946        3997        3996
         4        3946        3947        3998        3997
         4        3947        3948        3999        3998
         4        3948        3949        4000        3999
         4        3949        3950        4001        4000
         4        3950        3951        4002        4001
         4        3951        3952        4003        4002
         4        3952        3953        4004        4003
         4        3953        3954        4005        4004
         4        3954        3955        4006        4005
         4        3955        3956        4007        4006
         4        3956        3957        4008        4007
         4        3957        3958        4009        4008
         4        3958        3959        4010        4009
         4        3959        3960        4011        4010
         4        3960        3961        4012        4011
         4        3961        3962        4013        4012
         4        3962        3963        4014        4013
         4        3963        3964        4015        4014
         4        3964        3965        4016        4015
         4        3965        3966        4017        4016
         4        3966        3967        4018        4017
         4        3967        3968        4019        4018
         4        3968        3969        4020        4019
         4        3969        3970        4021        4020
         4        3970        3971        4022        4021
         4        3971        3972        4023        4022
         4        3972        3973        4024        4023
         4        3973        3974        4025        4024
         4        3974        3975        4026        4025
         4        3975        3976        4027        4026
         4        3976        3977        4028        4027
         4        3978        3979        4030        4029
         4        3979        3980        4031        4030
         4        3980        3981        4032        4031
         4        3981        3982        4033        4032
         4        3982        3983        4034        4033
         4        3983        3984        4035        4034
         4        3984        3985        4036        4035
         4        3985        3986        4037        4036
         4        3986        3987        4038        4037
         4        3987        3988        4039        4038
         4        3988        3989        4040        4039
         4        3989        3990        4041        4040
         4        3990        3991        4042        4041
         4        3991        3992        4043        4042
         4        3992        3993        4044        4043
         4        3993        3994        4045        4044
         4        3994        3995        4046        4045
         4        3995        3996        4047        4046
         4        3996        3997        4048        4047
         4        3997        3998        4049        4048
         4        3998        3999        4050        4049
         4        3999        4000        4051        4050
         4        4000        4001        4052        4051
         4        4001        4002        4053        4052
         4        4002        4003        4054        4053
         4        4003        4004        4055        4054
         4        4004        4005        4056        4055
         4        4005        4006        4057        4056
         4        4006        4007        4058        4057
         4        4007        4008        4059        4058
         4        4008        4009        4060        4059
         4        4009        4010        4061        4060
         4        4010        4011        4062        4061
         4        4011        4012        4063        4062
         4        4012        4013        4064        4063
         4        4013        4014        4065        4064
         4        4014        4015        4066        4065
         4        4015        4016        4067        4066
         4        4016        4017        4068        4067
         4        4017        4018        4069        4068
         4        4018        4019        4070        4069
         4        4019        4020        4071        4070
         4        4020        4021        4072        4071
         4        4021        4022        4073        4072
         4        4022        4023        4074        4073
         4        4023        4024        4075        4074
         4        4024        4025        4076        4075
         4        4025        4026        4077        4076
         4        4026        4027        4078        4077
         4        4027        4028        4079        4078
         4        4029        4030        4081        4080
         4        4030        4031        4082        4081
         4        4031        4032        4083        4082
         4        4032        4033        4084        4083
         4        4033        4034        4085        4084
         4        4034        4035        4086        4085
         4        4035        4036        4087        4086
         4        4036        4037        4088        4087
         4        4037        4038        4089        4088
         4        4038        4039        4090        4089
         4        4039        4040        4091        4090
         4        4040        4041        4092        4091
         4        4041        4042        4093        4092
         4        4042        4043        4094        4093
         4        4043        4044        4095        4094
         4        4044        4045        4096        4095
         4        4045        4046        4097        4096
         4        4046        4047        4098        4097
         4        4047        4048        4099        4098
         4        4048        4049        4100        4099
         4        4049        4050        4101        4100
         4        4050        4051        4102        4101
         4        4051        4052        4103        4102
         4        4052        4053        4104        4103
         4        4053        4054        4105        4104
         4        4054        4055        4106        4105
         4        4055        4056        4107        4106
         4        4056        4057        4108        4107
         4        4057        4058        4109        4108
         4        4058        4059        4110        4109
         4        4059        4060        4111        4110
         4        4060        4061        4112        4111
         4        4061        4062        4113        4112
         4        4062        4063        4114        4113
         4        4063        4064        4115        4114
         4        4064        4065        4116        4115
         4        4065        4066        4117        4116
         4        4066        4067        4118        4117
         4        4067        4068        4119        4118
         4        4068        4069        4120        4119
         4        4069        4070        4121        4120
         4        4070        4071        4122        4121
         4        4071        4072        4123        4122
         4        4072        4073        4124        4123
         4        4073        4074        4125        4124
         4        4074        4075        4126        4125
         4        4075        4076        4127        4126
         4        4076        4077        4128        4127
         4        4077        4078        4129        4128
         4        4078        4079        4130        4129
         4        4080        4081        4132        4131
         4        4081        4082        4133        4132
         4        4082        4083        4134        4133
         4        4083        4084        4135        4134
         4        4084        4085        4136        4135
         4        4085        4086        4137        4136
         4        4086        4087        4138        4137
         4        4087        4088        4139        4138
         4        4088        4089        4140        4139
         4        4089        4090        4141        4140
         4        4090        4091        4142        4141
         4        4091        4092        4143        4142
         4        4092        4093        4144        4143
         4        4093        4094        4145        4144
         4        4094        4095        4146        4145
         4        4095        4096        4147        4146
         4        4096        4097        4148        4147
         4        4097        4098        4149        4148
         4        4098        4099        4150        4149
         4        4099        4100        4151        4150
         4        4100        4101        4152        4151
         4        4101        4102        4153        4152
         4        4102        4103        4154        4153
         4        4103        4104        4155        4154
         4        4104        4105        4156        4155
         4        4105        4106        4157        4156
         4        4106        4107        4158        4157
         4        4107        4108        4159        4158
         4        4108        4109        4160        4159
         4        4109        4110        4161        4160
         4        4110        4111        4162        4161
         4        4111        4112        4163        4162
         4        4112        4113        4164        4163
         4        4113        4114        4165        4164
         4        4114        4115        4166        4165
         4        4115        4116        4167        4166
         4        4116        4117        4168        4167
         4        4117        4118        4169        4168
         4        4118        4119        4170        4169
         4        4119        4120        4171        4170
         4        4120        4121        4172        4171
         4        4121        4122        4173        4172
         4        4122        4123        4174        4173
         4        4123        4124        4175        4174
         4        4124        4125        4176        4175
         4        4125        4126        4177        4176
         4        4126        4127        4178        4177
         4        4127        4128        4179        4178
         4        4128        4129        4180        4179
         4        4129        4130        4181        4180
         4        4131        4132        4183        4182
         4        4132        4133        4184        4183
         4        4133        4134        4185        4184
         4        4134        4135        4186        4185
         4        4135        4136        4187        4186
         4        4136        4137        4188        4187
         4        4137        4138        4189        4188
         4        4138        4139        4190        4189
         4        4139        4140        4191        4190
         4        4140        4141        4192        4191
         4        4141        4142        4193        4192
         4        4142        4143        4194        4193
         4        4143        4144        4195        4194
         4        4144        4145        4196        4195
         4        4145        4146        4197        4196
         4        4146        4147        4198        4197
         4        4147        4148        4199        4198
         4        4148        4149        4200        4199
         4        4149        4150        4201        4200
         4        4150        4151        4202        4201
         4        4151        4152        4203        4202
         4        4152        4153        4204        4203
         4        4153        4154        4205        4204
         4        4154        4155        4206        4205
         4        4155        4156        4207        4206
         4        4156        4157        4208        4207
         4        4157        4158        4209        4208
         4        4158        4159        4210        4209
         4        4159        4160        4211        4210
         4        4160        4161        4212        4211
         4        4161        4162        4213        4212
         4        4162        4163        4214        4213
         4        4163        4164        4215        4214
         4        4164        4165        4216        4215
         4        4165        4166        4217        4216
         4        4166        4167        4218        4217
         4        4167        4168        4219        4218
         4        4168        4169        4220        4219
         4        4169        4170        4221        4220
         4        4170        4171        4222        4221
         4        4171        4172        4223        4222
         4        4172        4173        4224        4223
         4        4173        4174        4225        4224
         4        4174        4175        4226        4225
         4        4175        4176        4227        4226
         4        4176        4177        4228        4227
         4        4177        4178        4229        4228
         4        4178        4179        4230        4229
         4        4179        4180        4231        4230
         4        4180        4181        4232        4231
         4        4182        4183        4234        4233
         4        4183        4184        4235        4234
         4        4184        4185        4236        4235
         4        4185        4186        4237        4236
         4        4186        4187        4238        4237
         4        4187        4188        4239        4238
         4        4188        4189        4240        4239
         4        4189        4190        4241        4240
         4        4190        4191        4242        4241
         4        4191        4192        4243        4242
         4        4192        4193        4244        4243
         4        4193        4194        4245        4244
         4        4194        4195        4246        4245
         4        4195        4196        4247        4246
         4        4196        4197        4248        4247
         4        4197        4198        4249        4248
         4        4198        4199        4250        4249
         4        4199        4200        4251        4250
         4        4200        4201        4252        4251
         4        4201        4202        4253        4252
         4        4202        4203        4254        4253
         4        4203        4204        4255        4254
         4        4204        4205        4256        4255
         4        4205        4206        4257        4256
         4        4206        4207        4258        4257
         4        4207        4208        4259        4258
         4        4208        4209        4260        4259
         4        4209        4210        4261        4260
         4        4210        4211        4262        4261
         4        4211        4212        4263        4262
         4        4212        4213        4264        4263
         4        4213        4214        4265        4264
         4        4214        4215        4266        4265
         4        4215        4216        4267        4266
         4        4216        4217        4268        4267
         4        4217        4218        4269        4268
         4        4218        4219        4270        4269
         4        4219        4220        4271        4270
         4        4220        4221        4272        4271
         4        4221        4222        4273        4272
         4        4222        4223        4274        4273
         4        4223        4224        4275        4274
         4        4224        4225        4276        4275
         4        4225        4226        4277        4276
         4        4226        4227        4278        4277
         4        4227        4228        4279        4278
         4        4228        4229        4280        4279
         4        4229        4230        4281        4280
         4        4230        4231        4282        4281
         4        4231        4232        4283        4282
         4        4233        4234        4285        4284
         4        4234        4235        4286        4285
         4        4235        4236        4287        4286
         4        4236        4237        4288        4287
         4        4237        4238        4289        4288
         4        4238        4239        4290        4289
         4        4239        4240        4291        4290
         4        4240        4241        4292        4291
         4        4241        4242        4293        4292
         4        4242        4243        4294        4293
         4        4243        4244        4295        4294
         4        4244        4245        4296        4295
         4        4245        4246        4297        4296
         4        4246        4247        4298        4297
         4        4247        4248        4299        4298
         4        4248        4249        4300        4299
         4        4249        4250        4301        4300
         4        4250        4251        4302        4301
         4        4251        4252        4303        4302
         4        4252        4253        4304        4303
         4        4253        4254        4305        4304
         4        4254        4255        4306        4305
         4        4255        4256        4307        4306
         4        4256        4257        4308        4307
         4        4257        4258        4309        4308
         4        4258        4259        4310        4309
         4        4259        4260        4311        4310
         4        4260        4261        4312        4311
         4        4261        4262        4313        4312
         4        4262        4263        4314        4313
         4        4263        4264        4315        4314
         4        4264        4265        4316        4315
         4        4265        4266        4317        4316
         4        4266        4267        4318        4317
         4        4267        4268        4319        4318
         4        4268        4269        4320        4319
         4        4269        4270        4321        4320
         4        4270        4271        4322        4321
         4        4271        4272        4323        4322
         4        4272        4273        4324        4323
         4        4273        4274        4325        4324
         4        4274        4275        4326        4325
         4        4275        4276        4327        4326
         4        4276        4277        4328        4327
         4        4277        4278        4329        4328
         4        4278        4279        4330        4329
         4        4279        4280        4331        4330
         4        4280        4281        4332        4331
         4        4281        4282        4333        4332
         4        4282        4283        4334        4333
         4        4284        4285        4336        4335
         4        4285        4286        4337        4336
         4        4286        4287        4338        4337
         4        4287        4288        4339        4338
         4        4288        4289        4340        4339
         4        4289        4290        4341        4340
         4        4290        4291        4342        4341
         4        4291        4292        4343        4342
         4        4292        4293        4344        4343
         4        4293        4294        4345        4344
         4        4294        4295        4346        4345
         4        4295        4296        4347        4346
         4        4296        4297        4348        4347
         4        4297        4298        4349        4348
         4        4298        4299        4350        4349
         4        4299        4300        4351        4350
         4        4300        4301        4352        4351
         4        4301        4302        4353        4352
         4        4302        4303        4354        4353
         4        4303        4304        4355        4354
         4        4304        4305        4356        4355
         4        4305        4306        4357        4356
         4        4306        4307        4358        4357
         4        4307        4308        4359        4358
         4        4308        4309        4360        4359
         4        4309        4310        4361        4360
         4        4310        4311        4362        4361
         4        4311        4312        4363        4362
         4        4312        4313        4364        4363
         4        4313        4314        4365        4364
         4        4314        4315        4366        4365
         4        4315        4316        4367        4366
         4        4316        4317        4368        4367
         4        4317        4318        4369        4368
         4        4318        4319        4370        4369
         4        4319        4320        4371        4370
         4        4320        4321        4372        4371
         4        4321        4322        4373        4372
         4        4322        4323        4374        4373
         4        4323        4324        4375        4374
         4        4324        4325        4376        4375
         4        4325        4326        4377        4376
         4        4326        4327        4378        4377
         4        4327        4328        4379        4378
         4        4328        4329        4380        4379
         4        4329        4330        4381        4380
         4        4330        4331        4382        4381
         4        4331        4332        4383        4382
         4        4332        4333        4384        4383
         4        4333        4334        4385        4384
         4        4335        4336        4387        4386
         4        4336        4337        4388        4387
         4        4337        4338        4389        4388
         4        4338        4339        4390        4389
         4        4339        4340        4391        4390
         4        4340        4341        4392        4391
         4        4341        4342        4393        4392
         4        4342        4343        4394        4393
         4        4343        4344        4395        4394
         4        4344        4345        4396        4395
         4        4345        4346        4397        4396
         4        4346        4347        4398        4397
         4        4347        4348        4399        4398
         4        4348        4349        4400        4399
         4        4349        4350        4401        4400
         4        4350        4351        4402        4401
         4        4351        4352        4403        4402
         4        4352        4353        4404        4403
         4        4353        4354        4405        4404
         4        4354        4355        4406        4405
         4        4355        4356        4407        4406
         4        4356        4357        4408        4407
         4        4357        4358        4409        4408
         4        4358        4359        4410        4409
         4        4359        4360        4411        4410
         4        4360        4361        4412        4411
         4        4361        4362        4413        4412
         4        4362        4363        4414        4413
         4        4363        4364        4415        4414
         4        4364        4365        4416        4415
         4        4365        4366        4417        4416
         4        4366        4367        4418        4417
         4        4367        4368        4419        4418
         4        4368        4369        4420        4419
         4        4369        4370        4421        4420
         4        4370        4371        4422        4421
         4        4371        4372        4423        4422
         4        4372        4373        4424        4423
         4        4373        4374        4425        4424
         4        4374        4375        4426        4425
         4        4375        4376        4427        4426
         4        4376        4377        4428        4427
         4        4377        4378        4429        4428
         4        4378        4379        4430        4429
         4        4379        4380        4431        4430
         4        4380        4381        4432        4431
         4        4381        4382        4433        4432
         4        4382        4383        4434        4433
         4        4383        4384        4435        4434
         4        4384        4385        4436        4435
         4        4386        4387        4438        4437
         4        4387        4388        4439        4438
         4        4388        4389        4440        4439
         4        4389        4390        4441        4440
         4        4390        4391        4442        4441
         4        4391        4392        4443        4442
         4        4392        4393        4444        4443
         4        4393        4394        4445        4444
         4        4394        4395        4446        4445
         4        4395        4396        4447        4446
         4        4396        4397        4448        4447
         4        4397        4398        4449        4448
         4        4398        4399        4450        4449
         4        4399        4400        4451        4450
         4        4400        4401        4452        4451
         4        4401        4402        4453        4452
         4        4402        4403        4454        4453
         4        4403        4404        4455        4454
         4        4404        4405        4456        4455
         4        4405        4406        4457        4456
         4        4406        4407        4458        4457
         4        4407        4408        4459        4458
         4        4408        4409        4460        4459
         4        4409        4410        4461        4460
         4        4410        4411        4462        4461
         4        4411        4412        4463        4462
         4        4412        4413        4464        4463
         4        4413        4414        4465        4464
         4        4414        4415        4466        4465
         4        4415        4416        4467        4466
         4        4416        4417        4468        4467
         4        4417        4418        4469        4468
         4        4418        4419        4470        4469
         4        4419        4420        4471        4470
         4        4420        4421        4472        4471
         4        4421        4422        4473        4472
         4        4422        4423        4474        4473
         4        4423        4424        4475        4474
         4        4424        4425        4476        4475
         4        4425        4426        4477        4476
         4        4426        4427        4478        4477
         4        4427        4428        4479        4478
         4        4428        4429        4480        4479
         4        4429        4430        4481        4480
         4        4430        4431        4482        4481
         4        4431        4432        4483        4482
         4        4432        4433        4484        4483
         4        4433        4434        4485        4484
         4        4434        4435        4486        4485
         4        4435        4436        4487        4486
         4        4437        4438        4489        4488
         4        4438        4439        4490        4489
         4        4439        4440        4491        4490
         4        4440        4441        4492        4491
         4        4441        4442        4493        4492
         4        4442        4443        4494        4493
         4        4443        4444        4495        4494
         4        4444        4445        4496        4495
         4        4445        4446        4497        4496
         4        4446        4447        4498        4497
         4        4447        4448        4499        4498
         4        4448        4449        4500        4499
         4        4449        4450        4501        4500
         4        4450        4451        4502        4501
         4        4451        4452        4503        4502
         4        4452        4453        4504        4503
         4        4453        4454        4505        4504
         4        4454        4455        4506        4505
         4        4455        4456        4507        4506
         4        4456        4457        4508        4507
         4        4457        4458        4509        4508
         4        4458        4459        4510        4509
         4        4459        4460        4511        4510
         4        4460        4461        4512        4511
         4        4461        4462        4513        4512
         4        4462        4463        4514        4513
         4        4463        4464        4515        4514
         4        4464        4465        4516        4515
         4        4465        4466        4517        4516
         4        4466        4467        4518        4517
         4        4467        4468        4519        4518
         4        4468        4469        4520        4519
         4        4469        4470        4521        4520
         4        4470        4471        4522        4521
         4        4471        4472        4523        4522
         4        4472        4473        4524        4523
         4        4473        4474        4525        4524
         4        4474        4475        4526        4525
         4        4475        4476        4527        4526
         4        4476        4477        4528        4527
         4        4477        4478        4529        4528
         4        4478        4479        4530        4529
         4        4479        4480        4531        4530
         4        4480        4481        4532        4531
         4        4481        4482        4533        4532
         4        4482        4483        4534        4533
         4        4483        4484        4535        4534
         4        4484        4485        4536        4535
         4        4485        4486        4537        4536
         4        4486        4487        4538        4537
         4        4488        4489        4540        4539
         4        4489        4490        4541        4540
         4        4490        4491        4542        4541
         4        4491        4492        4543        4542
         4        4492        4493        4544        4543
         4        4493        4494        4545        4544
         4        4494        4495        4546        4545
         4        4495        4496        4547        4546
         4        4496        4497        4548        4547
         4        4497        4498        4549        4548
         4        4498        4499        4550        4549
         4        4499        4500        4551        4550
         4        4500        4501        4552        4551
         4        4501        4502        4553        4552
         4        4502        4503        4554        4553
         4        4503        4504        4555        4554
         4        4504        4505        4556        4555
         4        4505        4506        4557        4556
         4        4506        4507        4558        4557
         4        4507        4508        4559        4558
         4        4508        4509        4560        4559
         4        4509        4510        4561        4560
         4        4510        4511        4562        4561
         4        4511        4512        4563        4562
         4        4512        4513        4564        4563
         4        4513        4514        4565        4564
         4        4514        4515        4566        4565
         4        4515        4516        4567        4566
         4        4516        4517        4568        4567
         4        4517        4518        4569        4568
         4        4518        4519        4570        4569
         4        4519        4520        4571        4570
         4        4520        4521        4572        4571
         4        4521        4522        4573        4572
         4        4522        4523        4574        4573
         4        4523        4524        4575        4574
         4        4524        4525        4576        4575
         4        4525        4526        4577        4576
         4        4526        4527        4578        4577
         4        4527        4528        4579        4578
         4        4528        4529        4580        4579
         4        4529        4530        4581        4580
         4        4530        4531        4582        4581
         4        4531        4532        4583        4582
         4        4532        4533        4584        4583
         4        4533        4534        4585        4584
         4        4534        4535        4586        4585
         4        4535        4536        4587        4586
         4        4536        4537        4588        4587
         4        4537        4538        4589        4588
         4        4539        4540        4591        4590
         4        4540        4541        4592        4591
         4        4541        4542        4593        4592
         4        4542        4543        4594        4593
         4        4543        4544        4595        4594
         4        4544        4545        4596        4595
         4        4545        4546        4597        4596
         4        4546        4547        4598        4597
         4        4547        4548        4599        4598
         4        4548        4549        4600        4599
         4        4549        4550        4601        4600
         4        4550        4551        4602        4601
         4        4551        4552        4603        4602
         4        4552        4553        4604        4603
         4        4553        4554        4605        4604
         4        4554        4555        4606        4605
         4        4555        4556        4607        4606
         4        4556        4557        4608        4607
         4        4557        4558        4609        4608
         4        4558        4559        4610        4609
         4        4559        4560        4611        4610
         4        4560        4561        4612        4611
         4        4561        4562        4613        4612
         4        4562        4563        4614        4613
         4        4563        4564        4615        4614
         4        4564        4565        4616        4615
         4        4565        4566        4617        4616
         4        4566        4567        4618        4617
         4        4567        4568        4619        4618
         4        4568        4569        4620        4619
         4        4569        4570        4621        4620
         4        4570        4571        4622        4621
         4        4571        4572        4623        4622
         4        4572        4573        4624        4623
         4        4573        4574        4625        4624
         4        4574        4575        4626        4625
         4        4575        4576        4627        4626
         4        4576        4577        4628        4627
         4        4577        4578        4629        4628
         4        4578        4579        4630        4629
         4        4579        4580        4631        4630
         4        4580        4581        4632        4631
         4        4581        4582        4633        4632
         4        4582        4583        4634        4633
         4        4583        4584        4635        4634
         4        4584        4585        4636        4635
         4        4585        4586        4637        4636
         4        4586        4587        4638        4637
         4        4587        4588        4639        4638
         4        4588        4589        4640        4639
         4        4590        4591        4642        4641
         4        4591        4592        4643        4642
         4        4592        4593        4644        4643
         4        4593        4594        4645        4644
         4        4594        4595        4646        4645
         4        4595        4596        4647        4646
         4        4596        4597        4648        4647
         4        4597        4598        4649        4648
         4        4598        4599        4650        4649
         4        4599        4600        4651        4650
         4        4600        4601        4652        4651
         4        4601        4602        4653        4652
         4        4602        4603        4654        4653
         4        4603        4604        4655        4654
         4        4604        4605        4656        4655
         4        4605        4606        4657        4656
         4        4606        4607        4658        4657
         4        4607        4608        4659        4658
         4        4608        4609        4660        4659
         4        4609        4610        4661        4660
         4        4610        4611        4662        4661
         4        4611        4612        4663        4662
         4        4612        4613        4664        4663
         4        4613        4614        4665        4664
         4        4614        4615        4666        4665
         4        4615        4616        4667        4666
         4        4616        4617        4668        4667
         4        4617        4618        4669        4668
         4        4618        4619        4670        4669
         4        4619        4620        4671        4670
         4        4620        4621        4672        4671
         4        4621        4622        4673        4672
         4        4622        4623        4674        4673
         4        4623        4624        4675        4674
         4        4624        4625        4676        4675
         4        4625        4626        4677        4676
         4        4626        4627        4678        4677
         4        4627        4628        4679        4678
         4        4628        4629        4680        4679
         4        4629        4630        4681        4680
         4        4630        4631        4682        4681
         4        4631        4632        4683        4682
         4        4632        4633        4684        4683
         4        4633        4634        4685        4684
         4        4634        4635        4686        4685
         4        4635        4636        4687        4686
         4        4636        4637        4688        4687
         4        4637        4638        4689        4688
         4        4638        4639        4690        4689
         4        4639        4640        4691        4690
         4        4641        4642        4693        4692
         4        4642        4643        4694        4693
         4        4643        4644        4695        4694
         4        4644        4645        4696        4695
         4        4645        4646        4697        4696
         4        4646        4647        4698        4697
         4        4647        4648        4699        4698
         4        4648        4649        4700        4699
         4        4649        4650        4701        4700
         4        4650        4651        4702        4701
         4        4651        4652        4703        4702
         4        4652        4653        4704        4703
         4        4653        4654        4705        4704
         4        4654        4655        4706        4705
         4        4655        4656        4707        4706
         4        4656        4657        4708        4707
         4        4657        4658        4709        4708
         4        4658        4659        4710        4709
         4        4659        4660        4711        4710
         4        4660        4661        4712        4711
         4        4661        4662        4713        4712
         4        4662        4663        4714        4713
         4        4663        4664        4715        4714
         4        4664        4665        4716        4715
         4        4665        4666        4717        4716
         4        4666        4667        4718        4717
         4        4667        4668        4719        4718
         4        4668        4669        4720        4719
         4        4669        4670        4721        4720
         4        4670        4671        4722        4721
         4        4671        4672        4723        4722
         4        4672        4673        4724        4723
         4        4673        4674        4725        4724
         4        4674        4675        4726        4725
         4        4675        4676        4727        4726
         4        4676        4677        4728        4727
         4        4677        4678        4729        4728
         4        4678        4679        4730        4729
         4        4679        4680        4731        4730
         4        4680        4681        4732        4731
         4        4681        4682        4733        4732
         4        4682        4683        4734        4733
         4        4683        4684        4735        4734
         4        4684        4685        4736        4735
         4        4685        4686        4737        4736
         4        4686        4687        4738        4737
         4        4687        4688        4739        4738
         4        4688        4689        4740        4739
         4        4689        4690        4741        4740
         4        4690        4691        4742        4741
         4        4692        4693        4744        4743
         4        4693        4694        4745        4744
         4        4694        4695        4746        4745
         4        4695        4696        4747        4746
         4        4696        4697        4748        4747
         4        4697        4698        4749        4748
         4        4698        4699        4750        4749
         4        4699        4700        4751        4750
         4        4700        4701        4752        4751
         4        4701        4702        4753        4752
         4        4702        4703        4754        4753
         4        4703        4704        4755        4754
         4        4704        4705        4756        4755
         4        4705        4706        4757        4756
         4        4706        4707        4758        4757
         4        4707        4708        4759        4758
         4        4708        4709        4760        4759
         4        4709        4710        4761        4760
         4        4710        4711        4762        4761
         4        4711        4712        4763        4762
         4        4712        4713        4764        4763
         4        4713        4714        4765        4764
         4        4714        4715        4766        4765
         4        4715        4716        4767        4766
         4        4716        4717        4768        4767
         4        4717        4718        4769        4768
         4        4718        4719        4770        4769
         4        4719        4720        4771        4770
         4        4720        4721        4772        4771
         4        4721        4722        4773        4772
         4        4722        4723        4774        4773
         4        4723        4724        4775        4774
         4        4724        4725        4776        4775
         4        4725        4726        4777        4776
         4        4726        4727        4778        4777
         4        4727        4728        4779        4778
         4        4728        4729        4780        4779
         4        4729        4730        4781        4780
         4        4730        4731        4782        4781
         4        4731        4732        4783        4782
         4        4732        4733        4784        4783
         4        4733        4734        4785        4784
         4        4734        4735        4786        4785
         4        4735        4736        4787        4786
         4        4736        4737        4788        4787
         4        4737        4738        4789        4788
         4        4738        4739        4790        4789
         4        4739        4740        4791        4790
         4        4740        4741        4792        4791
         4        4741        4742        4793        4792
         4        4743        4744        4795        4794
         4        4744        4745        4796        4795
         4        4745        4746        4797        4796
         4        4746        4747        4798        4797
         4        4747        4748        4799        4798
         4        4748        4749        4800        4799
         4        4749        4750        4801        4800
         4        4750        4751        4802        4801
         4        4751        4752        4803        4802
         4        4752        4753        4804        4803
         4        4753        4754        4805        4804
         4        4754        4755        4806        4805
         4        4755        4756        4807        4806
         4        4756        4757        4808        4807
         4        4757        4758        4809        4808
         4        4758        4759        4810        4809
         4        4759        4760        4811        4810
         4        4760        4761        4812        4811
         4        4761        4762        4813        4812
         4        4762        4763        4814        4813
         4        4763        4764        4815        4814
         4        4764        4765        4816        4815
         4        4765        4766        4817        4816
         4        4766        4767        4818        4817
         4        4767        4768        4819        4818
         4        4768        4769        4820        4819
         4        4769        4770        4821        4820
         4        4770        4771        4822        4821
         4        4771        4772        4823        4822
         4        4772        4773        4824        4823
         4        4773        4774        4825        4824
         4        4774        4775        4826        4825
         4        4775        4776        4827        4826
         4        4776        4777        4828        4827
         4        4777        4778        4829        4828
         4        4778        4779        4830        4829
         4        4779        4780        4831        4830
         4        4780        4781        4832        4831
         4        4781        4782        4833        4832
         4        4782        4783        4834        4833
         4        4783        4784        4835        4834
         4        4784        4785        4836        4835
         4        4785        4786        4837        4836
         4        4786        4787        4838        4837
         4        4787        4788        4839        4838
         4        4788        4789        4840        4839
         4        4789        4790        4841        4840
         4        4790        4791        4842        4841
         4        4791        4792        4843        4842
         4        4792        4793        4844        4843
         4        4794        4795        4846        4845
         4        4795        4796        4847        4846
         4        4796        4797        4848        4847
         4        4797        4798        4849        4848
         4        4798        4799        4850        4849
         4        4799        4800        4851        4850
         4        4800        4801        4852        4851
         4        4801        4802        4853        4852
         4        4802        4803        4854        4853
         4        4803        4804        4855        4854
         4        4804        4805        4856        4855
         4        4805        4806        4857        4856
         4        4806        4807        4858        4857
         4        4807        4808        4859        4858
         4        4808        4809        4860        4859
         4        4809        4810        4861        4860
         4        4810        4811        4862        4861
         4        4811        4812        4863        4862
         4        4812        4813        4864        4863
         4        4813        4814        4865        4864
         4        4814        4815        4866        4865
         4        4815        4816        4867        4866
         4        4816        4817        4868        4867
         4        4817        4818        4869        4868
         4        4818        4819        4870        4869
         4        4819        4820        4871        4870
         4        4820        4821        4872        4871
         4        4821        4822        4873        4872
         4        4822        4823        4874        4873
         4        4823        4824        4875        4874
         4        4824        4825        4876        4875
         4        4825        4826        4877        4876
         4        4826        4827        4878        4877
         4        4827        4828        4879        4878
         4        4828        4829        4880        4879
         4        4829        4830        4881        4880
         4        4830        4831        4882        4881
         4        4831        4832        4883        4882
         4        4832        4833        4884        4883
         4        4833        4834        4885        4884
         4        4834        4835        4886        4885
         4        4835        4836        4887        4886
         4        4836        4837        4888        4887
         4        4837        4838        4889        4888
         4        4838        4839        4890        4889
         4        4839        4840        4891        4890
         4        4840        4841        4892        4891
         4        4841        4842        4893        4892
         4        4842        4843        4894        4893
         4        4843        4844        4895        4894
         4        4845        4846        4897        4896
         4        4846        4847        4898        4897
         4        4847        4848        4899        4898
         4        4848        4849        4900        4899
         4        4849        4850        4901        4900
         4        4850        4851        4902        4901
         4        4851        4852        4903        4902
         4        4852        4853        4904        4903
         4        4853        4854        4905        4904
         4        4854        4855        4906        4905
         4        4855        4856        4907        4906
         4        4856        4857        4908        4907
         4        4857        4858        4909        4908
         4        4858        4859        4910        4909
         4        4859        4860        4911        4910
         4        4860        4861        4912        4911
         4        4861        4862        4913        4912
         4        4862        4863        4914        4913
         4        4863        4864        4915        4914
         4        4864        4865        4916        4915
         4        4865        4866        4917        4916
         4        4866        4867        4918        4917
         4        4867        4868        4919        4918
         4        4868        4869        4920        4919
         4        4869        4870        4921        4920
         4        4870        4871        4922        4921
         4        4871        4872        4923        4922
         4        4872        4873        4924        4923
         4        4873        4874        4925        4924
         4        4874        4875        4926        4925
         4        4875        4876        4927        4926
         4        4876        4877        4928        4927
         4        4877        4878        4929        4928
         4        4878        4879        4930        4929
         4        4879        4880        4931        4930
         4        4880        4881        4932        4931
         4        4881        4882        4933        4932
         4        4882        4883        4934        4933
         4        4883        4884        4935        4934
         4        4884        4885        4936        4935
         4        4885        4886        4937        4936
         4        4886        4887        4938        4937
         4        4887        4888        4939        4938
         4        4888        4889        4940        4939
         4        4889        4890        4941        4940
         4        4890        4891        4942        4941
         4        4891        4892        4943        4942
         4        4892        4893        4944        4943
         4        4893        4894        4945        4944
         4        4894        4895        4946        4945
         4        4896        4897        4948        4947
         4        4897        4898        4949        4948
         4        4898        4899        4950        4949
         4        4899        4900        4951        4950
         4        4900        4901        4952        4951
         4        4901        4902        4953        4952
         4        4902        4903        4954        4953
         4        4903        4904        4955        4954
         4        4904        4905        4956        4955
         4        4905        4906        4957        4956
         4        4906        4907        4958        4957
         4        4907        4908        4959        4958
         4        4908        4909        4960        4959
         4        4909        4910        4961        4960
         4        4910        4911        4962        4961
         4        4911        4912        4963        4962
         4        4912        4913        4964        4963
         4        4913        4914        4965        4964
         4        4914        4915        4966        4965
         4        4915        4916        4967        4966
         4        4916        4917        4968        4967
         4        4917        4918        4969        4968
         4        4918        4919        4970        4969
         4        4919        4920        4971        4970
         4        4920        4921        4972        4971
         4        4921        4922        4973        4972
         4        4922        4923        4974        4973
         4        4923        4924        4975        4974
         4        4924        4925        4976        4975
         4        4925        4926        4977        4976
         4        4926        4927        4978        4977
         4        4927        4928        4979        4978
         4        4928        4929        4980        4979
         4        4929        4930        4981        4980
         4        4930        4931        4982        4981
         4        4931        4932        4983        4982
         4        4932        4933        4984        4983
         4        4933        4934        4985        4984
         4        4934        4935        4986        4985
         4        4935        4936        4987        4986
         4        4936        4937        4988        4987
         4        4937        4938        4989        4988
         4        4938        4939        4990        4989
         4        4939        4940        4991        4990
         4        4940        4941        4992        4991
         4        4941        4942        4993        4992
         4        4942        4943        4994        4993
         4        4943        4944        4995        4994
         4        4944        4945        4996        4995
         4        4945        4946        4997        4996
         4        4947        4948        4999        4998
         4        4948        4949        5000        4999
         4        4949        4950        5001        5000
         4        4950        4951        5002        5001
         4        4951        4952        5003        5002
         4        4952        4953        5004        5003
         4        4953        4954        5005        5004
         4        4954        4955        5006        5005
         4        4955        4956        5007        5006
         4        4956        4957        5008        5007
         4        4957        4958        5009        5008
         4        4958        4959        5010        5009
         4        4959        4960        5011        5010
         4        4960        4961        5012        5011
         4        4961        4962        5013        5012
         4        4962        4963        5014        5013
         4        4963        4964        5015        5014
         4        4964        4965        5016        5015
         4        4965        4966        5017        5016
         4        4966        4967        5018        5017
         4        4967        4968        5019        5018
         4        4968        4969        5020        5019
         4        4969        4970        5021        5020
         4        4970        4971        5022        5021
         4        4971        4972        5023        5022
         4        4972        4973        5024        5023
         4        4973        4974        5025        5024
         4        4974        4975        5026        5025
         4        4975        4976        5027        5026
         4        4976        4977        5028        5027
         4        4977        4978        5029        5028
         4        4978        4979        5030        5029
         4        4979        4980        5031        5030
         4        4980        4981        5032        5031
         4        4981        4982        5033        5032
         4        4982        4983        5034        5033
         4        4983        4984        5035        5034
         4        4984        4985        5036        5035
         4        4985        4986        5037        5036
         4        4986        4987        5038        5037
         4        4987        4988        5039        5038
         4        4988        4989        5040        5039
         4        4989        4990        5041        5040
         4        4990        4991        5042        5041
         4        4991        4992        5043        5042
         4        4992        4993        5044        5043
         4        4993        4994        5045        5044
         4        4994        4995        5046        5045
         4        4995        4996        5047        5046
         4        4996        4997        5048        5047
         4        4998        4999        5050        5049
         4        4999        5000        5051        5050
         4        5000        5001        5052        5051
         4        5001        5002        5053        5052
         4        5002        5003        5054        5053
         4        5003        5004        5055        5054
         4        5004        5005        5056        5055
         4        5005        5006        5057        5056
         4        5006        5007        5058        5057
         4        5007        5008        5059        5058
         4        5008        5009        5060        5059
         4        5009        5010        5061        5060
         4        5010        5011        5062        5061
         4        5011        5012        5063        5062
         4        5012        5013        5064        5063
         4        5013        5014        5065        5064
         4        5014        5015        5066        5065
         4        5015        5016        5067        5066
         4        5016        5017        5068        5067
         4        5017        5018        5069        5068
         4        5018        5019        5070        5069
         4        5019        5020        5071        5070
         4        5020        5021        5072        5071
         4        5021        5022        5073        5072
         4        5022        5023        5074        5073
         4        5023        5024        5075        5074
         4        5024        5025        5076        5075
         4        5025        5026        5077        5076
         4        5026        5027        5078        5077
         4        5027        5028        5079        5078
         4        5028        5029        5080        5079
         4        5029        5030        5081        5080
         4        5030        5031        5082        5081
         4        5031        5032        5083        5082
         4        5032        5033        5084        5083
         4        5033        5034        5085        5084
         4        5034        5035        5086        5085
         4        5035        5036        5087        5086
         4        5036        5037        5088        5087
         4        5037        5038        5089        5088
         4        5038        5039        5090        5089
         4        5039        5040        5091        5090
         4        5040        5041        5092        5091
         4        5041        5042        5093        5092
         4        5042        5043        5094        5093
         4        5043        5044        5095        5094
         4        5044        5045        5096        5095
         4        5045        5046        5097        5096
         4        5046        5047        5098        5097
         4        5047        5048        5099        5098
         4        5049        5050        5101        5100
         4        5050        5051        5102        5101
         4        5051        5052        5103        5102
         4        5052        5053        5104        5103
         4        5053        5054        5105        5104
         4        5054        5055        5106        5105
         4        5055        5056        5107        5106
         4        5056        5057        5108        5107
         4        5057        5058        5109        5108
         4        5058        5059        5110        5109
         4        5059        5060        5111        5110
         4        5060        5061        5112        5111
         4        5061        5062        5113        5112
         4        5062        5063        5114        5113
         4        5063        5064        5115        5114
         4        5064        5065        5116        5115
         4        5065        5066        5117        5116
         4        5066        5067        5118        5117
         4        5067        5068        5119        5118
         4        5068        5069        5120        5119
         4        5069        5070        5121        5120
         4        5070        5071        5122        5121
         4        5071        5072        5123        5122
         4        5072        5073        5124        5123
         4        5073        5074        5125        5124
         4        5074        5075        5126        5125
         4        5075        5076        5127        5126
         4        5076        5077        5128        5127
         4        5077        5078        5129        5128
         4        5078        5079        5130        5129
         4        5079        5080        5131        5130
         4        5080        5081        5132        5131
         4        5081        5082        5133        5132
         4        5082        5083        5134        5133
         4        5083        5084        5135        5134
         4        5084        5085        5136        5135
         4        5085        5086        5137        5136
         4        5086        5087        5138        5137
         4        5087        5088        5139        5138
         4        5088        5089        5140        5139
         4        5089        5090        5141        5140
         4        5090        5091        5142        5141
         4        5091        5092        5143        5142
         4        5092        5093        5144        5143
         4        5093        5094        5145        5144
         4        5094        5095        5146        5145
         4        5095        5096        5147        5146
         4        5096        5097        5148        5147
         4        5097        5098        5149        5148
         4        5098        5099        5150        5149
CELL_TYPES       5000
9
9
9
9
9
9
9
9
9
9
9
9
9
9
9
9
9
9
9
9
9
9
9
9
9
9
9
9
9
9
9
9
9
9
9
9
9
9
9
9
9
9
9
9
9
9
9
9
9
9
9
9
9
9
9
9
9
9
9
9
9
9
9
9
9
9
9
9
9
9
9
9
9
9
9
9
9
9
9
9
9
9
9
9
9
9
9
9
9
9
9
9
9
9
9
9
9
9
9
9
9
9
9
9
9
9
9
9
9
9
9
9
9
9
9
9
9
9
9
9
9
9
9
9
9
9
9
9
9
9
9
9
9
9
9
9
9
9
9
9
9
9
9
9
9
9
9
9
9
9
9
9
9
9
9
9
9
9
9
9
9
9
9
9
9
9
9
9
9
9
9
9
9
9
9
9
9
9
9
9
9
9
9
9
9
9
9
9
9
9
9
9
9
9
9
9
9
9
9
9
9
9
9
9
9
9
9
9
9
9
9
9
9
9
9
9
9
9
9
9
9
9
9
9
9
9
9
9
9
9
9
9
9
9
9
9
9
9
9
9
9
9
9
9
9
9
9
9
9
9
9
9
9
9
9
9
9
9
9
9
9
9
9
9
9
9
9
9
9
9
9
9
9
9
9
9
9
9
9
9
9
9
9
9
9
9
9
9
9
9
9
9
9
9
9
9
9
9
9
9
9
9
9
9
9
9
9
9
9
9
9
9
9
9
9
9
9
9
9
9
9
9
9
9
9
9
9
9
9
9
9
9
9
9
9
9
9
9
9
9
9
9
9
9
9
9
9
9
9
9
9
9
9
9
9
9
9
9
9
9
9
9
9
9
9
9
9
9
9
9
9
9
9
9
9
9
9
9
9
9
9
9
9
9
9
9
9
9
9
9
9
9
9
9
9
9
9
9
9
9
9
9
9
9
9
9
9
9
9
9
9
9
9
9
9
9
9
9
9
9
9
9
9
9
9
9
9
9
9
9
9
9
9
9
9
9
9
9
9
9
9
9
9
9
9
9
9
9
9
9
9
9
9
9
9
9
9
9
9
9
9
9
9
9
9
9
9
9
9
9
9
9
9
9
9
9
9
9
9
9
9
9
9
9
9
9
9
9
9
9
9
9
9
9
9
9
9
9
9
9
9
9
9
9
9
9
9
9
9
9
9
9
9
9
9
9
9
9
9
9
9
9
9
9
9
9
9
9
9
9
9
9
9
9
9
9
9
9
9
9
9
9
9
9
9
9
9
9
9
9
9
9
9
9
9
9
9
9
9
9
9
9
9
9
9
9
9
9
9
9
9
9
9
9
9
9
9
9
9
9
9
9
9
9
9
9
9
9
9
9
9
9
9
9
9
9
9
9
9
9
9
9
9
9
9
9
9
9
9
9
9
9
9
9
9
9
9
9
9
9
9
9
9
9
9
9
9
9
9
9
9
9
9
9
9
9
9
9
9
9
9
9
9
9
9
9
9
9
9
9
9
9
9
9
9
9
9
9
9
9
9
9
9
9
9
9
9
9
9
9
9
9
9
9
9
9
9
9
9
9
9
9
9
9
9
9
9
9
9
9
9
9
9
9
9
9
9
9
9
9
9
9
9
9
9
9
9
9
9
9
9
9
9
9
9
9
9
9
9
9
9
9
9
9
9
9
9
9
9
9
9
9
9
9
9
9
9
9
9
9
9
9
9
9
9
9
9
9
9
9
9
9
9
9
9
9
9
9
9
9
9
9
9
9
9
9
9
9
9
9
9
9
9
9
9
9
9
9
9
9
9
9
9
9
9
9
9
9
9
9
9
9
9
9
9
9
9
9
9
9
9
9
9
9
9
9
9
9
9
9
9
9
9
9
9
9
9
9
9
9
9
9
9
9
9
9
9
9
9
9
9
9
9
9
9
9
9
9
9
9
9
9
9
9
9
9
9
9
9
9
9
9
9
9
9
9
9
9
9
9
9
9
9
9
9
9
9
9
9
9
9
9
9
9
9
9
9
9
9
9
9
9
9
9
9
9
9
9
9
9
9
9
9
9
9
9
9
9
9
9
9
9
9
9
9
9
9
9
9
9
9
9
9
9
9
9
9
9
9
9
9
9
9
9
9
9
9
9
9
9
9
9
9
9
9
9
9
9
9
9
9
9
9
9
9
9
9
9
9
9
9
9
9
9
9
9
9
9
9
9
9
9
9
9
9
9
9
9
9
9
9
9
9
9
9
9
9
9
9
9
9
9
9
9
9
9
9
9
9
9
9
9
9
9
9
9
9
9
9
9
9
9
9
9
9
9
9
9
9
9
9
9
9
9
9
9
9
9
9
9
9
9
9
9
9
9
9
9
9
9
9
9
9
9
9
9
9
9
9
9
9
9
9
9
9
9
9
9
9
9
9
9
9
9
9
9
9
9
9
9
9
9
9
9
9
9
9
9
9
9
9
9
9
9
9
9
9
9
9
9
9
9
9
9
9
9
9
9
9
9
9
9
9
9
9
9
9
9
9
9
9
9
9
9
9
9
9
9
9
9
9
9
9
9
9
9
9
9
9
9
9
9
9
9
9
9
9
9
9
9
9
9
9
9
9
9
9
9
9
9
9
9
9
9
9
9
9
9
9
9
9
9
9
9
9
9
9
9
9
9
9
9
9
9
9
9
9
9
9
9
9
9
9
9
9
9
9
9
9
9
9
9
9
9
9
9
9
9
9
9
9
9
9
9
9
9
9
9
9
9
9
9
9
9
9
9
9
9
9
9
9
9
9
9
9
9
9
9
9
9
9
9
9
9
9
9
9
9
9
9
9
9
9
9
9
9
9
9
9
9
9
9
9
9
9
9
9
9
9
9
9
9
9
9
9
9
9
9
9
9
9
9
9
9
9
9
9
9
9
9
9
9
9
9
9
9
9
9
9
9
9
9
9
9
9
9
9
9
9
9
9
9
9
9
9
9
9
9
9
9
9
9
9
9
9
9
9
9
9
9
9
9
9
9
9
9
9
9
9
9
9
9
9
9
9
9
9
9
9
9
9
9
9
9
9
9
9
9
9
9
9
9
9
9
9
9
9
9
9
9
9
9
9
9
9
9
9
9
9
9
9
9
9
9
9
9
9
9
9
9
9
9
9
9
9
9
9
9
9
9
9
9
9
9
9
9
9
9
9
9
9
9
9
9
9
9
9
9
9
9
9
9
9
9
9
9
9
9
9
9
9
9
9
9
9
9
9
9
9
9
9
9
9
9
9
9
9
9
9
9
9
9
9
9
9
9
9
9
9
9
9
9
9
9
9
9
9
9
9
9
9
9
9
9
9
9
9
9
9
9
9
9
9
9
9
9
9
9
9
9
9
9
9
9
9
9
9
9
9
9
9
9
9
9
9
9
9
9
9
9
9
9
9
9
9
9
9
9
9
9
9
9
9
9
9
9
9
9
9
9
9
9
9
9
9
9
9
9
9
9
9
9
9
9
9
9
9
9
9
9
9
9
9
9
9
9
9
9
9
9
9
9
9
9
9
9
9
9
9
9
9
9
9
9
9
9
9
9
9
9
9
9
9
9
9
9
9
9
9
9
9
9
9
9
9
9
9
9
9
9
9
9
9
9
9
9
9
9
9
9
9
9
9
9
9
9
9
9
9
9
9
9
9
9
9
9
9
9
9
9
9
9
9
9
9
9
9
9
9
9
9
9
9
9
9
9
9
9
9
9
9
9
9
9
9
9
9
9
9
9
9
9
9
9
9
9
9
9
9
9
9
9
9
9
9
9
9
9
9
9
9
9
9
9
9
9
9
9
9
9
9
9
9
9
9
9
9
9
9
9
9
9
9
9
9
9
9
9
9
9
9
9
9
9
9
9
9
9
9
9
9
9
9
9
9
9
9
9
9
9
9
9
9
9
9
9
9
9
9
9
9
9
9
9
9
9
9
9
9
9
9
9
9
9
9
9
9
9
9
9
9
9
9
9
9
9
9
9
9
9
9
9
9
9
9
9
9
9
9
9
9
9
9
9
9
9
9
9
9
9
9
9
9
9
9
9
9
9
9
9
9
9
9
9
9
9
9
9
9
9
9
9
9
9
9
9
9
9
9
9
9
9
9
9
9
9
9
9
9
9
9
9
9
9
9
9
9
9
9
9
9
9
9
9
9
9
9
9
9
9
9
9
9
9
9
9
9
9
9
9
9
9
9
9
9
9
9
9
9
9
9
9
9
9
9
9
9
9
9
9
9
9
9
9
9
9
9
9
9
9
9
9
9
9
9
9
9
9
9
9
9
9
9
9
9
9
9
9
9
9
9
9
9
9
9
9
9
9
9
9
9
9
9
9
9
9
9
9
9
9
9
9
9
9
9
9
9
9
9
9
9
9
9
9
9
9
9
9
9
9
9
9
9
9
9
9
9
9
9
9
9
9
9
9
9
9
9
9
9
9
9
9
9
9
9
9
9
9
9
9
9
9
9
9
9
9
9
9
9
9
9
9
9
9
9
9
9
9
9
9
9
9
9
9
9
9
9
9
9
9
9
9
9
9
9
9
9
9
9
9
9
9
9
9
9
9
9
9
9
9
9
9
9
9
9
9
9
9
9
9
9
9
9
9
9
9
9
9
9
9
9
9
9
9
9
9
9
9
9
9
9
9
9
9
9
9
9
9
9
9
9
9
9
9
9
9
9
9
9
9
9
9
9
9
9
9
9
9
9
9
9
9
9
9
9
9
9
9
9
9
9
9
9
9
9
9
9
9
9
9
9
9
9
9
9
9
9
9
9
9
9
9
9
9
9
9
9
9
9
9
9
9
9
9
9
9
9
9
9
9
9
9
9
9
9
9
9
9
9
9
9
9
9
9
9
9
9
9
9
9
9
9
9
9
9
9
9
9
9
9
9
9
9
9
9
9
9
9
9
9
9
9
9
9
9
9
9
9
9
9
9
9
9
9
9
9
9
9
9
9
9
9
9
9
9
9
9
9
9
9
9
9
9
9
9
9
9
9
9
9
9
9
9
9
9
9
9
9
9
9
9
9
9
9
9
9
9
9
9
9
9
9
9
9
9
9
9
9
9
9
9
9
9
9
9
9
9
9
9
9
9
9
9
9
9
9
9
9
9
9
9
9
9
9
9
9
9
9
9
9
9
9
9
9
9
9
9
9
9
9
9
9
9
9
9
9
9
9
9
9
9
9
9
9
9
9
9
9
9
9
9
9
9
9
9
9
9
9
9
9
9
9
9
9
9
9
9
9
9
9
9
9
9
9
9
9
9
9
9
9
9
9
9
9
9
9
9
9
9
9
9
9
9
9
9
9
9
9
9
9
9
9
9
9
9
9
9
9
9
9
9
9
9
9
9
9
9
9
9
9
9
9
9
9
9
9
9
9
9
9
9
9
9
9
9
9
9
9
9
9
9
9
9
9
9
9
9
9
9
9
9
9
9
9
9
9
9
9
9
9
9
9
9
9
9
9
9
9
9
9
9
9
9
9
9
9
9
9
9
9
9
9
9
9
9
9
9
9
9
9
9
9
9
9
9
9
9
9
9
9
9
9
9
9
9
9
9
9
9
9
9
9
9
9
9
9
9
9
9
9
9
9
9
9
9
9
9
9
9
9
9
9
9
9
9
9
9
9
9
9
9
9
9
9
9
9
9
9
9
9
9
9
9
9
9
9
9
9
9
9
9
9
9
9
9
9
9
9
9
9
9
9
9
9
9
9
9
9
9
9
9
9
9
9
9
9
9
9
9
9
9
9
9
9
9
9
9
9
9
9
9
9
9
9
9
9
9
9
9
9
9
9
9
9
9
9
9
9
9
9
9
9
9
9
9
9
9
9
9
9
9
9
9
9
9
9
9
9
9
9
9
9
9
9
9
9
9
9
9
9
9
9
9
9
9
9
9
9
9
9
9
9
9
9
9
9
9
9
9
9
9
9
9
9
9
9
9
9
9
9
9
9
9
9
9
9
9
9
9
9
9
9
9
9
9
9
9
9
9
9
9
9
9
9
9
9
9
9
9
9
9
9
9
9
9
9
9
9
9
9
9
9
9
9
9
9
9
9
9
9
9
9
9
9
9
9
9
9
9
9
9
9
9
9
9
9
9
9
9
9
9
9
9
9
9
9
9
9
9
9
9
9
9
9
9
9
9
9
9
9
9
9
9
9
9
9
9
9
9
9
9
9
9
9
9
9
9
9
9
9
9
9
9
9
9
9
9
9
9
9
9
9
9
9
9
9
9
9
9
9
9
9
9
9
9
9
9
9
9
9
9
9
9
9
9
9
9
9
9
9
9
9
9
9
9
9
9
9
9
9
9
9
9
9
9
9
9
9
9
9
9
9
9
9
9
9
9
9
9
9
9
9
9
9
9
9
9
9
9
9
9
9
9
9
9
9
9
9
9
9
9
9
9
9
9
9
9
9
9
9
9
9
9
9
9
9
9
9
9
9
9
9
9
9
9
9
9
9
9
9
9
9
9
9
9
9
9
9
9
9
9
9
9
9
9
9
9
9
9
9
9
9
9
9
9
9
9
9
9
9
9
9
9
9
9
9
9
9
9
9
9
9
9
9
9
9
9
9
9
9
9
9
9
9
9
9
9
9
9
9
9
9
9
9
9
9
9
9
9
9
9
9
9
9
9
9
9
9
9
9
9
9
9
9
9
9
9
9
9
9
9
9
9
9
9
9
9
9
9
9
9
9
9
9
9
9
9
9
9
9
9
9
9
9
9
9
9
9
9
9
9
9
9
9
9
9
9
9
9
9
9
9
9
9
9
9
9
9
9
9
9
9
9
9
9
9
9
9
9
9
9
9
9
9
9
9
9
9
9
9
9
9
9
9
9
9
9
9
9
9
9
9
9
9
9
9
9
9
9
9
9
9
9
9
9
9
9
9
9
9
9
9
9
9
9
9
9
9
9
9
9
9
9
9
9
9
9
9
9
9
9
9
9
9
9
9
9
9
9
9
9
9
9
9
9
9
9
9
9
9
9
9
9
9
9
9
9
9
9
9
9
9
9
9
9
9
9
9
9
9
9
9
9
9
9
9
9
9
9
9
9
9
9
9
9
9
9
9
9
9
9
9
9
9
9
9
9
9
9
9
9
9
9
9
9
9
9
9
9
9
9
9
9
9
9
9
9
9
9
9
9
9
9
9
9
9
9
9
9
9
9
9
9
9
9
9
9
9
9
9
9
9
9
9
9
9
9
9
9
9
9
9
9
9
9
9
9
9
9
9
9
9
9
9
9
9
9
9
9
9
9
9
9
9
9
9
9
9
9
9
9
9
9
9
9
9
9
9
9
9
9
9
9
9
9
9
9
9
9
9
9
9
9
9
9
9
9
9
9
9
9
9
9
9
9
9
9
9
9
9
9
9
9
9
9
9
9
9
9
9
9
9
9
9
9
9
9
9
9
9
9
9
9
9
9
9
9
9
9
9
9
9
9
9
9
9
9
9
9
9
9
9
9
9
9
9
9
9
9
9
9
9
9
9
9
9
9
9
9
9
9
9
9
9
9
9
9
9
9
9
9
9
9
9
9
9
9
9
9
9
9
9
9
9
9
9
9
9
9
9
9
9
9
9
9
9
9
9
9
9
9
9
9
9
9
9
9
9
9
9
9
9
9
9
9
9
9
9
9
9
9
9
9
9
9
9
9
9
9
9
9
9
9
9
9
9
9
9
9
9
9
9
9
9
9
9
9
9
9
9
9
9
9
9
9
9
9
9
9
9
9
9
9
9
9
9
9
9
9
9
9
9
9
9
9
9
9
9
9
9
9
9
9
9
9
9
9
9
9
9
9
9
9
9
9
9
9
9
9
9
9
9
9
9
9
9
9
9
9
9
9
9
9
9
9
9
9
9
9
9
9
9
9
9
9
9
9
9
9
9
9
9
9
9
9
9
9
9
9
9
9
9
9
9
9
9
9
9
9
9
9
9
9
9
9
9
9
9
9
9
9
9
9
9
9
9
9
9
9
9
9
9
9
9
9
9
9
9
9
9
9
9
9
9
9
9
9
9
9
9
9
9
9
9
9
9
9
9
9
9
9
9
9
9
9
9
9
9
9
9
9
9
9
9
9
9
9
9
9
9
9
9
9
9
9
9
9
9
9
9
9
9
9
9
9
9
9
9
9
9
9
9
9
9
9
9
9
9
9
9
9
9
9
9
9
9
9
9
9
9
9
9
9
9
9
9
9
9
9
9
9
9
9
9
9
9
9
9
9
9
9
9
9
9
9
9
9
9
9
9
9
9
9
9
9
9
9
9
9
9
9
9
9
9
9
9
9
9
9
9
9
9
9
9
9
9
9
9
9
9
9
9
9
9
9
9
9
9
9
9
9
9
9
9
9
9
9
9
9
9
9
9
9
9
9
9
9
9
9
9
9
9
9
9
9
9
9
9
9
9
9
9
9
9
9
9
9
9
9
9
9
9
9
9
9
9
9
9
9
9
9
9
9
9
9
9
9
9
9
9
9
9
9
9
9
9
9
9
9
9
9
9
9
9
9
9
9
9
9
9
9
9
9
9
9
9
9
9
9
9
9
9
9
9
9
9
9
9
9
9
9
9
9
9
9
9
9
9
9
9
9
9
9
9
9
9
9
9
9
9
9
9
9
9
9
9
9
9
9
9
9
9
9
9
9
9
9
9
9
9
9
9
9
9
9
9
9
9
9
9
9
9
9
9
9
9
9
9
9
9
9
9
9
9
9
9
9
9
9
9
9
9
9
9
9
9
9
9
9
9
9
9
9
9
9
9
9
9
9
9
9
9
9
9
9
9
9
9
9
9
9
9
9
9
9
9
9
9
9
9
9
9
9
9
9
9
9
9
9
9
9
9
9
9
9
9
9
9
9
9
9
9
9
9
9
9
9
9
9
9
9
9
9
9
9
9
9
9
9
9
9
9
9
9
9
9
9
9
9
9
9
9
9
9
9
9
9
9
9
9
9
9
9
9
9
9
9
9
9
9
9
9
9
9
9
9
9
9
9
9
9
9
9
9
9
9
9
9
9
9
9
9
9
9
9
9
9
9
9
9
9
9
9
9
9
9
9
9
9
9
9
9
9
9
9
9
9
9
9
9
9
9
9
9
9
9
9
9
9
9
9
9
9
9
9
9
9
9
9
9
9
9
9
9
9
9
9
9
9
9
9
9
9
9
9
9
9
9
9
9
9
9
9
9
9
9
9
9
9
9
9
9
9
9
9
9
9
9
9
9
9
9
9
9
9
9
9
9
9
9
9
9
9
9
9
9
9
9
9
9
9
9
9
9
9
9
9
9
9
9
9
9
9
9
9
9
9
9
9
9
9
9
9
9
9
9
9
9
9
9
9
9
9
9
9
9
9
9
9
9
9
9
9
9
9
9
9
9
9
9
9
9
9
9
9
9
9
9
9
9
9
9
9
9
9
9
9
9
9
9
9
9
9
9
9
9
9
9
9
9
9
9
9
9
9
9
9
9
9
9
9
9
9
9
9
9
9
9
9
9
9
9
9
9
9
9
9
9
9
9
9
9
9
9
9
9
9
9
9
9
9
9
9
9
9
9
9
9
9
9
9
9
9
9
9
9
9
9
9
9
9
9
9
9
9
9
9
9
9
9
9
9
9
9
9
9
9
9
9
9
9
9
9
9
9
9
9
9
9
9
9
9
9
9
9
9
9
9
9
9
9
9
9
9
9
9
9
9
9
9
9
9
9
9
9
9
9
9
9
9
9
9
9
9
9
9
9
9
9
9
9
9
9
9
9
9
9
9
9
9
9
9
9
9
9
9
9
9
9
9
9
9
9
9
9
9
9
9
9
9
9
9
9
9
9
9
9
9
9
9
9
9
9
9
9
9
9
9
9
9
9
9
9
9
9
9
9
9
9
9
9
9
9
9
9
9
9
9
9
9
9
9
9
9
9
9
9
9
9
9
9
9
9
9
9
9
9
9
9
9
9
9
9
9
9
9
9
9
9
9
9
9
9
9
9
9
9
9
9
9
9
9
9
9
9
9
9
9
9
9
9
9
9
9
9
9
9
9
9
9
9
9
9
9
9
9
9
9
9
9
9
9
9
9
9
9
9
9
9
9
9
9
9
9
9
9
9
9
9
9
9
9
9
9
9
9
9
9
9
9
9
9
9
9
9
9
9
9
9
9
9
9
9
9
9
9
9
9
9
9
9
9
9
9
9
9
9
9
9
9
9
9
9
9
9
9
9
9
9
9
9
9
9
9
9
9
9
9
9
9
9
9
9
9
9
9
9
9
9
9
9
9
9
9
9
9
9
9
9
9
9
9
9
9
9
9
9
9
9
9
9
9
9
9
9
9
9
9
9
9
9
9
9
9
9
9
9
9
9
9
9
9
9
9
9
9
9
9
9
9
9
9
9
9
9
9
9
9
9
9
9
9
9
9
9
9
9
9
9
9
9
9
9
9
9
9
9
9
9
9
9
9
9
9
9
9
9
9
9
9
9
9
9
9
9
9
9
9
9
9
9
9
9
9
9
9
9
9
9
9
9
9
9
9
9
9
9
9
9
9
9
9
9
9
9
9
9
9
9
9
9
9
9
9
9
9
9
9
9
9
9
9
9
9
9
9
9
9
9
9
9
9
9
9
9
9
9
9
9
9
9
9
9
9
9
9
9
9
9
9
9
9
9
9
9
9
9
9
9
9
9
9
9
9
9
9
9
9
9
9
9
9
9
9
9
9
9
9
9
9
9
9
9
9
9
9
9
9
9
9
9
9
9
9
9
9
9
9
9
9
9
9
9
9
9
9
9
9
9
9
9
9
9
9
9
9
9
9
9
9
9
9
9
9
9
9
9
9
9
9
9
9
9
9
9
9
9
9
9
9
9
9
9
9
9
9
9
9
9
9
9
9
9
9
9
9
9
9
9
9
9
9
9
9
9
9
9
9
9
9
9
9
9
9
9
9
9
9
9
9
9
9
9
9
9
9
9
9
9
9
9
9
9
9
9
9
9
9
9
9
9
9
9
9
9
9
9
9
9
9
9
9
9
9
9
9
9
9
9
9
9
9
9
9
9
9
9
9
9
9
9
9
9
9
9
9
9
9
9
9
9
9
9
9
9
9
9
9
9
9
9
9
9
9
9
9
9
9
9
9
9
9
9
9
9
9
9
9
9
9
9
9
9
9
9
9
9
9
9
9
9
9
9
9
9
9
9
9
9
9
9
9
9
9
9
9
9
9
9
9
9
9
9
9
9
9
9
9
9
9
9
9
9
9
9
9
9
9
9
9
9
9
9
9
9
9
9
9
9
9
9
9
9
9
9
9
9
9
9
9
9
9
9
9
9
9
9
9
9
9
POINT_DATA      5151
SCALARS p double 
LOOKUP_TABLE default
   50000000.0000000     
   50000000.0000000     
   50000000.0000000     
   50000000.0000000     
   50000000.0000000     
   50000000.0000000     
   50000000.0000000     
   50000000.0000000     
   50000000.0000000     
   50000000.0000000     
   50000000.0000000     
   50000000.0000000     
   50000000.0000000     
   50000000.0000000     
   50000000.0000000     
   50000000.0000000     
   50000000.0000000     
   50000000.0000000     
   50000000.0000000     
   50000000.0000000     
   50000000.0000000     
   50000000.0000000     
   50000000.0000000     
   50000000.0000000     
   50000000.0000000     
   50000000.0000000     
   50000000.0000000     
   50000000.0000000     
   50000000.0000000     
   50000000.0000000     
   50000000.0000000     
   50000000.0000000     
   50000000.0000000     
   50000000.0000000     
   50000000.0000000     
   50000000.0000000     
   50000000.0000000     
   50000000.0000000     
   50000000.0000000     
   50000000.0000000     
   50000000.0000000     
   50000000.0000000     
   50000000.0000000     
   50000000.0000000     
   50000000.0000000     
   50000000.0000000     
   50000000.0000000     
   50000000.0000000     
   50000000.0000000     
   50000000.0000000     
   50000000.0000000     
   49992450.4007098     
   49992453.3313084     
   49992461.3224946     
   49992473.4111690     
   49992488.8646909     
   49992507.1148302     
   49992527.7128094     
   49992550.2981587     
   49992574.5767565     
   49992600.3050764     
   49992627.2786952     
   49992655.3237758     
   49992684.2906565     
   49992714.0489577     
   49992744.4837947     
   49992775.4928080     
   49992806.9838076     
   49992838.8728793     
   49992871.0828474     
   49992903.5420099     
   49992936.1830866     
   49992968.9423336     
   49993001.7587873     
   49993034.5736108     
   49993067.3295188     
   49993099.9702634     
   49993132.4401658     
   49993164.6836794     
   49993196.6449740     
   49993228.2675293     
   49993259.4937276     
   49993290.2644349     
   49993320.5185592     
   49993350.1925728     
   49993379.2199841     
   49993407.5307405     
   49993435.0505403     
   49993461.7000251     
   49993487.3938150     
   49993512.0393370     
   49993535.5353797     
   49993557.7702808     
   49993578.6196171     
   49993597.9432105     
   49993615.5811779     
   49993631.3486236     
   49993645.0283679     
   49993656.3607862     
   49993665.0293151     
   49993670.6393549     
   49993672.6869466     
   49985613.9385859     
   49985617.1759054     
   49985626.5451369     
   49985641.4992752     
   49985661.4892203     
   49985685.9933988     
   49985714.5305104     
   49985746.6632554     
   49985781.9974279     
   49985820.1787961     
   49985860.8890921     
   49985903.8418110     
   49985948.7781736     
   49985995.4634138     
   49986043.6834492     
   49986093.2419365     
   49986143.9576885     
   49986195.6624149     
   49986248.1987495     
   49986301.4185226     
   49986355.1812437     
   49986409.3527623     
   49986463.8040773     
   49986518.4102698     
   49986573.0495369     
   49986627.6023071     
   49986681.9504189     
   49986735.9763478     
   49986789.5624653     
   49986842.5903179     
   49986894.9399110     
   49986946.4889858     
   49986997.1122749     
   49987046.6807221     
   49987095.0606528     
   49987142.1128769     
   49987187.6917080     
   49987231.6438779     
   49987273.8073268     
   49987314.0098465     
   49987352.0675549     
   49987387.7831860     
   49987420.9441861     
   49987451.3206315     
   49987478.6630284     
   49987502.7001342     
   49987523.1371028     
   49987539.6545374     
   49987551.9095599     
   49987559.5409513     
   49987562.1821221     
   49979329.5395593     
   49979332.8584271     
   49979342.5324973     
   49979358.1525519     
   49979379.3192718     
   49979405.6407257     
   49979436.7342513     
   49979472.2292978     
   49979511.7698595     
   49979555.0160816     
   49979601.6450265     
   49979651.3507397     
   49979703.8437924     
   49979758.8504588     
   49979816.1116600     
   49979875.3817749     
   49979936.4273892     
   49979999.0260333     
   49980062.9649410     
   49980128.0398501     
   49980194.0538565     
   49980260.8163254     
   49980328.1418604     
   49980395.8493293     
   49980463.7609400     
   49980531.7013618     
   49980599.4968861     
   49980666.9746184     
   49980733.9616960     
   49980800.2845224     
   49980865.7680148     
   49980930.2348546     
   49980993.5047374     
   49981055.3936160     
   49981115.7129326     
   49981174.2688369     
   49981230.8613880     
   49981285.2837438     
   49981337.3213418     
   49981386.7510832     
   49981433.3405383     
   49981476.8472026     
   49981517.0178434     
   49981553.5879939     
   49981586.2816617     
   49981614.8113323     
   49981638.8783228     
   49981658.1734792     
   49981672.3780028     
   49981681.1637211     
   49981684.1910769     
   49973474.5479565     
   49973477.7433499     
   49973487.1412142     
   49973502.4505427     
   49973523.3737095     
   49973549.6101831     
   49973580.8586805     
   49973616.8188387     
   49973657.1926924     
   49973701.6859789     
   49973750.0092283     
   49973801.8786079     
   49973857.0165102     
   49973915.1518978     
   49973976.0204298     
   49974039.3644029     
   49974104.9325391     
   49974172.4796541     
   49974241.7662322     
   49974312.5579336     
   49974384.6250522     
   49974457.7419412     
   49974531.6864182     
   49974606.2391582     
   49974681.1830832     
   49974756.3027507     
   49974831.3837475     
   49974906.2120882     
   49974980.5736218     
   49975054.2534462     
   49975127.0353323     
   49975198.7011577     
   49975269.0303519     
   49975337.7993550     
   49975404.7810910     
   49975469.7444629     
   49975532.4538706     
   49975592.6687630     
   49975650.1432294     
   49975704.6256438     
   49975755.8583720     
   49975803.5775564     
   49975847.5129889     
   49975887.3880820     
   49975922.9199409     
   49975953.8195285     
   49975979.7919049     
   49976000.5365229     
   49976015.7475937     
   49976025.1146897     
   49976028.3241811     
   49967945.6953720     
   49967948.7077481     
   49967957.6112449     
   49967972.1973345     
   49967992.2469231     
   49968017.5318474     
   49968047.8165701     
   49968082.8597545     
   49968122.4156593     
   49968166.2353609     
   49968214.0678172     
   49968265.6607838     
   49968320.7615855     
   49968379.1177488     
   49968440.4775010     
   49968504.5901422     
   49968571.2063016     
   49968640.0780885     
   49968710.9591494     
   49968783.6046450     
   49968857.7711574     
   49968933.2165388     
   49969009.6997131     
   49969086.9804372     
   49969164.8190330     
   49969242.9760944     
   49969321.2121782     
   49969399.2874820     
   49969476.9615164     
   49969553.9927744     
   49969630.1384028     
   49969705.1538801     
   49969778.7927040     
   49969850.8060938     
   49969920.9427114     
   49969988.9484045     
   49970054.5659790     
   49970117.5350029     
   49970177.5916485     
   49970234.4685761     
   49970287.8948650     
   49970337.5959947     
   49970383.2938783     
   49970424.7069527     
   49970461.5503249     
   49970493.5359800     
   49970520.3730567     
   49970541.7682008     
   49970557.4260047     
   49970567.0494995     
   49970570.3405135     
   49962653.8879740     
   49962656.7045810     
   49962665.0619127     
   49962678.8104288     
   49962697.7872441     
   49962721.8175636     
   49962750.7159714     
   49962784.2876446     
   49962822.3294953     
   49962864.6312275     
   49962910.9763041     
   49962961.1428206     
   49963014.9042862     
   49963072.0303140     
   49963132.2872242     
   49963195.4385605     
   49963261.2455283     
   49963329.4673545     
   49963399.8615783     
   49963472.1842757     
   49963546.1902256     
   49963621.6330227     
   49963698.2651433     
   49963775.8379705     
   49963854.1017849     
   49963932.8057253     
   49964011.6977264     
   49964090.5244375     
   49964169.0311269     
   49964246.9615784     
   49964324.0579819     
   49964400.0608239     
   49964474.7087818     
   49964547.7386248     
   49964618.8851268     
   49964687.8809934     
   49964754.4568065     
   49964818.3409910     
   49964879.2598041     
   49964936.9373529     
   49964991.0956393     
   49965041.4546366     
   49965087.7323992     
   49965129.6452058     
   49965166.9077392     
   49965199.2333006     
   49965226.3340592     
   49965247.9213330     
   49965263.7058924     
   49965273.3982879     
   49965276.7092501     
   49957521.0386920     
   49957523.6794177     
   49957531.5364169     
   49957544.5006550     
   49957562.4486785     
   49957585.2437011     
   49957612.7366620     
   49957644.7672297     
   49957681.1647529     
   49957721.7491553     
   49957766.3317742     
   49957814.7161418     
   49957866.6987077     
   49957922.0695030     
   49957980.6127464     
   49958042.1073930     
   49958106.3276281     
   49958173.0433077     
   49958242.0203491     
   49958313.0210722     
   49958385.8044980     
   49958460.1266048     
   49958535.7405466     
   49958612.3968385     
   49958689.8435108     
   49958767.8262368     
   49958846.0884387     
   49958924.3713729     
   49959002.4142010     
   49959079.9540483     
   49959156.7260535     
   49959232.4634138     
   49959306.8974267     
   49959379.7575333     
   49959450.7713645     
   49959519.6647938     
   49959586.1619975     
   49959649.9855272     
   49959710.8563927     
   49959768.4941612     
   49959822.6170711     
   49959872.9421626     
   49959919.1854275     
   49959961.0619758     
   49959998.2862217     
   49960030.5720883     
   49960057.6332294     
   49960079.1832697     
   49960094.9360639     
   49960104.6059739     
   49960107.9081515     
   49952477.9757523     
   49952480.4772514     
   49952487.9338803     
   49952500.2624697     
   49952517.3652408     
   49952539.1306883     
   49952565.4344315     
   49952596.1400358     
   49952631.0998016     
   49952670.1555188     
   49952713.1391851     
   49952759.8736867     
   49952810.1734425     
   49952863.8450085     
   49952920.6876453     
   49952980.4938472     
   49953043.0498336     
   49953108.1360045     
   49953175.5273610     
   49953244.9938907     
   49953316.3009227     
   49953389.2094509     
   49953463.4764297     
   49953538.8550434     
   49953615.0949517     
   49953691.9425132     
   49953769.1409906     
   49953846.4307378     
   49953923.5493736     
   49954000.2319426     
   49954076.2110663     
   49954151.2170868     
   49954224.9782047     
   49954297.2206137     
   49954367.6686336     
   49954436.0448435     
   49954502.0702173     
   49954565.4642616     
   49954625.9451592     
   49954683.2299183     
   49954737.0345281     
   49954787.0741221     
   49954833.0631500     
   49954874.7155574     
   49954911.7449748     
   49954943.8649147     
   49954970.7889775     
   49954992.2310651     
   49955007.9056019     
   49955017.5277592     
   49955020.8136886     
   49947462.8486169     
   49947465.2561498     
   49947472.4400905     
   49947484.3314720     
   49947500.8471083     
   49947521.8903019     
   49947547.3515333     
   49947577.1091335     
   49947611.0299350     
   49947648.9699025     
   49947690.7747406     
   49947736.2804782     
   49947785.3140291     
   49947837.6937277     
   49947893.2298398     
   49947951.7250489     
   49948012.9749171     
   49948076.7683214     
   49948142.8878667     
   49948211.1102749     
   49948281.2067509     
   49948352.9433281     
   49948426.0811929     
   49948500.3769892     
   49948575.5831058     
   49948651.4479467     
   49948727.7161861     
   49948804.1290095     
   49948880.4243425     
   49948956.3370685     
   49949031.5992370     
   49949105.9402641     
   49949179.0871257     
   49949250.7645459     
   49949320.6951808     
   49949388.5997999     
   49949454.1974652     
   49949517.2057095     
   49949577.3407147     
   49949634.3174912     
   49949687.8500581     
   49949737.6516261     
   49949783.4347814     
   49949824.9116742     
   49949861.7942077     
   49949893.7942312     
   49949920.6237353     
   49949941.9950493     
   49949957.6210402     
   49949967.2153144     
   49949970.4924183     
   49942419.8470565     
   49942422.2088184     
   49942429.2583190     
   49942440.9315107     
   49942457.1508608     
   49942477.8259149     
   49942502.8538524     
   49942532.1200324     
   49942565.4985274     
   49942602.8526458     
   49942644.0354406     
   49942688.8902047     
   49942737.2509509     
   49942788.9428768     
   49942843.7828142     
   49942901.5796625     
   49942962.1348060     
   49943025.2425150     
   49943090.6903309     
   49943158.2594358     
   49943227.7250065     
   49943298.8565530     
   49943371.4182436     
   49943445.1692153     
   49943519.8638712     
   49943595.2521653     
   49943671.0798762     
   49943747.0888693     
   49943823.0173492     
   49943898.6001029     
   49943973.5687352     
   49944047.6518959     
   49944120.5755006     
   49944192.0629463     
   49944261.8353214     
   49944329.6116116     
   49944395.1089021     
   49944458.0425772     
   49944518.1265172     
   49944575.0732934     
   49944628.5943618     
   49944678.4002556     
   49944724.2007768     
   49944765.7051872     
   49944802.6223986     
   49944834.6611629     
   49944861.5302612     
   49944882.9386923     
   49944898.5958603     
   49944908.2117610     
   49944911.4971661     
   49937298.1314715     
   49937300.4950892     
   49937307.5480672     
   49937319.2239608     
   49937335.4437500     
   49937356.1162867     
   49937381.1387373     
   49937410.3970223     
   49937443.7662511     
   49937481.1111501     
   49937522.2864848     
   49937567.1374742     
   49937615.5001968     
   49937667.2019883     
   49937722.0618293     
   49937779.8907247     
   49937840.4920717     
   49937903.6620190     
   49937969.1898153     
   49938036.8581472     
   49938106.4434680     
   49938177.7163152     
   49938250.4416192     
   49938324.3790019     
   49938399.2830657     
   49938474.9036747     
   49938550.9862257     
   49938627.2719128     
   49938703.4979827     
   49938779.3979840     
   49938854.7020091     
   49938929.1369301     
   49939002.4266289     
   49939074.2922217     
   49939144.4522790     
   49939212.6230411     
   49939278.5186295     
   49939341.8512548     
   49939402.3314212     
   49939459.6681281     
   49939513.5690690     
   49939563.7408281     
   49939609.8890744     
   49939651.7187537     
   49939688.9342788     
   49939721.2397173     
   49939748.3389778     
   49939769.9359940     
   49939785.7349064     
   49939795.4402423     
   49939798.7570924     
   49932050.9199524     
   49932053.3303695     
   49932060.5178335     
   49932072.4078021     
   49932088.9141307     
   49932109.9394213     
   49932135.3753737     
   49932165.1031369     
   49932198.9936588     
   49932236.9080358     
   49932278.6978590     
   49932324.2055578     
   49932373.2647398     
   49932425.7005270     
   49932481.3298865     
   49932539.9619567     
   49932601.3983681     
   49932665.4335578     
   49932731.8550787     
   49932800.4439021     
   49932870.9747143     
   49932943.2162065     
   49933016.9313592     
   49933091.8777194     
   49933167.8076722     
   49933244.4687055     
   49933321.6036702     
   49933398.9510330     
   49933476.2451247     
   49933553.2163827     
   49933629.5915883     
   49933705.0940996     
   49933779.4440792     
   49933852.3587177     
   49933923.5524533     
   49933992.7371870     
   49934059.6224949     
   49934123.9158363     
   49934185.3227589     
   49934243.5471009     
   49934298.2911908     
   49934349.2560432     
   49934396.1415535     
   49934438.6466890     
   49934476.4696781     
   49934509.3081974     
   49934536.8595559     
   49934558.8208776     
   49934574.8892809     
   49934584.7620570     
   49934588.1368450     
   49926634.6968976     
   49926637.1952678     
   49926644.6377761     
   49926656.9374080     
   49926673.9964987     
   49926695.7070054     
   49926721.9507833     
   49926752.5998638     
   49926787.5167353     
   49926826.5546259     
   49926869.5577858     
   49926916.3617706     
   49926966.7937234     
   49927020.6726570     
   49927077.8097329     
   49927138.0085405     
   49927201.0653718     
   49927266.7694953     
   49927334.9034257     
   49927405.2431911     
   49927477.5585969     
   49927551.6134854     
   49927627.1659927     
   49927703.9688012     
   49927781.7693888     
   49927860.3102736     
   49927939.3292558     
   49928018.5596544     
   49928097.7305419     
   49928176.5669734     
   49928254.7902142     
   49928332.1179617     
   49928408.2645660     
   49928482.9412457     
   49928555.8563013     
   49928626.7153253     
   49928695.2214095     
   49928761.0753496     
   49928823.9758469     
   49928883.6197078     
   49928939.7020403     
   49928991.9164488     
   49929039.9552265     
   49929083.5095452     
   49929122.2696436     
   49929155.9250131     
   49929184.1645822     
   49929206.6768986     
   49929223.1503095     
   49929233.2731404     
   49929236.7338717     
   49921008.5190605     
   49921011.1423293     
   49921018.9485542     
   49921031.8349393     
   49921049.6889193     
   49921072.3883702     
   49921099.8018252     
   49921131.7886954     
   49921168.1994938     
   49921208.8760629     
   49921253.6518054     
   49921302.3519161     
   49921354.7936162     
   49921410.7863880     
   49921470.1322114     
   49921532.6257990     
   49921598.0548328     
   49921666.2001993     
   49921736.8362242     
   49921809.7309062     
   49921884.6461494     
   49921961.3379945     
   49922039.5568477     
   49922119.0477087     
   49922199.5503961     
   49922280.7997711     
   49922362.5259594     
   49922444.4545698     
   49922526.3069123     
   49922607.8002127     
   49922688.6478257     
   49922768.5594454     
   49922847.2413140     
   49922924.3964281     
   49922999.7247431     
   49923072.9233755     
   49923143.6868034     
   49923211.7070644     
   49923276.6739529     
   49923338.2752148     
   49923396.1967400     
   49923450.1227549     
   49923499.7360116     
   49923544.7179767     
   49923584.7490186     
   49923619.5085928     
   49923648.6754270     
   49923671.9277042     
   49923688.9432447     
   49923699.3996880     
   49923702.9746731     
   49915133.4012825     
   49915136.1822322     
   49915144.4489329     
   49915158.0803416     
   49915176.9464225     
   49915200.9083099     
   49915229.8184784     
   49915263.5209168     
   49915301.8513085     
   49915344.6372155     
   49915391.6982659     
   49915442.8463455     
   49915497.8857917     
   49915556.6135907     
   49915618.8195756     
   49915684.2866276     
   49915752.7908772     
   49915824.1019078     
   49915897.9829589     
   49915974.1911308     
   49916052.4775888     
   49916132.5877681     
   49916214.2615781     
   49916297.2336065     
   49916381.2333232     
   49916465.9852832     
   49916551.2093295     
   49916636.6207939     
   49916721.9306985     
   49916806.8459556     
   49916891.0695657     
   49916974.3008166     
   49917056.2354793     
   49917136.5660042     
   49917214.9817161     
   49917291.1690076     
   49917364.8115323     
   49917435.5903964     
   49917503.1843497     
   49917567.2699757     
   49917627.5218810     
   49917683.6128835     
   49917735.2142004     
   49917781.9956353     
   49917823.6257651     
   49917859.7721256     
   49917890.1013977     
   49917914.2795929     
   49917931.9722384     
   49917942.8445627     
   49917946.5616805     
   49908971.7683494     
   49908974.7359333     
   49908983.5488239     
   49908998.0659154     
   49909018.1377636     
   49909043.6067143     
   49909074.3070376     
   49909110.0650680     
   49909150.6993499     
   49909196.0207881     
   49909245.8328024     
   49909299.9314869     
   49909358.1057719     
   49909420.1375905     
   49909485.8020468     
   49909554.8675883     
   49909627.0961788     
   49909702.2434753     
   49909780.0590053     
   49909860.2863465     
   49909942.6633071     
   49910026.9221087     
   49910112.7895681     
   49910199.9872821     
   49910288.2318107     
   49910377.2348632     
   49910466.7034826     
   49910556.3402316     
   49910645.8433784     
   49910734.9070825     
   49910823.2215807     
   49910910.4733735     
   49910996.3454106     
   49911080.5172770     
   49911162.6653794     
   49911242.4631313     
   49911319.5811396     
   49911393.6873900     
   49911464.4474327     
   49911531.5245688     
   49911594.5800356     
   49911653.2731933     
   49911707.2617106     
   49911756.2017519     
   49911799.7481637     
   49911837.5546623     
   49911869.2740215     
   49911894.5582611     
   49911913.0588364     
   49911924.4268280     
   49911928.3131334     
   49902486.9622489     
   49902490.1420928     
   49902499.5772311     
   49902515.1051648     
   49902536.5555831     
   49902563.7504659     
   49902596.5041934     
   49902634.6236608     
   49902677.9083989     
   49902726.1506989     
   49902779.1357430     
   49902836.6417380     
   49902898.4400545     
   49902964.2953683     
   49903033.9658068     
   49903107.2030972     
   49903183.7527186     
   49903263.3540568     
   49903345.7405610     
   49903430.6399033     
   49903517.7741406     
   49903606.8598774     
   49903697.6084314     
   49903789.7260000     
   49903882.9138295     
   49903976.8683835     
   49904071.2815148     
   49904165.8406371     
   49904260.2288982     
   49904354.1253542     
   49904447.2051447     
   49904539.1396685     
   49904629.5967608     
   49904718.2408708     
   49904804.7332398     
   49904888.7320813     
   49904969.8927605     
   49905047.8679754     
   49905122.3079389     
   49905192.8605613     
   49905259.1716343     
   49905320.8850152     
   49905377.6428132     
   49905429.0855761     
   49905474.8524784     
   49905514.5815111     
   49905547.9096722     
   49905574.4731595     
   49905593.9075645     
   49905605.8480689     
   49905609.9296418     
   49895642.7961411     
   49895646.2111228     
   49895656.3365540     
   49895672.9875606     
   49895695.9718547     
   49895725.0898207     
   49895760.1346075     
   49895800.8922265     
   49895847.1416540     
   49895898.6549389     
   49895955.1973153     
   49896016.5273189     
   49896082.3969078     
   49896152.5515875     
   49896226.7305393     
   49896304.6667521     
   49896386.0871579     
   49896470.7127699     
   49896558.2588241     
   49896648.4349232     
   49896740.9451833     
   49896835.4883829     
   49896931.7581149     
   49897029.4429394     
   49897128.2265403     
   49897227.7878827     
   49897327.8013726     
   49897427.9370184     
   49897527.8605942     
   49897627.2338049     
   49897725.7144524     
   49897822.9566046     
   49897918.6107644     
   49898012.3240416     
   49898103.7403257     
   49898192.5004608     
   49898278.2424212     
   49898360.6014896     
   49898439.2104364     
   49898513.6997008     
   49898583.6975737     
   49898648.8303824     
   49898708.7226769     
   49898762.9974190     
   49898811.2761722     
   49898853.1792952     
   49898888.3261362     
   49898916.3352311     
   49898936.8245029     
   49898949.4114648     
   49898953.7134255     
   49888403.1478208     
   49888406.8186689     
   49888417.6961438     
   49888435.5722492     
   49888460.2318497     
   49888491.4527474     
   49888529.0057645     
   49888572.6548294     
   49888622.1570694     
   49888677.2629059     
   49888737.7161563     
   49888803.2541381     
   49888873.6077783     
   49888948.5017264     
   49889027.6544712     
   49889110.7784605     
   49889197.5802253     
   49889287.7605065     
   49889381.0143852     
   49889477.0314157     
   49889575.4957618     
   49889676.0863353     
   49889778.4769381     
   49889882.3364059     
   49889987.3287555     
   49890093.1133333     
   49890199.3449678     
   49890305.6741228     
   49890411.7470538     
   49890517.2059671     
   49890621.6891797     
   49890724.8312830     
   49890826.2633074     
   49890925.6128901     
   49891022.5044448     
   49891116.5593328     
   49891207.3960380     
   49891294.6303429     
   49891377.8755072     
   49891456.7424492     
   49891530.8399293     
   49891599.7747364     
   49891663.1518764     
   49891720.5747638     
   49891771.6454160     
   49891815.9646509     
   49891853.1322867     
   49891882.7473462     
   49891904.4082628     
   49891917.7130916     
   49891922.2597230     
   49880731.5865303     
   49880735.5324031     
   49880747.2190533     
   49880766.4147576     
   49880792.8808135     
   49880826.3716113     
   49880866.6347124     
   49880913.4109298     
   49880966.4344153     
   49881025.4327490     
   49881090.1270340     
   49881160.2319947     
   49881235.4560788     
   49881315.5015634     
   49881400.0646646     
   49881488.8356504     
   49881581.4989575     
   49881677.7333108     
   49881777.2118468     
   49881879.6022398     
   49881984.5668312     
   49882091.7627618     
   49882200.8421076     
   49882311.4520171     
   49882423.2348535     
   49882535.8283376     
   49882648.8656951     
   49882761.9758057     
   49882874.7833553     
   49882986.9089907     
   49883097.9694772     
   49883207.5778588     
   49883315.3436212     
   49883420.8728573     
   49883523.7684361     
   49883623.6301732     
   49883720.0550055     
   49883812.6371681     
   49883900.9683738     
   49883984.6379966     
   49884063.2332578     
   49884136.3394146     
   49884203.5399534     
   49884264.4167855     
   49884318.5504466     
   49884365.5203000     
   49884404.9047434     
   49884436.2814200     
   49884459.2274330     
   49884473.3195652     
   49884478.1345022     
   49872591.0278002     
   49872595.2668225     
   49872607.8167207     
   49872628.4215097     
   49872656.8182782     
   49872692.7372621     
   49872735.9019208     
   49872786.0290188     
   49872842.8287099     
   49872906.0046263     
   49872975.2539706     
   49873050.2676116     
   49873130.7301841     
   49873216.3201918     
   49873306.7101136     
   49873401.5665139     
   49873500.5501553     
   49873603.3161155     
   49873709.5139068     
   49873818.7875994     
   49873930.7759474     
   49874045.1125178     
   49874161.4258232     
   49874279.3394571     
   49874398.4722324     
   49874518.4383230     
   49874638.8474084     
   49874759.3048213     
   49874879.4116983     
   49874998.7651336     
   49875116.9583359     
   49875233.5807881     
   49875348.2184110     
   49875460.4537286     
   49875569.8660384     
   49875676.0315837     
   49875778.5237300     
   49875876.9131442     
   49875970.7679780     
   49876059.6540542     
   49876143.1350573     
   49876220.7727273     
   49876292.1270578     
   49876356.7564981     
   49876414.2181589     
   49876464.0680233     
   49876505.8611613     
   49876539.1519494     
   49876563.4942944     
   49876578.4418632     
   49876583.5483163     
   49863943.4116004     
   49863947.9613462     
   49863961.4269150     
   49863983.5275374     
   49864013.9754738     
   49864052.4760916     
   49864098.7279455     
   49864152.4228610     
   49864213.2460218     
   49864280.8760601     
   49864354.9851505     
   49864435.2391068     
   49864521.2974825     
   49864612.8136742     
   49864709.4350287     
   49864810.8029528     
   49864916.5530266     
   49865026.3151202     
   49865139.7135129     
   49865256.3670163     
   49865375.8891003     
   49865497.8880222     
   49865621.9669592     
   49865747.7241438     
   49865874.7530027     
   49866002.6422985     
   49866130.9762752     
   49866259.3348068     
   49866387.2935488     
   49866514.4240935     
   49866640.2941286     
   49866764.4675990     
   49866886.5048724     
   49867005.9629084     
   49867122.3954308     
   49867235.3531046     
   49867344.3837155     
   49867449.0323544     
   49867548.8416048     
   49867643.3517357     
   49867732.1008973     
   49867814.6253217     
   49867890.4595279     
   49867959.1365314     
   49868020.1880585     
   49868073.1447657     
   49868117.5364637     
   49868152.8923468     
   49868178.7412275     
   49868194.6117773     
   49868200.0327724     
   49854749.3995770     
   49854754.2774929     
   49854768.7107474     
   49854792.3932318     
   49854825.0117350     
   49854866.2460277     
   49854915.7689484     
   49854973.2464934     
   49855038.3379088     
   49855110.6957858     
   49855189.9661590     
   49855275.7886070     
   49855367.7963570     
   49855465.6163916     
   49855568.8695588     
   49855677.1706854     
   49855790.1286927     
   49855907.3467160     
   49856028.4222267     
   49856152.9471580     
   49856280.5080334     
   49856410.6860982     
   49856543.0574547     
   49856677.1932007     
   49856812.6595706     
   49856949.0180807     
   49857085.8256772     
   49857222.6348884     
   49857358.9939792     
   49857494.4471111     
   49857628.5345035     
   49857760.7926009     
   49857890.7542422     
   49858017.9488350     
   49858141.9025335     
   49858262.1384202     
   49858378.1766923     
   49858489.5348518     
   49858595.7279008     
   49858696.2685404     
   49858790.6673747     
   49858878.4331199     
   49858959.0728180     
   49859032.0920551     
   49859096.9951862     
   49859153.2855642     
   49859200.4657750     
   49859238.0378785     
   49859265.5036553     
   49859282.3648598     
   49859288.1234794     
   49844968.0875235     
   49844973.3112954     
   49844988.7649202     
   49845014.1163291     
   49845049.0261390     
   49845093.1477454     
   49845146.1274170     
   49845207.6043937     
   49845277.2109862     
   49845354.5726781     
   49845439.3082315     
   49845531.0297941     
   49845629.3430094     
   49845733.8471301     
   49845844.1351331     
   49845959.7938388     
   49846080.4040321     
   49846205.5405871     
   49846334.7725938     
   49846467.6634896     
   49846603.7711919     
   49846742.6482355     
   49846883.8419119     
   49847026.8944131     
   49847171.3429783     
   49847316.7200436     
   49847462.5533956     
   49847608.3663293     
   49847753.6778080     
   49847898.0026290     
   49848040.8515912     
   49848181.7316685     
   49848320.1461859     
   49848455.5950003     
   49848587.5746856     
   49848715.5787222     
   49848839.0976910     
   49848957.6194719     
   49849070.6294477     
   49849177.6107116     
   49849278.0442817     
   49849371.4093188     
   49849457.1833513     
   49849534.8425044     
   49849603.8617354     
   49849663.7150755     
   49849713.8758771     
   49849753.8170676     
   49849783.0114096     
   49849800.9317681     
   49849807.0513846     
   49834556.7295619     
   49834562.3174275     
   49834578.8456988     
   49834605.9556358     
   49834643.2808994     
   49834690.4476549     
   49834747.0746771     
   49834812.7734576     
   49834887.1483146     
   49834969.7965041     
   49835060.3083336     
   49835158.2672781     
   49835263.2500987     
   49835374.8269634     
   49835492.5615706     
   49835616.0112751     
   49835744.7272172     
   49835878.2544542     
   49836016.1320947     
   49836157.8934369     
   49836303.0661082     
   49836451.1722096     
   49836601.7284626     
   49836754.2463595     
   49836908.2323172     
   49837063.1878345     
   49837218.6096528     
   49837373.9899215     
   49837528.8163655     
   49837682.5724587     
   49837834.7375997     
   49837984.7872931     
   49838132.1933346     
   49838276.4239999     
   49838416.9442395     
   49838553.2158771     
   49838684.6978133     
   49838810.8462343     
   49838931.1148258     
   49839044.9549921     
   49839151.8160808     
   49839251.1456131     
   49839342.3895200     
   49839424.9923845     
   49839498.3976901     
   49839562.0480754     
   49839615.3855961     
   49839657.8519930     
   49839688.8889676     
   49839707.9384646     
   49839714.4429627     
   49823470.4707699     
   49823476.4417842     
   49823494.1013541     
   49823523.0632491     
   49823562.9332874     
   49823613.3094525     
   49823673.7820095     
   49823743.9336245     
   49823823.3394843     
   49823911.5674193     
   49824008.1780273     
   49824112.7247996     
   49824224.7542497     
   49824343.8060436     
   49824469.4131328     
   49824601.1018901     
   49824738.3922472     
   49824880.7978357     
   49825027.8261306     
   49825178.9785968     
   49825333.7508385     
   49825491.6327520     
   49825652.1086814     
   49825814.6575781     
   49825978.7531635     
   49826143.8640950     
   49826309.4541369     
   49826474.9823337     
   49826639.9031883     
   49826803.6668443     
   49826965.7192721     
   49827125.5024596     
   49827282.4546081     
   49827436.0103315     
   49827585.6008619     
   49827730.6542592     
   49827870.5956262     
   49828004.8473292     
   49828132.8292235     
   49828253.9588859     
   49828367.6518513     
   49828473.3218570     
   49828570.3810927     
   49828658.2404564     
   49828736.3098179     
   49828803.9982890     
   49828860.7145004     
   49828905.8668865     
   49828938.8639777     
   49828959.1147001     
   49828966.0286844     
   49811662.0852306     
   49811668.4594900     
   49811687.3100519     
   49811718.2222540     
   49811760.7730698     
   49811814.5312373     
   49811879.0573896     
   49811953.9041856     
   49812038.6164434     
   49812132.7312743     
   49812235.7782190     
   49812347.2793851     
   49812466.7495871     
   49812593.6964882     
   49812727.6207442     
   49812868.0161498     
   49813014.3697878     
   49813166.1621801     
   49813322.8674424     
   49813483.9534405     
   49813648.8819513     
   49813817.1088252     
   49813988.0841529     
   49814161.2524355     
   49814336.0527576     
   49814511.9189646     
   49814688.2798437     
   49814864.5593091     
   49815040.1765907     
   49815214.5464279     
   49815387.0792674     
   49815557.1814658     
   49815724.2554967     
   49815887.7001633     
   49816046.9108157     
   49816201.2795734     
   49816350.1955539     
   49816493.0451064     
   49816629.2120517     
   49816758.0779280     
   49816879.0222432     
   49816991.4227335     
   49817094.6556289     
   49817188.0959256     
   49817271.1176655     
   49817343.0942233     
   49817403.3986008     
   49817451.4037300     
   49817486.4827836     
   49817508.0094941     
   49817515.3584822     
   49799081.7166836     
   49799088.5155164     
   49799108.6203709     
   49799141.5870828     
   49799186.9626517     
   49799244.2853846     
   49799313.0850401     
   49799392.8829736     
   49799483.1922834     
   49799583.5179585     
   49799693.3570276     
   49799812.1987096     
   49799939.5245663     
   49800074.8086566     
   49800217.5176931     
   49800367.1112006     
   49800523.0416772     
   49800684.7547580     
   49800851.6893813     
   49801023.2779579     
   49801198.9465428     
   49801378.1150112     
   49801560.1972365     
   49801744.6012727     
   49801930.7295400     
   49802117.9790145     
   49802305.7414213     
   49802493.4034328     
   49802680.3468698     
   49802865.9489090     
   49803049.5822928     
   49803230.6155464     
   49803408.4131983     
   49803582.3360062     
   49803751.7411893     
   49803915.9826649     
   49804074.4112919     
   49804226.3751199     
   49804371.2196441     
   49804508.2880680     
   49804636.9215709     
   49804756.4595842     
   49804866.2400738     
   49804965.5998300     
   49805053.8747655     
   49805130.4002211     
   49805194.5112793     
   49805245.5430871     
   49805282.8311868     
   49805305.7118564     
   49805313.5224591     
   49785676.6191386     
   49785683.8652689     
   49785705.2918123     
   49785740.4238960     
   49785788.7772843     
   49785849.8585367     
   49785923.1651675     
   49786008.1858055     
   49786104.4003548     
   49786211.2801571     
   49786328.2881545     
   49786454.8790543     
   49786590.4994956     
   49786734.5882173     
   49786886.5762279     
   49787045.8869785     
   49787211.9365367     
   49787384.1337640     
   49787561.8804958     
   49787744.5717235     
   49787931.5957808     
   49788122.3345320     
   49788316.1635645     
   49788512.4523844     
   49788710.5646163     
   49788909.8582064     
   49789109.6856303     
   49789309.3941048     
   49789508.3258040     
   49789705.8180807     
   49789901.2036918     
   49790093.8110297     
   49790282.9643585     
   49790467.9840556     
   49790648.1868594     
   49790822.8861226     
   49790991.3920720     
   49791153.0120741     
   49791307.0509084     
   49791452.8110462     
   49791589.5929380     
   49791716.6953067     
   49791833.4154503     
   49791939.0495504     
   49792032.8929911     
   49792114.2406841     
   49792182.3874047     
   49792236.6281355     
   49792276.2584197     
   49792300.5747242     
   49792308.8748131     
   49771390.8949805     
   49771398.6126716     
   49771421.4328240     
   49771458.8485111     
   49771510.3428622     
   49771575.3892365     
   49771653.4513990     
   49771743.9836955     
   49771846.4312292     
   49771960.2300380     
   49772084.8072730     
   49772219.5813785     
   49772363.9622729     
   49772517.3515323     
   49772679.1425752     
   49772848.7208499     
   49773025.4640234     
   49773208.7421741     
   49773397.9179856     
   49773592.3469450     
   49773791.3775424     
   49773994.3514758     
   49774200.6038576     
   49774409.4634258     
   49774620.2527588     
   49774832.2884943     
   49775044.8815521     
   49775257.3373618     
   49775468.9560956     
   49775679.0329044     
   49775886.8581613     
   49776091.7177084     
   49776292.8931103     
   49776489.6619128     
   49776681.2979088     
   49776867.0714086     
   49777046.2495186     
   49777218.0964253     
   49777381.8736875     
   49777536.8405351     
   49777682.2541754     
   49777817.3701081     
   49777941.4424474     
   49778053.7242531     
   49778153.4678707     
   49778239.9252793     
   49778312.3484507     
   49778369.9897162     
   49778412.1021454     
   49778437.9399331     
   49778446.7587992     
   49756165.2282322     
   49756173.4434160     
   49756197.7340090     
   49756237.5595433     
   49756292.3689722     
   49756361.6008612     
   49756444.6835802     
   49756541.0354956     
   49756650.0651634     
   49756771.1715225     
   49756903.7440898     
   49757047.1631563     
   49757200.7999844     
   49757364.0170072     
   49757536.1680297     
   49757716.5984318     
   49757904.6453741     
   49758099.6380056     
   49758300.8976744     
   49758507.7381418     
   49758719.4657989     
   49758935.3798863     
   49759154.7727187     
   49759376.9299116     
   49759601.1306133     
   49759826.6477404     
   49760052.7482185     
   49760278.6932263     
   49760503.7384459     
   49760727.1343175     
   49760948.1263001     
   49761165.9551369     
   49761379.8571274     
   49761589.0644056     
   49761792.8052238     
   49761990.3042438     
   49762180.7828348     
   49762363.4593788     
   49762537.5495824     
   49762702.2667979     
   49762856.8223510     
   49763000.4258780     
   49763132.2856708     
   49763251.6090316     
   49763357.6026362     
   49763449.4729073     
   49763526.4263980     
   49763587.6701851     
   49763632.4122733     
   49763659.8620106     
   49763669.2305147     
   49739936.6107697     
   49739945.3511683     
   49739971.1943082     
   49740013.5645495     
   49740071.8749842     
   49740145.5276455     
   49740233.9137177     
   49740336.4137458     
   49740452.3978458     
   49740581.2259162     
   49740722.2478500     
   49740874.8037477     
   49741038.2241331     
   49741211.8301690     
   49741394.9338757     
   49741586.8383518     
   49741786.8379972     
   49741994.2187379     
   49742208.2582550     
   49742428.2262153     
   49742653.3845060     
   49742882.9874730     
   49743116.2821620     
   49743352.5085646     
   49743590.8998676     
   49743830.6827076     
   49744071.0774298     
   49744311.2983513     
   49744550.5540309     
   49744788.0475426     
   49745022.9767561     
   49745254.5346224     
   49745481.9094665     
   49745704.2852851     
   49745920.8420528     
   49746130.7560344     
   49746333.2001041     
   49746527.3440734     
   49746712.3550260     
   49746887.3976616     
   49747051.6346480     
   49747204.2269818     
   49747344.3343588     
   49747471.1155538     
   49747583.7288098     
   49747681.3322382     
   49747763.0842296     
   49747828.1438748     
   49747875.6713978     
   49747904.8286007     
   49747914.7793205     
   49722638.0593889     
   49722647.3546335     
   49722674.8380574     
   49722719.8970721     
   49722781.9070765     
   49722860.2316847     
   49722954.2229550     
   49723063.2216177     
   49723186.5573044     
   49723323.5487781     
   49723473.5041634     
   49723635.7211789     
   49723809.4873702     
   49723994.0803453     
   49724188.7680115     
   49724392.8088146     
   49724605.4519807     
   49724825.9377602     
   49725053.4976749     
   49725287.3547685     
   49725526.7238601     
   49725770.8118014     
   49726018.8177382     
   49726269.9333751     
   49726523.3432456     
   49726778.2249861     
   49727033.7496151     
   49727289.0818177     
   49727543.3802352     
   49727795.7977605     
   49728045.4818397     
   49728291.5747797     
   49728533.2140627     
   49728769.5326670     
   49728999.6593952     
   49729222.7192104     
   49729437.8335794     
   49729644.1208242     
   49729840.6964821     
   49730026.6736746     
   49730201.1634850     
   49730363.2753460     
   49730512.1174362     
   49730646.7970882     
   49730766.4212059     
   49730870.0966931     
   49730956.9308941     
   49731026.0320451     
   49731076.5097381     
   49731107.4753980     
   49731118.0427712     
   49704198.3217033     
   49704208.2034553     
   49704237.4208947     
   49704285.3225604     
   49704351.2441759     
   49704434.5088971     
   49704534.4275608     
   49704650.2989330     
   49704781.4099576     
   49704927.0360063     
   49705086.4411292     
   49705258.8783060     
   49705443.5897002     
   49705639.8069139     
   49705846.7512444     
   49706063.6339441     
   49706289.6564821     
   49706524.0108086     
   49706765.8796227     
   49707014.4366433     
   49707268.8468834     
   49707528.2669283     
   49707791.8452177     
   49708058.7223327     
   49708328.0312865     
   49708598.8978208     
   49708870.4407067     
   49709141.7720519     
   49709411.9976126     
   49709680.2171119     
   49709945.5245649     
   49710207.0086099     
   49710463.7528467     
   49710714.8361820     
   49710959.3331829     
   49711196.3144375     
   49711424.8469244     
   49711643.9943909     
   49711852.8177392     
   49712050.3754229     
   49712235.7238527     
   49712407.9178122     
   49712566.0108841     
   49712709.0558874     
   49712836.1053257     
   49712946.2118469     
   49713038.4287159     
   49713111.8102981     
   49713165.4125578     
   49713198.2935688     
   49713209.5140391     
   49684541.5689177     
   49684552.0709990     
   49684583.1225678     
   49684634.0312158     
   49684704.0908550     
   49684792.5819865     
   49684898.7719703     
   49685021.9152945     
   49685161.2538459     
   49685316.0171807     
   49685485.4227962     
   49685668.6764044     
   49685864.9722063     
   49686073.4931690     
   49686293.4113038     
   49686523.8879480     
   49686764.0740479     
   49687013.1104456     
   49687270.1281688     
   49687534.2487240     
   49687804.5843932     
   49688080.2385350     
   49688360.3058895     
   49688643.8728885     
   49688930.0179696     
   49689217.8118960     
   49689506.3180819     
   49689794.5929233     
   49690081.6861350     
   49690366.6410937     
   49690648.4951886     
   49690926.2801778     
   49691199.0225531     
   49691465.7439121     
   49691725.4613378     
   49691977.1877879     
   49692219.9324912     
   49692452.7013548     
   49692674.4973789     
   49692884.3210837     
   49693081.1709445     
   49693264.0438387     
   49693431.9355037     
   49693583.8410060     
   49693718.7552226     
   49693835.6733346     
   49693933.5913335     
   49694011.5065416     
   49694068.4181451     
   49694103.3277425     
   49694115.2399071     
   49663587.0735552     
   49663598.2320916     
   49663631.2247141     
   49663685.3158381     
   49663759.7552685     
   49663853.7784913     
   49663966.6069666     
   49664097.4484203     
   49664245.4971373     
   49664409.9342556     
   49664589.9280608     
   49664784.6342826     
   49664993.1963926     
   49665214.7459044     
   49665448.4026756     
   49665693.2752120     
   49665948.4609756     
   49666213.0466948     
   49666486.1086780     
   49666766.7131309     
   49667053.9164784     
   49667346.7656894     
   49667644.2986076     
   49667945.5442857     
   49668249.5233259     
   49668555.2482251     
   49668861.7237263     
   49669167.9471756     
   49669472.9088860     
   49669775.5925078     
   49670074.9754063     
   49670370.0290463     
   49670659.7193852     
   49670943.0072736     
   49671218.8488646     
   49671486.1960323     
   49671743.9967990     
   49671991.1957726     
   49672226.7345937     
   49672449.5523937     
   49672658.5862628     
   49672852.7717308     
   49673031.0432583     
   49673192.3347411     
   49673335.5800268     
   49673459.7134453     
   49673563.6703517     
   49673646.3876849     
   49673706.8045401     
   49673743.8627564     
   49673756.5075209     
   49641248.8702287     
   49641260.7238128     
   49641295.7717099     
   49641353.2327685     
   49641432.3102240     
   49641532.1920157     
   49641652.0511035     
   49641791.0457852     
   49641948.3200139     
   49642123.0037165     
   49642314.2131141     
   49642521.0510428     
   49642742.6072769     
   49642977.9588543     
   49643226.1704038     
   49643486.2944756     
   49643757.3718741     
   49644038.4319946     
   49644328.4931628     
   49644626.5629792     
   49644931.6386666     
   49645242.7074226     
   49645558.7467769     
   49645878.7249531     
   49646201.6012372     
   49646526.3263504     
   49646851.8428285     
   49647177.0854084     
   49647500.9814208     
   49647822.4511892     
   49648140.4084381     
   49648453.7607078     
   49648761.4097778     
   49649062.2520989     
   49649355.1792344     
   49649639.0783101     
   49649912.8324749     
   49650175.3213714     
   49650425.4216171     
   49650662.0072965     
   49650883.9504655     
   49651090.1216670     
   49651279.3904596     
   49651450.6259594     
   49651602.6973948     
   49651734.4746758     
   49651844.8289779     
   49651932.6333405     
   49651996.7632821     
   49652036.0974307     
   49652049.5181716     
   49617435.3975229     
   49617447.9874040     
   49617485.2126562     
   49617546.2440002     
   49617630.2354636     
   49617736.3247243     
   49617863.6334541     
   49618011.2676622     
   49618178.3180401     
   49618363.8603075     
   49618566.9555590     
   49618786.6506128     
   49619021.9783614     
   49619271.9581243     
   49619535.5960035     
   49619811.8852417     
   49620099.8065833     
   49620398.3286396     
   49620706.4082573     
   49621022.9908906     
   49621347.0109789     
   49621677.3923280     
   49622013.0484973     
   49622352.8831918     
   49622695.7906597     
   49623040.6560968     
   49623386.3560568     
   49623731.7588680     
   49624075.7250583     
   49624417.1077866     
   49624754.7532827     
   49625087.5012952     
   49625414.1855486     
   49625733.6342088     
   49626044.6703586     
   49626346.1124834     
   49626636.7749665     
   49626915.4685959     
   49627181.0010826     
   49627432.1775898     
   49627667.8012755     
   49627886.6738470     
   49628087.5961294     
   49628269.3686470     
   49628430.7922204     
   49628570.6685773     
   49628687.8009796     
   49628780.9948659     
   49628849.0585119     
   49628890.8037064     
   49628905.0464466     
   49592049.1189993     
   49592062.4893057     
   49592102.0225137     
   49592166.8384738     
   49592256.0391774     
   49592368.7091297     
   49592503.9157217     
   49592660.7096042     
   49592838.1250615     
   49593035.1803873     
   49593250.8782609     
   49593484.2061266     
   49593734.1365739     
   49593999.6277209     
   49594279.6236002     
   49594573.0545478     
   49594878.8375956     
   49595195.8768667     
   49595523.0639762     
   49595859.2784347     
   49596203.3880578     
   49596554.2493796     
   49596910.7080717     
   49597271.5993687     
   49597635.7484989     
   49598001.9711213     
   49598369.0737702     
   49598735.8543060     
   49599101.1023744     
   49599463.5998728     
   49599822.1214257     
   49600175.4348680     
   49600522.3017389     
   49600861.4777835     
   49601191.7134662     
   49601511.7544937     
   49601820.3423493     
   49602116.2148387     
   49602398.1066473     
   49602664.7499110     
   49602914.8747988     
   49603147.2101100     
   49603360.4838847     
   49603553.4240296     
   49603724.7589588     
   49603873.2182500     
   49603997.5333181     
   49604096.4381052     
   49604168.6697883     
   49604212.9695062     
   49604228.0831044     
   49564986.1212298     
   49565000.3192342     
   49565042.3003034     
   49565111.1304769     
   49565205.8566747     
   49565325.5071019     
   49565469.0916539     
   49565635.6023216     
   49565824.0135993     
   49566033.2828917     
   49566262.3509247     
   49566510.1421567     
   49566775.5651930     
   49567057.5132024     
   49567354.8643368     
   49567666.4821539     
   49567991.2160442     
   49568327.9016607     
   49568675.3613538     
   49569032.4046100     
   49569397.8284965     
   49569770.4181098     
   49570148.9470310     
   49570532.1777866     
   49570918.8623154     
   49571307.7424427     
   49571697.5503611     
   49572087.0091194     
   49572474.8331187     
   49572859.7286175     
   49573240.3942450     
   49573615.5215243     
   49573983.7954045     
   49574343.8948036     
   49574694.4931615     
   49575034.2590044     
   49575361.8565209     
   49575675.9461497     
   49575975.1851803     
   49576258.2283671     
   49576523.7285568     
   49576770.3373304     
   49576996.7056599     
   49577201.4845810     
   49577383.3258812     
   49577540.8828057     
   49577672.8107794     
   49577777.7681486     
   49577854.4169404     
   49577901.4236419     
   49577917.4600002     
   49536135.6866215     
   49536150.7630565     
   49536195.3421310     
   49536268.4329129     
   49536369.0239852     
   49536496.0838864     
   49536648.5615519     
   49536825.3867560     
   49537025.4705543     
   49537247.7057294     
   49537490.9672366     
   49537754.1126532     
   49538035.9826293     
   49538335.4013420     
   49538651.1769526     
   49538982.1020667     
   49539326.9541987     
   49539684.4962407     
   49540053.4769342     
   49540432.6313490     
   49540820.6813649     
   49541216.3361609     
   49541618.2927087     
   49542025.2362734     
   49542435.8409206     
   49542848.7700304     
   49543262.6768194     
   49543676.2048695     
   49544087.9886659     
   49544496.6541440     
   49544900.8192445     
   49545299.0944791     
   49545690.0835060     
   49546072.3837157     
   49546444.5868286     
   49546805.2795037     
   49547153.0439599     
   49547486.4586094     
   49547804.0987056     
   49548104.5370034     
   49548386.3444351     
   49548648.0908010     
   49548888.3454758     
   49549105.6781314     
   49549298.6594766     
   49549465.8620148     
   49549605.8608203     
   49549717.2343334     
   49549798.5651756     
   49549848.4409858     
   49549865.4552778     
   49505379.8385695     
   49505395.8480061     
   49505443.1865856     
   49505520.8029947     
   49505627.6239537     
   49505762.5546981     
   49505924.4794591     
   49506112.2619464     
   49506324.7458323     
   49506560.7552368     
   49506819.0952154     
   49507098.5522492     
   49507397.8947377     
   49507715.8734939     
   49508051.2222436     
   49508402.6581276     
   49508768.8822087     
   49509148.5799816     
   49509540.4218896     
   49509943.0638437     
   49510355.1477494     
   49510775.3020377     
   49511202.1422028     
   49511634.2713470     
   49512070.2807306     
   49512508.7503315     
   49512948.2494105     
   49513387.3370863     
   49513824.5629185     
   49514258.4674993     
   49514687.5830559     
   49515110.4340616     
   49515525.5378592     
   49515931.4052936     
   49516326.5413572     
   49516709.4458477     
   49517078.6140378     
   49517432.5373590     
   49517769.7040986     
   49518088.6001125     
   49518387.7095516     
   49518665.5156057     
   49518920.5012627     
   49519151.1500860     
   49519355.9470092     
   49519533.3791500     
   49519681.9366434     
   49519800.1134954     
   49519886.4084573     
   49519939.3259228     
   49519957.3768469     
   49472592.8561862     
   49472609.8574867     
   49472660.1297604     
   49472742.5576176     
   49472856.0020929     
   49472999.3011712     
   49473171.2703149     
   49473370.7029915     
   49473596.3712039     
   49473847.0260220     
   49474121.3981163     
   49474418.1982947     
   49474736.1180414     
   49475073.8300595     
   49475429.9888167     
   49475803.2310948     
   49476192.1765435     
   49476595.4282387     
   49477011.5732450     
   49477439.1831843     
   49477876.8148096     
   49478323.0105841     
   49478776.2992678     
   49479235.1965096     
   49479698.2054474     
   49480163.8173156     
   49480630.5120605     
   49481096.7589642     
   49481561.0172770     
   49482021.7368608     
   49482477.3588402     
   49482926.3162658     
   49483367.0347879     
   49483797.9333416     
   49484217.4248442     
   49484623.9169051     
   49485015.8125499     
   49485391.5109567     
   49485749.4082088     
   49486087.8980617     
   49486405.3727259     
   49486700.2236670     
   49486970.8424229     
   49487215.6214389     
   49487432.9549217     
   49487621.2397141     
   49487778.8761885     
   49487904.2691635     
   49487995.8288417     
   49488051.9717709     
   49488071.1218299     
   49437640.7554566     
   49437658.8123153     
   49437712.2067540     
   49437799.7552780     
   49437920.2490655     
   49438072.4545443     
   49438255.1139712     
   49438466.9460119     
   49438706.6463228     
   49438972.8881352     
   49439264.3228414     
   49439579.5805836     
   49439917.2708460     
   49440275.9830497     
   49440654.2871515     
   49441050.7342464     
   49441463.8571743     
   49441892.1711311     
   49442334.1742858     
   49442788.3484009     
   49443253.1594604     
   49443727.0583027     
   49444208.4812603     
   49444695.8508068     
   49445187.5762101     
   49445682.0541944     
   49446177.6696102     
   49446672.7961127     
   49447165.7968495     
   49447655.0251580     
   49448138.8252733     
   49448615.5330464     
   49449083.4766743     
   49449540.9774412     
   49449986.3504735     
   49450417.9055066     
   49450833.9476664     
   49451232.7782650     
   49451612.6956117     
   49451971.9958394     
   49452308.9737487     
   49452621.9236677     
   49452909.1403319     
   49453168.9197815     
   49453399.5602793     
   49453599.3632494     
   49453766.6342367     
   49453899.6838897     
   49453996.8289663     
   49454056.3933642     
   49454076.7091763     
   49400380.7331531     
   49400399.9147412     
   49400456.6359907     
   49400549.6408798     
   49400677.6461500     
   49400839.3419437     
   49401033.3924409     
   49401258.4364996     
   49401513.0882971     
   49401795.9379732     
   49402105.5522764     
   49402440.4752126     
   49402799.2286963     
   49403180.3132061     
   49403582.2084425     
   49404003.3739906     
   49404442.2499870     
   49404897.2577902     
   49405366.8006574     
   49405849.2644255     
   49406343.0181985     
   49406846.4150404     
   49407357.7926748     
   49407875.4741919     
   49408397.7687621     
   49408922.9723580     
   49409449.3684844     
   49409975.2289174     
   49410498.8144522     
   49411018.3756621     
   49411532.1536663     
   49412038.3809097     
   49412535.2819545     
   49413021.0742831     
   49413493.9691148     
   49413952.1722352     
   49414393.8848412     
   49414817.3043988     
   49415220.6255189     
   49415602.0408481     
   49415959.7419768     
   49416291.9203664     
   49416596.7682942     
   49416872.4798186     
   49417117.2517653     
   49417329.2847344     
   49417506.7841305     
   49417647.9612167     
   49417751.0341921     
   49417814.2292963     
   49417835.7819392     
   49360660.5691681     
   49360680.9508978     
   49360741.2220218     
   49360840.0490970     
   49360976.0693633     
   49361147.8914473     
   49361354.0960689     
   49361593.2367489     
   49361863.8405184     
   49362164.4086309     
   49362493.4172760     
   49362849.3182964     
   49363230.5399075     
   49363635.4874200     
   49364062.5439667     
   49364510.0712321     
   49364976.4101869     
   49365459.8818267     
   49365958.7879156     
   49366471.4117346     
   49366996.0188363     
   49367530.8578050     
   49368074.1610232     
   49368624.1454455     
   49369179.0133792     
   49369736.9532729     
   49370296.1405137     
   49370854.7382327     
   49371410.8981202     
   49371962.7612506     
   49372508.4589185     
   49373046.1134845     
   49373573.8392345     
   49374089.7432502     
   49374591.9262930     
   49375078.4837023     
   49375547.5063073     
   49375997.0813553     
   49376425.2934551     
   49376830.2255379     
   49377209.9598364     
   49377562.5788813     
   49377886.1665187     
   49378178.8089472     
   49378438.5957768     
   49378663.6211103     
   49378851.9846480     
   49379001.7928176     
   49379111.1599287     
   49379178.2093552     
   49379201.0747451     
   49318317.9820541     
   49318339.6464802     
   49318403.7116001     
   49318508.7610897     
   49318653.3470380     
   49318835.9907304     
   49319055.1834336     
   49319309.3871817     
   49319597.0355644     
   49319916.5345170     
   49320266.2631124     
   49320644.5743559     
   49321049.7959828     
   49321480.2312582     
   49321934.1597808     
   49322409.8382898     
   49322905.5014759     
   49323419.3627963     
   49323949.6152942     
   49324494.4324236     
   49325051.9688789     
   49325620.3614304     
   49326197.7297659     
   49326782.1773394     
   49327371.7922260     
   49327964.6479850     
   49328558.8045310     
   49329152.3090136     
   49329743.1967065     
   49330329.4919057     
   49330909.2088396     
   49331480.3525887     
   49332040.9200180     
   49332588.9007213     
   49333122.2779796     
   49333639.0297326     
   49334137.1295651     
   49334614.5477097     
   49335069.2520650     
   49335499.2092320     
   49335902.3855677     
   49336276.7482591     
   49336620.2664166     
   49336930.9121887     
   49337206.6618989     
   49337445.4972060     
   49337645.4062891     
   49337804.3850575     
   49337920.4383878     
   49337991.5813891     
   49338015.8406972     
   49273179.9314522     
   49273202.9693283     
   49273271.0967124     
   49273382.8082528     
   49273536.5645383     
   49273730.7929725     
   49273963.8886501     
   49274234.2152339     
   49274540.1058329     
   49274879.8638830     
   49275251.7640287     
   49275654.0530070     
   49276084.9505337     
   49276542.6501917     
   49277025.3203231     
   49277531.1049232     
   49278058.1245382     
   49278604.4771670     
   49279168.2391666     
   49279747.4661618     
   49280340.1939604     
   49280944.4394726     
   49281558.2016368     
   49282179.4623516     
   49282806.1874138     
   49283436.3274641     
   49284067.8189408     
   49284698.5850405     
   49285326.5366895     
   49285949.5735235     
   49286565.5848774     
   49287172.4507874     
   49287768.0430027     
   49288350.2260117     
   49288916.8580794     
   49289465.7923006     
   49289994.8776662     
   49290501.9601468     
   49290984.8837916     
   49291441.4918459     
   49291869.6278865     
   49292267.1369773     
   49292631.8668448     
   49292961.6690758     
   49293254.4003383     
   49293507.9236255     
   49293720.1095258     
   49293888.8375192     
   49294011.9973011     
   49294087.4901355     
   49294113.2302385     
   49225061.8596827     
   49225086.3711874     
   49225158.8568330     
   49225277.7152617     
   49225441.3083662     
   49225647.9622704     
   49225895.9683109     
   49226183.5840195     
   49226509.0341056     
   49226870.5114408     
   49227266.1780434     
   49227694.1660653     
   49228152.5787796     
   49228639.4915704     
   49229152.9529239     
   49229690.9854230     
   49230251.5867430     
   49230832.7306512     
   49231432.3680095     
   49232048.4277803     
   49232678.8180367     
   49233321.4269772     
   49233974.1239448     
   49234634.7604525     
   49235301.1712138     
   49235971.1751802     
   49236642.5765856     
   49237313.1659984     
   49237980.7213821     
   49238643.0091644     
   49239297.7853172     
   49239942.7964456     
   49240575.7808893     
   49241194.4698354     
   49241796.5884444     
   49242379.8569901     
   49242941.9920140     
   49243480.7074953     
   49243993.7160381     
   49244478.7300753     
   49244933.4630925     
   49245355.6308705     
   49245742.9527497     
   49246093.1529164     
   49246403.9617123     
   49246673.1169688     
   49246898.3653678     
   49247077.4638285     
   49247208.1809242     
   49247288.2983288     
   49247315.6122948     
   49173766.8629886     
   49173792.9591386     
   49173870.1308898     
   49173996.6728902     
   49174170.8401198     
   49174390.8489947     
   49174654.8784716     
   49174961.0711511     
   49175307.5343820     
   49175692.3413642     
   49176113.5322529     
   49176569.1152621     
   49177057.0677691     
   49177575.3374190     
   49178121.8432308     
   49178694.4767035     
   49179291.1029248     
   49179909.5616806     
   49180547.6685672     
   49181203.2161050     
   49181873.9748564     
   49182557.6945463     
   49183252.1051861     
   49183954.9182028     
   49184663.8275727     
   49185376.5109606     
   49186090.6308649     
   49186803.8357698     
   49187513.7613052     
   49188218.0314141     
   49188914.2595297     
   49189600.0497616     
   49190272.9980938     
   49190930.6935926     
   49191570.7196284     
   49192190.6551101     
   49192788.0757339     
   49193360.5552479     
   49193905.6667330     
   49194420.9839013     
   49194904.0824132     
   49195352.5412149     
   49195763.9438968     
   49196135.8800739     
   49196465.9467912     
   49196751.7499532     
   49196990.9057801     
   49197181.0422928     
   49197319.8008267     
   49197404.8375768     
   49197433.8251758     
   49119084.7807047     
   49119112.5849630     
   49119194.8071915     
   49119329.6288323     
   49119515.1885055     
   49119749.5832570     
   49120030.8698050     
   49120357.0657844     
   49120726.1509895     
   49121136.0686153     
   49121584.7264976     
   49122069.9983508     
   49122589.7250053     
   49123141.7156437     
   49123723.7490359     
   49124333.5747740     
   49124968.9145064     
   49125627.4631726     
   49126306.8902383     
   49127004.8409310     
   49127718.9374773     
   49128446.7803420     
   49129185.9494695     
   49129934.0055279     
   49130688.4911565     
   49131446.9322179     
   49132206.8390549     
   49132965.7077523     
   49133721.0214055     
   49134470.2513962     
   49135210.8586759     
   49135940.2950583     
   49136656.0045208     
   49137355.4245180     
   49138035.9873057     
   49138695.1212781     
   49139330.2523185     
   49139938.8051658     
   49140518.2047960     
   49141065.8778217     
   49141579.2539099     
   49142055.7672200     
   49142492.8578629     
   49142887.9733823     
   49143238.5702609     
   49143542.1154514     
   49143796.0879349     
   49143997.9803082     
   49144145.3004010     
   49144235.5729251     
   49144266.3411580     
   49060791.1878498     
   49060820.8379345     
   49060908.5167930     
   49061052.2819717     
   49061250.1448052     
   49061500.0718310     
   49061799.9862002     
   49062147.7690840     
   49062541.2610773     
   49062978.2635977     
   49063456.5402810     
   49063973.8183734     
   49064527.7901200     
   49065116.1141497     
   49065736.4168578     
   49066386.2937850     
   49067063.3109947     
   49067765.0064475     
   49068488.8913742     
   49069232.4516482     
   49069993.1491559     
   49070768.4231682     
   49071555.6917111     
   49072352.3529380     
   49073155.7865038     
   49073963.3549406     
   49074772.4050367     
   49075580.2692201     
   49076384.2669456     
   49077181.7060886     
   49077969.8843443     
   49078746.0906356     
   49079507.6065282     
   49080251.7076561     
   49080975.6651576     
   49081676.7471226     
   49082352.2200537     
   49082999.3503407     
   49083615.4057511     
   49084197.6569370     
   49084743.3789611     
   49085249.8528411     
   49085714.3671162     
   49086134.2194353     
   49086506.7181708     
   49086829.1840566     
   49087098.9518546     
   49087313.3720500     
   49087469.8125779     
   49087565.6605824     
   49087598.3242103     
   48998646.2732121     
   48998677.9231006     
   48998771.5123310     
   48998924.9620865     
   48999136.1437222     
   48999402.8803723     
   48999722.9485504     
   49000094.0797431     
   49000513.9619967     
   49000980.2414977     
   49001490.5241458     
   49002042.3771208     
   49002633.3304430     
   49003260.8785267     
   49003922.4817288     
   49004615.5678905     
   49005337.5338745     
   49006085.7470964     
   49006857.5470525     
   49007650.2468431     
   49008461.1346920     
   49009287.4754634     
   49010126.5121772     
   49010975.4675213     
   49011831.5453646     
   49012691.9322690     
   49013553.7990026     
   49014414.3020546     
   49015270.5851528     
   49016119.7807846     
   49016959.0117229     
   49017785.3925575     
   49018596.0312340     
   49019388.0305993     
   49020158.4899582     
   49020904.5066391     
   49021623.1775719     
   49022311.6008800     
   49022966.8774856     
   49023586.1127319     
   49024166.4180228     
   49024704.9124816     
   49025198.7246307     
   49025644.9940937     
   49026040.8733214     
   49026383.5293443     
   49026670.1455523     
   49026897.9235046     
   49027064.0847704     
   49027165.8728041     
   49027200.5548552     
   48932393.5808031     
   48932427.4029134     
   48932527.4101521     
   48932691.3727465     
   48932917.0072742     
   48933201.9784926     
   48933543.9011565     
   48933940.3418257     
   48934388.8206621     
   48934886.8132152     
   48935431.7521970     
   48936021.0292473     
   48936651.9966874     
   48937321.9692641     
   48938028.2258837     
   48938768.0113367     
   48939538.5380132     
   48940336.9876094     
   48941160.5128262     
   48942006.2390604     
   48942871.2660888     
   48943752.6697456     
   48944647.5035954     
   48945552.8006003     
   48946465.5747842     
   48947382.8228932     
   48948301.5260548     
   48949218.6514356     
   48950131.1538994     
   48951035.9776665     
   48951930.0579751     
   48952810.3227463     
   48953673.6942546     
   48954517.0908033     
   48955337.4284087     
   48956131.6224930     
   48956896.5895864     
   48957629.2490431     
   48958326.5247692     
   48958985.3469669     
   48959602.6538943     
   48960175.3936451     
   48960700.5259476     
   48961175.0239862     
   48961595.8762474     
   48961960.0883908     
   48962264.6851489     
   48962506.7122565     
   48962683.2384127     
   48962791.3572762     
   48962828.1894985     
   48861758.5874203     
   48861794.7749338     
   48861901.7684060     
   48862077.1699909     
   48862318.5242058     
   48862623.3200137     
   48862988.9928906     
   48863412.9268761     
   48863892.4566083     
   48864424.8693424     
   48865007.4069536     
   48865637.2679245     
   48866311.6093162     
   48867027.5487252     
   48867782.1662245     
   48868572.5062912     
   48869395.5797194     
   48870248.3655206     
   48871127.8128107     
   48872030.8426859     
   48872954.3500859     
   48873895.2056488     
   48874850.2575546     
   48875816.3333609     
   48876790.2418313     
   48877768.7747567     
   48878748.7087714     
   48879726.8071651     
   48880699.8216919     
   48881664.4943768     
   48882617.5593230     
   48883555.7445191     
   48884475.7736494     
   48885374.3679076     
   48886248.2478166     
   48887094.1350543     
   48887908.7542894     
   48888688.8350264     
   48889431.1134637     
   48890132.3343652     
   48890789.2529476     
   48891398.6367860     
   48891957.2677388     
   48892461.9438946     
   48892909.4815424     
   48893296.7171687     
   48893620.5094821     
   48893877.7414678     
   48894065.3224763     
   48894180.1903457     
   48894219.3135616     
   48786447.0828703     
   48786485.8521368     
   48786600.4675613     
   48786788.3431334     
   48787046.8311135     
   48787373.2244042     
   48787764.7588986     
   48788218.6158068     
   48788731.9239586     
   48789301.7620838     
   48789925.1610699     
   48790599.1061975     
   48791320.5393541     
   48792086.3612258     
   48792893.4334683     
   48793738.5808581     
   48794618.5934226     
   48795530.2285526     
   48796470.2130952     
   48797435.2454306     
   48798421.9975317     
   48799427.1170080     
   48800447.2291359     
   48801478.9388751     
   48802518.8328733     
   48803563.4814593     
   48804609.4406277     
   48805653.2540146     
   48806691.4548669     
   48807720.5680060     
   48808737.1117882     
   48809737.6000627     
   48810718.5441294     
   48811676.4546975     
   48812607.8438476     
   48813509.2269984     
   48814377.1248801     
   48815208.0655162     
   48815998.5862166     
   48816745.2355826     
   48817444.5755270     
   48818093.1833109     
   48818687.6535999     
   48819224.6005410     
   48819700.6598635     
   48820112.4910065     
   48820456.7792727     
   48820730.2380158     
   48820929.6108587     
   48821051.6739496     
   48821093.2382549     
   48706143.3119736     
   48706184.9049111     
   48706307.8523521     
   48706509.3565591     
   48706786.5539564     
   48707136.5178273     
   48707556.2609792     
   48708042.7383780     
   48708592.8497503     
   48709203.4421551     
   48709871.3125235     
   48710593.2101693     
   48711365.8392690     
   48712185.8613126     
   48713049.8975257     
   48713954.5312642     
   48714896.3103815     
   48715871.7495704     
   48716877.3326792     
   48717909.5150044     
   48718964.7255604     
   48720039.3693279     
   48721129.8294820     
   48722232.4696009     
   48723343.6358581     
   48724459.6591979     
   48725576.8574969     
   48726691.5377128     
   48727799.9980213     
   48728898.5299451     
   48729983.4204742     
   48731050.9541807     
   48732097.4153306     
   48733119.0899929     
   48734112.2681494     
   48735073.2458067     
   48735998.3271127     
   48736883.8264802     
   48737726.0707181     
   48738521.4011755     
   48739266.1758982     
   48739956.7718012     
   48740589.5868604     
   48741161.0423242     
   48741667.5849489     
   48742105.6892606     
   48742471.8598454     
   48742762.6336710     
   48742974.5824424     
   48743104.3149950     
   48743148.4797276     
   48620507.8286348     
   48620552.5149972     
   48620684.5852905     
   48620901.0024759     
   48621198.6596746     
   48621574.3832286     
   48622024.9357184     
   48622547.0189389     
   48623137.2768324     
   48623792.2983805     
   48624508.6204542     
   48625282.7306244     
   48626111.0699323     
   48626990.0356210     
   48627915.9838296     
   48628885.2322505     
   48629894.0627505     
   48630938.7239589     
   48632015.4338208     
   48633120.3821203     
   48634249.7329722     
   48635399.6272862     
   48636566.1852028     
   48637745.5085047     
   48638933.6830043     
   48640126.7809093     
   48641320.8631680     
   48642511.9817972     
   48643696.1821937     
   48644869.5054317     
   48646027.9905491     
   48647167.6768227     
   48648284.6060377     
   48649374.8247509     
   48650434.3865513     
   48651459.3543206     
   48652445.8024959     
   48653389.8193361     
   48654287.5091965     
   48655134.9948125     
   48655928.4195957     
   48656663.9499457     
   48657337.7775789     
   48657946.1218783     
   48658485.2322671     
   48658951.3906085     
   48659340.9136346     
   48659650.1554081     
   48659875.5098190     
   48660013.4131203     
   48660060.3465045     
   48529175.0018529     
   48529223.0811956     
   48529365.1514453     
   48529597.9041064     
   48529917.9571147     
   48530321.8582993     
   48530806.0887877     
   48531367.0663555     
   48532001.1487204     
   48532704.6367818     
   48533473.7778070     
   48534304.7685650     
   48535193.7584090     
   48536136.8523079     
   48537130.1138309     
   48538169.5680824     
   48539251.2045932     
   48540370.9801662     
   48541524.8216801     
   48542708.6288520     
   48543918.2769615     
   48545149.6195373     
   48546398.4910095     
   48547660.7093283     
   48548932.0785526     
   48550208.3914090     
   48551485.4318259     
   48552758.9774426     
   48554024.8020969     
   48555278.6782943     
   48556516.3796599     
   48557733.6833763     
   48558926.3726106     
   48560090.2389323     
   48561221.0847254     
   48562314.7255967     
   48563366.9927847     
   48564373.7355701     
   48565330.8236922     
   48566234.1497736     
   48567079.6317563     
   48567863.2153521     
   48568580.8765112     
   48569228.6239106     
   48569802.5014670     
   48570298.5908772     
   48570713.0141883     
   48571041.9364022     
   48571281.5681172     
   48571428.1682096     
   48571478.0465604     
   48431750.1014142     
   48431801.9045343     
   48431954.9420188     
   48432205.5965990     
   48432550.1741977     
   48432984.9078282     
   48433505.9614185     
   48434109.4335645     
   48434791.3612114     
   48435547.7232661     
   48436374.4441399     
   48437267.3972264     
   48438222.4083119     
   48439235.2589242     
   48440301.6896185     
   48441417.4032044     
   48442578.0679146     
   48443779.3205177     
   48445016.7693791     
   48446285.9974685     
   48447582.5653199     
   48448902.0139454     
   48450239.8677040     
   48451591.6371300     
   48452952.8217220     
   48454318.9126962     
   48455685.3957061     
   48457047.7535320     
   48458401.4687431     
   48459742.0263337     
   48461064.9163394     
   48462365.6364336     
   48463639.6945083     
   48464882.6112428     
   48466089.9226639     
   48467257.1826981     
   48468379.9657231     
   48469453.8691187     
   48470474.5158222     
   48471437.5568906     
   48472338.6740741     
   48473173.5824036     
   48473938.0327964     
   48474627.8146826     
   48475238.7586574     
   48475766.7391607     
   48476207.6771906     
   48476557.5430518     
   48476812.3591441     
   48476968.2027944     
   48477021.2091363     
   48327805.8770091     
   48327861.7665715     
   48328026.8302176     
   48328297.0988627     
   48328668.5241391     
   48329136.9827609     
   48329698.2807949     
   48330348.1578408     
   48331082.2911213     
   48331896.2994844     
   48332785.7473199     
   48333746.1483926     
   48334772.9695937     
   48335861.6346131     
   48337007.5275361     
   48338205.9963644     
   48339452.3564677     
   48340741.8939648     
   48342069.8690404     
   48343431.5191978     
   48344822.0624518     
   48346236.7004654     
   48347670.6216316     
   48349119.0041048     
   48350577.0187850     
   48352039.8322573     
   48353502.6096907     
   48354960.5176996     
   48356408.7271707     
   48357842.4160597     
   48359256.7721610     
   48360646.9958540     
   48362008.3028294     
   48363335.9267993     
   48364625.1221954     
   48365871.1668585     
   48367069.3647223     
   48368215.0484977     
   48369303.5823587     
   48370330.3646361     
   48371290.8305212     
   48372180.4547847     
   48372994.7545146     
   48373729.2918761     
   48374379.6768993     
   48374941.5702972     
   48375410.6863194     
   48375782.7956445     
   48376053.7283166     
   48376219.3767287     
   48376275.6986590     
   48216878.5285827     
   48216938.8985758     
   48217117.1369486     
   48217408.8735236     
   48217809.6574721     
   48218314.9621674     
   48218920.1899204     
   48219620.6766023     
   48220411.6961545     
   48221288.4649911     
   48222246.1462941     
   48223279.8542072     
   48224384.6579284     
   48225555.5857066     
   48226787.6287448     
   48228075.7450127     
   48229414.8629732     
   48230799.8852251     
   48232225.6920665     
   48233687.1449821     
   48235179.0900580     
   48236696.3613283     
   48238233.7840565     
   48239786.1779564     
   48241348.3603561     
   48242915.1493085     
   48244481.3666536     
   48246041.8410355     
   48247591.4108787     
   48249124.9273281     
   48250637.2571567     
   48252123.2856444     
   48253577.9194342     
   48254996.0893681     
   48256372.7533081     
   48257702.8989465     
   48258981.5466098     
   48260203.7520605     
   48261364.6093022     
   48262459.2533910     
   48263482.8632589     
   48264430.6645536     
   48265297.9324986     
   48266079.9947790     
   48266772.2344572     
   48267370.0929233     
   48267869.0728846     
   48268264.7413995     
   48268552.7329593     
   48268728.7526243     
   48268788.5792173     
   48098462.9478319     
   48098528.2214134     
   48098720.8659479     
   48099036.0542478     
   48099468.8786314     
   48100014.3562733     
   48100667.4344106     
   48101422.9954092     
   48102275.8616939     
   48103220.8005459     
   48104252.5287718     
   48105365.7172476     
   48106554.9953425     
   48107814.9552260     
   48109140.1560625     
   48110525.1280986     
   48111964.3766463     
   48113452.3859672     
   48114983.6230621     
   48116552.5413703     
   48118153.5843829     
   48119781.1891764     
   48121429.7898688     
   48123093.8210046     
   48124767.7208734     
   48126445.9347658     
   48128122.9181732     
   48129793.1399342     
   48131451.0853347     
   48133091.2591648     
   48134708.1887391     
   48136296.4268839     
   48137850.5548977     
   48139365.1854885     
   48140834.9656950     
   48142254.5797947     
   48143618.7522054     
   48144922.2503853     
   48146159.8877354     
   48147326.5265112     
   48148417.0807483     
   48149426.5192059     
   48150349.8683354     
   48151182.2152784     
   48151918.7108986     
   48152554.5728540     
   48153085.0887151     
   48153505.6191324     
   48153811.6010599     
   48153998.5510406     
   48154062.0685573     
   47972007.0910046     
   47972077.7162180     
   47972286.0681692     
   47972626.7998703     
   47973094.4860219     
   47973683.6288509     
   47974388.6637749     
   47975203.9648978     
   47976123.8503404     
   47977142.5874128     
   47978254.3976328     
   47979453.4615948     
   47980733.9236967     
   47982089.8967276     
   47983515.4663232     
   47985004.6952943     
   47986551.6278333     
   47988150.2936044     
   47989794.7117233     
   47991478.8946319     
   47993196.8518732     
   47994942.5937730     
   47996710.1350329     
   47998493.4982413     
   48000286.7173076     
   48002083.8408255     
   48003878.9353711     
   48005666.0887420     
   48007439.4131421     
   48009193.0483196     
   48010921.1646628     
   48012617.9662594     
   48014277.6939269     
   48015894.6282171     
   48017463.0924045     
   48018977.4554600     
   48020432.1350200     
   48021821.6003537     
   48023140.3753369     
   48024383.0414365     
   48025544.2407127     
   48026618.6788443     
   48027601.1281840     
   48028486.4308478     
   48029269.5018472     
   48029945.3322679     
   48030508.9925015     
   48030955.6355372     
   48031280.5003186     
   48031478.9151710     
   48031546.3013073     
   47836905.3217765     
   47836981.7645289     
   47837207.1738745     
   47837575.6133838     
   47838081.0731075     
   47838717.4758704     
   47839478.6833583     
   47840358.5020025     
   47841350.6886716     
   47842448.9561738     
   47843646.9785793     
   47844938.3963673     
   47846316.8214062     
   47847775.8417718     
   47849309.0264122     
   47850909.9296645     
   47852572.0956316     
   47854289.0624243     
   47856054.3662770     
   47857861.5455426     
   47859704.1445746     
   47861575.7175016     
   47863469.8319032     
   47865380.0723918     
   47867300.0441084     
   47869223.3761399     
   47871143.7248627     
   47873054.7772213     
   47874950.2539475     
   47876823.9127281     
   47878669.5513269     
   47880481.0106681     
   47882252.1778889     
   47883976.9893663     
   47885649.4337269     
   47887263.5548449     
   47888813.4548361     
   47890293.2970548     
   47891697.3090992     
   47893019.7858342     
   47894255.0924364     
   47895397.6674693     
   47896442.0259954     
   47897382.7627319     
   47898214.5552562     
   47898932.1672698     
   47899530.4519248     
   47900004.3552229     
   47900348.9194904     
   47900559.2869387     
   47900630.7033156     
   47692490.5403986     
   47692573.2740093     
   47692817.1083027     
   47693215.4412904     
   47693761.6055374     
   47694448.8748481     
   47695270.4707081     
   47696219.5684917     
   47697289.3034417     
   47698472.7764320     
   47699763.0595197     
   47701153.2012966     
   47702636.2320468     
   47704205.1687205     
   47705853.0197315     
   47707572.7895863     
   47709357.4833539     
   47711200.1109839     
   47713093.6914815     
   47715031.2569474     
   47717005.8564902     
   47719010.5600211     
   47721038.4619363     
   47723082.6846978     
   47725136.3823187     
   47727192.7437623     
   47729244.9962621     
   47731286.4085707     
   47733310.2941463     
   47735310.0142837     
   47737278.9811989     
   47739210.6610731     
   47741098.5770668     
   47742936.3123094     
   47744717.5128737     
   47746435.8907419     
   47748085.2267721     
   47749659.3736725     
   47751152.2589913     
   47752557.8881295     
   47753870.3473856     
   47755083.8070390     
   47756192.5244804     
   47757190.8473964     
   47758073.2170170     
   47758834.1714332     
   47759468.3489919     
   47759970.4917776     
   47760335.4491864     
   47760558.1816017     
   47760633.7641788     
   47538024.8922264     
   47538114.3827826     
   47538377.9837486     
   47538808.3458402     
   47539398.0664318     
   47540139.6965307     
   47541025.7474712     
   47542048.6973377     
   47543200.9971290     
   47544475.0766733     
   47545863.3503042     
   47547358.2223095     
   47548952.0921605     
   47550637.3595355     
   47552406.4291437     
   47554251.7153628     
   47556165.6466980     
   47558140.6700729     
   47560169.2549626     
   47562243.8973776     
   47564357.1237087     
   47566501.4944422     
   47568669.6077551     
   47570854.1029988     
   47573047.6640821     
   47575243.0227605     
   47577432.9618439     
   47579610.3183286     
   47581767.9864660     
   47583898.9207736     
   47585996.1390010     
   47588052.7250561     
   47590061.8319042     
   47592016.6844456     
   47593910.5823833     
   47595736.9030877     
   47597489.1044688     
   47599160.7278632     
   47600745.4009466     
   47602236.8406786     
   47603628.8562910     
   47604915.3523261     
   47606090.3317359     
   47607147.8990490     
   47608082.2636164     
   47608887.7429434     
   47609558.7661163     
   47610089.8773341     
   47610475.7395529     
   47610711.1382519     
   47610790.9853305     
   47372688.8261732     
   47372785.5128786     
   47373070.1384078     
   47373534.5203017     
   47374170.4397126     
   47374969.6485171     
   47375923.8761117     
   47377024.8359036     
   47378264.2315097     
   47379633.7626775     
   47381125.1309390     
   47382730.0450121     
   47384440.2259601     
   47386247.4121218     
   47388143.3638253     
   47390119.8678953     
   47392168.7419674     
   47394281.8386194     
   47396451.0493319     
   47398668.3082887     
   47400925.5960287     
   47403214.9429590     
   47405528.4327421     
   47407858.2055654     
   47410196.4613056     
   47412535.4625975     
   47414867.5378177     
   47417185.0839940     
   47419480.5696504     
   47421746.5375982     
   47423975.6076827     
   47426160.4794969     
   47428293.9350712     
   47430368.8415491     
   47432378.1538605     
   47434314.9174004     
   47436172.2707245     
   47437943.4482719     
   47439621.7831232     
   47441200.7098062     
   47442673.7671574     
   47444034.6012506     
   47445276.9684015     
   47446394.7382593     
   47447381.8969948     
   47448232.5505952     
   47448940.9282753     
   47449501.3860162     
   47449908.4102402     
   47450156.6216328     
   47450240.7791220     
   47195568.2530214     
   47195672.5227038     
   47195979.2718605     
   47196479.3970978     
   47197163.7812914     
   47198023.3006325     
   47199048.8313202     
   47200231.2559193     
   47201561.4693972     
   47203030.3848551     
   47204628.9389697     
   47206348.0971597     
   47208178.8584904     
   47210112.2603324     
   47212139.3827869     
   47214251.3528912     
   47216439.3486193     
   47218694.6026881     
   47221008.4061847     
   47223372.1120257     
   47225777.1382622     
   47228214.9712417     
   47230677.1686403     
   47233155.3623759     
   47235641.2614157     
   47238126.6544883     
   47240603.4127129     
   47243063.4921578     
   47245498.9363374     
   47247901.8786613     
   47250264.5448463     
   47252579.2553014     
   47254838.4274989     
   47257034.5783402     
   47259160.3265309     
   47261208.3949730     
   47263171.6131869     
   47265042.9197754     
   47266815.3649379     
   47268482.1130490     
   47270036.4453111     
   47271471.7624919     
   47272781.5877600     
   47273959.5696269     
   47274999.4850097     
   47275895.2424242     
   47276640.8853198     
   47277230.5955682     
   47277658.6971177     
   47277919.6598235     
   47278008.1034666     
   47005639.5368240     
   47005751.6918013     
   47006081.4105693     
   47006618.5823852     
   47007353.1120024     
   47008274.9263763     
   47009373.9809907     
   47010640.2658221     
   47012063.8109608     
   47013634.6919066     
   47015343.0345565     
   47017179.0199014     
   47019132.8884480     
   47021194.9443816     
   47023355.5594878     
   47025605.1768446     
   47027934.3143039     
   47030333.5677741     
   47032793.6143197     
   47035305.2150920     
   47037859.2181039     
   47040446.5608633     
   47043058.2728779     
   47045685.4780452     
   47048319.3969398     
   47050951.3490124     
   47053572.7547107     
   47056175.1375380     
   47058750.1260592     
   47061289.4558678     
   47063784.9715270     
   47066228.6284949     
   47068612.4950486     
   47070928.7542174     
   47073169.7057386     
   47075327.7680472     
   47077395.4803122     
   47079365.5045318     
   47081230.6276987     
   47082983.7640500     
   47084617.9574116     
   47086126.3836512     
   47087502.3532521     
   47088739.3140195     
   47089830.8539335     
   47090770.7041604     
   47091552.7422359     
   47092170.9954326     
   47092619.6443250     
   47092893.0265663     
   47092985.6408882     
   46801752.0424306     
   46801872.2610362     
   46802225.4268402     
   46802800.3410661     
   46803585.8570399     
   46804570.8862143     
   46805744.4037941     
   46807095.4539848     
   46808613.1548848     
   46810286.7030407     
   46812105.3776873     
   46814058.5446893     
   46816135.6602033     
   46818326.2740802     
   46820620.0330221     
   46823006.6835129     
   46825476.0745384     
   46828018.1601116     
   46830623.0016192     
   46833280.7700050     
   46835981.7478036     
   46838716.3310412     
   46841475.0310164     
   46844248.4759754     
   46847027.4126958     
   46849802.7079923     
   46852565.3501588     
   46855306.4503587     
   46858017.2439783     
   46860689.0919552     
   46863313.4820961     
   46865882.0303952     
   46868386.4823685     
   46870818.7144153     
   46873170.7352203     
   46875434.6872104     
   46877602.8480773     
   46879667.6323813     
   46881621.5932479     
   46883457.4241716     
   46885167.9609402     
   46886746.1836923     
   46888185.2191234     
   46889478.3428530     
   46890618.9819683     
   46891600.7177571     
   46892417.2886458     
   46893062.5933567     
   46893530.6942988     
   46893815.8212080     
   46893912.3750518     
   46582607.9618128     
   46582736.2510750     
   46583112.8347025     
   46583725.3566652     
   46584561.5577113     
   46585609.2802906     
   46586856.4730737     
   46588291.1950944     
   46589901.6195363     
   46591676.0371859     
   46593602.8595756     
   46595670.6218339     
   46597867.9852666     
   46600183.7396846     
   46602606.8054997     
   46605126.2356051     
   46607731.2170584     
   46610411.0725837     
   46613155.2619097     
   46615953.3829598     
   46618795.1729100     
   46621670.5091287     
   46624569.4100157     
   46627482.0357519     
   46630398.6889773     
   46633309.8154093     
   46636206.0044157     
   46639077.9895571     
   46641916.6491109     
   46644713.0065923     
   46647458.2312841     
   46650143.6387897     
   46652760.6916228     
   46655300.9998470     
   46657756.3217796     
   46660118.5647713     
   46662379.7860787     
   46664532.1938405     
   46666568.1481734     
   46668480.1624008     
   46670260.9044299     
   46671903.1982905     
   46673400.0258517     
   46674744.5287310     
   46675930.0104115     
   46676949.9385827     
   46677797.9477216     
   46678467.8419300     
   46678953.5980444     
   46679249.3690371     
   46679349.4877234     
   46346739.1555953     
   46346875.2958747     
   46347274.6003476     
   46347923.5052478     
   46348808.5968063     
   46349916.6145734     
   46351234.4543557     
   46352749.1707934     
   46354447.9796039     
   46356318.2595130     
   46358347.5538989     
   46360523.5721687     
   46362834.1908893     
   46365267.4546926     
   46367811.5769734     
   46370454.9403997     
   46373186.0972531     
   46375993.7696152     
   46378866.8494182     
   46381794.3983759     
   46384765.6478091     
   46387769.9983827     
   46390797.0197683     
   46393836.4502471     
   46396878.1962670     
   46399912.3319687     
   46402929.0986941     
   46405918.9044906     
   46408872.3236245     
   46411780.0961183     
   46414633.1273237     
   46417422.4875443     
   46420139.4117217     
   46422775.2991984     
   46425321.7135712     
   46427770.3826478     
   46430113.1985227     
   46432342.2177847     
   46434449.6618718     
   46436427.9175865     
   46438269.5377897     
   46439967.2422849     
   46441513.9189117     
   46442902.6248627     
   46444126.5882425     
   46445179.2098838     
   46446054.0654399     
   46446744.9077716     
   46447245.6696460     
   46447550.4667680     
   46447653.6011633     
   46092480.7792900     
   46092624.2611327     
   46093044.7384166     
   46093727.4168680     
   46094657.7141072     
   46095821.2607969     
   46097203.9014500     
   46098791.6949232     
   46100570.9146212     
   46102528.0484368     
   46104649.7984484     
   46106923.0803976     
   46109335.0229672     
   46111872.9668796     
   46114524.4638350     
   46117277.2753066     
   46120119.3712113     
   46123038.9284717     
   46126024.3294856     
   46129064.1605190     
   46132147.2100370     
   46135262.4669872     
   46138399.1190494     
   46141546.5508655     
   46144694.3422631     
   46147832.2664849     
   46150950.2884383     
   46154038.5629757     
   46157087.4332207     
   46160087.4289499     
   46163029.2650451     
   46165903.8400270     
   46168702.2346833     
   46171415.7108048     
   46174035.7100414     
   46176553.8528915     
   46178961.9378386     
   46181251.9406493     
   46183416.0138460     
   46185446.4863699     
   46187335.8634494     
   46189076.8266894     
   46190662.2343979     
   46192085.1221671     
   46193338.7037270     
   46194416.3720887     
   46195311.7009979     
   46196018.4467171     
   46196530.5501584     
   46196842.1393869     
   46196947.5325185     
   45817941.5227249     
   45818091.4767982     
   45818530.5250456     
   45819242.6584102     
   45820212.1499634     
   45821423.5532410     
   45822861.7003175     
   45824511.6996442     
   45826358.9336751     
   45828389.0563043     
   45830587.9901365     
   45832941.9236115     
   45835437.3080017     
   45838060.8543022     
   45840799.5300297     
   45843640.5559476     
   45846571.4027335     
   45849579.7876034     
   45852653.6709062     
   45855781.2527051     
   45858950.9693545     
   45862151.4900894     
   45865371.7136361     
   45868600.7648571     
   45871827.9914420     
   45875042.9606535     
   45878235.4561420     
   45881395.4748364     
   45884513.2239238     
   45887579.1179274     
   45890583.7758934     
   45893518.0186978     
   45896372.8664827     
   45899139.5362346     
   45901809.4395152     
   45904374.1803557     
   45906825.5533283     
   45909155.5418059     
   45911356.3164242     
   45913420.2337605     
   45915339.8352414     
   45917107.8462983     
   45918717.1757839     
   45920160.9156680     
   45921432.3410310     
   45922524.9103736     
   45923432.2662625     
   45924148.2363348     
   45924666.8346810     
   45924982.2636325     
   45925088.9159777     
   45520970.3839586     
   45521125.5057244     
   45521579.2520511     
   45522314.4659666     
   45523314.3502180     
   45524562.4621102     
   45526042.7082022     
   45527739.3388836     
   45529636.9428539     
   45531720.4415255     
   45533975.0833685     
   45536386.4382163     
   45538940.3915491     
   45541623.1387703     
   45544421.1794911     
   45547321.3118367     
   45550310.6267880     
   45553376.5025694     
   45556506.5990949     
   45559688.8524832     
   45562911.4696509     
   45566162.9229934     
   45569431.9451632     
   45572707.5239516     
   45575978.8972839     
   45579235.5483349     
   45582467.2007705     
   45585663.8141251     
   45588815.5793192     
   45591912.9143258     
   45594946.4599922     
   45597907.0760228     
   45600785.8371335     
   45603574.0293817     
   45606263.1466831     
   45608844.8875215     
   45611311.1518631     
   45613654.0382830     
   45615865.8413166     
   45617939.0490469     
   45619866.3409394     
   45621640.5859405     
   45623254.8408518     
   45624702.3489989     
   45625976.5392109     
   45627071.0251293     
   45627979.6048680     
   45628696.2610457     
   45629215.1612140     
   45629530.6587077     
   45629637.2939428     
   45199120.0352221     
   45199278.5069449     
   45199741.5835154     
   45200491.0925251     
   45201509.3044376     
   45202778.9232238     
   45204283.0770193     
   45206005.3088244     
   45207929.5672642     
   45210040.1974240     
   45212321.9317767     
   45214759.8812146     
   45217339.5261988     
   45220046.7080392     
   45222867.6203125     
   45225788.8004318     
   45228797.1213725     
   45231879.7835654     
   45235024.3069613     
   45238218.5232752     
   45241450.5684135     
   45244708.8750901     
   45247982.1656340     
   45251259.4449927     
   45254529.9939338     
   45257783.3624465     
   45261009.3633459     
   45264198.0660809     
   45267339.7907477     
   45270425.1023105     
   45273444.8050301     
   45276389.9371030     
   45279251.7655126     
   45282021.7810940     
   45284691.6938170     
   45287253.4282892     
   45289699.1194847     
   45292021.1087029     
   45294211.9397644     
   45296264.3554508     
   45298171.2941989     
   45299925.8870573     
   45301521.4549198     
   45302951.5060484     
   45304209.7339008     
   45305290.0152815     
   45306186.4088355     
   45306893.1539057     
   45307404.6697803     
   45307715.5553543     
   45307820.5892353     
   44849607.0297791     
   44849766.4435360     
   44850231.7678638     
   44850984.0291512     
   44852004.7825923     
   44853276.0979218     
   44854780.5453888     
   44856501.1819841     
   44858421.5379297     
   44860525.6034437     
   44862797.8157869     
   44865223.0466025     
   44867786.5895538     
   44870474.1482673     
   44873271.8245852     
   44876166.1071331     
   44879143.8602042     
   44882192.3129622     
   44885299.0489651     
   44888451.9960085     
   44891639.4162875     
   44894849.8968758     
   44898072.3405192     
   44901295.9567390     
   44904510.2532420     
   44907705.0276310     
   44910870.3594113     
   44913996.6022860     
   44917074.3767351     
   44920094.5628703     
   44923048.2935600     
   44925926.9478175     
   44928722.1444461     
   44931425.7359351     
   44934029.8026021     
   44936526.6469757     
   44938908.7884170     
   44941168.9579759     
   44943300.0934820     
   44945295.3348708     
   44947148.0197472     
   44948851.6791914     
   44950400.0338130     
   44951786.9900623     
   44953006.6368115     
   44954053.2422186     
   44954921.2508917     
   44955605.2813739     
   44956100.1239725     
   44956400.7389579     
   44956502.2551670     
   44469269.3593362     
   44469426.6457994     
   44469885.2194063     
   44470625.6189243     
   44471628.9967091     
   44472877.0988894     
   44474352.2460607     
   44476037.3144896     
   44477915.7178348     
   44479971.3893877     
   44482188.7648359     
   44484552.7655511     
   44487048.7824023     
   44489662.6600948     
   44492380.6820328     
   44495189.5557049     
   44498076.3985865     
   44501028.7245566     
   44504034.4308213     
   44507081.7853374     
   44510159.4147260     
   44513256.2926677     
   44516361.7287670     
   44519465.3578737     
   44522557.1298464     
   44525627.2997452     
   44528666.4184368     
   44531665.3235943     
   44534615.1310766     
   44537507.2266675     
   44540333.2581572     
   44543085.1277476     
   44545754.9847624     
   44548335.2186452     
   44550818.4522268     
   44553197.5352447     
   44555465.5381011     
   44557615.7458422     
   44559641.6523492     
   44561536.9547272     
   44563295.5478871     
   44564911.5193114     
   44566379.1440037     
   44567692.8796209     
   44568847.3617921     
   44569837.3996314     
   44570657.9714586     
   44571304.2207411     
   44571771.4522782     
   44572055.1286540     
   44572150.8669788     
   44054522.2196970     
   44054673.5884617     
   44055114.3310152     
   44055824.9301947     
   44056786.5608553     
   44057981.0639308     
   44059390.9213176     
   44060999.2315793     
   44062789.6864703     
   44064746.5482739     
   44066854.6279544     
   44069099.2641160     
   44071466.3027656     
   44073942.0778728     
   44076513.3927193     
   44079167.5020285     
   44081892.0948652     
   44084675.2782935     
   44087505.5617771     
   44090371.8423085     
   44093263.3902469     
   44096169.8358471     
   44099081.1564559     
   44101987.6643532     
   44104879.9952129     
   44107749.0971548     
   44110586.2203591     
   44113382.9072137     
   44116130.9829600     
   44118822.5468062     
   44121449.9634720     
   44124005.8551303     
   44126483.0937090     
   44128874.7935191     
   44131174.3041711     
   44133375.2037459     
   44135471.2921856     
   44137456.5848712     
   44139325.3063567     
   44141071.8842312     
   44142690.9430821     
   44144177.2985377     
   44145525.9513731     
   44146732.0816583     
   44147791.0429491     
   44148698.3565094     
   44149449.7055649     
   44150040.9295994     
   44150468.0187089     
   44150727.1080305     
   44150814.4723030     
   43601313.3010004     
   43601454.1989602     
   43601863.8372268     
   43602523.2122243     
   43603414.0779145     
   43604518.9132364     
   43605820.8907299     
   43607303.8463378     
   43608952.2503807     
   43610751.1796953     
   43612686.2909322     
   43614743.7950017     
   43616910.4326606     
   43619173.4512275     
   43621520.5824130     
   43623940.0212522     
   43626420.4061189     
   43628950.7998051     
   43631520.6716414     
   43634119.8806343     
   43636738.6595933     
   43639367.6002163     
   43641997.6391003     
   43644620.0446417     
   43647226.4047850     
   43649808.6155802     
   43652358.8705002     
   43654869.6504726     
   43657333.7145735     
   43659744.0913295     
   43662094.0705730     
   43664377.1957908     
   43666587.2569076     
   43668718.2834430     
   43670764.5379796     
   43672720.5098787     
   43674580.9091839     
   43676340.6606497     
   43677994.8978362     
   43679538.9572123     
   43680968.3722171     
   43682278.8672255     
   43683466.3513723     
   43684526.9122071     
   43685456.8091251     
   43686252.4665678     
   43686910.4669863     
   43687427.5435362     
   43687800.5725093     
   43688026.5655100     
   43688102.6613322     
   43105079.5197353     
   43105204.6143300     
   43105567.6464095     
   43106150.8540072     
   43106937.2773086     
   43107910.7190222     
   43109055.7063446     
   43110357.4545160     
   43111801.8319590     
   43113375.3269960     
   43115065.0161352     
   43116858.5339176     
   43118744.0443107     
   43120710.2136354     
   43122746.1850091     
   43124841.5542840     
   43126986.3474579     
   43129170.9995306     
   43131386.3347765     
   43133623.5483995     
   43135874.1895333     
   43138130.1455458     
   43140383.6276026     
   43142627.1574396     
   43144853.5552915     
   43147055.9289165     
   43149227.6636550     
   43151362.4134525     
   43153454.0927744     
   43155496.8693345     
   43157485.1575536     
   43159413.6126599     
   43161277.1253409     
   43163070.8168479     
   43164790.0344575     
   43166430.3471856     
   43167987.5416521     
   43169457.6179889     
   43170836.7856892     
   43172121.4592979     
   43173308.2538323     
   43174393.9798534     
   43175375.6381054     
   43176250.4135958     
   43177015.6691330     
   43177668.9381693     
   43178207.9168878     
   43178630.4555743     
   43178934.5492495     
   43179118.3275616     
   43179180.0440918     
   42560707.8976101     
   42560811.0917708     
   42561109.8474124     
   42561588.5527341     
   42562232.4121695     
   42563027.3992226     
   42563960.2113778     
   42565018.2270903     
   42566189.4648550     
   42567462.5443529     
   42568826.6496667     
   42570271.4945573     
   42571787.2897835     
   42573364.7124491     
   42574994.8773538     
   42576669.3103216     
   42578379.9234772     
   42580118.9924363     
   42581879.1353724     
   42583653.2939189     
   42585434.7158602     
   42587216.9395629     
   42588993.7800921     
   42590759.3169524     
   42592507.8833893     
   42594234.0571786     
   42595932.6528253     
   42597598.7150867     
   42599227.5137248     
   42600814.5393848     
   42602355.5004892     
   42603846.3210234     
   42605283.1390881     
   42606662.3060715     
   42607980.3862949     
   42609234.1569692     
   42610420.6083060     
   42611536.9436103     
   42612580.5791873     
   42613549.1438639     
   42614440.4780012     
   42615252.6317529     
   42615983.8623968     
   42616632.6307388     
   42617197.5961343     
   42617677.6103528     
   42618071.7101545     
   42618379.1081818     
   42618599.1821117     
   42618731.4620298     
   42618775.6158012     
   41962504.3324044     
   41962578.8184004     
   41962793.6377197     
   41963136.4419769     
   41963595.6707425     
   41964160.4962825     
   41964820.7709904     
   41965566.9775252     
   41966390.1816626     
   41967281.9878559     
   41968234.4974955     
   41969240.2698488     
   41970292.2856556     
   41971383.9133486     
   41972508.8778637     
   41973661.2320015     
   41974835.3302953     
   41976025.8053420     
   41977227.5465473     
   41978435.6812340     
   41979645.5580624     
   41980852.7327061     
   41982052.9557277     
   41983242.1625908     
   41984416.4657435     
   41985572.1487015     
   41986705.6620512     
   41987813.6212836     
   41988892.8063606     
   41989940.1629036     
   41990952.8048716     
   41991928.0185859     
   41992863.2679279     
   41993756.2005359     
   41994604.6547974     
   41995406.6674172     
   41996160.4812815     
   41996864.5533594     
   41997517.5623327     
   41998118.4157486     
   41998666.2562081     
   41999160.4665497     
   41999600.6736863     
   41999986.7502623     
   42000318.8148715     
   42000597.2292606     
   42000822.5925634     
   42000995.7335089     
   42001117.7003173     
   42001189.7479140     
   42001213.3222310     
   41304175.3923243     
   41304213.7542438     
   41304323.3149115     
   41304496.3342160     
   41304725.7739507     
   41305005.2338396     
   41305328.8911443     
   41305691.4438627     
   41306088.0575078     
   41306514.3154424     
   41306966.1727283     
   41307439.9134406     
   41307932.1113849     
   41308439.5941515     
   41308959.4104353     
   41309488.8005461     
   41310025.1700363     
   41310566.0663729     
   41311109.1585816     
   41311652.2197979     
   41312193.1126607     
   41312729.7774933     
   41313260.2232153     
   41313782.5209391     
   41314294.8002031     
   41314795.2477980     
   41315282.1091394     
   41315753.6921374     
   41316208.3735014     
   41316644.6073963     
   41317060.9363779     
   41317456.0044810     
   41317828.5723401     
   41318177.5341031     
   41318501.9358961     
   41318800.9955270     
   41319074.1232175     
   41319320.9429296     
   41319541.3138901     
   41319735.3514870     
   41319903.4475689     
   41320046.2886292     
   41320164.8715736     
   41320260.5182495     
   41320334.8847210     
   41320389.9692512     
   41320428.1167333     
   41320452.0150112     
   41320464.6835202     
   41320469.4561022     
   41320469.9605915     
   40578830.1275889     
   40578824.5102212     
   40578806.3563761     
   40578774.1392222     
   40578726.8682914     
   40578664.0165181     
   40578585.4522339     
   40578491.3760678     
   40578382.2626694     
   40578258.8071504     
   40578121.8761169     
   40577972.4631524     
   40577811.6486005     
   40577640.5634908     
   40577460.3574524     
   40577272.1704599     
   40577077.1082644     
   40576876.2213713     
   40576670.4874401     
   40576460.7969956     
   40576247.9423591     
   40576032.6097279     
   40575815.3743519     
   40575596.6987785     
   40575376.9341594     
   40575156.3246302     
   40574935.0148001     
   40574713.0604003     
   40574490.4421590     
   40574267.0830101     
   40574042.8686233     
   40573817.6713329     
   40573591.3774130     
   40573363.9178627     
   40573135.3026448     
   40572905.6582191     
   40572675.2675721     
   40572444.6124093     
   40572214.4168262     
   40571985.6928372     
   40571759.7849402     
   40571538.4157726     
   40571323.7301013     
   40571118.3299502     
   40570925.3110118     
   40570748.2841539     
   40570591.3888550     
   40570459.3108306     
   40570357.2986829     
   40570291.1657683     
   40570267.2634705     
   39779011.3917371     
   39778953.7715495     
   39778785.1483681     
   39778512.0977097     
   39778141.4541499     
   39777680.2305369     
   39777135.5442847     
   39776514.5505228     
   39775824.3818325     
   39775072.0942674     
   39774264.6193487     
   39773408.7217091     
   39772510.9620496     
   39771577.6650838     
   39770614.8921434     
   39769628.4181320     
   39768623.7125366     
   39767605.9242272     
   39766579.8698019     
   39765550.0252692     
   39764520.5208940     
   39763495.1390771     
   39762477.3151788     
   39761470.1412518     
   39760476.3727034     
   39759498.4379641     
   39758538.4512867     
   39757598.2288739     
   39756679.3085679     
   39755782.9733122     
   39754910.2790600     
   39754062.0874530     
   39753239.1039463     
   39752441.9211598     
   39751671.0678921     
   39750927.0643745     
   39750210.4860250     
   39749522.0353769     
   39748862.6218759     
   39748233.4447358     
   39747636.0836581     
   39747072.5856134     
   39746545.5516344     
   39746058.2402007     
   39745614.6459405     
   39745219.5965230     
   39744878.8337380     
   39744599.0357699     
   39744387.7932211     
   39744253.6027612     
   39744205.9178788     
   38896769.4668357     
   38896652.0918311     
   38896311.2756903     
   38895763.8728546     
   38895026.5595997     
   38894115.7502826     
   38893047.5237165     
   38891837.5590466     
   38890501.0805126     
   38889052.8104906     
   38887506.9301525     
   38885877.0471014     
   38884176.1693584     
   38882416.6850561     
   38880610.3472618     
   38878768.2633613     
   38876900.8884686     
   38875018.0223691     
   38873128.8095532     
   38871241.7419464     
   38869364.6639992     
   38867504.7798668     
   38865668.6624745     
   38863862.2643339     
   38862090.9300420     
   38860359.4104967     
   38858671.8790091     
   38857031.9495466     
   38855442.6975662     
   38853906.6842248     
   38852425.9835665     
   38851002.2139762     
   38849636.5744752     
   38848329.8896990     
   38847082.6649241     
   38845895.1517610     
   38844767.4193892     
   38843699.4361087     
   38842691.1659723     
   38841742.6986708     
   38840854.3964451     
   38840027.0882043     
   38839262.2865386     
   38838562.3558612     
   38837930.7448623     
   38837372.1374024     
   38836892.6038593     
   38836499.8505965     
   38836203.5342470     
   38836015.3262058     
   38835948.6541314     
   37923795.0165429     
   37923611.1220223     
   37923079.5474522     
   37922229.8420924     
   37921090.7124056     
   37919689.9471968     
   37918054.3565990     
   37916209.7238673     
   37914180.7688296     
   37911991.1217169     
   37909663.3062833     
   37907218.7310930     
   37904677.6878676     
   37902059.3559605     
   37899381.8119158     
   37896662.0432026     
   37893915.9652742     
   37891158.4411582     
   37888403.3028498     
   37885663.3738480     
   37882950.4922517     
   37880275.5339055     
   37877648.4351755     
   37875078.2150515     
   37872572.9963946     
   37870140.0261942     
   37867785.6946545     
   37865515.5532482     
   37863334.3317608     
   37861245.9539909     
   37859253.5563820     
   37857359.5083461     
   37855565.4361504     
   37853872.2425741     
   37852280.1258735     
   37850788.6058960     
   37849396.5861919     
   37848102.4427231     
   37846904.1306576     
   37845799.2586382     
   37844785.1968639     
   37843859.1625591     
   37843018.3752674     
   37842260.5500824     
   37841584.3700982     
   37840990.2658552     
   37840481.2468087     
   37840063.4062034     
   37839745.8138611     
   37839541.1180739     
   37839466.6419195     
   36851633.5898045     
   36851378.5332005     
   36850644.1081379     
   36849475.0693978     
   36847914.3503845     
   36846003.0201738     
   36843780.2589364     
   36841283.3492328     
   36838547.6810451     
   36835606.7690525     
   36832492.2802292     
   36829234.0701211     
   36825860.2263055     
   36822397.1171798     
   36818869.4448754     
   36815300.3009315     
   36811711.2234671     
   36808122.2547086     
   36804551.9978481     
   36801017.6723075     
   36797535.1665867     
   36794119.0879598     
   36790782.8083525     
   36787538.5057454     
   36784397.2005148     
   36781368.7864418     
   36778462.0566918     
   36775684.7243907     
   36773043.4381533     
   36770543.7945677     
   36768190.3354428     
   36765986.5386855     
   36763934.8021240     
   36762036.4520575     
   36760291.7656405     
   36758699.9849886     
   36757259.2298271     
   36755966.3750269     
   36754816.9542228     
   36753805.2952761     
   36752924.7071225     
   36752167.8078389     
   36751526.8224479     
   36750992.9332699     
   36750555.9303967     
   36750203.9360837     
   36749923.6098734     
   36749702.0765157     
   36749532.8607880     
   36749418.7149411     
   36749372.7585255     
   35672010.0626432     
   35671683.0154965     
   35670745.0110549     
   35669258.3100206     
   35667281.9650017     
   35664871.8497992     
   35662080.7080270     
   35658958.2196356     
   35655551.0835143     
   35651903.1123292     
   35648055.3373693     
   35644046.1207202     
   35639911.2720541     
   35635684.1690734     
   35631395.8789226     
   35627075.2788795     
   35622749.1748092     
   35618442.4159741     
   35614178.0048869     
   35609977.2010129     
   35605859.6172906     
   35601843.3086042     
   35597944.8515533     
   35594179.4151114     
   35590560.8217728     
   35587101.5981704     
   35583813.0128521     
   35580705.1020218     
   35577786.6824466     
   35575065.3451675     
   35572547.4700197     
   35570238.2274432     
   35568141.5689936     
   35566260.1018215     
   35564594.9063062     
   35563145.3804669     
   35561909.4575661     
   35560883.8881877     
   35560064.3619378     
   35559444.7641423     
   35559016.1746207     
   35558765.9744917     
   35558677.0095870     
   35558730.3360474     
   35558907.4615415     
   35559189.4957483     
   35559556.3238033     
   35559983.4551041     
   35560424.4024703     
   35560785.6299083     
   35560927.5576635     
   34377298.6232107     
   34376904.9204942     
   34375780.6345644     
   34374007.1076667     
   34371660.5958810     
   34368812.4225331     
   34365529.1589554     
   34361872.8245459     
   34357901.0975195     
   34353667.5355942     
   34349221.8019620     
   34344609.8941176     
   34339874.3741921     
   34335054.5942869     
   34330186.9169238     
   34325304.9283859     
   34320439.6428978     
   34315619.6958845     
   34310871.5249815     
   34306219.5377603     
   34301686.2651983     
   34297292.4999597     
   34293057.4185156     
   34288998.6861189     
   34285132.5442290     
   34281473.8814381     
   34278036.2931583     
   34274832.1237551     
   34271872.4903315     
   34269167.3106744     
   34266725.2038719     
   34264553.3813422     
   34262657.5212838     
   34261041.9853365     
   34259710.1140614     
   34258664.3309036     
   34257904.7624688     
   34257427.8248100     
   34257225.5027138     
   34257287.6150965     
   34257604.8725836     
   34258168.7205381     
   34258972.4441567     
   34260000.3261352     
   34261218.1188808     
   34262553.1061651     
   34263902.4552174     
   34265160.7097200     
   34266208.8126142     
   34266921.0123378     
   34267175.0166195     
   32961182.7886829     
   32960736.8340038     
   32959469.8615251     
   32957482.3268371     
   32954867.1575832     
   32951710.1439970     
   32948090.3347766     
   32944080.4357798     
   32939747.2219872     
   32935151.9489197     
   32930350.7623328     
   32925395.0998553     
   32920332.0749303     
   32915204.8524812     
   32910053.0052585     
   32904912.8486960     
   32899817.7530332     
   32894798.4324312     
   32889883.2105446     
   32885098.2619588     
   32880467.8293476     
   32876014.4163843     
   32871758.9564799     
   32867720.9573235     
   32863918.6205083     
   32860368.9349933     
   32857087.7260094     
   32854089.6827848     
   32851388.3666952     
   32848996.1033361     
   32846924.2000258     
   32845183.1057547     
   32843782.5391949     
   32842730.2695229     
   32842030.6499110     
   32841683.6969555     
   32841689.6202017     
   32842051.9835615     
   32842777.7819211     
   32843868.0595289     
   32845304.6689765     
   32847028.0727221     
   32848954.4335033     
   32851003.1173258     
   32853083.7230936     
   32855103.1137383     
   32856971.1097057     
   32858595.5399389     
   32859884.5198783     
   32860738.8345392     
   32861043.3809070     
   31419561.3369321     
   31419090.1068609     
   31417759.6897772     
   31415686.8825966     
   31412978.0495088     
   31409729.8059537     
   31406029.7199351     
   31401957.0449161     
   31397583.4267160     
   31392973.6030900     
   31388186.0761083     
   31383273.7512449     
   31378284.5574687     
   31373262.0023115     
   31368245.6865646     
   31363271.7787289     
   31358373.4495681     
   31353581.2641765     
   31348923.5316317     
   31344426.6143970     
   31340115.1997613     
   31336012.5363296     
   31332140.6386837     
   31328520.4613366     
   31325172.0373069     
   31322114.5684075     
   31319366.5467228     
   31316945.8312745     
   31314869.6769270     
   31313155.1001109     
   31311817.9755029     
   31310871.9992001     
   31310327.5597503     
   31310195.6876131     
   31310492.3510128     
   31311240.8186079     
   31312453.0126439     
   31314090.9702823     
   31316084.3867367     
   31318360.4593524     
   31320836.8003722     
   31323428.2330954     
   31326050.1190747     
   31328614.1633898     
   31331038.6007988     
   31333249.2034033     
   31335171.4940534     
   31336734.2476554     
   31337875.3806662     
   31338559.6612465     
   31338786.2409782     
   29751774.3200288     
   29751320.4133941     
   29750050.0665539     
   29748089.3663083     
   29745550.4235802     
   29742532.5957074     
   29739123.8265457     
   29735401.8951948     
   29731435.6687150     
   29727286.2260613     
   29723007.8722956     
   29718649.0654317     
   29714253.1946830     
   29709859.3572917     
   29705503.0564738     
   29701216.8206310     
   29697030.7399978     
   29692972.9340304     
   29689069.9561523     
   29685347.1367450     
   29681828.8667671     
   29678538.8250068     
   29675500.1580161     
   29672735.6400691     
   29670267.8759258     
   29668119.6148413     
   29666313.7110187     
   29664872.9403859     
   29663819.7728063     
   29663174.7490331     
   29662959.7170578     
   29663202.5177296     
   29663941.2863557     
   29665196.3519431     
   29666939.2983650     
   29669119.1012142     
   29671675.7856262     
   29674538.7486126     
   29677630.0902650     
   29680860.8456104     
   29684135.7394391     
   29687354.9807270     
   29690416.9215777     
   29693224.3794546     
   29695675.3391455     
   29697671.6498379     
   29699161.1369149     
   29700177.1080660     
   29700797.5209530     
   29701102.0906689     
   29701184.0463264     
   27962242.1169537     
   27961867.9096357     
   27960835.4026915     
   27959263.6605607     
   27957253.8185010     
   27954892.4188390     
   27952253.7199735     
   27949401.6670898     
   27946391.2551663     
   27943269.8659494     
   27940078.6110905     
   27936853.5298636     
   27933626.8731388     
   27930427.9998073     
   27927284.1296499     
   27924220.9614082     
   27921263.2099266     
   27918435.0497067     
   27915760.4750704     
   27913263.6039804     
   27910968.9384055     
   27908901.5789700     
   27907087.3539325     
   27905552.7488587     
   27904324.4307085     
   27903428.4001008     
   27902891.5179902     
   27902744.4241228     
   27903023.9304459     
   27903777.0299537     
   27905028.4946574     
   27906768.7927374     
   27908980.6140270     
   27911636.8343871     
   27914698.2080459     
   27918112.6626304     
   27921814.3512845     
   27925725.1573843     
   27929754.3728187     
   27933799.5263943     
   27937745.4755701     
   27941464.3066274     
   27944815.2626240     
   27947641.9340939     
   27949860.8606891     
   27951508.2853870     
   27952665.5564351     
   27953416.0034475     
   27953842.1234301     
   27954033.5373643     
   27954078.0126070     
   26062712.8763223     
   26062505.0771179     
   26061935.7577828     
   26061083.0583966     
   26060013.7607836     
   26058782.0395489     
   26057430.1781924     
   26055989.9156741     
   26054485.7040398     
   26052937.4764912     
   26051362.4548421     
   26049776.7962915     
   26048196.1239984     
   26046636.4527770     
   26045114.8038157     
   26043649.6120008     
   26042260.8287691     
   26040969.9038298     
   26039799.7554057     
   26038774.7660122     
   26037920.8691807     
   26037265.8044973     
   26036839.6864027     
   26036676.1589005     
   26036813.3065305     
   26037289.8847925     
   26038136.8602472     
   26039374.7079399     
   26041019.2544501     
   26043082.3889143     
   26045568.6326348     
   26048471.6831270     
   26051772.1890972     
   26055439.9837611     
   26059434.2716671     
   26063703.3596205     
   26068184.1222043     
   26072800.6740577     
   26077463.0723995     
   26082065.1221231     
   26086481.9195489     
   26090566.3214558     
   26094146.5476925     
   26097079.3163126     
   26099356.0004835     
   26101046.4669051     
   26102215.8754594     
   26102949.1639344     
   26103344.3589268     
   26103502.7539596     
   26103532.7234552     
   24075076.4595267     
   24075080.5726735     
   24075145.8988363     
   24075302.0313331     
   24075542.5752201     
   24075841.1702297     
   24076166.2287926     
   24076492.8046766     
   24076803.1469663     
   24077084.8297511     
   24077327.0959611     
   24077521.4362248     
   24077667.8630547     
   24077773.9197799     
   24077853.3099203     
   24077924.1905685     
   24078008.0853764     
   24078129.1515260     
   24078313.5925553     
   24078589.2611514     
   24078985.3507125     
   24079532.1059624     
   24080260.4034326     
   24081200.9474555     
   24082383.1410325     
   24083835.0480429     
   24085581.4105140     
   24087640.3150046     
   24090022.7044432     
   24092733.1363121     
   24095769.6479585     
   24099123.6285689     
   24102779.6964895     
   24106714.6857377     
   24110897.1667438     
   24115286.8298008     
   24119833.7572572     
   24124477.5194651     
   24129145.6235987     
   24133751.8223886     
   24138194.2506098     
   24142353.3707114     
   24146090.5070903     
   24149275.8448699     
   24151807.5615917     
   24153680.3561673     
   24154981.8081984     
   24155796.8098439     
   24156220.0123902     
   24156375.4870126     
   24156397.6263731     
   22033801.3777856     
   22034220.9128480     
   22035259.1135760     
   22036677.2918479     
   22038316.2317923     
   22040069.5138187     
   22041863.0633838     
   22043624.2110849     
   22045282.7419167     
   22046788.8804911     
   22048124.8267198     
   22049302.9348693     
   22050345.4897430     
   22051277.1704760     
   22052121.9066984     
   22052903.7702722     
   22053647.1028848     
   22054376.1194936     
   22055114.9651548     
   22055887.6594643     
   22056717.9951574     
   22057629.2360781     
   22058643.7181084     
   22059782.4773074     
   22061064.8447391     
   22062507.6986881     
   22064125.0565769     
   22065927.9774925     
   22067924.1855765     
   22070117.6571489     
   22072508.6298691     
   22075093.5801526     
   22077864.8957151     
   22080810.6833425     
   22083914.4280545     
   22087154.5415856     
   22090503.8736483     
   22093929.3120430     
   22097391.3262891     
   22100843.1194517     
   22104229.5021494     
   22107485.6479521     
   22110535.4392768     
   22113280.7867997     
   22115614.6887040     
   22117446.2894964     
   22118699.1007098     
   22119398.2738528     
   22119671.6288648     
   22119677.5863298     
   22119646.9320771     
   20000000.0000000     
   20000000.0000000     
   20000000.0000000     
   20000000.0000000     
   20000000.0000000     
   20000000.0000000     
   20000000.0000000     
   20000000.0000000     
   20000000.0000000     
   20000000.0000000     
   20000000.0000000     
   20000000.0000000     
   20000000.0000000     
   20000000.0000000     
   20000000.0000000     
   20000000.0000000     
   20000000.0000000     
   20000000.0000000     
   20000000.0000000     
   20000000.0000000     
   20000000.0000000     
   20000000.0000000     
   20000000.0000000     
   20000000.0000000     
   20000000.0000000     
   20000000.0000000     
   20000000.0000000     
   20000000.0000000     
   20000000.0000000     
   20000000.0000000     
   20000000.0000000     
   20000000.0000000     
   20000000.0000000     
   20000000.0000000     
   20000000.0000000     
   20000000.0000000     
   20000000.0000000     
   20000000.0000000     
   20000000.0000000     
   20000000.0000000     
   20000000.0000000     
   20000000.0000000     
   20000000.0000000     
   20000000.0000000     
   20000000.0000000     
   20000000.0000000     
   20000000.0000000     
   20000000.0000000     
   20000000.0000000     
   20000000.0000000     
   20000000.0000000     
VECTORS u double 
    0.00000E+00        -0.96394E-05         0.00000E+00
    0.00000E+00        -0.96003E-05         0.00000E+00
    0.00000E+00        -0.94893E-05         0.00000E+00
    0.00000E+00        -0.93066E-05         0.00000E+00
    0.00000E+00        -0.90560E-05         0.00000E+00
    0.00000E+00        -0.87425E-05         0.00000E+00
    0.00000E+00        -0.83714E-05         0.00000E+00
    0.00000E+00        -0.79483E-05         0.00000E+00
    0.00000E+00        -0.74782E-05         0.00000E+00
    0.00000E+00        -0.69664E-05         0.00000E+00
    0.00000E+00        -0.64176E-05         0.00000E+00
    0.00000E+00        -0.58366E-05         0.00000E+00
    0.00000E+00        -0.52279E-05         0.00000E+00
    0.00000E+00        -0.45958E-05         0.00000E+00
    0.00000E+00        -0.39448E-05         0.00000E+00
    0.00000E+00        -0.32788E-05         0.00000E+00
    0.00000E+00        -0.26020E-05         0.00000E+00
    0.00000E+00        -0.19183E-05         0.00000E+00
    0.00000E+00        -0.12317E-05         0.00000E+00
    0.00000E+00        -0.54591E-06         0.00000E+00
    0.00000E+00         0.13528E-06         0.00000E+00
    0.00000E+00         0.80817E-06         0.00000E+00
    0.00000E+00         0.14691E-05         0.00000E+00
    0.00000E+00         0.21145E-05         0.00000E+00
    0.00000E+00         0.27409E-05         0.00000E+00
    0.00000E+00         0.33445E-05         0.00000E+00
    0.00000E+00         0.39221E-05         0.00000E+00
    0.00000E+00         0.44701E-05         0.00000E+00
    0.00000E+00         0.49849E-05         0.00000E+00
    0.00000E+00         0.54633E-05         0.00000E+00
    0.00000E+00         0.59016E-05         0.00000E+00
    0.00000E+00         0.62965E-05         0.00000E+00
    0.00000E+00         0.66444E-05         0.00000E+00
    0.00000E+00         0.69417E-05         0.00000E+00
    0.00000E+00         0.71850E-05         0.00000E+00
    0.00000E+00         0.73704E-05         0.00000E+00
    0.00000E+00         0.74944E-05         0.00000E+00
    0.00000E+00         0.75529E-05         0.00000E+00
    0.00000E+00         0.75420E-05         0.00000E+00
    0.00000E+00         0.74576E-05         0.00000E+00
    0.00000E+00         0.72951E-05         0.00000E+00
    0.00000E+00         0.70500E-05         0.00000E+00
    0.00000E+00         0.67170E-05         0.00000E+00
    0.00000E+00         0.62907E-05         0.00000E+00
    0.00000E+00         0.57648E-05         0.00000E+00
    0.00000E+00         0.51323E-05         0.00000E+00
    0.00000E+00         0.43850E-05         0.00000E+00
    0.00000E+00         0.35127E-05         0.00000E+00
    0.00000E+00         0.25032E-05         0.00000E+00
    0.00000E+00         0.13399E-05         0.00000E+00
    0.00000E+00         0.00000E+00         0.00000E+00
    0.49952E-04        -0.15702E-04         0.00000E+00
    0.48030E-04        -0.15071E-04         0.00000E+00
    0.46400E-04        -0.14459E-04         0.00000E+00
    0.44978E-04        -0.13851E-04         0.00000E+00
    0.43712E-04        -0.13237E-04         0.00000E+00
    0.42563E-04        -0.12610E-04         0.00000E+00
    0.41507E-04        -0.11965E-04         0.00000E+00
    0.40522E-04        -0.11301E-04         0.00000E+00
    0.39594E-04        -0.10616E-04         0.00000E+00
    0.38711E-04        -0.99120E-05         0.00000E+00
    0.37865E-04        -0.91894E-05         0.00000E+00
    0.37048E-04        -0.84502E-05         0.00000E+00
    0.36254E-04        -0.76966E-05         0.00000E+00
    0.35477E-04        -0.69313E-05         0.00000E+00
    0.34715E-04        -0.61569E-05         0.00000E+00
    0.33963E-04        -0.53765E-05         0.00000E+00
    0.33219E-04        -0.45929E-05         0.00000E+00
    0.32479E-04        -0.38094E-05         0.00000E+00
    0.31742E-04        -0.30291E-05         0.00000E+00
    0.31005E-04        -0.22551E-05         0.00000E+00
    0.30267E-04        -0.14907E-05         0.00000E+00
    0.29526E-04        -0.73912E-06         0.00000E+00
    0.28781E-04        -0.35930E-08         0.00000E+00
    0.28031E-04         0.71264E-06         0.00000E+00
    0.27273E-04         0.14063E-05         0.00000E+00
    0.26508E-04         0.20742E-05         0.00000E+00
    0.25733E-04         0.27131E-05         0.00000E+00
    0.24948E-04         0.33197E-05         0.00000E+00
    0.24153E-04         0.38907E-05         0.00000E+00
    0.23345E-04         0.44229E-05         0.00000E+00
    0.22524E-04         0.49129E-05         0.00000E+00
    0.21688E-04         0.53575E-05         0.00000E+00
    0.20837E-04         0.57532E-05         0.00000E+00
    0.19970E-04         0.60967E-05         0.00000E+00
    0.19085E-04         0.63845E-05         0.00000E+00
    0.18181E-04         0.66130E-05         0.00000E+00
    0.17255E-04         0.67787E-05         0.00000E+00
    0.16308E-04         0.68779E-05         0.00000E+00
    0.15335E-04         0.69066E-05         0.00000E+00
    0.14336E-04         0.68608E-05         0.00000E+00
    0.13307E-04         0.67364E-05         0.00000E+00
    0.12245E-04         0.65289E-05         0.00000E+00
    0.11146E-04         0.62336E-05         0.00000E+00
    0.10006E-04         0.58454E-05         0.00000E+00
    0.88177E-05         0.53588E-05         0.00000E+00
    0.75739E-05         0.47679E-05         0.00000E+00
    0.62645E-05         0.40662E-05         0.00000E+00
    0.48758E-05         0.32464E-05         0.00000E+00
    0.33891E-05         0.23010E-05         0.00000E+00
    0.17774E-05         0.12215E-05         0.00000E+00
    0.00000E+00         0.00000E+00         0.00000E+00
    0.94474E-04        -0.28676E-04         0.00000E+00
    0.91583E-04        -0.27446E-04         0.00000E+00
    0.88924E-04        -0.26222E-04         0.00000E+00
    0.86474E-04        -0.25011E-04         0.00000E+00
    0.84204E-04        -0.23814E-04         0.00000E+00
    0.82088E-04        -0.22631E-04         0.00000E+00
    0.80101E-04        -0.21462E-04         0.00000E+00
    0.78223E-04        -0.20304E-04         0.00000E+00
    0.76434E-04        -0.19157E-04         0.00000E+00
    0.74719E-04        -0.18019E-04         0.00000E+00
    0.73065E-04        -0.16890E-04         0.00000E+00
    0.71461E-04        -0.15770E-04         0.00000E+00
    0.69897E-04        -0.14658E-04         0.00000E+00
    0.68365E-04        -0.13556E-04         0.00000E+00
    0.66857E-04        -0.12464E-04         0.00000E+00
    0.65368E-04        -0.11385E-04         0.00000E+00
    0.63893E-04        -0.10318E-04         0.00000E+00
    0.62426E-04        -0.92671E-05         0.00000E+00
    0.60963E-04        -0.82329E-05         0.00000E+00
    0.59501E-04        -0.72178E-05         0.00000E+00
    0.58036E-04        -0.62239E-05         0.00000E+00
    0.56565E-04        -0.52537E-05         0.00000E+00
    0.55086E-04        -0.43095E-05         0.00000E+00
    0.53595E-04        -0.33938E-05         0.00000E+00
    0.52092E-04        -0.25092E-05         0.00000E+00
    0.50572E-04        -0.16582E-05         0.00000E+00
    0.49036E-04        -0.84368E-06         0.00000E+00
    0.47479E-04        -0.68217E-07         0.00000E+00
    0.45901E-04         0.66538E-06         0.00000E+00
    0.44299E-04         0.13543E-05         0.00000E+00
    0.42672E-04         0.19956E-05         0.00000E+00
    0.41018E-04         0.25866E-05         0.00000E+00
    0.39333E-04         0.31240E-05         0.00000E+00
    0.37618E-04         0.36051E-05         0.00000E+00
    0.35868E-04         0.40267E-05         0.00000E+00
    0.34082E-04         0.43858E-05         0.00000E+00
    0.32257E-04         0.46790E-05         0.00000E+00
    0.30391E-04         0.49032E-05         0.00000E+00
    0.28479E-04         0.50551E-05         0.00000E+00
    0.26518E-04         0.51313E-05         0.00000E+00
    0.24504E-04         0.51283E-05         0.00000E+00
    0.22433E-04         0.50426E-05         0.00000E+00
    0.20298E-04         0.48705E-05         0.00000E+00
    0.18094E-04         0.46085E-05         0.00000E+00
    0.15814E-04         0.42530E-05         0.00000E+00
    0.13449E-04         0.38005E-05         0.00000E+00
    0.10989E-04         0.32478E-05         0.00000E+00
    0.84251E-05         0.25923E-05         0.00000E+00
    0.57450E-05         0.18322E-05         0.00000E+00
    0.29386E-05         0.96728E-06         0.00000E+00
    0.00000E+00         0.00000E+00         0.00000E+00
    0.13431E-03        -0.45214E-04         0.00000E+00
    0.13085E-03        -0.43450E-04         0.00000E+00
    0.12756E-03        -0.41691E-04         0.00000E+00
    0.12445E-03        -0.39942E-04         0.00000E+00
    0.12148E-03        -0.38207E-04         0.00000E+00
    0.11865E-03        -0.36488E-04         0.00000E+00
    0.11593E-03        -0.34788E-04         0.00000E+00
    0.11332E-03        -0.33110E-04         0.00000E+00
    0.11080E-03        -0.31454E-04         0.00000E+00
    0.10836E-03        -0.29821E-04         0.00000E+00
    0.10598E-03        -0.28212E-04         0.00000E+00
    0.10365E-03        -0.26627E-04         0.00000E+00
    0.10137E-03        -0.25068E-04         0.00000E+00
    0.99130E-04        -0.23534E-04         0.00000E+00
    0.96914E-04        -0.22027E-04         0.00000E+00
    0.94718E-04        -0.20547E-04         0.00000E+00
    0.92536E-04        -0.19095E-04         0.00000E+00
    0.90362E-04        -0.17674E-04         0.00000E+00
    0.88192E-04        -0.16283E-04         0.00000E+00
    0.86020E-04        -0.14924E-04         0.00000E+00
    0.83842E-04        -0.13599E-04         0.00000E+00
    0.81655E-04        -0.12310E-04         0.00000E+00
    0.79454E-04        -0.11058E-04         0.00000E+00
    0.77236E-04        -0.98457E-05         0.00000E+00
    0.74998E-04        -0.86741E-05         0.00000E+00
    0.72737E-04        -0.75456E-05         0.00000E+00
    0.70450E-04        -0.64623E-05         0.00000E+00
    0.68135E-04        -0.54264E-05         0.00000E+00
    0.65789E-04        -0.44400E-05         0.00000E+00
    0.63409E-04        -0.35054E-05         0.00000E+00
    0.60993E-04        -0.26250E-05         0.00000E+00
    0.58538E-04        -0.18010E-05         0.00000E+00
    0.56041E-04        -0.10359E-05         0.00000E+00
    0.53500E-04        -0.33209E-06         0.00000E+00
    0.50913E-04         0.30798E-06         0.00000E+00
    0.48276E-04         0.88184E-06         0.00000E+00
    0.45585E-04         0.13870E-05         0.00000E+00
    0.42839E-04         0.18210E-05         0.00000E+00
    0.40033E-04         0.21813E-05         0.00000E+00
    0.37164E-04         0.24654E-05         0.00000E+00
    0.34227E-04         0.26711E-05         0.00000E+00
    0.31218E-04         0.27959E-05         0.00000E+00
    0.28132E-04         0.28377E-05         0.00000E+00
    0.24964E-04         0.27944E-05         0.00000E+00
    0.21709E-04         0.26641E-05         0.00000E+00
    0.18360E-04         0.24455E-05         0.00000E+00
    0.14912E-04         0.21374E-05         0.00000E+00
    0.11358E-04         0.17390E-05         0.00000E+00
    0.76929E-05         0.12500E-05         0.00000E+00
    0.39095E-05         0.67041E-06         0.00000E+00
    0.00000E+00         0.00000E+00         0.00000E+00
    0.17036E-03        -0.63921E-04         0.00000E+00
    0.16653E-03        -0.61655E-04         0.00000E+00
    0.16284E-03        -0.59395E-04         0.00000E+00
    0.15927E-03        -0.57145E-04         0.00000E+00
    0.15582E-03        -0.54909E-04         0.00000E+00
    0.15246E-03        -0.52690E-04         0.00000E+00
    0.14919E-03        -0.50491E-04         0.00000E+00
    0.14601E-03        -0.48317E-04         0.00000E+00
    0.14290E-03        -0.46168E-04         0.00000E+00
    0.13985E-03        -0.44047E-04         0.00000E+00
    0.13685E-03        -0.41956E-04         0.00000E+00
    0.13389E-03        -0.39896E-04         0.00000E+00
    0.13098E-03        -0.37870E-04         0.00000E+00
    0.12809E-03        -0.35879E-04         0.00000E+00
    0.12522E-03        -0.33923E-04         0.00000E+00
    0.12236E-03        -0.32004E-04         0.00000E+00
    0.11952E-03        -0.30124E-04         0.00000E+00
    0.11667E-03        -0.28283E-04         0.00000E+00
    0.11383E-03        -0.26484E-04         0.00000E+00
    0.11097E-03        -0.24726E-04         0.00000E+00
    0.10811E-03        -0.23013E-04         0.00000E+00
    0.10522E-03        -0.21344E-04         0.00000E+00
    0.10232E-03        -0.19723E-04         0.00000E+00
    0.99394E-04        -0.18149E-04         0.00000E+00
    0.96439E-04        -0.16625E-04         0.00000E+00
    0.93454E-04        -0.15153E-04         0.00000E+00
    0.90435E-04        -0.13733E-04         0.00000E+00
    0.87379E-04        -0.12368E-04         0.00000E+00
    0.84282E-04        -0.11060E-04         0.00000E+00
    0.81143E-04        -0.98104E-05         0.00000E+00
    0.77958E-04        -0.86206E-05         0.00000E+00
    0.74725E-04        -0.74928E-05         0.00000E+00
    0.71441E-04        -0.64287E-05         0.00000E+00
    0.68102E-04        -0.54302E-05         0.00000E+00
    0.64707E-04        -0.44991E-05         0.00000E+00
    0.61252E-04        -0.36372E-05         0.00000E+00
    0.57734E-04        -0.28463E-05         0.00000E+00
    0.54151E-04        -0.21282E-05         0.00000E+00
    0.50498E-04        -0.14845E-05         0.00000E+00
    0.46774E-04        -0.91685E-06         0.00000E+00
    0.42974E-04        -0.42670E-06         0.00000E+00
    0.39095E-04        -0.15437E-07         0.00000E+00
    0.35133E-04         0.31570E-06         0.00000E+00
    0.31085E-04         0.56566E-06         0.00000E+00
    0.26946E-04         0.73358E-06         0.00000E+00
    0.22714E-04         0.81883E-06         0.00000E+00
    0.18383E-04         0.82100E-06         0.00000E+00
    0.13950E-04         0.73992E-06         0.00000E+00
    0.94114E-05         0.57569E-06         0.00000E+00
    0.47624E-05         0.32873E-06         0.00000E+00
    0.00000E+00         0.00000E+00         0.00000E+00
    0.20339E-03        -0.83950E-04         0.00000E+00
    0.19934E-03        -0.81212E-04         0.00000E+00
    0.19537E-03        -0.78478E-04         0.00000E+00
    0.19149E-03        -0.75754E-04         0.00000E+00
    0.18767E-03        -0.73044E-04         0.00000E+00
    0.18393E-03        -0.70351E-04         0.00000E+00
    0.18024E-03        -0.67679E-04         0.00000E+00
    0.17660E-03        -0.65031E-04         0.00000E+00
    0.17301E-03        -0.62410E-04         0.00000E+00
    0.16946E-03        -0.59819E-04         0.00000E+00
    0.16594E-03        -0.57260E-04         0.00000E+00
    0.16244E-03        -0.54735E-04         0.00000E+00
    0.15896E-03        -0.52248E-04         0.00000E+00
    0.15550E-03        -0.49799E-04         0.00000E+00
    0.15204E-03        -0.47390E-04         0.00000E+00
    0.14859E-03        -0.45024E-04         0.00000E+00
    0.14513E-03        -0.42701E-04         0.00000E+00
    0.14166E-03        -0.40424E-04         0.00000E+00
    0.13818E-03        -0.38194E-04         0.00000E+00
    0.13468E-03        -0.36013E-04         0.00000E+00
    0.13116E-03        -0.33882E-04         0.00000E+00
    0.12761E-03        -0.31802E-04         0.00000E+00
    0.12403E-03        -0.29775E-04         0.00000E+00
    0.12042E-03        -0.27803E-04         0.00000E+00
    0.11678E-03        -0.25887E-04         0.00000E+00
    0.11309E-03        -0.24028E-04         0.00000E+00
    0.10936E-03        -0.22227E-04         0.00000E+00
    0.10559E-03        -0.20487E-04         0.00000E+00
    0.10176E-03        -0.18809E-04         0.00000E+00
    0.97887E-04        -0.17194E-04         0.00000E+00
    0.93958E-04        -0.15644E-04         0.00000E+00
    0.89971E-04        -0.14159E-04         0.00000E+00
    0.85925E-04        -0.12742E-04         0.00000E+00
    0.81817E-04        -0.11394E-04         0.00000E+00
    0.77644E-04        -0.10116E-04         0.00000E+00
    0.73404E-04        -0.89096E-05         0.00000E+00
    0.69094E-04        -0.77758E-05         0.00000E+00
    0.64711E-04        -0.67160E-05         0.00000E+00
    0.60254E-04        -0.57311E-05         0.00000E+00
    0.55720E-04        -0.48222E-05         0.00000E+00
    0.51105E-04        -0.39902E-05         0.00000E+00
    0.46408E-04        -0.32360E-05         0.00000E+00
    0.41626E-04        -0.25601E-05         0.00000E+00
    0.36755E-04        -0.19630E-05         0.00000E+00
    0.31795E-04        -0.14452E-05         0.00000E+00
    0.26742E-04        -0.10069E-05         0.00000E+00
    0.21593E-04        -0.64795E-06         0.00000E+00
    0.16347E-04        -0.36830E-06         0.00000E+00
    0.11001E-04        -0.16752E-06         0.00000E+00
    0.55524E-05        -0.44998E-07         0.00000E+00
    0.00000E+00         0.00000E+00         0.00000E+00
    0.23409E-03        -0.10477E-03         0.00000E+00
    0.22989E-03        -0.10158E-03         0.00000E+00
    0.22574E-03        -0.98393E-04         0.00000E+00
    0.22163E-03        -0.95216E-04         0.00000E+00
    0.21755E-03        -0.92052E-04         0.00000E+00
    0.21350E-03        -0.88905E-04         0.00000E+00
    0.20948E-03        -0.85778E-04         0.00000E+00
    0.20548E-03        -0.82675E-04         0.00000E+00
    0.20150E-03        -0.79599E-04         0.00000E+00
    0.19752E-03        -0.76553E-04         0.00000E+00
    0.19356E-03        -0.73540E-04         0.00000E+00
    0.18959E-03        -0.70562E-04         0.00000E+00
    0.18562E-03        -0.67623E-04         0.00000E+00
    0.18165E-03        -0.64723E-04         0.00000E+00
    0.17766E-03        -0.61866E-04         0.00000E+00
    0.17366E-03        -0.59054E-04         0.00000E+00
    0.16964E-03        -0.56288E-04         0.00000E+00
    0.16559E-03        -0.53570E-04         0.00000E+00
    0.16152E-03        -0.50903E-04         0.00000E+00
    0.15741E-03        -0.48288E-04         0.00000E+00
    0.15327E-03        -0.45726E-04         0.00000E+00
    0.14910E-03        -0.43219E-04         0.00000E+00
    0.14488E-03        -0.40769E-04         0.00000E+00
    0.14062E-03        -0.38377E-04         0.00000E+00
    0.13631E-03        -0.36045E-04         0.00000E+00
    0.13195E-03        -0.33774E-04         0.00000E+00
    0.12753E-03        -0.31565E-04         0.00000E+00
    0.12306E-03        -0.29420E-04         0.00000E+00
    0.11854E-03        -0.27340E-04         0.00000E+00
    0.11395E-03        -0.25327E-04         0.00000E+00
    0.10930E-03        -0.23381E-04         0.00000E+00
    0.10459E-03        -0.21504E-04         0.00000E+00
    0.99803E-04        -0.19697E-04         0.00000E+00
    0.94951E-04        -0.17961E-04         0.00000E+00
    0.90028E-04        -0.16297E-04         0.00000E+00
    0.85030E-04        -0.14706E-04         0.00000E+00
    0.79958E-04        -0.13189E-04         0.00000E+00
    0.74807E-04        -0.11747E-04         0.00000E+00
    0.69578E-04        -0.10380E-04         0.00000E+00
    0.64266E-04        -0.90894E-05         0.00000E+00
    0.58872E-04        -0.78757E-05         0.00000E+00
    0.53392E-04        -0.67392E-05         0.00000E+00
    0.47826E-04        -0.56802E-05         0.00000E+00
    0.42172E-04        -0.46991E-05         0.00000E+00
    0.36427E-04        -0.37958E-05         0.00000E+00
    0.30592E-04        -0.29704E-05         0.00000E+00
    0.24663E-04        -0.22226E-05         0.00000E+00
    0.18641E-04        -0.15523E-05         0.00000E+00
    0.12524E-04        -0.95883E-06         0.00000E+00
    0.63103E-05        -0.44166E-06         0.00000E+00
    0.00000E+00         0.00000E+00         0.00000E+00
    0.26307E-03        -0.12605E-03         0.00000E+00
    0.25879E-03        -0.12242E-03         0.00000E+00
    0.25450E-03        -0.11880E-03         0.00000E+00
    0.25022E-03        -0.11518E-03         0.00000E+00
    0.24594E-03        -0.11157E-03         0.00000E+00
    0.24165E-03        -0.10799E-03         0.00000E+00
    0.23736E-03        -0.10442E-03         0.00000E+00
    0.23305E-03        -0.10087E-03         0.00000E+00
    0.22873E-03        -0.97354E-04         0.00000E+00
    0.22440E-03        -0.93865E-04         0.00000E+00
    0.22004E-03        -0.90408E-04         0.00000E+00
    0.21566E-03        -0.86987E-04         0.00000E+00
    0.21126E-03        -0.83603E-04         0.00000E+00
    0.20683E-03        -0.80261E-04         0.00000E+00
    0.20236E-03        -0.76961E-04         0.00000E+00
    0.19786E-03        -0.73706E-04         0.00000E+00
    0.19332E-03        -0.70499E-04         0.00000E+00
    0.18874E-03        -0.67341E-04         0.00000E+00
    0.18411E-03        -0.64234E-04         0.00000E+00
    0.17944E-03        -0.61181E-04         0.00000E+00
    0.17472E-03        -0.58183E-04         0.00000E+00
    0.16994E-03        -0.55242E-04         0.00000E+00
    0.16511E-03        -0.52359E-04         0.00000E+00
    0.16023E-03        -0.49537E-04         0.00000E+00
    0.15528E-03        -0.46776E-04         0.00000E+00
    0.15027E-03        -0.44078E-04         0.00000E+00
    0.14520E-03        -0.41444E-04         0.00000E+00
    0.14006E-03        -0.38876E-04         0.00000E+00
    0.13486E-03        -0.36376E-04         0.00000E+00
    0.12958E-03        -0.33943E-04         0.00000E+00
    0.12423E-03        -0.31580E-04         0.00000E+00
    0.11881E-03        -0.29287E-04         0.00000E+00
    0.11332E-03        -0.27066E-04         0.00000E+00
    0.10774E-03        -0.24917E-04         0.00000E+00
    0.10209E-03        -0.22841E-04         0.00000E+00
    0.96358E-04        -0.20840E-04         0.00000E+00
    0.90545E-04        -0.18913E-04         0.00000E+00
    0.84649E-04        -0.17062E-04         0.00000E+00
    0.78669E-04        -0.15287E-04         0.00000E+00
    0.72603E-04        -0.13589E-04         0.00000E+00
    0.66452E-04        -0.11967E-04         0.00000E+00
    0.60213E-04        -0.10423E-04         0.00000E+00
    0.53885E-04        -0.89563E-05         0.00000E+00
    0.47468E-04        -0.75671E-05         0.00000E+00
    0.40961E-04        -0.62554E-05         0.00000E+00
    0.34364E-04        -0.50212E-05         0.00000E+00
    0.27675E-04        -0.38642E-05         0.00000E+00
    0.20894E-04        -0.27841E-05         0.00000E+00
    0.14022E-04        -0.17804E-05         0.00000E+00
    0.70569E-05        -0.85263E-06         0.00000E+00
    0.00000E+00         0.00000E+00         0.00000E+00
    0.29089E-03        -0.14760E-03         0.00000E+00
    0.28654E-03        -0.14354E-03         0.00000E+00
    0.28216E-03        -0.13948E-03         0.00000E+00
    0.27775E-03        -0.13543E-03         0.00000E+00
    0.27330E-03        -0.13139E-03         0.00000E+00
    0.26881E-03        -0.12737E-03         0.00000E+00
    0.26428E-03        -0.12337E-03         0.00000E+00
    0.25971E-03        -0.11939E-03         0.00000E+00
    0.25510E-03        -0.11544E-03         0.00000E+00
    0.25044E-03        -0.11151E-03         0.00000E+00
    0.24574E-03        -0.10762E-03         0.00000E+00
    0.24099E-03        -0.10376E-03         0.00000E+00
    0.23619E-03        -0.99936E-04         0.00000E+00
    0.23133E-03        -0.96155E-04         0.00000E+00
    0.22642E-03        -0.92415E-04         0.00000E+00
    0.22146E-03        -0.88721E-04         0.00000E+00
    0.21644E-03        -0.85074E-04         0.00000E+00
    0.21135E-03        -0.81477E-04         0.00000E+00
    0.20621E-03        -0.77931E-04         0.00000E+00
    0.20100E-03        -0.74439E-04         0.00000E+00
    0.19572E-03        -0.71002E-04         0.00000E+00
    0.19038E-03        -0.67623E-04         0.00000E+00
    0.18496E-03        -0.64302E-04         0.00000E+00
    0.17948E-03        -0.61043E-04         0.00000E+00
    0.17392E-03        -0.57846E-04         0.00000E+00
    0.16829E-03        -0.54713E-04         0.00000E+00
    0.16258E-03        -0.51645E-04         0.00000E+00
    0.15679E-03        -0.48644E-04         0.00000E+00
    0.15093E-03        -0.45710E-04         0.00000E+00
    0.14498E-03        -0.42846E-04         0.00000E+00
    0.13896E-03        -0.40052E-04         0.00000E+00
    0.13285E-03        -0.37330E-04         0.00000E+00
    0.12665E-03        -0.34680E-04         0.00000E+00
    0.12037E-03        -0.32103E-04         0.00000E+00
    0.11401E-03        -0.29600E-04         0.00000E+00
    0.10756E-03        -0.27172E-04         0.00000E+00
    0.10102E-03        -0.24820E-04         0.00000E+00
    0.94393E-04        -0.22544E-04         0.00000E+00
    0.87677E-04        -0.20344E-04         0.00000E+00
    0.80871E-04        -0.18222E-04         0.00000E+00
    0.73974E-04        -0.16177E-04         0.00000E+00
    0.66987E-04        -0.14210E-04         0.00000E+00
    0.59909E-04        -0.12321E-04         0.00000E+00
    0.52740E-04        -0.10509E-04         0.00000E+00
    0.45479E-04        -0.87757E-05         0.00000E+00
    0.38127E-04        -0.71201E-05         0.00000E+00
    0.30683E-04        -0.55422E-05         0.00000E+00
    0.23148E-04        -0.40417E-05         0.00000E+00
    0.15522E-04        -0.26181E-05         0.00000E+00
    0.78061E-05        -0.12711E-05         0.00000E+00
    0.00000E+00         0.00000E+00         0.00000E+00
    0.31804E-03        -0.16932E-03         0.00000E+00
    0.31365E-03        -0.16483E-03         0.00000E+00
    0.30919E-03        -0.16034E-03         0.00000E+00
    0.30466E-03        -0.15587E-03         0.00000E+00
    0.30006E-03        -0.15140E-03         0.00000E+00
    0.29539E-03        -0.14695E-03         0.00000E+00
    0.29065E-03        -0.14251E-03         0.00000E+00
    0.28584E-03        -0.13810E-03         0.00000E+00
    0.28096E-03        -0.13371E-03         0.00000E+00
    0.27601E-03        -0.12935E-03         0.00000E+00
    0.27098E-03        -0.12503E-03         0.00000E+00
    0.26588E-03        -0.12073E-03         0.00000E+00
    0.26071E-03        -0.11647E-03         0.00000E+00
    0.25546E-03        -0.11225E-03         0.00000E+00
    0.25014E-03        -0.10808E-03         0.00000E+00
    0.24473E-03        -0.10394E-03         0.00000E+00
    0.23925E-03        -0.99856E-04         0.00000E+00
    0.23369E-03        -0.95818E-04         0.00000E+00
    0.22805E-03        -0.91832E-04         0.00000E+00
    0.22232E-03        -0.87899E-04         0.00000E+00
    0.21651E-03        -0.84022E-04         0.00000E+00
    0.21062E-03        -0.80201E-04         0.00000E+00
    0.20464E-03        -0.76440E-04         0.00000E+00
    0.19858E-03        -0.72740E-04         0.00000E+00
    0.19243E-03        -0.69102E-04         0.00000E+00
    0.18619E-03        -0.65528E-04         0.00000E+00
    0.17986E-03        -0.62020E-04         0.00000E+00
    0.17344E-03        -0.58579E-04         0.00000E+00
    0.16693E-03        -0.55206E-04         0.00000E+00
    0.16033E-03        -0.51903E-04         0.00000E+00
    0.15364E-03        -0.48670E-04         0.00000E+00
    0.14685E-03        -0.45510E-04         0.00000E+00
    0.13997E-03        -0.42422E-04         0.00000E+00
    0.13300E-03        -0.39408E-04         0.00000E+00
    0.12593E-03        -0.36469E-04         0.00000E+00
    0.11877E-03        -0.33606E-04         0.00000E+00
    0.11151E-03        -0.30819E-04         0.00000E+00
    0.10416E-03        -0.28108E-04         0.00000E+00
    0.96715E-04        -0.25475E-04         0.00000E+00
    0.89173E-04        -0.22920E-04         0.00000E+00
    0.81536E-04        -0.20443E-04         0.00000E+00
    0.73804E-04        -0.18045E-04         0.00000E+00
    0.65977E-04        -0.15725E-04         0.00000E+00
    0.58056E-04        -0.13484E-04         0.00000E+00
    0.50040E-04        -0.11322E-04         0.00000E+00
    0.41930E-04        -0.92389E-05         0.00000E+00
    0.33728E-04        -0.72346E-05         0.00000E+00
    0.25432E-04        -0.53089E-05         0.00000E+00
    0.17045E-04        -0.34614E-05         0.00000E+00
    0.85675E-05        -0.16920E-05         0.00000E+00
    0.00000E+00         0.00000E+00         0.00000E+00
    0.34498E-03        -0.19120E-03         0.00000E+00
    0.34053E-03        -0.18627E-03         0.00000E+00
    0.33599E-03        -0.18136E-03         0.00000E+00
    0.33134E-03        -0.17645E-03         0.00000E+00
    0.32660E-03        -0.17155E-03         0.00000E+00
    0.32176E-03        -0.16667E-03         0.00000E+00
    0.31682E-03        -0.16180E-03         0.00000E+00
    0.31178E-03        -0.15695E-03         0.00000E+00
    0.30665E-03        -0.15213E-03         0.00000E+00
    0.30141E-03        -0.14733E-03         0.00000E+00
    0.29608E-03        -0.14257E-03         0.00000E+00
    0.29065E-03        -0.13784E-03         0.00000E+00
    0.28512E-03        -0.13314E-03         0.00000E+00
    0.27949E-03        -0.12848E-03         0.00000E+00
    0.27377E-03        -0.12386E-03         0.00000E+00
    0.26794E-03        -0.11929E-03         0.00000E+00
    0.26202E-03        -0.11476E-03         0.00000E+00
    0.25599E-03        -0.11028E-03         0.00000E+00
    0.24987E-03        -0.10585E-03         0.00000E+00
    0.24364E-03        -0.10147E-03         0.00000E+00
    0.23731E-03        -0.97153E-04         0.00000E+00
    0.23088E-03        -0.92888E-04         0.00000E+00
    0.22435E-03        -0.88682E-04         0.00000E+00
    0.21772E-03        -0.84537E-04         0.00000E+00
    0.21099E-03        -0.80454E-04         0.00000E+00
    0.20415E-03        -0.76436E-04         0.00000E+00
    0.19721E-03        -0.72483E-04         0.00000E+00
    0.19017E-03        -0.68597E-04         0.00000E+00
    0.18302E-03        -0.64780E-04         0.00000E+00
    0.17577E-03        -0.61032E-04         0.00000E+00
    0.16842E-03        -0.57356E-04         0.00000E+00
    0.16096E-03        -0.53752E-04         0.00000E+00
    0.15340E-03        -0.50222E-04         0.00000E+00
    0.14574E-03        -0.46766E-04         0.00000E+00
    0.13797E-03        -0.43385E-04         0.00000E+00
    0.13010E-03        -0.40080E-04         0.00000E+00
    0.12213E-03        -0.36853E-04         0.00000E+00
    0.11405E-03        -0.33703E-04         0.00000E+00
    0.10588E-03        -0.30632E-04         0.00000E+00
    0.97596E-04        -0.27639E-04         0.00000E+00
    0.89214E-04        -0.24726E-04         0.00000E+00
    0.80732E-04        -0.21892E-04         0.00000E+00
    0.72150E-04        -0.19139E-04         0.00000E+00
    0.63469E-04        -0.16465E-04         0.00000E+00
    0.54689E-04        -0.13872E-04         0.00000E+00
    0.45812E-04        -0.11360E-04         0.00000E+00
    0.36838E-04        -0.89273E-05         0.00000E+00
    0.27768E-04        -0.65754E-05         0.00000E+00
    0.18605E-04        -0.43037E-05         0.00000E+00
    0.93482E-05        -0.21120E-05         0.00000E+00
    0.00000E+00         0.00000E+00         0.00000E+00
    0.37208E-03        -0.21327E-03         0.00000E+00
    0.36758E-03        -0.20791E-03         0.00000E+00
    0.36295E-03        -0.20255E-03         0.00000E+00
    0.35819E-03        -0.19720E-03         0.00000E+00
    0.35330E-03        -0.19187E-03         0.00000E+00
    0.34828E-03        -0.18654E-03         0.00000E+00
    0.34314E-03        -0.18124E-03         0.00000E+00
    0.33787E-03        -0.17595E-03         0.00000E+00
    0.33248E-03        -0.17069E-03         0.00000E+00
    0.32697E-03        -0.16545E-03         0.00000E+00
    0.32133E-03        -0.16024E-03         0.00000E+00
    0.31557E-03        -0.15506E-03         0.00000E+00
    0.30969E-03        -0.14992E-03         0.00000E+00
    0.30369E-03        -0.14482E-03         0.00000E+00
    0.29757E-03        -0.13976E-03         0.00000E+00
    0.29133E-03        -0.13474E-03         0.00000E+00
    0.28497E-03        -0.12976E-03         0.00000E+00
    0.27848E-03        -0.12483E-03         0.00000E+00
    0.27188E-03        -0.11996E-03         0.00000E+00
    0.26516E-03        -0.11513E-03         0.00000E+00
    0.25832E-03        -0.11036E-03         0.00000E+00
    0.25136E-03        -0.10565E-03         0.00000E+00
    0.24429E-03        -0.10099E-03         0.00000E+00
    0.23709E-03        -0.96398E-04         0.00000E+00
    0.22978E-03        -0.91865E-04         0.00000E+00
    0.22235E-03        -0.87397E-04         0.00000E+00
    0.21480E-03        -0.82994E-04         0.00000E+00
    0.20713E-03        -0.78659E-04         0.00000E+00
    0.19935E-03        -0.74393E-04         0.00000E+00
    0.19145E-03        -0.70197E-04         0.00000E+00
    0.18344E-03        -0.66072E-04         0.00000E+00
    0.17531E-03        -0.62021E-04         0.00000E+00
    0.16707E-03        -0.58043E-04         0.00000E+00
    0.15871E-03        -0.54141E-04         0.00000E+00
    0.15024E-03        -0.50315E-04         0.00000E+00
    0.14166E-03        -0.46566E-04         0.00000E+00
    0.13296E-03        -0.42895E-04         0.00000E+00
    0.12415E-03        -0.39303E-04         0.00000E+00
    0.11524E-03        -0.35790E-04         0.00000E+00
    0.10621E-03        -0.32358E-04         0.00000E+00
    0.97072E-04        -0.29006E-04         0.00000E+00
    0.87828E-04        -0.25735E-04         0.00000E+00
    0.78478E-04        -0.22547E-04         0.00000E+00
    0.69023E-04        -0.19440E-04         0.00000E+00
    0.59464E-04        -0.16415E-04         0.00000E+00
    0.49801E-04        -0.13473E-04         0.00000E+00
    0.40038E-04        -0.10613E-04         0.00000E+00
    0.30174E-04        -0.78360E-05         0.00000E+00
    0.20212E-04        -0.51416E-05         0.00000E+00
    0.10154E-04        -0.25296E-05         0.00000E+00
    0.00000E+00         0.00000E+00         0.00000E+00
    0.39972E-03        -0.23560E-03         0.00000E+00
    0.39514E-03        -0.22980E-03         0.00000E+00
    0.39040E-03        -0.22399E-03         0.00000E+00
    0.38551E-03        -0.21820E-03         0.00000E+00
    0.38046E-03        -0.21241E-03         0.00000E+00
    0.37526E-03        -0.20664E-03         0.00000E+00
    0.36991E-03        -0.20088E-03         0.00000E+00
    0.36441E-03        -0.19514E-03         0.00000E+00
    0.35876E-03        -0.18943E-03         0.00000E+00
    0.35296E-03        -0.18374E-03         0.00000E+00
    0.34701E-03        -0.17808E-03         0.00000E+00
    0.34092E-03        -0.17245E-03         0.00000E+00
    0.33469E-03        -0.16686E-03         0.00000E+00
    0.32831E-03        -0.16130E-03         0.00000E+00
    0.32179E-03        -0.15578E-03         0.00000E+00
    0.31513E-03        -0.15031E-03         0.00000E+00
    0.30833E-03        -0.14488E-03         0.00000E+00
    0.30139E-03        -0.13950E-03         0.00000E+00
    0.29431E-03        -0.13416E-03         0.00000E+00
    0.28709E-03        -0.12888E-03         0.00000E+00
    0.27974E-03        -0.12366E-03         0.00000E+00
    0.27224E-03        -0.11849E-03         0.00000E+00
    0.26462E-03        -0.11337E-03         0.00000E+00
    0.25686E-03        -0.10832E-03         0.00000E+00
    0.24896E-03        -0.10333E-03         0.00000E+00
    0.24093E-03        -0.98410E-04         0.00000E+00
    0.23277E-03        -0.93552E-04         0.00000E+00
    0.22448E-03        -0.88762E-04         0.00000E+00
    0.21605E-03        -0.84041E-04         0.00000E+00
    0.20750E-03        -0.79391E-04         0.00000E+00
    0.19882E-03        -0.74813E-04         0.00000E+00
    0.19001E-03        -0.70309E-04         0.00000E+00
    0.18108E-03        -0.65880E-04         0.00000E+00
    0.17201E-03        -0.61528E-04         0.00000E+00
    0.16283E-03        -0.57252E-04         0.00000E+00
    0.15352E-03        -0.53055E-04         0.00000E+00
    0.14409E-03        -0.48938E-04         0.00000E+00
    0.13454E-03        -0.44900E-04         0.00000E+00
    0.12486E-03        -0.40944E-04         0.00000E+00
    0.11507E-03        -0.37070E-04         0.00000E+00
    0.10517E-03        -0.33278E-04         0.00000E+00
    0.95142E-04        -0.29569E-04         0.00000E+00
    0.85005E-04        -0.25945E-04         0.00000E+00
    0.74756E-04        -0.22404E-04         0.00000E+00
    0.64395E-04        -0.18948E-04         0.00000E+00
    0.53925E-04        -0.15577E-04         0.00000E+00
    0.43348E-04        -0.12290E-04         0.00000E+00
    0.32665E-04        -0.90896E-05         0.00000E+00
    0.21878E-04        -0.59743E-05         0.00000E+00
    0.10989E-04        -0.29444E-05         0.00000E+00
    0.00000E+00         0.00000E+00         0.00000E+00
    0.42821E-03        -0.25832E-03         0.00000E+00
    0.42353E-03        -0.25205E-03         0.00000E+00
    0.41867E-03        -0.24578E-03         0.00000E+00
    0.41362E-03        -0.23952E-03         0.00000E+00
    0.40840E-03        -0.23327E-03         0.00000E+00
    0.40299E-03        -0.22704E-03         0.00000E+00
    0.39742E-03        -0.22082E-03         0.00000E+00
    0.39166E-03        -0.21461E-03         0.00000E+00
    0.38574E-03        -0.20844E-03         0.00000E+00
    0.37964E-03        -0.20228E-03         0.00000E+00
    0.37338E-03        -0.19616E-03         0.00000E+00
    0.36694E-03        -0.19006E-03         0.00000E+00
    0.36035E-03        -0.18400E-03         0.00000E+00
    0.35358E-03        -0.17798E-03         0.00000E+00
    0.34665E-03        -0.17200E-03         0.00000E+00
    0.33957E-03        -0.16606E-03         0.00000E+00
    0.33232E-03        -0.16016E-03         0.00000E+00
    0.32491E-03        -0.15431E-03         0.00000E+00
    0.31734E-03        -0.14851E-03         0.00000E+00
    0.30962E-03        -0.14276E-03         0.00000E+00
    0.30174E-03        -0.13707E-03         0.00000E+00
    0.29370E-03        -0.13144E-03         0.00000E+00
    0.28552E-03        -0.12586E-03         0.00000E+00
    0.27718E-03        -0.12034E-03         0.00000E+00
    0.26869E-03        -0.11489E-03         0.00000E+00
    0.26005E-03        -0.10950E-03         0.00000E+00
    0.25126E-03        -0.10418E-03         0.00000E+00
    0.24233E-03        -0.98927E-04         0.00000E+00
    0.23326E-03        -0.93745E-04         0.00000E+00
    0.22403E-03        -0.88634E-04         0.00000E+00
    0.21467E-03        -0.83597E-04         0.00000E+00
    0.20517E-03        -0.78634E-04         0.00000E+00
    0.19552E-03        -0.73748E-04         0.00000E+00
    0.18574E-03        -0.68939E-04         0.00000E+00
    0.17583E-03        -0.64210E-04         0.00000E+00
    0.16577E-03        -0.59560E-04         0.00000E+00
    0.15559E-03        -0.54992E-04         0.00000E+00
    0.14527E-03        -0.50506E-04         0.00000E+00
    0.13482E-03        -0.46103E-04         0.00000E+00
    0.12425E-03        -0.41784E-04         0.00000E+00
    0.11355E-03        -0.37550E-04         0.00000E+00
    0.10272E-03        -0.33401E-04         0.00000E+00
    0.91772E-04        -0.29339E-04         0.00000E+00
    0.80702E-04        -0.25363E-04         0.00000E+00
    0.69513E-04        -0.21475E-04         0.00000E+00
    0.58207E-04        -0.17674E-04         0.00000E+00
    0.46787E-04        -0.13962E-04         0.00000E+00
    0.35254E-04        -0.10338E-04         0.00000E+00
    0.23610E-04        -0.68033E-05         0.00000E+00
    0.11858E-04        -0.33571E-05         0.00000E+00
    0.00000E+00         0.00000E+00         0.00000E+00
    0.45784E-03        -0.28154E-03         0.00000E+00
    0.45303E-03        -0.27479E-03         0.00000E+00
    0.44802E-03        -0.26804E-03         0.00000E+00
    0.44279E-03        -0.26130E-03         0.00000E+00
    0.43737E-03        -0.25457E-03         0.00000E+00
    0.43174E-03        -0.24785E-03         0.00000E+00
    0.42592E-03        -0.24115E-03         0.00000E+00
    0.41990E-03        -0.23446E-03         0.00000E+00
    0.41368E-03        -0.22780E-03         0.00000E+00
    0.40727E-03        -0.22117E-03         0.00000E+00
    0.40066E-03        -0.21456E-03         0.00000E+00
    0.39387E-03        -0.20799E-03         0.00000E+00
    0.38689E-03        -0.20145E-03         0.00000E+00
    0.37973E-03        -0.19494E-03         0.00000E+00
    0.37237E-03        -0.18848E-03         0.00000E+00
    0.36484E-03        -0.18205E-03         0.00000E+00
    0.35713E-03        -0.17568E-03         0.00000E+00
    0.34923E-03        -0.16935E-03         0.00000E+00
    0.34116E-03        -0.16307E-03         0.00000E+00
    0.33292E-03        -0.15684E-03         0.00000E+00
    0.32450E-03        -0.15067E-03         0.00000E+00
    0.31590E-03        -0.14456E-03         0.00000E+00
    0.30714E-03        -0.13850E-03         0.00000E+00
    0.29821E-03        -0.13251E-03         0.00000E+00
    0.28911E-03        -0.12658E-03         0.00000E+00
    0.27985E-03        -0.12072E-03         0.00000E+00
    0.27042E-03        -0.11492E-03         0.00000E+00
    0.26083E-03        -0.10920E-03         0.00000E+00
    0.25108E-03        -0.10354E-03         0.00000E+00
    0.24117E-03        -0.97962E-04         0.00000E+00
    0.23111E-03        -0.92456E-04         0.00000E+00
    0.22089E-03        -0.87027E-04         0.00000E+00
    0.21051E-03        -0.81676E-04         0.00000E+00
    0.19999E-03        -0.76404E-04         0.00000E+00
    0.18932E-03        -0.71214E-04         0.00000E+00
    0.17850E-03        -0.66105E-04         0.00000E+00
    0.16753E-03        -0.61080E-04         0.00000E+00
    0.15643E-03        -0.56140E-04         0.00000E+00
    0.14518E-03        -0.51285E-04         0.00000E+00
    0.13379E-03        -0.46517E-04         0.00000E+00
    0.12227E-03        -0.41836E-04         0.00000E+00
    0.11061E-03        -0.37244E-04         0.00000E+00
    0.98816E-04        -0.32741E-04         0.00000E+00
    0.86895E-04        -0.28328E-04         0.00000E+00
    0.74846E-04        -0.24005E-04         0.00000E+00
    0.62671E-04        -0.19774E-04         0.00000E+00
    0.50374E-04        -0.15634E-04         0.00000E+00
    0.37955E-04        -0.11587E-04         0.00000E+00
    0.25418E-04        -0.76316E-05         0.00000E+00
    0.12766E-04        -0.37693E-05         0.00000E+00
    0.00000E+00         0.00000E+00         0.00000E+00
    0.48886E-03        -0.30539E-03         0.00000E+00
    0.48390E-03        -0.29814E-03         0.00000E+00
    0.47870E-03        -0.29089E-03         0.00000E+00
    0.47328E-03        -0.28365E-03         0.00000E+00
    0.46763E-03        -0.27642E-03         0.00000E+00
    0.46176E-03        -0.26920E-03         0.00000E+00
    0.45566E-03        -0.26199E-03         0.00000E+00
    0.44935E-03        -0.25481E-03         0.00000E+00
    0.44281E-03        -0.24765E-03         0.00000E+00
    0.43606E-03        -0.24051E-03         0.00000E+00
    0.42910E-03        -0.23340E-03         0.00000E+00
    0.42192E-03        -0.22633E-03         0.00000E+00
    0.41454E-03        -0.21928E-03         0.00000E+00
    0.40695E-03        -0.21228E-03         0.00000E+00
    0.39915E-03        -0.20532E-03         0.00000E+00
    0.39115E-03        -0.19839E-03         0.00000E+00
    0.38295E-03        -0.19152E-03         0.00000E+00
    0.37455E-03        -0.18469E-03         0.00000E+00
    0.36596E-03        -0.17792E-03         0.00000E+00
    0.35717E-03        -0.17119E-03         0.00000E+00
    0.34819E-03        -0.16453E-03         0.00000E+00
    0.33901E-03        -0.15792E-03         0.00000E+00
    0.32965E-03        -0.15137E-03         0.00000E+00
    0.32010E-03        -0.14489E-03         0.00000E+00
    0.31037E-03        -0.13847E-03         0.00000E+00
    0.30046E-03        -0.13212E-03         0.00000E+00
    0.29036E-03        -0.12583E-03         0.00000E+00
    0.28009E-03        -0.11962E-03         0.00000E+00
    0.26964E-03        -0.11349E-03         0.00000E+00
    0.25902E-03        -0.10742E-03         0.00000E+00
    0.24823E-03        -0.10144E-03         0.00000E+00
    0.23727E-03        -0.95532E-04         0.00000E+00
    0.22614E-03        -0.89705E-04         0.00000E+00
    0.21484E-03        -0.83961E-04         0.00000E+00
    0.20339E-03        -0.78300E-04         0.00000E+00
    0.19177E-03        -0.72724E-04         0.00000E+00
    0.18000E-03        -0.67233E-04         0.00000E+00
    0.16807E-03        -0.61831E-04         0.00000E+00
    0.15599E-03        -0.56517E-04         0.00000E+00
    0.14375E-03        -0.51293E-04         0.00000E+00
    0.13137E-03        -0.46159E-04         0.00000E+00
    0.11885E-03        -0.41117E-04         0.00000E+00
    0.10618E-03        -0.36168E-04         0.00000E+00
    0.93369E-04        -0.31313E-04         0.00000E+00
    0.80422E-04        -0.26552E-04         0.00000E+00
    0.67340E-04        -0.21886E-04         0.00000E+00
    0.54126E-04        -0.17315E-04         0.00000E+00
    0.40782E-04        -0.12841E-04         0.00000E+00
    0.27311E-04        -0.84635E-05         0.00000E+00
    0.13716E-04        -0.41830E-05         0.00000E+00
    0.00000E+00         0.00000E+00         0.00000E+00
    0.52152E-03        -0.33004E-03         0.00000E+00
    0.51637E-03        -0.32226E-03         0.00000E+00
    0.51097E-03        -0.31449E-03         0.00000E+00
    0.50532E-03        -0.30672E-03         0.00000E+00
    0.49941E-03        -0.29896E-03         0.00000E+00
    0.49326E-03        -0.29121E-03         0.00000E+00
    0.48687E-03        -0.28348E-03         0.00000E+00
    0.48023E-03        -0.27577E-03         0.00000E+00
    0.47335E-03        -0.26809E-03         0.00000E+00
    0.46624E-03        -0.26042E-03         0.00000E+00
    0.45889E-03        -0.25279E-03         0.00000E+00
    0.45130E-03        -0.24519E-03         0.00000E+00
    0.44349E-03        -0.23763E-03         0.00000E+00
    0.43545E-03        -0.23010E-03         0.00000E+00
    0.42718E-03        -0.22262E-03         0.00000E+00
    0.41869E-03        -0.21518E-03         0.00000E+00
    0.40998E-03        -0.20778E-03         0.00000E+00
    0.40105E-03        -0.20044E-03         0.00000E+00
    0.39190E-03        -0.19314E-03         0.00000E+00
    0.38254E-03        -0.18591E-03         0.00000E+00
    0.37297E-03        -0.17873E-03         0.00000E+00
    0.36319E-03        -0.17160E-03         0.00000E+00
    0.35320E-03        -0.16455E-03         0.00000E+00
    0.34301E-03        -0.15755E-03         0.00000E+00
    0.33261E-03        -0.15063E-03         0.00000E+00
    0.32202E-03        -0.14377E-03         0.00000E+00
    0.31123E-03        -0.13698E-03         0.00000E+00
    0.30024E-03        -0.13027E-03         0.00000E+00
    0.28907E-03        -0.12364E-03         0.00000E+00
    0.27770E-03        -0.11708E-03         0.00000E+00
    0.26615E-03        -0.11060E-03         0.00000E+00
    0.25441E-03        -0.10420E-03         0.00000E+00
    0.24249E-03        -0.97884E-04         0.00000E+00
    0.23039E-03        -0.91654E-04         0.00000E+00
    0.21812E-03        -0.85511E-04         0.00000E+00
    0.20567E-03        -0.79455E-04         0.00000E+00
    0.19305E-03        -0.73489E-04         0.00000E+00
    0.18026E-03        -0.67613E-04         0.00000E+00
    0.16731E-03        -0.61830E-04         0.00000E+00
    0.15419E-03        -0.56140E-04         0.00000E+00
    0.14092E-03        -0.50545E-04         0.00000E+00
    0.12748E-03        -0.45045E-04         0.00000E+00
    0.11390E-03        -0.39642E-04         0.00000E+00
    0.10016E-03        -0.34337E-04         0.00000E+00
    0.86270E-04        -0.29130E-04         0.00000E+00
    0.72238E-04        -0.24023E-04         0.00000E+00
    0.58063E-04        -0.19016E-04         0.00000E+00
    0.43749E-04        -0.14109E-04         0.00000E+00
    0.29298E-04        -0.93041E-05         0.00000E+00
    0.14714E-04        -0.46009E-05         0.00000E+00
    0.00000E+00         0.00000E+00         0.00000E+00
    0.55604E-03        -0.35564E-03         0.00000E+00
    0.55068E-03        -0.34730E-03         0.00000E+00
    0.54504E-03        -0.33897E-03         0.00000E+00
    0.53912E-03        -0.33065E-03         0.00000E+00
    0.53293E-03        -0.32233E-03         0.00000E+00
    0.52648E-03        -0.31404E-03         0.00000E+00
    0.51975E-03        -0.30575E-03         0.00000E+00
    0.51276E-03        -0.29749E-03         0.00000E+00
    0.50551E-03        -0.28925E-03         0.00000E+00
    0.49800E-03        -0.28104E-03         0.00000E+00
    0.49023E-03        -0.27286E-03         0.00000E+00
    0.48221E-03        -0.26471E-03         0.00000E+00
    0.47394E-03        -0.25660E-03         0.00000E+00
    0.46541E-03        -0.24852E-03         0.00000E+00
    0.45664E-03        -0.24049E-03         0.00000E+00
    0.44763E-03        -0.23251E-03         0.00000E+00
    0.43838E-03        -0.22457E-03         0.00000E+00
    0.42888E-03        -0.21668E-03         0.00000E+00
    0.41915E-03        -0.20885E-03         0.00000E+00
    0.40919E-03        -0.20107E-03         0.00000E+00
    0.39900E-03        -0.19336E-03         0.00000E+00
    0.38857E-03        -0.18570E-03         0.00000E+00
    0.37793E-03        -0.17811E-03         0.00000E+00
    0.36706E-03        -0.17059E-03         0.00000E+00
    0.35597E-03        -0.16313E-03         0.00000E+00
    0.34466E-03        -0.15575E-03         0.00000E+00
    0.33314E-03        -0.14844E-03         0.00000E+00
    0.32140E-03        -0.14121E-03         0.00000E+00
    0.30946E-03        -0.13406E-03         0.00000E+00
    0.29731E-03        -0.12698E-03         0.00000E+00
    0.28496E-03        -0.11999E-03         0.00000E+00
    0.27241E-03        -0.11309E-03         0.00000E+00
    0.25967E-03        -0.10627E-03         0.00000E+00
    0.24672E-03        -0.99535E-04         0.00000E+00
    0.23359E-03        -0.92893E-04         0.00000E+00
    0.22027E-03        -0.86344E-04         0.00000E+00
    0.20676E-03        -0.79887E-04         0.00000E+00
    0.19307E-03        -0.73525E-04         0.00000E+00
    0.17921E-03        -0.67260E-04         0.00000E+00
    0.16516E-03        -0.61092E-04         0.00000E+00
    0.15095E-03        -0.55023E-04         0.00000E+00
    0.13656E-03        -0.49053E-04         0.00000E+00
    0.12201E-03        -0.43186E-04         0.00000E+00
    0.10730E-03        -0.37420E-04         0.00000E+00
    0.92420E-04        -0.31758E-04         0.00000E+00
    0.77389E-04        -0.26200E-04         0.00000E+00
    0.62204E-04        -0.20747E-04         0.00000E+00
    0.46870E-04        -0.15400E-04         0.00000E+00
    0.31388E-04        -0.10159E-04         0.00000E+00
    0.15764E-04        -0.50256E-05         0.00000E+00
    0.00000E+00         0.00000E+00         0.00000E+00
    0.59264E-03        -0.38233E-03         0.00000E+00
    0.58703E-03        -0.37341E-03         0.00000E+00
    0.58112E-03        -0.36450E-03         0.00000E+00
    0.57491E-03        -0.35559E-03         0.00000E+00
    0.56840E-03        -0.34669E-03         0.00000E+00
    0.56161E-03        -0.33781E-03         0.00000E+00
    0.55452E-03        -0.32894E-03         0.00000E+00
    0.54715E-03        -0.32010E-03         0.00000E+00
    0.53949E-03        -0.31128E-03         0.00000E+00
    0.53155E-03        -0.30249E-03         0.00000E+00
    0.52333E-03        -0.29372E-03         0.00000E+00
    0.51484E-03        -0.28500E-03         0.00000E+00
    0.50607E-03        -0.27631E-03         0.00000E+00
    0.49703E-03        -0.26766E-03         0.00000E+00
    0.48772E-03        -0.25905E-03         0.00000E+00
    0.47815E-03        -0.25050E-03         0.00000E+00
    0.46832E-03        -0.24199E-03         0.00000E+00
    0.45823E-03        -0.23353E-03         0.00000E+00
    0.44788E-03        -0.22513E-03         0.00000E+00
    0.43728E-03        -0.21679E-03         0.00000E+00
    0.42642E-03        -0.20851E-03         0.00000E+00
    0.41532E-03        -0.20030E-03         0.00000E+00
    0.40398E-03        -0.19215E-03         0.00000E+00
    0.39239E-03        -0.18407E-03         0.00000E+00
    0.38057E-03        -0.17607E-03         0.00000E+00
    0.36851E-03        -0.16814E-03         0.00000E+00
    0.35622E-03        -0.16028E-03         0.00000E+00
    0.34369E-03        -0.15251E-03         0.00000E+00
    0.33095E-03        -0.14482E-03         0.00000E+00
    0.31798E-03        -0.13721E-03         0.00000E+00
    0.30478E-03        -0.12968E-03         0.00000E+00
    0.29138E-03        -0.12225E-03         0.00000E+00
    0.27776E-03        -0.11491E-03         0.00000E+00
    0.26393E-03        -0.10765E-03         0.00000E+00
    0.24989E-03        -0.10050E-03         0.00000E+00
    0.23565E-03        -0.93436E-04         0.00000E+00
    0.22121E-03        -0.86471E-04         0.00000E+00
    0.20657E-03        -0.79606E-04         0.00000E+00
    0.19174E-03        -0.72842E-04         0.00000E+00
    0.17672E-03        -0.66180E-04         0.00000E+00
    0.16152E-03        -0.59622E-04         0.00000E+00
    0.14613E-03        -0.53169E-04         0.00000E+00
    0.13056E-03        -0.46822E-04         0.00000E+00
    0.11482E-03        -0.40583E-04         0.00000E+00
    0.98902E-04        -0.34452E-04         0.00000E+00
    0.82818E-04        -0.28431E-04         0.00000E+00
    0.66569E-04        -0.22520E-04         0.00000E+00
    0.50160E-04        -0.16721E-04         0.00000E+00
    0.33592E-04        -0.11034E-04         0.00000E+00
    0.16871E-04        -0.54602E-05         0.00000E+00
    0.00000E+00         0.00000E+00         0.00000E+00
    0.63152E-03        -0.41029E-03         0.00000E+00
    0.62563E-03        -0.40076E-03         0.00000E+00
    0.61941E-03        -0.39122E-03         0.00000E+00
    0.61287E-03        -0.38170E-03         0.00000E+00
    0.60602E-03        -0.37218E-03         0.00000E+00
    0.59885E-03        -0.36268E-03         0.00000E+00
    0.59137E-03        -0.35320E-03         0.00000E+00
    0.58358E-03        -0.34374E-03         0.00000E+00
    0.57548E-03        -0.33430E-03         0.00000E+00
    0.56707E-03        -0.32490E-03         0.00000E+00
    0.55837E-03        -0.31552E-03         0.00000E+00
    0.54937E-03        -0.30619E-03         0.00000E+00
    0.54007E-03        -0.29689E-03         0.00000E+00
    0.53048E-03        -0.28763E-03         0.00000E+00
    0.52060E-03        -0.27842E-03         0.00000E+00
    0.51043E-03        -0.26926E-03         0.00000E+00
    0.49998E-03        -0.26015E-03         0.00000E+00
    0.48925E-03        -0.25110E-03         0.00000E+00
    0.47824E-03        -0.24210E-03         0.00000E+00
    0.46696E-03        -0.23317E-03         0.00000E+00
    0.45541E-03        -0.22430E-03         0.00000E+00
    0.44359E-03        -0.21549E-03         0.00000E+00
    0.43150E-03        -0.20676E-03         0.00000E+00
    0.41916E-03        -0.19810E-03         0.00000E+00
    0.40656E-03        -0.18952E-03         0.00000E+00
    0.39370E-03        -0.18101E-03         0.00000E+00
    0.38059E-03        -0.17259E-03         0.00000E+00
    0.36723E-03        -0.16424E-03         0.00000E+00
    0.35363E-03        -0.15599E-03         0.00000E+00
    0.33979E-03        -0.14782E-03         0.00000E+00
    0.32571E-03        -0.13974E-03         0.00000E+00
    0.31140E-03        -0.13175E-03         0.00000E+00
    0.29686E-03        -0.12386E-03         0.00000E+00
    0.28209E-03        -0.11607E-03         0.00000E+00
    0.26710E-03        -0.10837E-03         0.00000E+00
    0.25189E-03        -0.10078E-03         0.00000E+00
    0.23646E-03        -0.93286E-04         0.00000E+00
    0.22083E-03        -0.85898E-04         0.00000E+00
    0.20498E-03        -0.78616E-04         0.00000E+00
    0.18893E-03        -0.71441E-04         0.00000E+00
    0.17268E-03        -0.64375E-04         0.00000E+00
    0.15623E-03        -0.57420E-04         0.00000E+00
    0.13959E-03        -0.50577E-04         0.00000E+00
    0.12276E-03        -0.43847E-04         0.00000E+00
    0.10575E-03        -0.37231E-04         0.00000E+00
    0.88552E-04        -0.30731E-04         0.00000E+00
    0.71180E-04        -0.24348E-04         0.00000E+00
    0.53634E-04        -0.18083E-04         0.00000E+00
    0.35920E-04        -0.11935E-04         0.00000E+00
    0.18041E-04        -0.59076E-05         0.00000E+00
    0.00000E+00         0.00000E+00         0.00000E+00
    0.67288E-03        -0.43968E-03         0.00000E+00
    0.66667E-03        -0.42949E-03         0.00000E+00
    0.66012E-03        -0.41930E-03         0.00000E+00
    0.65322E-03        -0.40912E-03         0.00000E+00
    0.64599E-03        -0.39895E-03         0.00000E+00
    0.63841E-03        -0.38879E-03         0.00000E+00
    0.63049E-03        -0.37866E-03         0.00000E+00
    0.62225E-03        -0.36855E-03         0.00000E+00
    0.61367E-03        -0.35846E-03         0.00000E+00
    0.60476E-03        -0.34841E-03         0.00000E+00
    0.59553E-03        -0.33838E-03         0.00000E+00
    0.58598E-03        -0.32840E-03         0.00000E+00
    0.57611E-03        -0.31846E-03         0.00000E+00
    0.56593E-03        -0.30856E-03         0.00000E+00
    0.55544E-03        -0.29871E-03         0.00000E+00
    0.54463E-03        -0.28891E-03         0.00000E+00
    0.53352E-03        -0.27917E-03         0.00000E+00
    0.52211E-03        -0.26948E-03         0.00000E+00
    0.51040E-03        -0.25986E-03         0.00000E+00
    0.49840E-03        -0.25029E-03         0.00000E+00
    0.48610E-03        -0.24080E-03         0.00000E+00
    0.47351E-03        -0.23138E-03         0.00000E+00
    0.46064E-03        -0.22203E-03         0.00000E+00
    0.44749E-03        -0.21276E-03         0.00000E+00
    0.43406E-03        -0.20357E-03         0.00000E+00
    0.42036E-03        -0.19445E-03         0.00000E+00
    0.40638E-03        -0.18543E-03         0.00000E+00
    0.39214E-03        -0.17649E-03         0.00000E+00
    0.37764E-03        -0.16764E-03         0.00000E+00
    0.36288E-03        -0.15888E-03         0.00000E+00
    0.34786E-03        -0.15022E-03         0.00000E+00
    0.33259E-03        -0.14166E-03         0.00000E+00
    0.31707E-03        -0.13319E-03         0.00000E+00
    0.30131E-03        -0.12483E-03         0.00000E+00
    0.28531E-03        -0.11657E-03         0.00000E+00
    0.26907E-03        -0.10842E-03         0.00000E+00
    0.25260E-03        -0.10038E-03         0.00000E+00
    0.23590E-03        -0.92441E-04         0.00000E+00
    0.21898E-03        -0.84618E-04         0.00000E+00
    0.20184E-03        -0.76908E-04         0.00000E+00
    0.18448E-03        -0.69314E-04         0.00000E+00
    0.16692E-03        -0.61835E-04         0.00000E+00
    0.14914E-03        -0.54475E-04         0.00000E+00
    0.13117E-03        -0.47235E-04         0.00000E+00
    0.11299E-03        -0.40115E-04         0.00000E+00
    0.94618E-04        -0.33118E-04         0.00000E+00
    0.76057E-04        -0.26244E-04         0.00000E+00
    0.57311E-04        -0.19494E-04         0.00000E+00
    0.38383E-04        -0.12869E-04         0.00000E+00
    0.19278E-04        -0.63711E-05         0.00000E+00
    0.00000E+00         0.00000E+00         0.00000E+00
    0.71693E-03        -0.47066E-03         0.00000E+00
    0.71038E-03        -0.45977E-03         0.00000E+00
    0.70345E-03        -0.44889E-03         0.00000E+00
    0.69616E-03        -0.43801E-03         0.00000E+00
    0.68850E-03        -0.42714E-03         0.00000E+00
    0.68048E-03        -0.41630E-03         0.00000E+00
    0.67209E-03        -0.40547E-03         0.00000E+00
    0.66335E-03        -0.39467E-03         0.00000E+00
    0.65426E-03        -0.38389E-03         0.00000E+00
    0.64481E-03        -0.37315E-03         0.00000E+00
    0.63501E-03        -0.36244E-03         0.00000E+00
    0.62487E-03        -0.35177E-03         0.00000E+00
    0.61439E-03        -0.34114E-03         0.00000E+00
    0.60357E-03        -0.33057E-03         0.00000E+00
    0.59242E-03        -0.32004E-03         0.00000E+00
    0.58093E-03        -0.30957E-03         0.00000E+00
    0.56912E-03        -0.29915E-03         0.00000E+00
    0.55698E-03        -0.28879E-03         0.00000E+00
    0.54452E-03        -0.27850E-03         0.00000E+00
    0.53174E-03        -0.26828E-03         0.00000E+00
    0.51865E-03        -0.25813E-03         0.00000E+00
    0.50525E-03        -0.24805E-03         0.00000E+00
    0.49154E-03        -0.23805E-03         0.00000E+00
    0.47753E-03        -0.22813E-03         0.00000E+00
    0.46322E-03        -0.21830E-03         0.00000E+00
    0.44862E-03        -0.20855E-03         0.00000E+00
    0.43373E-03        -0.19889E-03         0.00000E+00
    0.41855E-03        -0.18932E-03         0.00000E+00
    0.40308E-03        -0.17985E-03         0.00000E+00
    0.38734E-03        -0.17047E-03         0.00000E+00
    0.37133E-03        -0.16120E-03         0.00000E+00
    0.35504E-03        -0.15203E-03         0.00000E+00
    0.33849E-03        -0.14296E-03         0.00000E+00
    0.32167E-03        -0.13400E-03         0.00000E+00
    0.30460E-03        -0.12515E-03         0.00000E+00
    0.28727E-03        -0.11641E-03         0.00000E+00
    0.26970E-03        -0.10779E-03         0.00000E+00
    0.25188E-03        -0.99279E-04         0.00000E+00
    0.23382E-03        -0.90889E-04         0.00000E+00
    0.21552E-03        -0.82618E-04         0.00000E+00
    0.19699E-03        -0.74469E-04         0.00000E+00
    0.17824E-03        -0.66444E-04         0.00000E+00
    0.15926E-03        -0.58543E-04         0.00000E+00
    0.14007E-03        -0.50769E-04         0.00000E+00
    0.12066E-03        -0.43123E-04         0.00000E+00
    0.10104E-03        -0.35606E-04         0.00000E+00
    0.81224E-04        -0.28219E-04         0.00000E+00
    0.61205E-04        -0.20964E-04         0.00000E+00
    0.40992E-04        -0.13842E-04         0.00000E+00
    0.20588E-04        -0.68536E-05         0.00000E+00
    0.00000E+00         0.00000E+00         0.00000E+00
    0.76387E-03        -0.50339E-03         0.00000E+00
    0.75694E-03        -0.49177E-03         0.00000E+00
    0.74960E-03        -0.48014E-03         0.00000E+00
    0.74188E-03        -0.46853E-03         0.00000E+00
    0.73376E-03        -0.45693E-03         0.00000E+00
    0.72525E-03        -0.44534E-03         0.00000E+00
    0.71636E-03        -0.43378E-03         0.00000E+00
    0.70709E-03        -0.42224E-03         0.00000E+00
    0.69743E-03        -0.41073E-03         0.00000E+00
    0.68740E-03        -0.39926E-03         0.00000E+00
    0.67700E-03        -0.38782E-03         0.00000E+00
    0.66622E-03        -0.37643E-03         0.00000E+00
    0.65509E-03        -0.36508E-03         0.00000E+00
    0.64358E-03        -0.35378E-03         0.00000E+00
    0.63172E-03        -0.34253E-03         0.00000E+00
    0.61950E-03        -0.33134E-03         0.00000E+00
    0.60694E-03        -0.32021E-03         0.00000E+00
    0.59402E-03        -0.30915E-03         0.00000E+00
    0.58076E-03        -0.29815E-03         0.00000E+00
    0.56716E-03        -0.28723E-03         0.00000E+00
    0.55322E-03        -0.27638E-03         0.00000E+00
    0.53895E-03        -0.26561E-03         0.00000E+00
    0.52435E-03        -0.25492E-03         0.00000E+00
    0.50943E-03        -0.24432E-03         0.00000E+00
    0.49418E-03        -0.23380E-03         0.00000E+00
    0.47862E-03        -0.22338E-03         0.00000E+00
    0.46275E-03        -0.21305E-03         0.00000E+00
    0.44657E-03        -0.20282E-03         0.00000E+00
    0.43009E-03        -0.19269E-03         0.00000E+00
    0.41331E-03        -0.18266E-03         0.00000E+00
    0.39623E-03        -0.17273E-03         0.00000E+00
    0.37886E-03        -0.16292E-03         0.00000E+00
    0.36121E-03        -0.15322E-03         0.00000E+00
    0.34328E-03        -0.14363E-03         0.00000E+00
    0.32507E-03        -0.13415E-03         0.00000E+00
    0.30658E-03        -0.12480E-03         0.00000E+00
    0.28784E-03        -0.11556E-03         0.00000E+00
    0.26882E-03        -0.10645E-03         0.00000E+00
    0.24955E-03        -0.97466E-04         0.00000E+00
    0.23003E-03        -0.88606E-04         0.00000E+00
    0.21026E-03        -0.79875E-04         0.00000E+00
    0.19025E-03        -0.71274E-04         0.00000E+00
    0.17000E-03        -0.62806E-04         0.00000E+00
    0.14951E-03        -0.54471E-04         0.00000E+00
    0.12880E-03        -0.46272E-04         0.00000E+00
    0.10786E-03        -0.38210E-04         0.00000E+00
    0.86705E-04        -0.30287E-04         0.00000E+00
    0.65336E-04        -0.22503E-04         0.00000E+00
    0.43759E-04        -0.14860E-04         0.00000E+00
    0.21978E-04        -0.73584E-05         0.00000E+00
    0.00000E+00         0.00000E+00         0.00000E+00
    0.81391E-03        -0.53805E-03         0.00000E+00
    0.80656E-03        -0.52564E-03         0.00000E+00
    0.79879E-03        -0.51323E-03         0.00000E+00
    0.79059E-03        -0.50083E-03         0.00000E+00
    0.78198E-03        -0.48844E-03         0.00000E+00
    0.77295E-03        -0.47608E-03         0.00000E+00
    0.76351E-03        -0.46373E-03         0.00000E+00
    0.75365E-03        -0.45141E-03         0.00000E+00
    0.74340E-03        -0.43913E-03         0.00000E+00
    0.73274E-03        -0.42688E-03         0.00000E+00
    0.72168E-03        -0.41466E-03         0.00000E+00
    0.71023E-03        -0.40250E-03         0.00000E+00
    0.69838E-03        -0.39038E-03         0.00000E+00
    0.68615E-03        -0.37831E-03         0.00000E+00
    0.67353E-03        -0.36630E-03         0.00000E+00
    0.66053E-03        -0.35436E-03         0.00000E+00
    0.64716E-03        -0.34247E-03         0.00000E+00
    0.63341E-03        -0.33065E-03         0.00000E+00
    0.61929E-03        -0.31891E-03         0.00000E+00
    0.60481E-03        -0.30724E-03         0.00000E+00
    0.58997E-03        -0.29565E-03         0.00000E+00
    0.57477E-03        -0.28415E-03         0.00000E+00
    0.55922E-03        -0.27273E-03         0.00000E+00
    0.54332E-03        -0.26140E-03         0.00000E+00
    0.52708E-03        -0.25016E-03         0.00000E+00
    0.51050E-03        -0.23903E-03         0.00000E+00
    0.49359E-03        -0.22799E-03         0.00000E+00
    0.47635E-03        -0.21705E-03         0.00000E+00
    0.45878E-03        -0.20622E-03         0.00000E+00
    0.44089E-03        -0.19550E-03         0.00000E+00
    0.42268E-03        -0.18489E-03         0.00000E+00
    0.40417E-03        -0.17440E-03         0.00000E+00
    0.38535E-03        -0.16403E-03         0.00000E+00
    0.36622E-03        -0.15377E-03         0.00000E+00
    0.34680E-03        -0.14364E-03         0.00000E+00
    0.32709E-03        -0.13363E-03         0.00000E+00
    0.30710E-03        -0.12375E-03         0.00000E+00
    0.28682E-03        -0.11401E-03         0.00000E+00
    0.26627E-03        -0.10439E-03         0.00000E+00
    0.24544E-03        -0.94907E-04         0.00000E+00
    0.22435E-03        -0.85562E-04         0.00000E+00
    0.20300E-03        -0.76355E-04         0.00000E+00
    0.18139E-03        -0.67289E-04         0.00000E+00
    0.15954E-03        -0.58364E-04         0.00000E+00
    0.13744E-03        -0.49584E-04         0.00000E+00
    0.11510E-03        -0.40948E-04         0.00000E+00
    0.92524E-04        -0.32460E-04         0.00000E+00
    0.69722E-04        -0.24119E-04         0.00000E+00
    0.46697E-04        -0.15929E-04         0.00000E+00
    0.23454E-04        -0.78884E-05         0.00000E+00
    0.00000E+00         0.00000E+00         0.00000E+00
    0.86727E-03        -0.57481E-03         0.00000E+00
    0.85947E-03        -0.56156E-03         0.00000E+00
    0.85121E-03        -0.54832E-03         0.00000E+00
    0.84251E-03        -0.53508E-03         0.00000E+00
    0.83336E-03        -0.52186E-03         0.00000E+00
    0.82377E-03        -0.50866E-03         0.00000E+00
    0.81373E-03        -0.49548E-03         0.00000E+00
    0.80326E-03        -0.48233E-03         0.00000E+00
    0.79236E-03        -0.46922E-03         0.00000E+00
    0.78102E-03        -0.45614E-03         0.00000E+00
    0.76926E-03        -0.44311E-03         0.00000E+00
    0.75708E-03        -0.43012E-03         0.00000E+00
    0.74448E-03        -0.41718E-03         0.00000E+00
    0.73146E-03        -0.40430E-03         0.00000E+00
    0.71803E-03        -0.39148E-03         0.00000E+00
    0.70420E-03        -0.37873E-03         0.00000E+00
    0.68996E-03        -0.36604E-03         0.00000E+00
    0.67532E-03        -0.35342E-03         0.00000E+00
    0.66029E-03        -0.34088E-03         0.00000E+00
    0.64487E-03        -0.32843E-03         0.00000E+00
    0.62906E-03        -0.31605E-03         0.00000E+00
    0.61288E-03        -0.30376E-03         0.00000E+00
    0.59631E-03        -0.29157E-03         0.00000E+00
    0.57937E-03        -0.27947E-03         0.00000E+00
    0.56207E-03        -0.26747E-03         0.00000E+00
    0.54440E-03        -0.25557E-03         0.00000E+00
    0.52638E-03        -0.24378E-03         0.00000E+00
    0.50800E-03        -0.23210E-03         0.00000E+00
    0.48928E-03        -0.22053E-03         0.00000E+00
    0.47021E-03        -0.20908E-03         0.00000E+00
    0.45081E-03        -0.19775E-03         0.00000E+00
    0.43107E-03        -0.18653E-03         0.00000E+00
    0.41100E-03        -0.17545E-03         0.00000E+00
    0.39062E-03        -0.16449E-03         0.00000E+00
    0.36991E-03        -0.15366E-03         0.00000E+00
    0.34889E-03        -0.14296E-03         0.00000E+00
    0.32757E-03        -0.13240E-03         0.00000E+00
    0.30595E-03        -0.12198E-03         0.00000E+00
    0.28403E-03        -0.11170E-03         0.00000E+00
    0.26182E-03        -0.10156E-03         0.00000E+00
    0.23932E-03        -0.91563E-04         0.00000E+00
    0.21655E-03        -0.81716E-04         0.00000E+00
    0.19351E-03        -0.72017E-04         0.00000E+00
    0.17019E-03        -0.62470E-04         0.00000E+00
    0.14662E-03        -0.53075E-04         0.00000E+00
    0.12279E-03        -0.43835E-04         0.00000E+00
    0.98707E-04        -0.34750E-04         0.00000E+00
    0.74382E-04        -0.25823E-04         0.00000E+00
    0.49818E-04        -0.17055E-04         0.00000E+00
    0.25022E-04        -0.84469E-05         0.00000E+00
    0.00000E+00         0.00000E+00         0.00000E+00
    0.92417E-03        -0.61384E-03         0.00000E+00
    0.91588E-03        -0.59970E-03         0.00000E+00
    0.90711E-03        -0.58557E-03         0.00000E+00
    0.89786E-03        -0.57144E-03         0.00000E+00
    0.88813E-03        -0.55734E-03         0.00000E+00
    0.87793E-03        -0.54325E-03         0.00000E+00
    0.86726E-03        -0.52919E-03         0.00000E+00
    0.85612E-03        -0.51516E-03         0.00000E+00
    0.84452E-03        -0.50116E-03         0.00000E+00
    0.83246E-03        -0.48720E-03         0.00000E+00
    0.81995E-03        -0.47329E-03         0.00000E+00
    0.80698E-03        -0.45943E-03         0.00000E+00
    0.79357E-03        -0.44563E-03         0.00000E+00
    0.77971E-03        -0.43188E-03         0.00000E+00
    0.76542E-03        -0.41819E-03         0.00000E+00
    0.75069E-03        -0.40458E-03         0.00000E+00
    0.73553E-03        -0.39104E-03         0.00000E+00
    0.71994E-03        -0.37757E-03         0.00000E+00
    0.70394E-03        -0.36419E-03         0.00000E+00
    0.68751E-03        -0.35089E-03         0.00000E+00
    0.67068E-03        -0.33768E-03         0.00000E+00
    0.65343E-03        -0.32456E-03         0.00000E+00
    0.63578E-03        -0.31154E-03         0.00000E+00
    0.61774E-03        -0.29863E-03         0.00000E+00
    0.59930E-03        -0.28581E-03         0.00000E+00
    0.58048E-03        -0.27311E-03         0.00000E+00
    0.56127E-03        -0.26052E-03         0.00000E+00
    0.54169E-03        -0.24805E-03         0.00000E+00
    0.52173E-03        -0.23569E-03         0.00000E+00
    0.50141E-03        -0.22346E-03         0.00000E+00
    0.48073E-03        -0.21136E-03         0.00000E+00
    0.45969E-03        -0.19938E-03         0.00000E+00
    0.43830E-03        -0.18754E-03         0.00000E+00
    0.41656E-03        -0.17583E-03         0.00000E+00
    0.39449E-03        -0.16426E-03         0.00000E+00
    0.37208E-03        -0.15284E-03         0.00000E+00
    0.34935E-03        -0.14155E-03         0.00000E+00
    0.32629E-03        -0.13042E-03         0.00000E+00
    0.30292E-03        -0.11943E-03         0.00000E+00
    0.27923E-03        -0.10859E-03         0.00000E+00
    0.25525E-03        -0.97911E-04         0.00000E+00
    0.23096E-03        -0.87385E-04         0.00000E+00
    0.20639E-03        -0.77018E-04         0.00000E+00
    0.18152E-03        -0.66811E-04         0.00000E+00
    0.15638E-03        -0.56767E-04         0.00000E+00
    0.13096E-03        -0.46886E-04         0.00000E+00
    0.10528E-03        -0.37171E-04         0.00000E+00
    0.79337E-04        -0.27624E-04         0.00000E+00
    0.53137E-04        -0.18245E-04         0.00000E+00
    0.26690E-04        -0.90368E-05         0.00000E+00
    0.00000E+00         0.00000E+00         0.00000E+00
    0.98486E-03        -0.65533E-03         0.00000E+00
    0.97604E-03        -0.64024E-03         0.00000E+00
    0.96671E-03        -0.62516E-03         0.00000E+00
    0.95687E-03        -0.61009E-03         0.00000E+00
    0.94652E-03        -0.59504E-03         0.00000E+00
    0.93567E-03        -0.58001E-03         0.00000E+00
    0.92431E-03        -0.56500E-03         0.00000E+00
    0.91246E-03        -0.55003E-03         0.00000E+00
    0.90012E-03        -0.53510E-03         0.00000E+00
    0.88728E-03        -0.52020E-03         0.00000E+00
    0.87396E-03        -0.50536E-03         0.00000E+00
    0.86016E-03        -0.49057E-03         0.00000E+00
    0.84588E-03        -0.47584E-03         0.00000E+00
    0.83112E-03        -0.46117E-03         0.00000E+00
    0.81590E-03        -0.44657E-03         0.00000E+00
    0.80021E-03        -0.43204E-03         0.00000E+00
    0.78407E-03        -0.41758E-03         0.00000E+00
    0.76747E-03        -0.40321E-03         0.00000E+00
    0.75042E-03        -0.38893E-03         0.00000E+00
    0.73292E-03        -0.37474E-03         0.00000E+00
    0.71499E-03        -0.36064E-03         0.00000E+00
    0.69662E-03        -0.34664E-03         0.00000E+00
    0.67781E-03        -0.33274E-03         0.00000E+00
    0.65859E-03        -0.31896E-03         0.00000E+00
    0.63894E-03        -0.30528E-03         0.00000E+00
    0.61888E-03        -0.29172E-03         0.00000E+00
    0.59842E-03        -0.27828E-03         0.00000E+00
    0.57754E-03        -0.26497E-03         0.00000E+00
    0.55628E-03        -0.25178E-03         0.00000E+00
    0.53462E-03        -0.23872E-03         0.00000E+00
    0.51257E-03        -0.22579E-03         0.00000E+00
    0.49014E-03        -0.21301E-03         0.00000E+00
    0.46734E-03        -0.20036E-03         0.00000E+00
    0.44417E-03        -0.18786E-03         0.00000E+00
    0.42064E-03        -0.17551E-03         0.00000E+00
    0.39675E-03        -0.16330E-03         0.00000E+00
    0.37252E-03        -0.15125E-03         0.00000E+00
    0.34793E-03        -0.13936E-03         0.00000E+00
    0.32301E-03        -0.12762E-03         0.00000E+00
    0.29776E-03        -0.11605E-03         0.00000E+00
    0.27219E-03        -0.10464E-03         0.00000E+00
    0.24629E-03        -0.93393E-04         0.00000E+00
    0.22009E-03        -0.82316E-04         0.00000E+00
    0.19358E-03        -0.71410E-04         0.00000E+00
    0.16677E-03        -0.60677E-04         0.00000E+00
    0.13966E-03        -0.50118E-04         0.00000E+00
    0.11228E-03        -0.39735E-04         0.00000E+00
    0.84608E-04        -0.29530E-04         0.00000E+00
    0.56668E-04        -0.19505E-04         0.00000E+00
    0.28463E-04        -0.96615E-05         0.00000E+00
    0.00000E+00         0.00000E+00         0.00000E+00
    0.10496E-02        -0.69946E-03         0.00000E+00
    0.10402E-02        -0.68337E-03         0.00000E+00
    0.10303E-02        -0.66728E-03         0.00000E+00
    0.10198E-02        -0.65120E-03         0.00000E+00
    0.10088E-02        -0.63514E-03         0.00000E+00
    0.99722E-03        -0.61910E-03         0.00000E+00
    0.98513E-03        -0.60309E-03         0.00000E+00
    0.97252E-03        -0.58712E-03         0.00000E+00
    0.95937E-03        -0.57119E-03         0.00000E+00
    0.94570E-03        -0.55530E-03         0.00000E+00
    0.93152E-03        -0.53946E-03         0.00000E+00
    0.91682E-03        -0.52368E-03         0.00000E+00
    0.90161E-03        -0.50796E-03         0.00000E+00
    0.88590E-03        -0.49231E-03         0.00000E+00
    0.86969E-03        -0.47673E-03         0.00000E+00
    0.85298E-03        -0.46123E-03         0.00000E+00
    0.83578E-03        -0.44581E-03         0.00000E+00
    0.81810E-03        -0.43047E-03         0.00000E+00
    0.79993E-03        -0.41523E-03         0.00000E+00
    0.78129E-03        -0.40008E-03         0.00000E+00
    0.76218E-03        -0.38504E-03         0.00000E+00
    0.74261E-03        -0.37010E-03         0.00000E+00
    0.72258E-03        -0.35527E-03         0.00000E+00
    0.70209E-03        -0.34056E-03         0.00000E+00
    0.68116E-03        -0.32597E-03         0.00000E+00
    0.65978E-03        -0.31150E-03         0.00000E+00
    0.63797E-03        -0.29715E-03         0.00000E+00
    0.61573E-03        -0.28294E-03         0.00000E+00
    0.59306E-03        -0.26886E-03         0.00000E+00
    0.56997E-03        -0.25493E-03         0.00000E+00
    0.54647E-03        -0.24113E-03         0.00000E+00
    0.52257E-03        -0.22748E-03         0.00000E+00
    0.49827E-03        -0.21398E-03         0.00000E+00
    0.47357E-03        -0.20064E-03         0.00000E+00
    0.44849E-03        -0.18745E-03         0.00000E+00
    0.42302E-03        -0.17442E-03         0.00000E+00
    0.39718E-03        -0.16155E-03         0.00000E+00
    0.37098E-03        -0.14885E-03         0.00000E+00
    0.34441E-03        -0.13632E-03         0.00000E+00
    0.31749E-03        -0.12396E-03         0.00000E+00
    0.29022E-03        -0.11178E-03         0.00000E+00
    0.26261E-03        -0.99769E-04         0.00000E+00
    0.23467E-03        -0.87939E-04         0.00000E+00
    0.20641E-03        -0.76291E-04         0.00000E+00
    0.17782E-03        -0.64826E-04         0.00000E+00
    0.14892E-03        -0.53547E-04         0.00000E+00
    0.11972E-03        -0.42455E-04         0.00000E+00
    0.90218E-04        -0.31553E-04         0.00000E+00
    0.60426E-04        -0.20842E-04         0.00000E+00
    0.30351E-04        -0.10324E-04         0.00000E+00
    0.00000E+00         0.00000E+00         0.00000E+00
    0.11186E-02        -0.74644E-03         0.00000E+00
    0.11086E-02        -0.72927E-03         0.00000E+00
    0.10980E-02        -0.71210E-03         0.00000E+00
    0.10869E-02        -0.69495E-03         0.00000E+00
    0.10751E-02        -0.67782E-03         0.00000E+00
    0.10628E-02        -0.66071E-03         0.00000E+00
    0.10500E-02        -0.64363E-03         0.00000E+00
    0.10365E-02        -0.62659E-03         0.00000E+00
    0.10225E-02        -0.60959E-03         0.00000E+00
    0.10080E-02        -0.59264E-03         0.00000E+00
    0.99287E-03        -0.57575E-03         0.00000E+00
    0.97721E-03        -0.55891E-03         0.00000E+00
    0.96102E-03        -0.54214E-03         0.00000E+00
    0.94428E-03        -0.52544E-03         0.00000E+00
    0.92701E-03        -0.50882E-03         0.00000E+00
    0.90921E-03        -0.49228E-03         0.00000E+00
    0.89088E-03        -0.47583E-03         0.00000E+00
    0.87204E-03        -0.45947E-03         0.00000E+00
    0.85269E-03        -0.44321E-03         0.00000E+00
    0.83283E-03        -0.42705E-03         0.00000E+00
    0.81247E-03        -0.41100E-03         0.00000E+00
    0.79161E-03        -0.39506E-03         0.00000E+00
    0.77027E-03        -0.37924E-03         0.00000E+00
    0.74843E-03        -0.36354E-03         0.00000E+00
    0.72613E-03        -0.34797E-03         0.00000E+00
    0.70335E-03        -0.33253E-03         0.00000E+00
    0.68010E-03        -0.31722E-03         0.00000E+00
    0.65639E-03        -0.30206E-03         0.00000E+00
    0.63224E-03        -0.28703E-03         0.00000E+00
    0.60763E-03        -0.27216E-03         0.00000E+00
    0.58258E-03        -0.25744E-03         0.00000E+00
    0.55711E-03        -0.24287E-03         0.00000E+00
    0.53120E-03        -0.22846E-03         0.00000E+00
    0.50488E-03        -0.21422E-03         0.00000E+00
    0.47814E-03        -0.20014E-03         0.00000E+00
    0.45099E-03        -0.18624E-03         0.00000E+00
    0.42345E-03        -0.17250E-03         0.00000E+00
    0.39551E-03        -0.15895E-03         0.00000E+00
    0.36719E-03        -0.14557E-03         0.00000E+00
    0.33849E-03        -0.13238E-03         0.00000E+00
    0.30942E-03        -0.11937E-03         0.00000E+00
    0.27999E-03        -0.10654E-03         0.00000E+00
    0.25020E-03        -0.93914E-04         0.00000E+00
    0.22007E-03        -0.81476E-04         0.00000E+00
    0.18959E-03        -0.69234E-04         0.00000E+00
    0.15878E-03        -0.57190E-04         0.00000E+00
    0.12764E-03        -0.45345E-04         0.00000E+00
    0.96191E-04        -0.33702E-04         0.00000E+00
    0.64427E-04        -0.22262E-04         0.00000E+00
    0.32361E-04        -0.11028E-04         0.00000E+00
    0.00000E+00         0.00000E+00         0.00000E+00
    0.11922E-02        -0.79647E-03         0.00000E+00
    0.11815E-02        -0.77815E-03         0.00000E+00
    0.11703E-02        -0.75984E-03         0.00000E+00
    0.11584E-02        -0.74154E-03         0.00000E+00
    0.11459E-02        -0.72327E-03         0.00000E+00
    0.11328E-02        -0.70502E-03         0.00000E+00
    0.11191E-02        -0.68680E-03         0.00000E+00
    0.11048E-02        -0.66862E-03         0.00000E+00
    0.10899E-02        -0.65049E-03         0.00000E+00
    0.10744E-02        -0.63241E-03         0.00000E+00
    0.10583E-02        -0.61438E-03         0.00000E+00
    0.10416E-02        -0.59642E-03         0.00000E+00
    0.10243E-02        -0.57853E-03         0.00000E+00
    0.10065E-02        -0.56072E-03         0.00000E+00
    0.98809E-03        -0.54299E-03         0.00000E+00
    0.96913E-03        -0.52535E-03         0.00000E+00
    0.94961E-03        -0.50780E-03         0.00000E+00
    0.92953E-03        -0.49034E-03         0.00000E+00
    0.90891E-03        -0.47299E-03         0.00000E+00
    0.88775E-03        -0.45576E-03         0.00000E+00
    0.86605E-03        -0.43863E-03         0.00000E+00
    0.84382E-03        -0.42163E-03         0.00000E+00
    0.82108E-03        -0.40475E-03         0.00000E+00
    0.79781E-03        -0.38800E-03         0.00000E+00
    0.77404E-03        -0.37138E-03         0.00000E+00
    0.74976E-03        -0.35491E-03         0.00000E+00
    0.72498E-03        -0.33858E-03         0.00000E+00
    0.69972E-03        -0.32240E-03         0.00000E+00
    0.67397E-03        -0.30637E-03         0.00000E+00
    0.64775E-03        -0.29050E-03         0.00000E+00
    0.62105E-03        -0.27479E-03         0.00000E+00
    0.59389E-03        -0.25925E-03         0.00000E+00
    0.56628E-03        -0.24387E-03         0.00000E+00
    0.53822E-03        -0.22867E-03         0.00000E+00
    0.50972E-03        -0.21365E-03         0.00000E+00
    0.48079E-03        -0.19881E-03         0.00000E+00
    0.45143E-03        -0.18415E-03         0.00000E+00
    0.42165E-03        -0.16968E-03         0.00000E+00
    0.39146E-03        -0.15541E-03         0.00000E+00
    0.36086E-03        -0.14132E-03         0.00000E+00
    0.32988E-03        -0.12744E-03         0.00000E+00
    0.29850E-03        -0.11375E-03         0.00000E+00
    0.26674E-03        -0.10027E-03         0.00000E+00
    0.23462E-03        -0.86991E-04         0.00000E+00
    0.20213E-03        -0.73922E-04         0.00000E+00
    0.16928E-03        -0.61063E-04         0.00000E+00
    0.13609E-03        -0.48417E-04         0.00000E+00
    0.10255E-03        -0.35986E-04         0.00000E+00
    0.68688E-04        -0.23772E-04         0.00000E+00
    0.34501E-04        -0.11776E-04         0.00000E+00
    0.00000E+00         0.00000E+00         0.00000E+00
    0.12707E-02        -0.84976E-03         0.00000E+00
    0.12593E-02        -0.83022E-03         0.00000E+00
    0.12473E-02        -0.81069E-03         0.00000E+00
    0.12347E-02        -0.79117E-03         0.00000E+00
    0.12214E-02        -0.77168E-03         0.00000E+00
    0.12074E-02        -0.75221E-03         0.00000E+00
    0.11928E-02        -0.73278E-03         0.00000E+00
    0.11775E-02        -0.71339E-03         0.00000E+00
    0.11616E-02        -0.69405E-03         0.00000E+00
    0.11451E-02        -0.67476E-03         0.00000E+00
    0.11280E-02        -0.65554E-03         0.00000E+00
    0.11102E-02        -0.63638E-03         0.00000E+00
    0.10918E-02        -0.61730E-03         0.00000E+00
    0.10728E-02        -0.59830E-03         0.00000E+00
    0.10532E-02        -0.57938E-03         0.00000E+00
    0.10330E-02        -0.56056E-03         0.00000E+00
    0.10122E-02        -0.54184E-03         0.00000E+00
    0.99080E-03        -0.52322E-03         0.00000E+00
    0.96882E-03        -0.50472E-03         0.00000E+00
    0.94627E-03        -0.48633E-03         0.00000E+00
    0.92315E-03        -0.46806E-03         0.00000E+00
    0.89946E-03        -0.44992E-03         0.00000E+00
    0.87522E-03        -0.43191E-03         0.00000E+00
    0.85043E-03        -0.41404E-03         0.00000E+00
    0.82509E-03        -0.39632E-03         0.00000E+00
    0.79921E-03        -0.37874E-03         0.00000E+00
    0.77281E-03        -0.36132E-03         0.00000E+00
    0.74588E-03        -0.34406E-03         0.00000E+00
    0.71844E-03        -0.32696E-03         0.00000E+00
    0.69049E-03        -0.31002E-03         0.00000E+00
    0.66203E-03        -0.29326E-03         0.00000E+00
    0.63309E-03        -0.27668E-03         0.00000E+00
    0.60366E-03        -0.26028E-03         0.00000E+00
    0.57375E-03        -0.24406E-03         0.00000E+00
    0.54337E-03        -0.22803E-03         0.00000E+00
    0.51253E-03        -0.21219E-03         0.00000E+00
    0.48123E-03        -0.19655E-03         0.00000E+00
    0.44949E-03        -0.18111E-03         0.00000E+00
    0.41731E-03        -0.16588E-03         0.00000E+00
    0.38469E-03        -0.15085E-03         0.00000E+00
    0.35166E-03        -0.13603E-03         0.00000E+00
    0.31821E-03        -0.12142E-03         0.00000E+00
    0.28436E-03        -0.10703E-03         0.00000E+00
    0.25011E-03        -0.92861E-04         0.00000E+00
    0.21548E-03        -0.78911E-04         0.00000E+00
    0.18046E-03        -0.65186E-04         0.00000E+00
    0.14508E-03        -0.51687E-04         0.00000E+00
    0.10933E-03        -0.38417E-04         0.00000E+00
    0.73227E-04        -0.25378E-04         0.00000E+00
    0.36781E-04        -0.12572E-04         0.00000E+00
    0.00000E+00         0.00000E+00         0.00000E+00
    0.13543E-02        -0.90654E-03         0.00000E+00
    0.13423E-02        -0.88570E-03         0.00000E+00
    0.13295E-02        -0.86487E-03         0.00000E+00
    0.13160E-02        -0.84405E-03         0.00000E+00
    0.13018E-02        -0.82326E-03         0.00000E+00
    0.12869E-02        -0.80250E-03         0.00000E+00
    0.12714E-02        -0.78177E-03         0.00000E+00
    0.12551E-02        -0.76109E-03         0.00000E+00
    0.12382E-02        -0.74046E-03         0.00000E+00
    0.12206E-02        -0.71989E-03         0.00000E+00
    0.12023E-02        -0.69938E-03         0.00000E+00
    0.11833E-02        -0.67895E-03         0.00000E+00
    0.11637E-02        -0.65860E-03         0.00000E+00
    0.11435E-02        -0.63833E-03         0.00000E+00
    0.11226E-02        -0.61815E-03         0.00000E+00
    0.11011E-02        -0.59808E-03         0.00000E+00
    0.10789E-02        -0.57811E-03         0.00000E+00
    0.10561E-02        -0.55825E-03         0.00000E+00
    0.10327E-02        -0.53851E-03         0.00000E+00
    0.10086E-02        -0.51889E-03         0.00000E+00
    0.98400E-03        -0.49941E-03         0.00000E+00
    0.95876E-03        -0.48006E-03         0.00000E+00
    0.93292E-03        -0.46085E-03         0.00000E+00
    0.90650E-03        -0.44179E-03         0.00000E+00
    0.87949E-03        -0.42288E-03         0.00000E+00
    0.85191E-03        -0.40413E-03         0.00000E+00
    0.82377E-03        -0.38555E-03         0.00000E+00
    0.79507E-03        -0.36713E-03         0.00000E+00
    0.76582E-03        -0.34889E-03         0.00000E+00
    0.73603E-03        -0.33082E-03         0.00000E+00
    0.70570E-03        -0.31294E-03         0.00000E+00
    0.67485E-03        -0.29525E-03         0.00000E+00
    0.64348E-03        -0.27775E-03         0.00000E+00
    0.61160E-03        -0.26045E-03         0.00000E+00
    0.57922E-03        -0.24334E-03         0.00000E+00
    0.54634E-03        -0.22645E-03         0.00000E+00
    0.51298E-03        -0.20976E-03         0.00000E+00
    0.47915E-03        -0.19329E-03         0.00000E+00
    0.44485E-03        -0.17703E-03         0.00000E+00
    0.41008E-03        -0.16099E-03         0.00000E+00
    0.37487E-03        -0.14518E-03         0.00000E+00
    0.33922E-03        -0.12959E-03         0.00000E+00
    0.30313E-03        -0.11423E-03         0.00000E+00
    0.26662E-03        -0.99112E-04         0.00000E+00
    0.22970E-03        -0.84225E-04         0.00000E+00
    0.19238E-03        -0.69576E-04         0.00000E+00
    0.15465E-03        -0.55169E-04         0.00000E+00
    0.11655E-03        -0.41006E-04         0.00000E+00
    0.78062E-04        -0.27089E-04         0.00000E+00
    0.39210E-04        -0.13419E-04         0.00000E+00
    0.00000E+00         0.00000E+00         0.00000E+00
    0.14435E-02        -0.96706E-03         0.00000E+00
    0.14307E-02        -0.94483E-03         0.00000E+00
    0.14170E-02        -0.92261E-03         0.00000E+00
    0.14027E-02        -0.90041E-03         0.00000E+00
    0.13876E-02        -0.87823E-03         0.00000E+00
    0.13717E-02        -0.85609E-03         0.00000E+00
    0.13551E-02        -0.83398E-03         0.00000E+00
    0.13378E-02        -0.81192E-03         0.00000E+00
    0.13197E-02        -0.78992E-03         0.00000E+00
    0.13010E-02        -0.76798E-03         0.00000E+00
    0.12815E-02        -0.74611E-03         0.00000E+00
    0.12613E-02        -0.72432E-03         0.00000E+00
    0.12404E-02        -0.70261E-03         0.00000E+00
    0.12188E-02        -0.68099E-03         0.00000E+00
    0.11966E-02        -0.65947E-03         0.00000E+00
    0.11736E-02        -0.63806E-03         0.00000E+00
    0.11500E-02        -0.61676E-03         0.00000E+00
    0.11257E-02        -0.59558E-03         0.00000E+00
    0.11007E-02        -0.57452E-03         0.00000E+00
    0.10751E-02        -0.55360E-03         0.00000E+00
    0.10489E-02        -0.53282E-03         0.00000E+00
    0.10220E-02        -0.51218E-03         0.00000E+00
    0.99441E-03        -0.49169E-03         0.00000E+00
    0.96625E-03        -0.47136E-03         0.00000E+00
    0.93747E-03        -0.45119E-03         0.00000E+00
    0.90808E-03        -0.43119E-03         0.00000E+00
    0.87808E-03        -0.41136E-03         0.00000E+00
    0.84749E-03        -0.39172E-03         0.00000E+00
    0.81632E-03        -0.37226E-03         0.00000E+00
    0.78456E-03        -0.35299E-03         0.00000E+00
    0.75224E-03        -0.33391E-03         0.00000E+00
    0.71935E-03        -0.31504E-03         0.00000E+00
    0.68592E-03        -0.29637E-03         0.00000E+00
    0.65194E-03        -0.27791E-03         0.00000E+00
    0.61742E-03        -0.25966E-03         0.00000E+00
    0.58238E-03        -0.24164E-03         0.00000E+00
    0.54682E-03        -0.22383E-03         0.00000E+00
    0.51075E-03        -0.20625E-03         0.00000E+00
    0.47419E-03        -0.18891E-03         0.00000E+00
    0.43714E-03        -0.17180E-03         0.00000E+00
    0.39960E-03        -0.15492E-03         0.00000E+00
    0.36160E-03        -0.13829E-03         0.00000E+00
    0.32313E-03        -0.12191E-03         0.00000E+00
    0.28422E-03        -0.10577E-03         0.00000E+00
    0.24486E-03        -0.89885E-04         0.00000E+00
    0.20507E-03        -0.74254E-04         0.00000E+00
    0.16486E-03        -0.58879E-04         0.00000E+00
    0.12424E-03        -0.43764E-04         0.00000E+00
    0.83213E-04        -0.28911E-04         0.00000E+00
    0.41797E-04        -0.14322E-04         0.00000E+00
    0.00000E+00         0.00000E+00         0.00000E+00
    0.15386E-02        -0.10316E-02         0.00000E+00
    0.15249E-02        -0.10079E-02         0.00000E+00
    0.15104E-02        -0.98416E-03         0.00000E+00
    0.14951E-02        -0.96048E-03         0.00000E+00
    0.14790E-02        -0.93683E-03         0.00000E+00
    0.14621E-02        -0.91321E-03         0.00000E+00
    0.14444E-02        -0.88964E-03         0.00000E+00
    0.14259E-02        -0.86611E-03         0.00000E+00
    0.14067E-02        -0.84264E-03         0.00000E+00
    0.13867E-02        -0.81924E-03         0.00000E+00
    0.13659E-02        -0.79592E-03         0.00000E+00
    0.13444E-02        -0.77267E-03         0.00000E+00
    0.13221E-02        -0.74952E-03         0.00000E+00
    0.12991E-02        -0.72646E-03         0.00000E+00
    0.12754E-02        -0.70351E-03         0.00000E+00
    0.12510E-02        -0.68068E-03         0.00000E+00
    0.12258E-02        -0.65796E-03         0.00000E+00
    0.11999E-02        -0.63537E-03         0.00000E+00
    0.11733E-02        -0.61291E-03         0.00000E+00
    0.11460E-02        -0.59059E-03         0.00000E+00
    0.11180E-02        -0.56843E-03         0.00000E+00
    0.10893E-02        -0.54641E-03         0.00000E+00
    0.10600E-02        -0.52456E-03         0.00000E+00
    0.10299E-02        -0.50287E-03         0.00000E+00
    0.99926E-03        -0.48136E-03         0.00000E+00
    0.96793E-03        -0.46003E-03         0.00000E+00
    0.93596E-03        -0.43888E-03         0.00000E+00
    0.90336E-03        -0.41792E-03         0.00000E+00
    0.87013E-03        -0.39717E-03         0.00000E+00
    0.83628E-03        -0.37661E-03         0.00000E+00
    0.80183E-03        -0.35626E-03         0.00000E+00
    0.76678E-03        -0.33613E-03         0.00000E+00
    0.73114E-03        -0.31621E-03         0.00000E+00
    0.69492E-03        -0.29652E-03         0.00000E+00
    0.65813E-03        -0.27705E-03         0.00000E+00
    0.62078E-03        -0.25782E-03         0.00000E+00
    0.58288E-03        -0.23883E-03         0.00000E+00
    0.54443E-03        -0.22008E-03         0.00000E+00
    0.50546E-03        -0.20157E-03         0.00000E+00
    0.46596E-03        -0.18332E-03         0.00000E+00
    0.42595E-03        -0.16531E-03         0.00000E+00
    0.38545E-03        -0.14757E-03         0.00000E+00
    0.34444E-03        -0.13009E-03         0.00000E+00
    0.30296E-03        -0.11287E-03         0.00000E+00
    0.26101E-03        -0.95918E-04         0.00000E+00
    0.21860E-03        -0.79238E-04         0.00000E+00
    0.17573E-03        -0.62832E-04         0.00000E+00
    0.13243E-03        -0.46703E-04         0.00000E+00
    0.88702E-04        -0.30853E-04         0.00000E+00
    0.44555E-04        -0.15285E-04         0.00000E+00
    0.00000E+00         0.00000E+00         0.00000E+00
    0.16400E-02        -0.11003E-02         0.00000E+00
    0.16254E-02        -0.10750E-02         0.00000E+00
    0.16099E-02        -0.10498E-02         0.00000E+00
    0.15936E-02        -0.10245E-02         0.00000E+00
    0.15764E-02        -0.99929E-03         0.00000E+00
    0.15584E-02        -0.97411E-03         0.00000E+00
    0.15395E-02        -0.94896E-03         0.00000E+00
    0.15199E-02        -0.92387E-03         0.00000E+00
    0.14994E-02        -0.89884E-03         0.00000E+00
    0.14780E-02        -0.87389E-03         0.00000E+00
    0.14559E-02        -0.84901E-03         0.00000E+00
    0.14330E-02        -0.82422E-03         0.00000E+00
    0.14093E-02        -0.79953E-03         0.00000E+00
    0.13847E-02        -0.77494E-03         0.00000E+00
    0.13594E-02        -0.75046E-03         0.00000E+00
    0.13334E-02        -0.72611E-03         0.00000E+00
    0.13065E-02        -0.70188E-03         0.00000E+00
    0.12789E-02        -0.67778E-03         0.00000E+00
    0.12506E-02        -0.65383E-03         0.00000E+00
    0.12215E-02        -0.63003E-03         0.00000E+00
    0.11916E-02        -0.60639E-03         0.00000E+00
    0.11611E-02        -0.58291E-03         0.00000E+00
    0.11298E-02        -0.55960E-03         0.00000E+00
    0.10978E-02        -0.53647E-03         0.00000E+00
    0.10651E-02        -0.51352E-03         0.00000E+00
    0.10317E-02        -0.49077E-03         0.00000E+00
    0.99764E-03        -0.46821E-03         0.00000E+00
    0.96289E-03        -0.44586E-03         0.00000E+00
    0.92748E-03        -0.42372E-03         0.00000E+00
    0.89140E-03        -0.40179E-03         0.00000E+00
    0.85468E-03        -0.38009E-03         0.00000E+00
    0.81732E-03        -0.35861E-03         0.00000E+00
    0.77933E-03        -0.33736E-03         0.00000E+00
    0.74073E-03        -0.31636E-03         0.00000E+00
    0.70151E-03        -0.29559E-03         0.00000E+00
    0.66170E-03        -0.27508E-03         0.00000E+00
    0.62130E-03        -0.25482E-03         0.00000E+00
    0.58033E-03        -0.23481E-03         0.00000E+00
    0.53878E-03        -0.21507E-03         0.00000E+00
    0.49668E-03        -0.19559E-03         0.00000E+00
    0.45404E-03        -0.17639E-03         0.00000E+00
    0.41086E-03        -0.15746E-03         0.00000E+00
    0.36715E-03        -0.13880E-03         0.00000E+00
    0.32294E-03        -0.12043E-03         0.00000E+00
    0.27822E-03        -0.10235E-03         0.00000E+00
    0.23301E-03        -0.84551E-04         0.00000E+00
    0.18732E-03        -0.67046E-04         0.00000E+00
    0.14116E-03        -0.49836E-04         0.00000E+00
    0.94551E-04        -0.32923E-04         0.00000E+00
    0.47493E-04        -0.16310E-04         0.00000E+00
    0.00000E+00         0.00000E+00         0.00000E+00
    0.17481E-02        -0.11736E-02         0.00000E+00
    0.17325E-02        -0.11467E-02         0.00000E+00
    0.17160E-02        -0.11197E-02         0.00000E+00
    0.16986E-02        -0.10928E-02         0.00000E+00
    0.16803E-02        -0.10659E-02         0.00000E+00
    0.16611E-02        -0.10390E-02         0.00000E+00
    0.16410E-02        -0.10122E-02         0.00000E+00
    0.16200E-02        -0.98545E-03         0.00000E+00
    0.15981E-02        -0.95876E-03         0.00000E+00
    0.15754E-02        -0.93214E-03         0.00000E+00
    0.15518E-02        -0.90561E-03         0.00000E+00
    0.15274E-02        -0.87918E-03         0.00000E+00
    0.15021E-02        -0.85284E-03         0.00000E+00
    0.14760E-02        -0.82662E-03         0.00000E+00
    0.14490E-02        -0.80051E-03         0.00000E+00
    0.14212E-02        -0.77454E-03         0.00000E+00
    0.13926E-02        -0.74870E-03         0.00000E+00
    0.13632E-02        -0.72300E-03         0.00000E+00
    0.13330E-02        -0.69746E-03         0.00000E+00
    0.13020E-02        -0.67207E-03         0.00000E+00
    0.12702E-02        -0.64685E-03         0.00000E+00
    0.12376E-02        -0.62181E-03         0.00000E+00
    0.12042E-02        -0.59695E-03         0.00000E+00
    0.11701E-02        -0.57228E-03         0.00000E+00
    0.11353E-02        -0.54781E-03         0.00000E+00
    0.10997E-02        -0.52354E-03         0.00000E+00
    0.10634E-02        -0.49948E-03         0.00000E+00
    0.10263E-02        -0.47564E-03         0.00000E+00
    0.98859E-03        -0.45202E-03         0.00000E+00
    0.95014E-03        -0.42864E-03         0.00000E+00
    0.91100E-03        -0.40549E-03         0.00000E+00
    0.87118E-03        -0.38258E-03         0.00000E+00
    0.83069E-03        -0.35991E-03         0.00000E+00
    0.78954E-03        -0.33751E-03         0.00000E+00
    0.74775E-03        -0.31536E-03         0.00000E+00
    0.70531E-03        -0.29348E-03         0.00000E+00
    0.66225E-03        -0.27186E-03         0.00000E+00
    0.61857E-03        -0.25052E-03         0.00000E+00
    0.57429E-03        -0.22946E-03         0.00000E+00
    0.52942E-03        -0.20868E-03         0.00000E+00
    0.48396E-03        -0.18819E-03         0.00000E+00
    0.43794E-03        -0.16800E-03         0.00000E+00
    0.39136E-03        -0.14810E-03         0.00000E+00
    0.34422E-03        -0.12850E-03         0.00000E+00
    0.29656E-03        -0.10920E-03         0.00000E+00
    0.24837E-03        -0.90216E-04         0.00000E+00
    0.19967E-03        -0.71539E-04         0.00000E+00
    0.15047E-03        -0.53176E-04         0.00000E+00
    0.10078E-03        -0.35130E-04         0.00000E+00
    0.50624E-04        -0.17404E-04         0.00000E+00
    0.00000E+00         0.00000E+00         0.00000E+00
    0.18633E-02        -0.12518E-02         0.00000E+00
    0.18467E-02        -0.12230E-02         0.00000E+00
    0.18291E-02        -0.11943E-02         0.00000E+00
    0.18105E-02        -0.11656E-02         0.00000E+00
    0.17910E-02        -0.11369E-02         0.00000E+00
    0.17705E-02        -0.11082E-02         0.00000E+00
    0.17491E-02        -0.10796E-02         0.00000E+00
    0.17267E-02        -0.10511E-02         0.00000E+00
    0.17034E-02        -0.10226E-02         0.00000E+00
    0.16792E-02        -0.99425E-03         0.00000E+00
    0.16541E-02        -0.96596E-03         0.00000E+00
    0.16280E-02        -0.93777E-03         0.00000E+00
    0.16011E-02        -0.90968E-03         0.00000E+00
    0.15732E-02        -0.88172E-03         0.00000E+00
    0.15445E-02        -0.85388E-03         0.00000E+00
    0.15149E-02        -0.82617E-03         0.00000E+00
    0.14844E-02        -0.79861E-03         0.00000E+00
    0.14530E-02        -0.77121E-03         0.00000E+00
    0.14208E-02        -0.74397E-03         0.00000E+00
    0.13877E-02        -0.71689E-03         0.00000E+00
    0.13538E-02        -0.69000E-03         0.00000E+00
    0.13191E-02        -0.66329E-03         0.00000E+00
    0.12836E-02        -0.63678E-03         0.00000E+00
    0.12472E-02        -0.61047E-03         0.00000E+00
    0.12101E-02        -0.58437E-03         0.00000E+00
    0.11722E-02        -0.55848E-03         0.00000E+00
    0.11334E-02        -0.53282E-03         0.00000E+00
    0.10940E-02        -0.50739E-03         0.00000E+00
    0.10537E-02        -0.48220E-03         0.00000E+00
    0.10127E-02        -0.45726E-03         0.00000E+00
    0.97103E-03        -0.43257E-03         0.00000E+00
    0.92858E-03        -0.40813E-03         0.00000E+00
    0.88543E-03        -0.38396E-03         0.00000E+00
    0.84157E-03        -0.36006E-03         0.00000E+00
    0.79702E-03        -0.33643E-03         0.00000E+00
    0.75179E-03        -0.31309E-03         0.00000E+00
    0.70589E-03        -0.29003E-03         0.00000E+00
    0.65934E-03        -0.26727E-03         0.00000E+00
    0.61214E-03        -0.24480E-03         0.00000E+00
    0.56431E-03        -0.22264E-03         0.00000E+00
    0.51586E-03        -0.20078E-03         0.00000E+00
    0.46680E-03        -0.17924E-03         0.00000E+00
    0.41715E-03        -0.15801E-03         0.00000E+00
    0.36691E-03        -0.13710E-03         0.00000E+00
    0.31610E-03        -0.11651E-03         0.00000E+00
    0.26474E-03        -0.96256E-04         0.00000E+00
    0.21283E-03        -0.76329E-04         0.00000E+00
    0.16039E-03        -0.56738E-04         0.00000E+00
    0.10743E-03        -0.37483E-04         0.00000E+00
    0.53960E-04        -0.18570E-04         0.00000E+00
    0.00000E+00         0.00000E+00         0.00000E+00
    0.19861E-02        -0.13351E-02         0.00000E+00
    0.19683E-02        -0.13044E-02         0.00000E+00
    0.19496E-02        -0.12738E-02         0.00000E+00
    0.19298E-02        -0.12432E-02         0.00000E+00
    0.19090E-02        -0.12126E-02         0.00000E+00
    0.18872E-02        -0.11820E-02         0.00000E+00
    0.18643E-02        -0.11515E-02         0.00000E+00
    0.18405E-02        -0.11211E-02         0.00000E+00
    0.18157E-02        -0.10907E-02         0.00000E+00
    0.17898E-02        -0.10605E-02         0.00000E+00
    0.17631E-02        -0.10303E-02         0.00000E+00
    0.17353E-02        -0.10002E-02         0.00000E+00
    0.17066E-02        -0.97028E-03         0.00000E+00
    0.16769E-02        -0.94046E-03         0.00000E+00
    0.16462E-02        -0.91077E-03         0.00000E+00
    0.16147E-02        -0.88123E-03         0.00000E+00
    0.15821E-02        -0.85184E-03         0.00000E+00
    0.15487E-02        -0.82261E-03         0.00000E+00
    0.15144E-02        -0.79356E-03         0.00000E+00
    0.14792E-02        -0.76468E-03         0.00000E+00
    0.14430E-02        -0.73600E-03         0.00000E+00
    0.14060E-02        -0.70752E-03         0.00000E+00
    0.13681E-02        -0.67924E-03         0.00000E+00
    0.13294E-02        -0.65118E-03         0.00000E+00
    0.12898E-02        -0.62334E-03         0.00000E+00
    0.12494E-02        -0.59574E-03         0.00000E+00
    0.12081E-02        -0.56837E-03         0.00000E+00
    0.11660E-02        -0.54125E-03         0.00000E+00
    0.11231E-02        -0.51438E-03         0.00000E+00
    0.10795E-02        -0.48778E-03         0.00000E+00
    0.10350E-02        -0.46144E-03         0.00000E+00
    0.98976E-03        -0.43538E-03         0.00000E+00
    0.94376E-03        -0.40960E-03         0.00000E+00
    0.89701E-03        -0.38410E-03         0.00000E+00
    0.84952E-03        -0.35890E-03         0.00000E+00
    0.80132E-03        -0.33400E-03         0.00000E+00
    0.75239E-03        -0.30941E-03         0.00000E+00
    0.70277E-03        -0.28513E-03         0.00000E+00
    0.65247E-03        -0.26116E-03         0.00000E+00
    0.60149E-03        -0.23752E-03         0.00000E+00
    0.54984E-03        -0.21421E-03         0.00000E+00
    0.49756E-03        -0.19122E-03         0.00000E+00
    0.44463E-03        -0.16857E-03         0.00000E+00
    0.39109E-03        -0.14627E-03         0.00000E+00
    0.33693E-03        -0.12431E-03         0.00000E+00
    0.28218E-03        -0.10270E-03         0.00000E+00
    0.22685E-03        -0.81437E-04         0.00000E+00
    0.17096E-03        -0.60535E-04         0.00000E+00
    0.11451E-03        -0.39993E-04         0.00000E+00
    0.57516E-04        -0.19813E-04         0.00000E+00
    0.00000E+00         0.00000E+00         0.00000E+00
    0.21169E-02        -0.14239E-02         0.00000E+00
    0.20980E-02        -0.13912E-02         0.00000E+00
    0.20780E-02        -0.13586E-02         0.00000E+00
    0.20569E-02        -0.13259E-02         0.00000E+00
    0.20348E-02        -0.12933E-02         0.00000E+00
    0.20115E-02        -0.12607E-02         0.00000E+00
    0.19872E-02        -0.12282E-02         0.00000E+00
    0.19617E-02        -0.11957E-02         0.00000E+00
    0.19353E-02        -0.11634E-02         0.00000E+00
    0.19078E-02        -0.11311E-02         0.00000E+00
    0.18792E-02        -0.10989E-02         0.00000E+00
    0.18496E-02        -0.10668E-02         0.00000E+00
    0.18190E-02        -0.10349E-02         0.00000E+00
    0.17873E-02        -0.10031E-02         0.00000E+00
    0.17547E-02        -0.97143E-03         0.00000E+00
    0.17210E-02        -0.93992E-03         0.00000E+00
    0.16864E-02        -0.90858E-03         0.00000E+00
    0.16507E-02        -0.87741E-03         0.00000E+00
    0.16141E-02        -0.84643E-03         0.00000E+00
    0.15766E-02        -0.81564E-03         0.00000E+00
    0.15381E-02        -0.78505E-03         0.00000E+00
    0.14986E-02        -0.75467E-03         0.00000E+00
    0.14583E-02        -0.72452E-03         0.00000E+00
    0.14170E-02        -0.69459E-03         0.00000E+00
    0.13748E-02        -0.66490E-03         0.00000E+00
    0.13317E-02        -0.63546E-03         0.00000E+00
    0.12877E-02        -0.60627E-03         0.00000E+00
    0.12428E-02        -0.57735E-03         0.00000E+00
    0.11971E-02        -0.54870E-03         0.00000E+00
    0.11506E-02        -0.52032E-03         0.00000E+00
    0.11032E-02        -0.49223E-03         0.00000E+00
    0.10550E-02        -0.46443E-03         0.00000E+00
    0.10059E-02        -0.43693E-03         0.00000E+00
    0.95610E-03        -0.40974E-03         0.00000E+00
    0.90548E-03        -0.38286E-03         0.00000E+00
    0.85410E-03        -0.35631E-03         0.00000E+00
    0.80196E-03        -0.33007E-03         0.00000E+00
    0.74907E-03        -0.30417E-03         0.00000E+00
    0.69545E-03        -0.27861E-03         0.00000E+00
    0.64111E-03        -0.25339E-03         0.00000E+00
    0.58607E-03        -0.22852E-03         0.00000E+00
    0.53033E-03        -0.20400E-03         0.00000E+00
    0.47392E-03        -0.17984E-03         0.00000E+00
    0.41685E-03        -0.15605E-03         0.00000E+00
    0.35913E-03        -0.13262E-03         0.00000E+00
    0.30077E-03        -0.10956E-03         0.00000E+00
    0.24180E-03        -0.86885E-04         0.00000E+00
    0.18222E-03        -0.64585E-04         0.00000E+00
    0.12205E-03        -0.42669E-04         0.00000E+00
    0.61305E-04        -0.21139E-04         0.00000E+00
    0.00000E+00         0.00000E+00         0.00000E+00
    0.22564E-02        -0.15186E-02         0.00000E+00
    0.22363E-02        -0.14838E-02         0.00000E+00
    0.22149E-02        -0.14489E-02         0.00000E+00
    0.21924E-02        -0.14141E-02         0.00000E+00
    0.21688E-02        -0.13793E-02         0.00000E+00
    0.21440E-02        -0.13446E-02         0.00000E+00
    0.21181E-02        -0.13099E-02         0.00000E+00
    0.20910E-02        -0.12753E-02         0.00000E+00
    0.20628E-02        -0.12408E-02         0.00000E+00
    0.20334E-02        -0.12063E-02         0.00000E+00
    0.20030E-02        -0.11720E-02         0.00000E+00
    0.19714E-02        -0.11378E-02         0.00000E+00
    0.19388E-02        -0.11038E-02         0.00000E+00
    0.19050E-02        -0.10699E-02         0.00000E+00
    0.18702E-02        -0.10361E-02         0.00000E+00
    0.18344E-02        -0.10025E-02         0.00000E+00
    0.17974E-02        -0.96908E-03         0.00000E+00
    0.17595E-02        -0.93585E-03         0.00000E+00
    0.17205E-02        -0.90280E-03         0.00000E+00
    0.16804E-02        -0.86997E-03         0.00000E+00
    0.16394E-02        -0.83735E-03         0.00000E+00
    0.15973E-02        -0.80495E-03         0.00000E+00
    0.15543E-02        -0.77279E-03         0.00000E+00
    0.15103E-02        -0.74088E-03         0.00000E+00
    0.14653E-02        -0.70922E-03         0.00000E+00
    0.14194E-02        -0.67782E-03         0.00000E+00
    0.13725E-02        -0.64669E-03         0.00000E+00
    0.13247E-02        -0.61584E-03         0.00000E+00
    0.12760E-02        -0.58528E-03         0.00000E+00
    0.12263E-02        -0.55502E-03         0.00000E+00
    0.11758E-02        -0.52506E-03         0.00000E+00
    0.11244E-02        -0.49541E-03         0.00000E+00
    0.10722E-02        -0.46608E-03         0.00000E+00
    0.10191E-02        -0.43708E-03         0.00000E+00
    0.96512E-03        -0.40841E-03         0.00000E+00
    0.91035E-03        -0.38009E-03         0.00000E+00
    0.85477E-03        -0.35211E-03         0.00000E+00
    0.79840E-03        -0.32448E-03         0.00000E+00
    0.74125E-03        -0.29721E-03         0.00000E+00
    0.68333E-03        -0.27031E-03         0.00000E+00
    0.62466E-03        -0.24378E-03         0.00000E+00
    0.56526E-03        -0.21763E-03         0.00000E+00
    0.50513E-03        -0.19186E-03         0.00000E+00
    0.44430E-03        -0.16648E-03         0.00000E+00
    0.38278E-03        -0.14148E-03         0.00000E+00
    0.32058E-03        -0.11689E-03         0.00000E+00
    0.25772E-03        -0.92694E-04         0.00000E+00
    0.19422E-03        -0.68904E-04         0.00000E+00
    0.13009E-03        -0.45523E-04         0.00000E+00
    0.65343E-04        -0.22554E-04         0.00000E+00
    0.00000E+00         0.00000E+00         0.00000E+00
    0.24050E-02        -0.16196E-02         0.00000E+00
    0.23836E-02        -0.15824E-02         0.00000E+00
    0.23608E-02        -0.15453E-02         0.00000E+00
    0.23369E-02        -0.15081E-02         0.00000E+00
    0.23117E-02        -0.14710E-02         0.00000E+00
    0.22852E-02        -0.14340E-02         0.00000E+00
    0.22576E-02        -0.13970E-02         0.00000E+00
    0.22287E-02        -0.13601E-02         0.00000E+00
    0.21986E-02        -0.13233E-02         0.00000E+00
    0.21673E-02        -0.12866E-02         0.00000E+00
    0.21349E-02        -0.12500E-02         0.00000E+00
    0.21013E-02        -0.12136E-02         0.00000E+00
    0.20665E-02        -0.11772E-02         0.00000E+00
    0.20305E-02        -0.11411E-02         0.00000E+00
    0.19934E-02        -0.11051E-02         0.00000E+00
    0.19552E-02        -0.10692E-02         0.00000E+00
    0.19158E-02        -0.10336E-02         0.00000E+00
    0.18753E-02        -0.99815E-03         0.00000E+00
    0.18337E-02        -0.96291E-03         0.00000E+00
    0.17911E-02        -0.92789E-03         0.00000E+00
    0.17473E-02        -0.89311E-03         0.00000E+00
    0.17025E-02        -0.85856E-03         0.00000E+00
    0.16566E-02        -0.82427E-03         0.00000E+00
    0.16097E-02        -0.79023E-03         0.00000E+00
    0.15618E-02        -0.75646E-03         0.00000E+00
    0.15128E-02        -0.72298E-03         0.00000E+00
    0.14629E-02        -0.68978E-03         0.00000E+00
    0.14119E-02        -0.65688E-03         0.00000E+00
    0.13600E-02        -0.62429E-03         0.00000E+00
    0.13071E-02        -0.59202E-03         0.00000E+00
    0.12532E-02        -0.56006E-03         0.00000E+00
    0.11985E-02        -0.52844E-03         0.00000E+00
    0.11428E-02        -0.49716E-03         0.00000E+00
    0.10862E-02        -0.46623E-03         0.00000E+00
    0.10287E-02        -0.43566E-03         0.00000E+00
    0.97029E-03        -0.40544E-03         0.00000E+00
    0.91106E-03        -0.37560E-03         0.00000E+00
    0.85097E-03        -0.34613E-03         0.00000E+00
    0.79006E-03        -0.31705E-03         0.00000E+00
    0.72833E-03        -0.28836E-03         0.00000E+00
    0.66580E-03        -0.26006E-03         0.00000E+00
    0.60248E-03        -0.23216E-03         0.00000E+00
    0.53840E-03        -0.20467E-03         0.00000E+00
    0.47356E-03        -0.17760E-03         0.00000E+00
    0.40799E-03        -0.15094E-03         0.00000E+00
    0.34169E-03        -0.12470E-03         0.00000E+00
    0.27470E-03        -0.98888E-04         0.00000E+00
    0.20701E-03        -0.73509E-04         0.00000E+00
    0.13866E-03        -0.48566E-04         0.00000E+00
    0.69646E-04        -0.24062E-04         0.00000E+00
    0.00000E+00         0.00000E+00         0.00000E+00
    0.25635E-02        -0.17273E-02         0.00000E+00
    0.25406E-02        -0.16876E-02         0.00000E+00
    0.25163E-02        -0.16480E-02         0.00000E+00
    0.24908E-02        -0.16084E-02         0.00000E+00
    0.24639E-02        -0.15688E-02         0.00000E+00
    0.24357E-02        -0.15293E-02         0.00000E+00
    0.24062E-02        -0.14899E-02         0.00000E+00
    0.23755E-02        -0.14506E-02         0.00000E+00
    0.23434E-02        -0.14113E-02         0.00000E+00
    0.23101E-02        -0.13722E-02         0.00000E+00
    0.22755E-02        -0.13331E-02         0.00000E+00
    0.22396E-02        -0.12943E-02         0.00000E+00
    0.22025E-02        -0.12555E-02         0.00000E+00
    0.21642E-02        -0.12170E-02         0.00000E+00
    0.21247E-02        -0.11786E-02         0.00000E+00
    0.20839E-02        -0.11404E-02         0.00000E+00
    0.20419E-02        -0.11024E-02         0.00000E+00
    0.19988E-02        -0.10646E-02         0.00000E+00
    0.19545E-02        -0.10270E-02         0.00000E+00
    0.19090E-02        -0.98965E-03         0.00000E+00
    0.18624E-02        -0.95256E-03         0.00000E+00
    0.18146E-02        -0.91572E-03         0.00000E+00
    0.17657E-02        -0.87914E-03         0.00000E+00
    0.17157E-02        -0.84285E-03         0.00000E+00
    0.16646E-02        -0.80684E-03         0.00000E+00
    0.16124E-02        -0.77113E-03         0.00000E+00
    0.15592E-02        -0.73573E-03         0.00000E+00
    0.15049E-02        -0.70064E-03         0.00000E+00
    0.14495E-02        -0.66589E-03         0.00000E+00
    0.13931E-02        -0.63146E-03         0.00000E+00
    0.13358E-02        -0.59739E-03         0.00000E+00
    0.12774E-02        -0.56366E-03         0.00000E+00
    0.12180E-02        -0.53030E-03         0.00000E+00
    0.11577E-02        -0.49732E-03         0.00000E+00
    0.10964E-02        -0.46471E-03         0.00000E+00
    0.10342E-02        -0.43248E-03         0.00000E+00
    0.97103E-03        -0.40065E-03         0.00000E+00
    0.90700E-03        -0.36922E-03         0.00000E+00
    0.84207E-03        -0.33820E-03         0.00000E+00
    0.77628E-03        -0.30760E-03         0.00000E+00
    0.70963E-03        -0.27741E-03         0.00000E+00
    0.64215E-03        -0.24766E-03         0.00000E+00
    0.57384E-03        -0.21834E-03         0.00000E+00
    0.50474E-03        -0.18945E-03         0.00000E+00
    0.43485E-03        -0.16102E-03         0.00000E+00
    0.36419E-03        -0.13303E-03         0.00000E+00
    0.29278E-03        -0.10549E-03         0.00000E+00
    0.22064E-03        -0.78421E-04         0.00000E+00
    0.14778E-03        -0.51811E-04         0.00000E+00
    0.74232E-04        -0.25670E-04         0.00000E+00
    0.00000E+00         0.00000E+00         0.00000E+00
    0.27323E-02        -0.18420E-02         0.00000E+00
    0.27079E-02        -0.17998E-02         0.00000E+00
    0.26820E-02        -0.17575E-02         0.00000E+00
    0.26548E-02        -0.17153E-02         0.00000E+00
    0.26261E-02        -0.16731E-02         0.00000E+00
    0.25961E-02        -0.16310E-02         0.00000E+00
    0.25647E-02        -0.15889E-02         0.00000E+00
    0.25319E-02        -0.15470E-02         0.00000E+00
    0.24977E-02        -0.15051E-02         0.00000E+00
    0.24622E-02        -0.14634E-02         0.00000E+00
    0.24253E-02        -0.14218E-02         0.00000E+00
    0.23871E-02        -0.13803E-02         0.00000E+00
    0.23475E-02        -0.13390E-02         0.00000E+00
    0.23067E-02        -0.12979E-02         0.00000E+00
    0.22645E-02        -0.12570E-02         0.00000E+00
    0.22211E-02        -0.12162E-02         0.00000E+00
    0.21764E-02        -0.11757E-02         0.00000E+00
    0.21304E-02        -0.11354E-02         0.00000E+00
    0.20831E-02        -0.10953E-02         0.00000E+00
    0.20347E-02        -0.10555E-02         0.00000E+00
    0.19850E-02        -0.10159E-02         0.00000E+00
    0.19341E-02        -0.97665E-03         0.00000E+00
    0.18819E-02        -0.93765E-03         0.00000E+00
    0.18286E-02        -0.89895E-03         0.00000E+00
    0.17742E-02        -0.86055E-03         0.00000E+00
    0.17186E-02        -0.82247E-03         0.00000E+00
    0.16618E-02        -0.78471E-03         0.00000E+00
    0.16039E-02        -0.74730E-03         0.00000E+00
    0.15449E-02        -0.71023E-03         0.00000E+00
    0.14848E-02        -0.67352E-03         0.00000E+00
    0.14237E-02        -0.63718E-03         0.00000E+00
    0.13614E-02        -0.60122E-03         0.00000E+00
    0.12982E-02        -0.56564E-03         0.00000E+00
    0.12339E-02        -0.53046E-03         0.00000E+00
    0.11686E-02        -0.49568E-03         0.00000E+00
    0.11022E-02        -0.46131E-03         0.00000E+00
    0.10349E-02        -0.42736E-03         0.00000E+00
    0.96669E-03        -0.39384E-03         0.00000E+00
    0.89750E-03        -0.36076E-03         0.00000E+00
    0.82737E-03        -0.32811E-03         0.00000E+00
    0.75634E-03        -0.29592E-03         0.00000E+00
    0.68441E-03        -0.26418E-03         0.00000E+00
    0.61161E-03        -0.23291E-03         0.00000E+00
    0.53796E-03        -0.20210E-03         0.00000E+00
    0.46347E-03        -0.17176E-03         0.00000E+00
    0.38816E-03        -0.14191E-03         0.00000E+00
    0.31205E-03        -0.11254E-03         0.00000E+00
    0.23516E-03        -0.83658E-04         0.00000E+00
    0.15751E-03        -0.55272E-04         0.00000E+00
    0.79118E-04        -0.27385E-04         0.00000E+00
    0.00000E+00         0.00000E+00         0.00000E+00
    0.29122E-02        -0.19644E-02         0.00000E+00
    0.28862E-02        -0.19193E-02         0.00000E+00
    0.28586E-02        -0.18742E-02         0.00000E+00
    0.28296E-02        -0.18292E-02         0.00000E+00
    0.27991E-02        -0.17842E-02         0.00000E+00
    0.27670E-02        -0.17393E-02         0.00000E+00
    0.27335E-02        -0.16945E-02         0.00000E+00
    0.26986E-02        -0.16498E-02         0.00000E+00
    0.26621E-02        -0.16051E-02         0.00000E+00
    0.26242E-02        -0.15606E-02         0.00000E+00
    0.25849E-02        -0.15163E-02         0.00000E+00
    0.25442E-02        -0.14721E-02         0.00000E+00
    0.25021E-02        -0.14280E-02         0.00000E+00
    0.24585E-02        -0.13842E-02         0.00000E+00
    0.24136E-02        -0.13405E-02         0.00000E+00
    0.23673E-02        -0.12971E-02         0.00000E+00
    0.23196E-02        -0.12539E-02         0.00000E+00
    0.22706E-02        -0.12109E-02         0.00000E+00
    0.22203E-02        -0.11682E-02         0.00000E+00
    0.21686E-02        -0.11257E-02         0.00000E+00
    0.21156E-02        -0.10835E-02         0.00000E+00
    0.20613E-02        -0.10416E-02         0.00000E+00
    0.20058E-02        -0.10000E-02         0.00000E+00
    0.19490E-02        -0.95876E-03         0.00000E+00
    0.18909E-02        -0.91781E-03         0.00000E+00
    0.18317E-02        -0.87720E-03         0.00000E+00
    0.17712E-02        -0.83694E-03         0.00000E+00
    0.17095E-02        -0.79704E-03         0.00000E+00
    0.16466E-02        -0.75751E-03         0.00000E+00
    0.15826E-02        -0.71837E-03         0.00000E+00
    0.15174E-02        -0.67961E-03         0.00000E+00
    0.14510E-02        -0.64126E-03         0.00000E+00
    0.13836E-02        -0.60332E-03         0.00000E+00
    0.13151E-02        -0.56579E-03         0.00000E+00
    0.12454E-02        -0.52870E-03         0.00000E+00
    0.11748E-02        -0.49205E-03         0.00000E+00
    0.11031E-02        -0.45584E-03         0.00000E+00
    0.10303E-02        -0.42009E-03         0.00000E+00
    0.95656E-03        -0.38481E-03         0.00000E+00
    0.88182E-03        -0.34999E-03         0.00000E+00
    0.80611E-03        -0.31565E-03         0.00000E+00
    0.72945E-03        -0.28180E-03         0.00000E+00
    0.65186E-03        -0.24844E-03         0.00000E+00
    0.57336E-03        -0.21558E-03         0.00000E+00
    0.49397E-03        -0.18322E-03         0.00000E+00
    0.41370E-03        -0.15138E-03         0.00000E+00
    0.33259E-03        -0.12005E-03         0.00000E+00
    0.25064E-03        -0.89243E-04         0.00000E+00
    0.16788E-03        -0.58963E-04         0.00000E+00
    0.84325E-04        -0.29214E-04         0.00000E+00
    0.00000E+00         0.00000E+00         0.00000E+00
    0.31039E-02        -0.20948E-02         0.00000E+00
    0.30762E-02        -0.20467E-02         0.00000E+00
    0.30468E-02        -0.19987E-02         0.00000E+00
    0.30159E-02        -0.19507E-02         0.00000E+00
    0.29833E-02        -0.19027E-02         0.00000E+00
    0.29492E-02        -0.18548E-02         0.00000E+00
    0.29135E-02        -0.18070E-02         0.00000E+00
    0.28762E-02        -0.17593E-02         0.00000E+00
    0.28374E-02        -0.17118E-02         0.00000E+00
    0.27970E-02        -0.16643E-02         0.00000E+00
    0.27551E-02        -0.16170E-02         0.00000E+00
    0.27117E-02        -0.15699E-02         0.00000E+00
    0.26667E-02        -0.15229E-02         0.00000E+00
    0.26203E-02        -0.14761E-02         0.00000E+00
    0.25724E-02        -0.14296E-02         0.00000E+00
    0.25231E-02        -0.13833E-02         0.00000E+00
    0.24723E-02        -0.13372E-02         0.00000E+00
    0.24200E-02        -0.12914E-02         0.00000E+00
    0.23664E-02        -0.12458E-02         0.00000E+00
    0.23113E-02        -0.12005E-02         0.00000E+00
    0.22548E-02        -0.11556E-02         0.00000E+00
    0.21970E-02        -0.11109E-02         0.00000E+00
    0.21378E-02        -0.10665E-02         0.00000E+00
    0.20772E-02        -0.10225E-02         0.00000E+00
    0.20154E-02        -0.97886E-03         0.00000E+00
    0.19522E-02        -0.93555E-03         0.00000E+00
    0.18877E-02        -0.89262E-03         0.00000E+00
    0.18219E-02        -0.85007E-03         0.00000E+00
    0.17549E-02        -0.80792E-03         0.00000E+00
    0.16867E-02        -0.76618E-03         0.00000E+00
    0.16172E-02        -0.72485E-03         0.00000E+00
    0.15465E-02        -0.68395E-03         0.00000E+00
    0.14746E-02        -0.64348E-03         0.00000E+00
    0.14016E-02        -0.60347E-03         0.00000E+00
    0.13274E-02        -0.56391E-03         0.00000E+00
    0.12521E-02        -0.52482E-03         0.00000E+00
    0.11756E-02        -0.48621E-03         0.00000E+00
    0.10981E-02        -0.44808E-03         0.00000E+00
    0.10195E-02        -0.41045E-03         0.00000E+00
    0.93983E-03        -0.37332E-03         0.00000E+00
    0.85914E-03        -0.33669E-03         0.00000E+00
    0.77744E-03        -0.30059E-03         0.00000E+00
    0.69474E-03        -0.26501E-03         0.00000E+00
    0.61108E-03        -0.22996E-03         0.00000E+00
    0.52646E-03        -0.19545E-03         0.00000E+00
    0.44092E-03        -0.16148E-03         0.00000E+00
    0.35447E-03        -0.12806E-03         0.00000E+00
    0.26713E-03        -0.95199E-04         0.00000E+00
    0.17892E-03        -0.62899E-04         0.00000E+00
    0.89872E-04        -0.31164E-04         0.00000E+00
    0.00000E+00         0.00000E+00         0.00000E+00
    0.33082E-02        -0.22338E-02         0.00000E+00
    0.32787E-02        -0.21826E-02         0.00000E+00
    0.32474E-02        -0.21314E-02         0.00000E+00
    0.32144E-02        -0.20802E-02         0.00000E+00
    0.31797E-02        -0.20291E-02         0.00000E+00
    0.31433E-02        -0.19780E-02         0.00000E+00
    0.31052E-02        -0.19270E-02         0.00000E+00
    0.30655E-02        -0.18762E-02         0.00000E+00
    0.30241E-02        -0.18254E-02         0.00000E+00
    0.29810E-02        -0.17748E-02         0.00000E+00
    0.29364E-02        -0.17244E-02         0.00000E+00
    0.28901E-02        -0.16741E-02         0.00000E+00
    0.28422E-02        -0.16241E-02         0.00000E+00
    0.27928E-02        -0.15742E-02         0.00000E+00
    0.27417E-02        -0.15246E-02         0.00000E+00
    0.26891E-02        -0.14752E-02         0.00000E+00
    0.26349E-02        -0.14260E-02         0.00000E+00
    0.25793E-02        -0.13772E-02         0.00000E+00
    0.25221E-02        -0.13286E-02         0.00000E+00
    0.24634E-02        -0.12803E-02         0.00000E+00
    0.24032E-02        -0.12324E-02         0.00000E+00
    0.23415E-02        -0.11847E-02         0.00000E+00
    0.22784E-02        -0.11374E-02         0.00000E+00
    0.22139E-02        -0.10905E-02         0.00000E+00
    0.21479E-02        -0.10439E-02         0.00000E+00
    0.20806E-02        -0.99776E-03         0.00000E+00
    0.20119E-02        -0.95198E-03         0.00000E+00
    0.19418E-02        -0.90661E-03         0.00000E+00
    0.18704E-02        -0.86166E-03         0.00000E+00
    0.17976E-02        -0.81715E-03         0.00000E+00
    0.17236E-02        -0.77307E-03         0.00000E+00
    0.16482E-02        -0.72946E-03         0.00000E+00
    0.15716E-02        -0.68631E-03         0.00000E+00
    0.14938E-02        -0.64364E-03         0.00000E+00
    0.14147E-02        -0.60145E-03         0.00000E+00
    0.13344E-02        -0.55977E-03         0.00000E+00
    0.12529E-02        -0.51859E-03         0.00000E+00
    0.11703E-02        -0.47792E-03         0.00000E+00
    0.10865E-02        -0.43779E-03         0.00000E+00
    0.10016E-02        -0.39819E-03         0.00000E+00
    0.91564E-03        -0.35913E-03         0.00000E+00
    0.82856E-03        -0.32062E-03         0.00000E+00
    0.74043E-03        -0.28267E-03         0.00000E+00
    0.65127E-03        -0.24529E-03         0.00000E+00
    0.56109E-03        -0.20848E-03         0.00000E+00
    0.46992E-03        -0.17225E-03         0.00000E+00
    0.37778E-03        -0.13660E-03         0.00000E+00
    0.28469E-03        -0.10155E-03         0.00000E+00
    0.19069E-03        -0.67095E-04         0.00000E+00
    0.95783E-04        -0.33244E-04         0.00000E+00
    0.00000E+00         0.00000E+00         0.00000E+00
    0.35260E-02        -0.23821E-02         0.00000E+00
    0.34944E-02        -0.23274E-02         0.00000E+00
    0.34611E-02        -0.22728E-02         0.00000E+00
    0.34259E-02        -0.22182E-02         0.00000E+00
    0.33889E-02        -0.21637E-02         0.00000E+00
    0.33501E-02        -0.21093E-02         0.00000E+00
    0.33095E-02        -0.20549E-02         0.00000E+00
    0.32672E-02        -0.20007E-02         0.00000E+00
    0.32231E-02        -0.19466E-02         0.00000E+00
    0.31772E-02        -0.18926E-02         0.00000E+00
    0.31296E-02        -0.18389E-02         0.00000E+00
    0.30803E-02        -0.17853E-02         0.00000E+00
    0.30292E-02        -0.17319E-02         0.00000E+00
    0.29765E-02        -0.16787E-02         0.00000E+00
    0.29221E-02        -0.16258E-02         0.00000E+00
    0.28660E-02        -0.15731E-02         0.00000E+00
    0.28083E-02        -0.15207E-02         0.00000E+00
    0.27489E-02        -0.14686E-02         0.00000E+00
    0.26880E-02        -0.14168E-02         0.00000E+00
    0.26254E-02        -0.13654E-02         0.00000E+00
    0.25612E-02        -0.13142E-02         0.00000E+00
    0.24955E-02        -0.12634E-02         0.00000E+00
    0.24283E-02        -0.12130E-02         0.00000E+00
    0.23595E-02        -0.11630E-02         0.00000E+00
    0.22892E-02        -0.11133E-02         0.00000E+00
    0.22174E-02        -0.10641E-02         0.00000E+00
    0.21442E-02        -0.10153E-02         0.00000E+00
    0.20695E-02        -0.96689E-03         0.00000E+00
    0.19934E-02        -0.91895E-03         0.00000E+00
    0.19158E-02        -0.87148E-03         0.00000E+00
    0.18369E-02        -0.82449E-03         0.00000E+00
    0.17566E-02        -0.77798E-03         0.00000E+00
    0.16750E-02        -0.73196E-03         0.00000E+00
    0.15920E-02        -0.68646E-03         0.00000E+00
    0.15077E-02        -0.64147E-03         0.00000E+00
    0.14221E-02        -0.59702E-03         0.00000E+00
    0.13353E-02        -0.55311E-03         0.00000E+00
    0.12472E-02        -0.50974E-03         0.00000E+00
    0.11580E-02        -0.46694E-03         0.00000E+00
    0.10675E-02        -0.42470E-03         0.00000E+00
    0.97584E-03        -0.38305E-03         0.00000E+00
    0.88304E-03        -0.34198E-03         0.00000E+00
    0.78911E-03        -0.30151E-03         0.00000E+00
    0.69408E-03        -0.26163E-03         0.00000E+00
    0.59797E-03        -0.22237E-03         0.00000E+00
    0.50081E-03        -0.18373E-03         0.00000E+00
    0.40261E-03        -0.14571E-03         0.00000E+00
    0.30341E-03        -0.10832E-03         0.00000E+00
    0.20322E-03        -0.71571E-04         0.00000E+00
    0.10208E-03        -0.35462E-04         0.00000E+00
    0.00000E+00         0.00000E+00         0.00000E+00
    0.37580E-02        -0.25401E-02         0.00000E+00
    0.37244E-02        -0.24818E-02         0.00000E+00
    0.36888E-02        -0.24236E-02         0.00000E+00
    0.36513E-02        -0.23654E-02         0.00000E+00
    0.36119E-02        -0.23072E-02         0.00000E+00
    0.35706E-02        -0.22492E-02         0.00000E+00
    0.35273E-02        -0.21912E-02         0.00000E+00
    0.34822E-02        -0.21334E-02         0.00000E+00
    0.34351E-02        -0.20757E-02         0.00000E+00
    0.33862E-02        -0.20182E-02         0.00000E+00
    0.33355E-02        -0.19609E-02         0.00000E+00
    0.32829E-02        -0.19037E-02         0.00000E+00
    0.32285E-02        -0.18468E-02         0.00000E+00
    0.31723E-02        -0.17901E-02         0.00000E+00
    0.31143E-02        -0.17337E-02         0.00000E+00
    0.30545E-02        -0.16776E-02         0.00000E+00
    0.29930E-02        -0.16217E-02         0.00000E+00
    0.29297E-02        -0.15661E-02         0.00000E+00
    0.28647E-02        -0.15109E-02         0.00000E+00
    0.27980E-02        -0.14560E-02         0.00000E+00
    0.27297E-02        -0.14015E-02         0.00000E+00
    0.26596E-02        -0.13473E-02         0.00000E+00
    0.25880E-02        -0.12936E-02         0.00000E+00
    0.25146E-02        -0.12402E-02         0.00000E+00
    0.24397E-02        -0.11873E-02         0.00000E+00
    0.23632E-02        -0.11348E-02         0.00000E+00
    0.22852E-02        -0.10827E-02         0.00000E+00
    0.22055E-02        -0.10311E-02         0.00000E+00
    0.21244E-02        -0.98003E-03         0.00000E+00
    0.20418E-02        -0.92941E-03         0.00000E+00
    0.19576E-02        -0.87930E-03         0.00000E+00
    0.18721E-02        -0.82970E-03         0.00000E+00
    0.17850E-02        -0.78064E-03         0.00000E+00
    0.16966E-02        -0.73211E-03         0.00000E+00
    0.16068E-02        -0.68414E-03         0.00000E+00
    0.15156E-02        -0.63674E-03         0.00000E+00
    0.14231E-02        -0.58991E-03         0.00000E+00
    0.13292E-02        -0.54366E-03         0.00000E+00
    0.12341E-02        -0.49802E-03         0.00000E+00
    0.11376E-02        -0.45298E-03         0.00000E+00
    0.10400E-02        -0.40855E-03         0.00000E+00
    0.94106E-03        -0.36475E-03         0.00000E+00
    0.84096E-03        -0.32159E-03         0.00000E+00
    0.73969E-03        -0.27906E-03         0.00000E+00
    0.63727E-03        -0.23719E-03         0.00000E+00
    0.53372E-03        -0.19597E-03         0.00000E+00
    0.42907E-03        -0.15542E-03         0.00000E+00
    0.32335E-03        -0.11554E-03         0.00000E+00
    0.21658E-03        -0.76344E-04         0.00000E+00
    0.10879E-03        -0.37827E-04         0.00000E+00
    0.00000E+00         0.00000E+00         0.00000E+00
    0.40053E-02        -0.27085E-02         0.00000E+00
    0.39695E-02        -0.26464E-02         0.00000E+00
    0.39316E-02        -0.25843E-02         0.00000E+00
    0.38916E-02        -0.25222E-02         0.00000E+00
    0.38496E-02        -0.24603E-02         0.00000E+00
    0.38055E-02        -0.23984E-02         0.00000E+00
    0.37594E-02        -0.23366E-02         0.00000E+00
    0.37112E-02        -0.22749E-02         0.00000E+00
    0.36611E-02        -0.22134E-02         0.00000E+00
    0.36090E-02        -0.21521E-02         0.00000E+00
    0.35549E-02        -0.20910E-02         0.00000E+00
    0.34988E-02        -0.20300E-02         0.00000E+00
    0.34408E-02        -0.19693E-02         0.00000E+00
    0.33809E-02        -0.19089E-02         0.00000E+00
    0.33191E-02        -0.18487E-02         0.00000E+00
    0.32554E-02        -0.17889E-02         0.00000E+00
    0.31898E-02        -0.17293E-02         0.00000E+00
    0.31224E-02        -0.16701E-02         0.00000E+00
    0.30531E-02        -0.16112E-02         0.00000E+00
    0.29820E-02        -0.15527E-02         0.00000E+00
    0.29091E-02        -0.14945E-02         0.00000E+00
    0.28345E-02        -0.14368E-02         0.00000E+00
    0.27581E-02        -0.13795E-02         0.00000E+00
    0.26799E-02        -0.13226E-02         0.00000E+00
    0.26001E-02        -0.12661E-02         0.00000E+00
    0.25186E-02        -0.12101E-02         0.00000E+00
    0.24354E-02        -0.11546E-02         0.00000E+00
    0.23505E-02        -0.10996E-02         0.00000E+00
    0.22640E-02        -0.10451E-02         0.00000E+00
    0.21759E-02        -0.99117E-03         0.00000E+00
    0.20863E-02        -0.93773E-03         0.00000E+00
    0.19951E-02        -0.88485E-03         0.00000E+00
    0.19023E-02        -0.83253E-03         0.00000E+00
    0.18081E-02        -0.78079E-03         0.00000E+00
    0.17124E-02        -0.72964E-03         0.00000E+00
    0.16152E-02        -0.67908E-03         0.00000E+00
    0.15166E-02        -0.62915E-03         0.00000E+00
    0.14165E-02        -0.57983E-03         0.00000E+00
    0.13151E-02        -0.53116E-03         0.00000E+00
    0.12124E-02        -0.48312E-03         0.00000E+00
    0.11083E-02        -0.43575E-03         0.00000E+00
    0.10029E-02        -0.38904E-03         0.00000E+00
    0.89620E-03        -0.34300E-03         0.00000E+00
    0.78827E-03        -0.29765E-03         0.00000E+00
    0.67912E-03        -0.25299E-03         0.00000E+00
    0.56877E-03        -0.20903E-03         0.00000E+00
    0.45725E-03        -0.16578E-03         0.00000E+00
    0.34458E-03        -0.12325E-03         0.00000E+00
    0.23080E-03        -0.81434E-04         0.00000E+00
    0.11593E-03        -0.40349E-04         0.00000E+00
    0.00000E+00         0.00000E+00         0.00000E+00
    0.42688E-02        -0.28880E-02         0.00000E+00
    0.42306E-02        -0.28218E-02         0.00000E+00
    0.41902E-02        -0.27556E-02         0.00000E+00
    0.41476E-02        -0.26894E-02         0.00000E+00
    0.41028E-02        -0.26234E-02         0.00000E+00
    0.40558E-02        -0.25574E-02         0.00000E+00
    0.40067E-02        -0.24915E-02         0.00000E+00
    0.39553E-02        -0.24258E-02         0.00000E+00
    0.39019E-02        -0.23602E-02         0.00000E+00
    0.38463E-02        -0.22948E-02         0.00000E+00
    0.37887E-02        -0.22296E-02         0.00000E+00
    0.37289E-02        -0.21647E-02         0.00000E+00
    0.36671E-02        -0.20999E-02         0.00000E+00
    0.36032E-02        -0.20355E-02         0.00000E+00
    0.35373E-02        -0.19714E-02         0.00000E+00
    0.34694E-02        -0.19075E-02         0.00000E+00
    0.33995E-02        -0.18440E-02         0.00000E+00
    0.33276E-02        -0.17809E-02         0.00000E+00
    0.32538E-02        -0.17181E-02         0.00000E+00
    0.31780E-02        -0.16557E-02         0.00000E+00
    0.31004E-02        -0.15937E-02         0.00000E+00
    0.30208E-02        -0.15321E-02         0.00000E+00
    0.29393E-02        -0.14710E-02         0.00000E+00
    0.28561E-02        -0.14104E-02         0.00000E+00
    0.27710E-02        -0.13502E-02         0.00000E+00
    0.26840E-02        -0.12905E-02         0.00000E+00
    0.25954E-02        -0.12313E-02         0.00000E+00
    0.25049E-02        -0.11727E-02         0.00000E+00
    0.24128E-02        -0.11146E-02         0.00000E+00
    0.23189E-02        -0.10570E-02         0.00000E+00
    0.22233E-02        -0.10000E-02         0.00000E+00
    0.21261E-02        -0.94364E-03         0.00000E+00
    0.20273E-02        -0.88786E-03         0.00000E+00
    0.19268E-02        -0.83268E-03         0.00000E+00
    0.18248E-02        -0.77814E-03         0.00000E+00
    0.17212E-02        -0.72424E-03         0.00000E+00
    0.16161E-02        -0.67098E-03         0.00000E+00
    0.15095E-02        -0.61840E-03         0.00000E+00
    0.14015E-02        -0.56649E-03         0.00000E+00
    0.12920E-02        -0.51527E-03         0.00000E+00
    0.11810E-02        -0.46475E-03         0.00000E+00
    0.10687E-02        -0.41493E-03         0.00000E+00
    0.95503E-03        -0.36584E-03         0.00000E+00
    0.84002E-03        -0.31747E-03         0.00000E+00
    0.72370E-03        -0.26984E-03         0.00000E+00
    0.60611E-03        -0.22296E-03         0.00000E+00
    0.48726E-03        -0.17683E-03         0.00000E+00
    0.36720E-03        -0.13146E-03         0.00000E+00
    0.24595E-03        -0.86862E-04         0.00000E+00
    0.12354E-03        -0.43040E-04         0.00000E+00
    0.00000E+00         0.00000E+00         0.00000E+00
    0.45497E-02        -0.30794E-02         0.00000E+00
    0.45089E-02        -0.30088E-02         0.00000E+00
    0.44659E-02        -0.29382E-02         0.00000E+00
    0.44205E-02        -0.28677E-02         0.00000E+00
    0.43727E-02        -0.27972E-02         0.00000E+00
    0.43226E-02        -0.27269E-02         0.00000E+00
    0.42702E-02        -0.26566E-02         0.00000E+00
    0.42155E-02        -0.25865E-02         0.00000E+00
    0.41585E-02        -0.25166E-02         0.00000E+00
    0.40993E-02        -0.24469E-02         0.00000E+00
    0.40378E-02        -0.23774E-02         0.00000E+00
    0.39741E-02        -0.23082E-02         0.00000E+00
    0.39082E-02        -0.22392E-02         0.00000E+00
    0.38401E-02        -0.21705E-02         0.00000E+00
    0.37699E-02        -0.21021E-02         0.00000E+00
    0.36975E-02        -0.20340E-02         0.00000E+00
    0.36230E-02        -0.19663E-02         0.00000E+00
    0.35463E-02        -0.18990E-02         0.00000E+00
    0.34676E-02        -0.18320E-02         0.00000E+00
    0.33869E-02        -0.17655E-02         0.00000E+00
    0.33041E-02        -0.16994E-02         0.00000E+00
    0.32193E-02        -0.16338E-02         0.00000E+00
    0.31325E-02        -0.15686E-02         0.00000E+00
    0.30437E-02        -0.15039E-02         0.00000E+00
    0.29530E-02        -0.14398E-02         0.00000E+00
    0.28603E-02        -0.13761E-02         0.00000E+00
    0.27658E-02        -0.13131E-02         0.00000E+00
    0.26694E-02        -0.12505E-02         0.00000E+00
    0.25712E-02        -0.11886E-02         0.00000E+00
    0.24711E-02        -0.11272E-02         0.00000E+00
    0.23693E-02        -0.10665E-02         0.00000E+00
    0.22657E-02        -0.10063E-02         0.00000E+00
    0.21604E-02        -0.94685E-03         0.00000E+00
    0.20533E-02        -0.88802E-03         0.00000E+00
    0.19446E-02        -0.82986E-03         0.00000E+00
    0.18342E-02        -0.77238E-03         0.00000E+00
    0.17222E-02        -0.71560E-03         0.00000E+00
    0.16086E-02        -0.65952E-03         0.00000E+00
    0.14934E-02        -0.60417E-03         0.00000E+00
    0.13767E-02        -0.54955E-03         0.00000E+00
    0.12585E-02        -0.49567E-03         0.00000E+00
    0.11388E-02        -0.44255E-03         0.00000E+00
    0.10177E-02        -0.39019E-03         0.00000E+00
    0.89513E-03        -0.33861E-03         0.00000E+00
    0.77118E-03        -0.28781E-03         0.00000E+00
    0.64586E-03        -0.23781E-03         0.00000E+00
    0.51922E-03        -0.18861E-03         0.00000E+00
    0.39129E-03        -0.14022E-03         0.00000E+00
    0.26208E-03        -0.92653E-04         0.00000E+00
    0.13164E-03        -0.45910E-04         0.00000E+00
    0.00000E+00         0.00000E+00         0.00000E+00
    0.48490E-02        -0.32834E-02         0.00000E+00
    0.48056E-02        -0.32081E-02         0.00000E+00
    0.47597E-02        -0.31329E-02         0.00000E+00
    0.47112E-02        -0.30577E-02         0.00000E+00
    0.46603E-02        -0.29826E-02         0.00000E+00
    0.46069E-02        -0.29075E-02         0.00000E+00
    0.45510E-02        -0.28327E-02         0.00000E+00
    0.44927E-02        -0.27579E-02         0.00000E+00
    0.44320E-02        -0.26834E-02         0.00000E+00
    0.43689E-02        -0.26091E-02         0.00000E+00
    0.43033E-02        -0.25350E-02         0.00000E+00
    0.42354E-02        -0.24611E-02         0.00000E+00
    0.41652E-02        -0.23876E-02         0.00000E+00
    0.40926E-02        -0.23143E-02         0.00000E+00
    0.40177E-02        -0.22414E-02         0.00000E+00
    0.39405E-02        -0.21689E-02         0.00000E+00
    0.38611E-02        -0.20967E-02         0.00000E+00
    0.37794E-02        -0.20249E-02         0.00000E+00
    0.36955E-02        -0.19535E-02         0.00000E+00
    0.36094E-02        -0.18826E-02         0.00000E+00
    0.35211E-02        -0.18121E-02         0.00000E+00
    0.34307E-02        -0.17422E-02         0.00000E+00
    0.33382E-02        -0.16727E-02         0.00000E+00
    0.32436E-02        -0.16037E-02         0.00000E+00
    0.31469E-02        -0.15353E-02         0.00000E+00
    0.30481E-02        -0.14675E-02         0.00000E+00
    0.29474E-02        -0.14002E-02         0.00000E+00
    0.28446E-02        -0.13335E-02         0.00000E+00
    0.27399E-02        -0.12675E-02         0.00000E+00
    0.26333E-02        -0.12021E-02         0.00000E+00
    0.25248E-02        -0.11373E-02         0.00000E+00
    0.24144E-02        -0.10732E-02         0.00000E+00
    0.23021E-02        -0.10097E-02         0.00000E+00
    0.21880E-02        -0.94702E-03         0.00000E+00
    0.20721E-02        -0.88501E-03         0.00000E+00
    0.19545E-02        -0.82372E-03         0.00000E+00
    0.18352E-02        -0.76317E-03         0.00000E+00
    0.17141E-02        -0.70338E-03         0.00000E+00
    0.15914E-02        -0.64435E-03         0.00000E+00
    0.14670E-02        -0.58611E-03         0.00000E+00
    0.13410E-02        -0.52866E-03         0.00000E+00
    0.12135E-02        -0.47200E-03         0.00000E+00
    0.10844E-02        -0.41617E-03         0.00000E+00
    0.95381E-03        -0.36116E-03         0.00000E+00
    0.82173E-03        -0.30698E-03         0.00000E+00
    0.68820E-03        -0.25366E-03         0.00000E+00
    0.55326E-03        -0.20118E-03         0.00000E+00
    0.41693E-03        -0.14957E-03         0.00000E+00
    0.27926E-03        -0.98832E-04         0.00000E+00
    0.14027E-03        -0.48972E-04         0.00000E+00
    0.00000E+00         0.00000E+00         0.00000E+00
    0.51680E-02        -0.35009E-02         0.00000E+00
    0.51218E-02        -0.34207E-02         0.00000E+00
    0.50728E-02        -0.33404E-02         0.00000E+00
    0.50212E-02        -0.32603E-02         0.00000E+00
    0.49669E-02        -0.31802E-02         0.00000E+00
    0.49099E-02        -0.31002E-02         0.00000E+00
    0.48504E-02        -0.30203E-02         0.00000E+00
    0.47882E-02        -0.29407E-02         0.00000E+00
    0.47234E-02        -0.28612E-02         0.00000E+00
    0.46561E-02        -0.27820E-02         0.00000E+00
    0.45862E-02        -0.27030E-02         0.00000E+00
    0.45138E-02        -0.26242E-02         0.00000E+00
    0.44389E-02        -0.25458E-02         0.00000E+00
    0.43615E-02        -0.24677E-02         0.00000E+00
    0.42817E-02        -0.23900E-02         0.00000E+00
    0.41994E-02        -0.23126E-02         0.00000E+00
    0.41147E-02        -0.22357E-02         0.00000E+00
    0.40276E-02        -0.21591E-02         0.00000E+00
    0.39382E-02        -0.20831E-02         0.00000E+00
    0.38464E-02        -0.20074E-02         0.00000E+00
    0.37523E-02        -0.19323E-02         0.00000E+00
    0.36560E-02        -0.18577E-02         0.00000E+00
    0.35573E-02        -0.17836E-02         0.00000E+00
    0.34565E-02        -0.17101E-02         0.00000E+00
    0.33534E-02        -0.16372E-02         0.00000E+00
    0.32482E-02        -0.15648E-02         0.00000E+00
    0.31408E-02        -0.14931E-02         0.00000E+00
    0.30313E-02        -0.14220E-02         0.00000E+00
    0.29197E-02        -0.13516E-02         0.00000E+00
    0.28060E-02        -0.12819E-02         0.00000E+00
    0.26904E-02        -0.12128E-02         0.00000E+00
    0.25727E-02        -0.11445E-02         0.00000E+00
    0.24530E-02        -0.10768E-02         0.00000E+00
    0.23315E-02        -0.10100E-02         0.00000E+00
    0.22080E-02        -0.94383E-03         0.00000E+00
    0.20826E-02        -0.87848E-03         0.00000E+00
    0.19554E-02        -0.81392E-03         0.00000E+00
    0.18264E-02        -0.75016E-03         0.00000E+00
    0.16956E-02        -0.68722E-03         0.00000E+00
    0.15631E-02        -0.62511E-03         0.00000E+00
    0.14289E-02        -0.56384E-03         0.00000E+00
    0.12930E-02        -0.50343E-03         0.00000E+00
    0.11554E-02        -0.44389E-03         0.00000E+00
    0.10163E-02        -0.38522E-03         0.00000E+00
    0.87554E-03        -0.32744E-03         0.00000E+00
    0.73327E-03        -0.27056E-03         0.00000E+00
    0.58949E-03        -0.21460E-03         0.00000E+00
    0.44423E-03        -0.15955E-03         0.00000E+00
    0.29754E-03        -0.10543E-03         0.00000E+00
    0.14946E-03        -0.52241E-04         0.00000E+00
    0.00000E+00         0.00000E+00         0.00000E+00
    0.55081E-02        -0.37328E-02         0.00000E+00
    0.54588E-02        -0.36473E-02         0.00000E+00
    0.54066E-02        -0.35617E-02         0.00000E+00
    0.53515E-02        -0.34762E-02         0.00000E+00
    0.52936E-02        -0.33908E-02         0.00000E+00
    0.52329E-02        -0.33056E-02         0.00000E+00
    0.51694E-02        -0.32204E-02         0.00000E+00
    0.51031E-02        -0.31355E-02         0.00000E+00
    0.50340E-02        -0.30508E-02         0.00000E+00
    0.49622E-02        -0.29663E-02         0.00000E+00
    0.48877E-02        -0.28821E-02         0.00000E+00
    0.48105E-02        -0.27982E-02         0.00000E+00
    0.47307E-02        -0.27145E-02         0.00000E+00
    0.46481E-02        -0.26313E-02         0.00000E+00
    0.45630E-02        -0.25484E-02         0.00000E+00
    0.44753E-02        -0.24659E-02         0.00000E+00
    0.43850E-02        -0.23839E-02         0.00000E+00
    0.42921E-02        -0.23023E-02         0.00000E+00
    0.41968E-02        -0.22212E-02         0.00000E+00
    0.40989E-02        -0.21406E-02         0.00000E+00
    0.39986E-02        -0.20605E-02         0.00000E+00
    0.38959E-02        -0.19809E-02         0.00000E+00
    0.37908E-02        -0.19020E-02         0.00000E+00
    0.36832E-02        -0.18236E-02         0.00000E+00
    0.35734E-02        -0.17458E-02         0.00000E+00
    0.34612E-02        -0.16687E-02         0.00000E+00
    0.33467E-02        -0.15922E-02         0.00000E+00
    0.32300E-02        -0.15165E-02         0.00000E+00
    0.31111E-02        -0.14414E-02         0.00000E+00
    0.29900E-02        -0.13670E-02         0.00000E+00
    0.28667E-02        -0.12934E-02         0.00000E+00
    0.27413E-02        -0.12205E-02         0.00000E+00
    0.26138E-02        -0.11484E-02         0.00000E+00
    0.24842E-02        -0.10771E-02         0.00000E+00
    0.23526E-02        -0.10066E-02         0.00000E+00
    0.22190E-02        -0.93691E-03         0.00000E+00
    0.20835E-02        -0.86806E-03         0.00000E+00
    0.19460E-02        -0.80008E-03         0.00000E+00
    0.18067E-02        -0.73296E-03         0.00000E+00
    0.16654E-02        -0.66673E-03         0.00000E+00
    0.15224E-02        -0.60139E-03         0.00000E+00
    0.13776E-02        -0.53697E-03         0.00000E+00
    0.12310E-02        -0.47346E-03         0.00000E+00
    0.10828E-02        -0.41090E-03         0.00000E+00
    0.93282E-03        -0.34927E-03         0.00000E+00
    0.78123E-03        -0.28861E-03         0.00000E+00
    0.62804E-03        -0.22891E-03         0.00000E+00
    0.47329E-03        -0.17020E-03         0.00000E+00
    0.31701E-03        -0.11247E-03         0.00000E+00
    0.15923E-03        -0.55730E-04         0.00000E+00
    0.00000E+00         0.00000E+00         0.00000E+00
    0.58706E-02        -0.39801E-02         0.00000E+00
    0.58180E-02        -0.38889E-02         0.00000E+00
    0.57623E-02        -0.37977E-02         0.00000E+00
    0.57036E-02        -0.37065E-02         0.00000E+00
    0.56419E-02        -0.36155E-02         0.00000E+00
    0.55771E-02        -0.35246E-02         0.00000E+00
    0.55094E-02        -0.34338E-02         0.00000E+00
    0.54387E-02        -0.33433E-02         0.00000E+00
    0.53650E-02        -0.32530E-02         0.00000E+00
    0.52885E-02        -0.31629E-02         0.00000E+00
    0.52090E-02        -0.30731E-02         0.00000E+00
    0.51267E-02        -0.29836E-02         0.00000E+00
    0.50415E-02        -0.28945E-02         0.00000E+00
    0.49535E-02        -0.28057E-02         0.00000E+00
    0.48627E-02        -0.27174E-02         0.00000E+00
    0.47692E-02        -0.26294E-02         0.00000E+00
    0.46729E-02        -0.25420E-02         0.00000E+00
    0.45739E-02        -0.24550E-02         0.00000E+00
    0.44723E-02        -0.23685E-02         0.00000E+00
    0.43679E-02        -0.22825E-02         0.00000E+00
    0.42610E-02        -0.21972E-02         0.00000E+00
    0.41515E-02        -0.21124E-02         0.00000E+00
    0.40394E-02        -0.20282E-02         0.00000E+00
    0.39248E-02        -0.19446E-02         0.00000E+00
    0.38076E-02        -0.18617E-02         0.00000E+00
    0.36881E-02        -0.17795E-02         0.00000E+00
    0.35661E-02        -0.16980E-02         0.00000E+00
    0.34417E-02        -0.16172E-02         0.00000E+00
    0.33149E-02        -0.15371E-02         0.00000E+00
    0.31858E-02        -0.14578E-02         0.00000E+00
    0.30544E-02        -0.13793E-02         0.00000E+00
    0.29207E-02        -0.13016E-02         0.00000E+00
    0.27848E-02        -0.12248E-02         0.00000E+00
    0.26468E-02        -0.11487E-02         0.00000E+00
    0.25065E-02        -0.10736E-02         0.00000E+00
    0.23642E-02        -0.99926E-03         0.00000E+00
    0.22198E-02        -0.92585E-03         0.00000E+00
    0.20733E-02        -0.85336E-03         0.00000E+00
    0.19248E-02        -0.78179E-03         0.00000E+00
    0.17743E-02        -0.71116E-03         0.00000E+00
    0.16219E-02        -0.64148E-03         0.00000E+00
    0.14676E-02        -0.57277E-03         0.00000E+00
    0.13115E-02        -0.50505E-03         0.00000E+00
    0.11535E-02        -0.43831E-03         0.00000E+00
    0.99377E-03        -0.37259E-03         0.00000E+00
    0.83228E-03        -0.30788E-03         0.00000E+00
    0.66907E-03        -0.24421E-03         0.00000E+00
    0.50421E-03        -0.18157E-03         0.00000E+00
    0.33771E-03        -0.11998E-03         0.00000E+00
    0.16963E-03        -0.59458E-04         0.00000E+00
    0.00000E+00         0.00000E+00         0.00000E+00
    0.62571E-02        -0.42439E-02         0.00000E+00
    0.62010E-02        -0.41466E-02         0.00000E+00
    0.61416E-02        -0.40494E-02         0.00000E+00
    0.60789E-02        -0.39522E-02         0.00000E+00
    0.60131E-02        -0.38551E-02         0.00000E+00
    0.59440E-02        -0.37582E-02         0.00000E+00
    0.58718E-02        -0.36614E-02         0.00000E+00
    0.57963E-02        -0.35649E-02         0.00000E+00
    0.57178E-02        -0.34686E-02         0.00000E+00
    0.56361E-02        -0.33726E-02         0.00000E+00
    0.55514E-02        -0.32768E-02         0.00000E+00
    0.54636E-02        -0.31814E-02         0.00000E+00
    0.53727E-02        -0.30864E-02         0.00000E+00
    0.52789E-02        -0.29918E-02         0.00000E+00
    0.51821E-02        -0.28976E-02         0.00000E+00
    0.50823E-02        -0.28038E-02         0.00000E+00
    0.49796E-02        -0.27106E-02         0.00000E+00
    0.48741E-02        -0.26178E-02         0.00000E+00
    0.47657E-02        -0.25257E-02         0.00000E+00
    0.46544E-02        -0.24340E-02         0.00000E+00
    0.45404E-02        -0.23430E-02         0.00000E+00
    0.44236E-02        -0.22526E-02         0.00000E+00
    0.43041E-02        -0.21628E-02         0.00000E+00
    0.41819E-02        -0.20738E-02         0.00000E+00
    0.40571E-02        -0.19854E-02         0.00000E+00
    0.39296E-02        -0.18977E-02         0.00000E+00
    0.37996E-02        -0.18108E-02         0.00000E+00
    0.36670E-02        -0.17247E-02         0.00000E+00
    0.35318E-02        -0.16393E-02         0.00000E+00
    0.33942E-02        -0.15548E-02         0.00000E+00
    0.32542E-02        -0.14711E-02         0.00000E+00
    0.31118E-02        -0.13882E-02         0.00000E+00
    0.29669E-02        -0.13063E-02         0.00000E+00
    0.28198E-02        -0.12252E-02         0.00000E+00
    0.26704E-02        -0.11451E-02         0.00000E+00
    0.25187E-02        -0.10658E-02         0.00000E+00
    0.23648E-02        -0.98755E-03         0.00000E+00
    0.22087E-02        -0.91025E-03         0.00000E+00
    0.20505E-02        -0.83392E-03         0.00000E+00
    0.18902E-02        -0.75860E-03         0.00000E+00
    0.17278E-02        -0.68429E-03         0.00000E+00
    0.15635E-02        -0.61101E-03         0.00000E+00
    0.13971E-02        -0.53878E-03         0.00000E+00
    0.12288E-02        -0.46760E-03         0.00000E+00
    0.10586E-02        -0.39750E-03         0.00000E+00
    0.88657E-03        -0.32848E-03         0.00000E+00
    0.71272E-03        -0.26055E-03         0.00000E+00
    0.53709E-03        -0.19373E-03         0.00000E+00
    0.35974E-03        -0.12802E-03         0.00000E+00
    0.18069E-03        -0.63442E-04         0.00000E+00
    0.00000E+00         0.00000E+00         0.00000E+00
    0.66691E-02        -0.45252E-02         0.00000E+00
    0.66093E-02        -0.44215E-02         0.00000E+00
    0.65459E-02        -0.43178E-02         0.00000E+00
    0.64791E-02        -0.42142E-02         0.00000E+00
    0.64088E-02        -0.41107E-02         0.00000E+00
    0.63351E-02        -0.40074E-02         0.00000E+00
    0.62580E-02        -0.39043E-02         0.00000E+00
    0.61776E-02        -0.38013E-02         0.00000E+00
    0.60937E-02        -0.36987E-02         0.00000E+00
    0.60066E-02        -0.35963E-02         0.00000E+00
    0.59162E-02        -0.34942E-02         0.00000E+00
    0.58225E-02        -0.33925E-02         0.00000E+00
    0.57256E-02        -0.32912E-02         0.00000E+00
    0.56255E-02        -0.31903E-02         0.00000E+00
    0.55223E-02        -0.30899E-02         0.00000E+00
    0.54159E-02        -0.29900E-02         0.00000E+00
    0.53064E-02        -0.28905E-02         0.00000E+00
    0.51938E-02        -0.27917E-02         0.00000E+00
    0.50782E-02        -0.26934E-02         0.00000E+00
    0.49596E-02        -0.25957E-02         0.00000E+00
    0.48380E-02        -0.24987E-02         0.00000E+00
    0.47135E-02        -0.24023E-02         0.00000E+00
    0.45860E-02        -0.23066E-02         0.00000E+00
    0.44558E-02        -0.22116E-02         0.00000E+00
    0.43227E-02        -0.21174E-02         0.00000E+00
    0.41868E-02        -0.20239E-02         0.00000E+00
    0.40481E-02        -0.19313E-02         0.00000E+00
    0.39068E-02        -0.18394E-02         0.00000E+00
    0.37628E-02        -0.17484E-02         0.00000E+00
    0.36161E-02        -0.16583E-02         0.00000E+00
    0.34669E-02        -0.15691E-02         0.00000E+00
    0.33150E-02        -0.14807E-02         0.00000E+00
    0.31607E-02        -0.13933E-02         0.00000E+00
    0.30039E-02        -0.13069E-02         0.00000E+00
    0.28447E-02        -0.12214E-02         0.00000E+00
    0.26831E-02        -0.11369E-02         0.00000E+00
    0.25191E-02        -0.10535E-02         0.00000E+00
    0.23528E-02        -0.97103E-03         0.00000E+00
    0.21842E-02        -0.88964E-03         0.00000E+00
    0.20134E-02        -0.80930E-03         0.00000E+00
    0.18405E-02        -0.73005E-03         0.00000E+00
    0.16654E-02        -0.65189E-03         0.00000E+00
    0.14881E-02        -0.57484E-03         0.00000E+00
    0.13089E-02        -0.49892E-03         0.00000E+00
    0.11276E-02        -0.42413E-03         0.00000E+00
    0.94432E-03        -0.35049E-03         0.00000E+00
    0.75913E-03        -0.27802E-03         0.00000E+00
    0.57206E-03        -0.20672E-03         0.00000E+00
    0.38316E-03        -0.13661E-03         0.00000E+00
    0.19245E-03        -0.67703E-04         0.00000E+00
    0.00000E+00         0.00000E+00         0.00000E+00
    0.71085E-02        -0.48255E-02         0.00000E+00
    0.70446E-02        -0.47149E-02         0.00000E+00
    0.69770E-02        -0.46043E-02         0.00000E+00
    0.69057E-02        -0.44939E-02         0.00000E+00
    0.68307E-02        -0.43836E-02         0.00000E+00
    0.67520E-02        -0.42734E-02         0.00000E+00
    0.66697E-02        -0.41634E-02         0.00000E+00
    0.65839E-02        -0.40537E-02         0.00000E+00
    0.64944E-02        -0.39442E-02         0.00000E+00
    0.64015E-02        -0.38351E-02         0.00000E+00
    0.63050E-02        -0.37262E-02         0.00000E+00
    0.62050E-02        -0.36178E-02         0.00000E+00
    0.61016E-02        -0.35098E-02         0.00000E+00
    0.59949E-02        -0.34023E-02         0.00000E+00
    0.58847E-02        -0.32952E-02         0.00000E+00
    0.57712E-02        -0.31887E-02         0.00000E+00
    0.56544E-02        -0.30827E-02         0.00000E+00
    0.55343E-02        -0.29773E-02         0.00000E+00
    0.54110E-02        -0.28725E-02         0.00000E+00
    0.52845E-02        -0.27683E-02         0.00000E+00
    0.51548E-02        -0.26649E-02         0.00000E+00
    0.50220E-02        -0.25621E-02         0.00000E+00
    0.48862E-02        -0.24601E-02         0.00000E+00
    0.47473E-02        -0.23588E-02         0.00000E+00
    0.46053E-02        -0.22584E-02         0.00000E+00
    0.44605E-02        -0.21588E-02         0.00000E+00
    0.43127E-02        -0.20600E-02         0.00000E+00
    0.41620E-02        -0.19620E-02         0.00000E+00
    0.40085E-02        -0.18650E-02         0.00000E+00
    0.38522E-02        -0.17689E-02         0.00000E+00
    0.36931E-02        -0.16738E-02         0.00000E+00
    0.35313E-02        -0.15796E-02         0.00000E+00
    0.33669E-02        -0.14864E-02         0.00000E+00
    0.31998E-02        -0.13942E-02         0.00000E+00
    0.30301E-02        -0.13031E-02         0.00000E+00
    0.28579E-02        -0.12130E-02         0.00000E+00
    0.26832E-02        -0.11240E-02         0.00000E+00
    0.25060E-02        -0.10360E-02         0.00000E+00
    0.23264E-02        -0.94921E-03         0.00000E+00
    0.21445E-02        -0.86353E-03         0.00000E+00
    0.19602E-02        -0.77899E-03         0.00000E+00
    0.17737E-02        -0.69561E-03         0.00000E+00
    0.15849E-02        -0.61342E-03         0.00000E+00
    0.13940E-02        -0.53242E-03         0.00000E+00
    0.12009E-02        -0.45262E-03         0.00000E+00
    0.10057E-02        -0.37406E-03         0.00000E+00
    0.80847E-03        -0.29672E-03         0.00000E+00
    0.60923E-03        -0.22064E-03         0.00000E+00
    0.40805E-03        -0.14582E-03         0.00000E+00
    0.20495E-03        -0.72266E-04         0.00000E+00
    0.00000E+00         0.00000E+00         0.00000E+00
    0.75771E-02        -0.51460E-02         0.00000E+00
    0.75089E-02        -0.50281E-02         0.00000E+00
    0.74367E-02        -0.49102E-02         0.00000E+00
    0.73605E-02        -0.47925E-02         0.00000E+00
    0.72804E-02        -0.46748E-02         0.00000E+00
    0.71965E-02        -0.45574E-02         0.00000E+00
    0.71086E-02        -0.44401E-02         0.00000E+00
    0.70169E-02        -0.43231E-02         0.00000E+00
    0.69215E-02        -0.42064E-02         0.00000E+00
    0.68222E-02        -0.40900E-02         0.00000E+00
    0.67192E-02        -0.39740E-02         0.00000E+00
    0.66126E-02        -0.38584E-02         0.00000E+00
    0.65022E-02        -0.37433E-02         0.00000E+00
    0.63883E-02        -0.36286E-02         0.00000E+00
    0.62707E-02        -0.35145E-02         0.00000E+00
    0.61496E-02        -0.34009E-02         0.00000E+00
    0.60250E-02        -0.32879E-02         0.00000E+00
    0.58969E-02        -0.31755E-02         0.00000E+00
    0.57653E-02        -0.30638E-02         0.00000E+00
    0.56304E-02        -0.29528E-02         0.00000E+00
    0.54921E-02        -0.28425E-02         0.00000E+00
    0.53505E-02        -0.27329E-02         0.00000E+00
    0.52056E-02        -0.26242E-02         0.00000E+00
    0.50575E-02        -0.25162E-02         0.00000E+00
    0.49062E-02        -0.24091E-02         0.00000E+00
    0.47517E-02        -0.23029E-02         0.00000E+00
    0.45942E-02        -0.21975E-02         0.00000E+00
    0.44335E-02        -0.20931E-02         0.00000E+00
    0.42699E-02        -0.19897E-02         0.00000E+00
    0.41033E-02        -0.18872E-02         0.00000E+00
    0.39337E-02        -0.17857E-02         0.00000E+00
    0.37613E-02        -0.16853E-02         0.00000E+00
    0.35861E-02        -0.15859E-02         0.00000E+00
    0.34080E-02        -0.14876E-02         0.00000E+00
    0.32272E-02        -0.13904E-02         0.00000E+00
    0.30438E-02        -0.12943E-02         0.00000E+00
    0.28576E-02        -0.11994E-02         0.00000E+00
    0.26689E-02        -0.11056E-02         0.00000E+00
    0.24776E-02        -0.10130E-02         0.00000E+00
    0.22838E-02        -0.92157E-03         0.00000E+00
    0.20875E-02        -0.83138E-03         0.00000E+00
    0.18888E-02        -0.74243E-03         0.00000E+00
    0.16878E-02        -0.65473E-03         0.00000E+00
    0.14844E-02        -0.56830E-03         0.00000E+00
    0.12788E-02        -0.48315E-03         0.00000E+00
    0.10709E-02        -0.39930E-03         0.00000E+00
    0.86088E-03        -0.31676E-03         0.00000E+00
    0.64873E-03        -0.23555E-03         0.00000E+00
    0.43449E-03        -0.15568E-03         0.00000E+00
    0.21824E-03        -0.77157E-04         0.00000E+00
    0.00000E+00         0.00000E+00         0.00000E+00
    0.80769E-02        -0.54883E-02         0.00000E+00
    0.80040E-02        -0.53626E-02         0.00000E+00
    0.79269E-02        -0.52370E-02         0.00000E+00
    0.78455E-02        -0.51114E-02         0.00000E+00
    0.77600E-02        -0.49860E-02         0.00000E+00
    0.76703E-02        -0.48607E-02         0.00000E+00
    0.75764E-02        -0.47357E-02         0.00000E+00
    0.74785E-02        -0.46110E-02         0.00000E+00
    0.73766E-02        -0.44866E-02         0.00000E+00
    0.72706E-02        -0.43625E-02         0.00000E+00
    0.71606E-02        -0.42388E-02         0.00000E+00
    0.70468E-02        -0.41156E-02         0.00000E+00
    0.69290E-02        -0.39928E-02         0.00000E+00
    0.68073E-02        -0.38705E-02         0.00000E+00
    0.66818E-02        -0.37488E-02         0.00000E+00
    0.65526E-02        -0.36277E-02         0.00000E+00
    0.64196E-02        -0.35073E-02         0.00000E+00
    0.62829E-02        -0.33875E-02         0.00000E+00
    0.61426E-02        -0.32683E-02         0.00000E+00
    0.59986E-02        -0.31500E-02         0.00000E+00
    0.58511E-02        -0.30324E-02         0.00000E+00
    0.57000E-02        -0.29156E-02         0.00000E+00
    0.55455E-02        -0.27996E-02         0.00000E+00
    0.53875E-02        -0.26845E-02         0.00000E+00
    0.52262E-02        -0.25703E-02         0.00000E+00
    0.50615E-02        -0.24570E-02         0.00000E+00
    0.48935E-02        -0.23447E-02         0.00000E+00
    0.47223E-02        -0.22334E-02         0.00000E+00
    0.45479E-02        -0.21231E-02         0.00000E+00
    0.43703E-02        -0.20138E-02         0.00000E+00
    0.41896E-02        -0.19056E-02         0.00000E+00
    0.40059E-02        -0.17985E-02         0.00000E+00
    0.38191E-02        -0.16925E-02         0.00000E+00
    0.36294E-02        -0.15876E-02         0.00000E+00
    0.34368E-02        -0.14839E-02         0.00000E+00
    0.32413E-02        -0.13814E-02         0.00000E+00
    0.30430E-02        -0.12802E-02         0.00000E+00
    0.28419E-02        -0.11801E-02         0.00000E+00
    0.26382E-02        -0.10813E-02         0.00000E+00
    0.24318E-02        -0.98377E-03         0.00000E+00
    0.22227E-02        -0.88754E-03         0.00000E+00
    0.20111E-02        -0.79262E-03         0.00000E+00
    0.17970E-02        -0.69902E-03         0.00000E+00
    0.15805E-02        -0.60677E-03         0.00000E+00
    0.13615E-02        -0.51588E-03         0.00000E+00
    0.11402E-02        -0.42637E-03         0.00000E+00
    0.91654E-03        -0.33826E-03         0.00000E+00
    0.69066E-03        -0.25155E-03         0.00000E+00
    0.46257E-03        -0.16626E-03         0.00000E+00
    0.23234E-03        -0.82407E-04         0.00000E+00
    0.00000E+00         0.00000E+00         0.00000E+00
    0.86100E-02        -0.58542E-02         0.00000E+00
    0.85321E-02        -0.57202E-02         0.00000E+00
    0.84496E-02        -0.55862E-02         0.00000E+00
    0.83627E-02        -0.54523E-02         0.00000E+00
    0.82712E-02        -0.53186E-02         0.00000E+00
    0.81754E-02        -0.51851E-02         0.00000E+00
    0.80751E-02        -0.50518E-02         0.00000E+00
    0.79705E-02        -0.49188E-02         0.00000E+00
    0.78616E-02        -0.47861E-02         0.00000E+00
    0.77484E-02        -0.46538E-02         0.00000E+00
    0.76309E-02        -0.45219E-02         0.00000E+00
    0.75093E-02        -0.43905E-02         0.00000E+00
    0.73835E-02        -0.42596E-02         0.00000E+00
    0.72536E-02        -0.41293E-02         0.00000E+00
    0.71196E-02        -0.39995E-02         0.00000E+00
    0.69817E-02        -0.38704E-02         0.00000E+00
    0.68397E-02        -0.37420E-02         0.00000E+00
    0.66938E-02        -0.36142E-02         0.00000E+00
    0.65440E-02        -0.34872E-02         0.00000E+00
    0.63904E-02        -0.33610E-02         0.00000E+00
    0.62330E-02        -0.32356E-02         0.00000E+00
    0.60719E-02        -0.31111E-02         0.00000E+00
    0.59071E-02        -0.29874E-02         0.00000E+00
    0.57386E-02        -0.28647E-02         0.00000E+00
    0.55665E-02        -0.27429E-02         0.00000E+00
    0.53909E-02        -0.26221E-02         0.00000E+00
    0.52118E-02        -0.25023E-02         0.00000E+00
    0.50293E-02        -0.23836E-02         0.00000E+00
    0.48433E-02        -0.22660E-02         0.00000E+00
    0.46541E-02        -0.21494E-02         0.00000E+00
    0.44615E-02        -0.20340E-02         0.00000E+00
    0.42657E-02        -0.19198E-02         0.00000E+00
    0.40667E-02        -0.18067E-02         0.00000E+00
    0.38646E-02        -0.16948E-02         0.00000E+00
    0.36593E-02        -0.15842E-02         0.00000E+00
    0.34511E-02        -0.14749E-02         0.00000E+00
    0.32399E-02        -0.13668E-02         0.00000E+00
    0.30257E-02        -0.12600E-02         0.00000E+00
    0.28087E-02        -0.11546E-02         0.00000E+00
    0.25889E-02        -0.10505E-02         0.00000E+00
    0.23663E-02        -0.94781E-03         0.00000E+00
    0.21410E-02        -0.84649E-03         0.00000E+00
    0.19130E-02        -0.74658E-03         0.00000E+00
    0.16824E-02        -0.64809E-03         0.00000E+00
    0.14493E-02        -0.55104E-03         0.00000E+00
    0.12137E-02        -0.45546E-03         0.00000E+00
    0.97561E-03        -0.36136E-03         0.00000E+00
    0.73516E-03        -0.26874E-03         0.00000E+00
    0.49237E-03        -0.17764E-03         0.00000E+00
    0.24730E-03        -0.88051E-04         0.00000E+00
    0.00000E+00         0.00000E+00         0.00000E+00
    0.91788E-02        -0.62455E-02         0.00000E+00
    0.90954E-02        -0.61026E-02         0.00000E+00
    0.90072E-02        -0.59597E-02         0.00000E+00
    0.89142E-02        -0.58170E-02         0.00000E+00
    0.88164E-02        -0.56744E-02         0.00000E+00
    0.87139E-02        -0.55320E-02         0.00000E+00
    0.86067E-02        -0.53899E-02         0.00000E+00
    0.84948E-02        -0.52481E-02         0.00000E+00
    0.83784E-02        -0.51066E-02         0.00000E+00
    0.82574E-02        -0.49656E-02         0.00000E+00
    0.81319E-02        -0.48250E-02         0.00000E+00
    0.80019E-02        -0.46849E-02         0.00000E+00
    0.78675E-02        -0.45453E-02         0.00000E+00
    0.77288E-02        -0.44063E-02         0.00000E+00
    0.75857E-02        -0.42680E-02         0.00000E+00
    0.74384E-02        -0.41303E-02         0.00000E+00
    0.72868E-02        -0.39933E-02         0.00000E+00
    0.71311E-02        -0.38571E-02         0.00000E+00
    0.69712E-02        -0.37217E-02         0.00000E+00
    0.68073E-02        -0.35871E-02         0.00000E+00
    0.66393E-02        -0.34534E-02         0.00000E+00
    0.64674E-02        -0.33206E-02         0.00000E+00
    0.62915E-02        -0.31887E-02         0.00000E+00
    0.61118E-02        -0.30578E-02         0.00000E+00
    0.59283E-02        -0.29279E-02         0.00000E+00
    0.57411E-02        -0.27991E-02         0.00000E+00
    0.55501E-02        -0.26714E-02         0.00000E+00
    0.53555E-02        -0.25447E-02         0.00000E+00
    0.51573E-02        -0.24192E-02         0.00000E+00
    0.49555E-02        -0.22949E-02         0.00000E+00
    0.47503E-02        -0.21718E-02         0.00000E+00
    0.45416E-02        -0.20499E-02         0.00000E+00
    0.43296E-02        -0.19293E-02         0.00000E+00
    0.41143E-02        -0.18099E-02         0.00000E+00
    0.38956E-02        -0.16919E-02         0.00000E+00
    0.36738E-02        -0.15752E-02         0.00000E+00
    0.34489E-02        -0.14599E-02         0.00000E+00
    0.32208E-02        -0.13459E-02         0.00000E+00
    0.29897E-02        -0.12334E-02         0.00000E+00
    0.27556E-02        -0.11223E-02         0.00000E+00
    0.25186E-02        -0.10126E-02         0.00000E+00
    0.22787E-02        -0.90442E-03         0.00000E+00
    0.20360E-02        -0.79772E-03         0.00000E+00
    0.17906E-02        -0.69253E-03         0.00000E+00
    0.15424E-02        -0.58888E-03         0.00000E+00
    0.12916E-02        -0.48677E-03         0.00000E+00
    0.10383E-02        -0.38622E-03         0.00000E+00
    0.78235E-03        -0.28726E-03         0.00000E+00
    0.52396E-03        -0.18989E-03         0.00000E+00
    0.26316E-03        -0.94131E-04         0.00000E+00
    0.00000E+00         0.00000E+00         0.00000E+00
    0.97856E-02        -0.66644E-02         0.00000E+00
    0.96963E-02        -0.65120E-02         0.00000E+00
    0.96019E-02        -0.63597E-02         0.00000E+00
    0.95023E-02        -0.62075E-02         0.00000E+00
    0.93976E-02        -0.60554E-02         0.00000E+00
    0.92879E-02        -0.59036E-02         0.00000E+00
    0.91732E-02        -0.57520E-02         0.00000E+00
    0.90536E-02        -0.56008E-02         0.00000E+00
    0.89290E-02        -0.54500E-02         0.00000E+00
    0.87996E-02        -0.52996E-02         0.00000E+00
    0.86655E-02        -0.51496E-02         0.00000E+00
    0.85265E-02        -0.50002E-02         0.00000E+00
    0.83829E-02        -0.48514E-02         0.00000E+00
    0.82346E-02        -0.47032E-02         0.00000E+00
    0.80818E-02        -0.45557E-02         0.00000E+00
    0.79244E-02        -0.44089E-02         0.00000E+00
    0.77625E-02        -0.42628E-02         0.00000E+00
    0.75962E-02        -0.41176E-02         0.00000E+00
    0.74255E-02        -0.39731E-02         0.00000E+00
    0.72505E-02        -0.38296E-02         0.00000E+00
    0.70713E-02        -0.36870E-02         0.00000E+00
    0.68878E-02        -0.35454E-02         0.00000E+00
    0.67002E-02        -0.34047E-02         0.00000E+00
    0.65085E-02        -0.32651E-02         0.00000E+00
    0.63127E-02        -0.31266E-02         0.00000E+00
    0.61130E-02        -0.29892E-02         0.00000E+00
    0.59094E-02        -0.28529E-02         0.00000E+00
    0.57019E-02        -0.27178E-02         0.00000E+00
    0.54906E-02        -0.25839E-02         0.00000E+00
    0.52756E-02        -0.24513E-02         0.00000E+00
    0.50569E-02        -0.23199E-02         0.00000E+00
    0.48345E-02        -0.21898E-02         0.00000E+00
    0.46086E-02        -0.20611E-02         0.00000E+00
    0.43792E-02        -0.19337E-02         0.00000E+00
    0.41463E-02        -0.18077E-02         0.00000E+00
    0.39101E-02        -0.16832E-02         0.00000E+00
    0.36705E-02        -0.15600E-02         0.00000E+00
    0.34277E-02        -0.14384E-02         0.00000E+00
    0.31816E-02        -0.13182E-02         0.00000E+00
    0.29324E-02        -0.11995E-02         0.00000E+00
    0.26801E-02        -0.10824E-02         0.00000E+00
    0.24247E-02        -0.96683E-03         0.00000E+00
    0.21664E-02        -0.85284E-03         0.00000E+00
    0.19052E-02        -0.74044E-03         0.00000E+00
    0.16411E-02        -0.62966E-03         0.00000E+00
    0.13742E-02        -0.52053E-03         0.00000E+00
    0.11046E-02        -0.41304E-03         0.00000E+00
    0.83235E-03        -0.30723E-03         0.00000E+00
    0.55744E-03        -0.20311E-03         0.00000E+00
    0.27997E-03        -0.10069E-03         0.00000E+00
    0.00000E+00         0.00000E+00         0.00000E+00
    0.10433E-01        -0.71133E-02         0.00000E+00
    0.10337E-01        -0.69508E-02         0.00000E+00
    0.10236E-01        -0.67883E-02         0.00000E+00
    0.10129E-01        -0.66260E-02         0.00000E+00
    0.10017E-01        -0.64639E-02         0.00000E+00
    0.98998E-02        -0.63019E-02         0.00000E+00
    0.97770E-02        -0.61403E-02         0.00000E+00
    0.96489E-02        -0.59791E-02         0.00000E+00
    0.95156E-02        -0.58182E-02         0.00000E+00
    0.93772E-02        -0.56578E-02         0.00000E+00
    0.92336E-02        -0.54979E-02         0.00000E+00
    0.90850E-02        -0.53386E-02         0.00000E+00
    0.89315E-02        -0.51799E-02         0.00000E+00
    0.87729E-02        -0.50219E-02         0.00000E+00
    0.86096E-02        -0.48645E-02         0.00000E+00
    0.84414E-02        -0.47079E-02         0.00000E+00
    0.82684E-02        -0.45522E-02         0.00000E+00
    0.80908E-02        -0.43973E-02         0.00000E+00
    0.79085E-02        -0.42432E-02         0.00000E+00
    0.77216E-02        -0.40901E-02         0.00000E+00
    0.75303E-02        -0.39380E-02         0.00000E+00
    0.73345E-02        -0.37869E-02         0.00000E+00
    0.71343E-02        -0.36369E-02         0.00000E+00
    0.69297E-02        -0.34880E-02         0.00000E+00
    0.67209E-02        -0.33402E-02         0.00000E+00
    0.65079E-02        -0.31936E-02         0.00000E+00
    0.62908E-02        -0.30482E-02         0.00000E+00
    0.60696E-02        -0.29040E-02         0.00000E+00
    0.58443E-02        -0.27612E-02         0.00000E+00
    0.56152E-02        -0.26196E-02         0.00000E+00
    0.53821E-02        -0.24794E-02         0.00000E+00
    0.51452E-02        -0.23405E-02         0.00000E+00
    0.49045E-02        -0.22031E-02         0.00000E+00
    0.46601E-02        -0.20671E-02         0.00000E+00
    0.44121E-02        -0.19326E-02         0.00000E+00
    0.41605E-02        -0.17996E-02         0.00000E+00
    0.39054E-02        -0.16680E-02         0.00000E+00
    0.36469E-02        -0.15381E-02         0.00000E+00
    0.33849E-02        -0.14097E-02         0.00000E+00
    0.31197E-02        -0.12829E-02         0.00000E+00
    0.28511E-02        -0.11577E-02         0.00000E+00
    0.25794E-02        -0.10342E-02         0.00000E+00
    0.23045E-02        -0.91236E-03         0.00000E+00
    0.20266E-02        -0.79220E-03         0.00000E+00
    0.17456E-02        -0.67374E-03         0.00000E+00
    0.14617E-02        -0.55702E-03         0.00000E+00
    0.11749E-02        -0.44204E-03         0.00000E+00
    0.88527E-03        -0.32883E-03         0.00000E+00
    0.59287E-03        -0.21741E-03         0.00000E+00
    0.29776E-03        -0.10780E-03         0.00000E+00
    0.00000E+00         0.00000E+00         0.00000E+00
    0.11124E-01        -0.75949E-02         0.00000E+00
    0.11021E-01        -0.74216E-02         0.00000E+00
    0.10913E-01        -0.72483E-02         0.00000E+00
    0.10798E-01        -0.70752E-02         0.00000E+00
    0.10678E-01        -0.69023E-02         0.00000E+00
    0.10552E-01        -0.67296E-02         0.00000E+00
    0.10420E-01        -0.65572E-02         0.00000E+00
    0.10283E-01        -0.63853E-02         0.00000E+00
    0.10140E-01        -0.62137E-02         0.00000E+00
    0.99921E-02        -0.60426E-02         0.00000E+00
    0.98385E-02        -0.58721E-02         0.00000E+00
    0.96794E-02        -0.57022E-02         0.00000E+00
    0.95151E-02        -0.55329E-02         0.00000E+00
    0.93456E-02        -0.53643E-02         0.00000E+00
    0.91708E-02        -0.51965E-02         0.00000E+00
    0.89910E-02        -0.50295E-02         0.00000E+00
    0.88062E-02        -0.48634E-02         0.00000E+00
    0.86164E-02        -0.46981E-02         0.00000E+00
    0.84216E-02        -0.45338E-02         0.00000E+00
    0.82221E-02        -0.43705E-02         0.00000E+00
    0.80178E-02        -0.42082E-02         0.00000E+00
    0.78087E-02        -0.40470E-02         0.00000E+00
    0.75950E-02        -0.38869E-02         0.00000E+00
    0.73768E-02        -0.37280E-02         0.00000E+00
    0.71541E-02        -0.35703E-02         0.00000E+00
    0.69269E-02        -0.34138E-02         0.00000E+00
    0.66953E-02        -0.32587E-02         0.00000E+00
    0.64595E-02        -0.31048E-02         0.00000E+00
    0.62194E-02        -0.29523E-02         0.00000E+00
    0.59751E-02        -0.28011E-02         0.00000E+00
    0.57267E-02        -0.26514E-02         0.00000E+00
    0.54743E-02        -0.25032E-02         0.00000E+00
    0.52180E-02        -0.23564E-02         0.00000E+00
    0.49577E-02        -0.22111E-02         0.00000E+00
    0.46936E-02        -0.20674E-02         0.00000E+00
    0.44257E-02        -0.19253E-02         0.00000E+00
    0.41542E-02        -0.17848E-02         0.00000E+00
    0.38789E-02        -0.16459E-02         0.00000E+00
    0.36002E-02        -0.15086E-02         0.00000E+00
    0.33179E-02        -0.13731E-02         0.00000E+00
    0.30322E-02        -0.12393E-02         0.00000E+00
    0.27431E-02        -0.11072E-02         0.00000E+00
    0.24506E-02        -0.97681E-03         0.00000E+00
    0.21550E-02        -0.84825E-03         0.00000E+00
    0.18562E-02        -0.72149E-03         0.00000E+00
    0.15542E-02        -0.59656E-03         0.00000E+00
    0.12492E-02        -0.47348E-03         0.00000E+00
    0.94124E-03        -0.35226E-03         0.00000E+00
    0.63033E-03        -0.23293E-03         0.00000E+00
    0.31656E-03        -0.11550E-03         0.00000E+00
    0.00000E+00         0.00000E+00         0.00000E+00
    0.11861E-01        -0.81124E-02         0.00000E+00
    0.11751E-01        -0.79275E-02         0.00000E+00
    0.11634E-01        -0.77427E-02         0.00000E+00
    0.11511E-01        -0.75581E-02         0.00000E+00
    0.11382E-01        -0.73736E-02         0.00000E+00
    0.11247E-01        -0.71894E-02         0.00000E+00
    0.11106E-01        -0.70056E-02         0.00000E+00
    0.10959E-01        -0.68221E-02         0.00000E+00
    0.10806E-01        -0.66391E-02         0.00000E+00
    0.10647E-01        -0.64567E-02         0.00000E+00
    0.10482E-01        -0.62748E-02         0.00000E+00
    0.10312E-01        -0.60935E-02         0.00000E+00
    0.10136E-01        -0.59129E-02         0.00000E+00
    0.99544E-02        -0.57331E-02         0.00000E+00
    0.97674E-02        -0.55541E-02         0.00000E+00
    0.95751E-02        -0.53759E-02         0.00000E+00
    0.93775E-02        -0.51987E-02         0.00000E+00
    0.91746E-02        -0.50224E-02         0.00000E+00
    0.89665E-02        -0.48470E-02         0.00000E+00
    0.87533E-02        -0.46728E-02         0.00000E+00
    0.85351E-02        -0.44996E-02         0.00000E+00
    0.83119E-02        -0.43276E-02         0.00000E+00
    0.80838E-02        -0.41567E-02         0.00000E+00
    0.78509E-02        -0.39871E-02         0.00000E+00
    0.76133E-02        -0.38188E-02         0.00000E+00
    0.73709E-02        -0.36517E-02         0.00000E+00
    0.71240E-02        -0.34860E-02         0.00000E+00
    0.68725E-02        -0.33217E-02         0.00000E+00
    0.66166E-02        -0.31588E-02         0.00000E+00
    0.63563E-02        -0.29974E-02         0.00000E+00
    0.60917E-02        -0.28375E-02         0.00000E+00
    0.58228E-02        -0.26791E-02         0.00000E+00
    0.55498E-02        -0.25223E-02         0.00000E+00
    0.52726E-02        -0.23670E-02         0.00000E+00
    0.49914E-02        -0.22134E-02         0.00000E+00
    0.47063E-02        -0.20615E-02         0.00000E+00
    0.44172E-02        -0.19112E-02         0.00000E+00
    0.41244E-02        -0.17627E-02         0.00000E+00
    0.38277E-02        -0.16159E-02         0.00000E+00
    0.35274E-02        -0.14709E-02         0.00000E+00
    0.32235E-02        -0.13277E-02         0.00000E+00
    0.29160E-02        -0.11863E-02         0.00000E+00
    0.26050E-02        -0.10468E-02         0.00000E+00
    0.22907E-02        -0.90913E-03         0.00000E+00
    0.19729E-02        -0.77337E-03         0.00000E+00
    0.16519E-02        -0.63954E-03         0.00000E+00
    0.13277E-02        -0.50766E-03         0.00000E+00
    0.10003E-02        -0.37774E-03         0.00000E+00
    0.66989E-03        -0.24981E-03         0.00000E+00
    0.33642E-03        -0.12389E-03         0.00000E+00
    0.00000E+00         0.00000E+00         0.00000E+00
    0.12648E-01        -0.86692E-02         0.00000E+00
    0.12529E-01        -0.84720E-02         0.00000E+00
    0.12404E-01        -0.82749E-02         0.00000E+00
    0.12271E-01        -0.80779E-02         0.00000E+00
    0.12133E-01        -0.78811E-02         0.00000E+00
    0.11987E-01        -0.76847E-02         0.00000E+00
    0.11836E-01        -0.74885E-02         0.00000E+00
    0.11678E-01        -0.72928E-02         0.00000E+00
    0.11513E-01        -0.70976E-02         0.00000E+00
    0.11343E-01        -0.69030E-02         0.00000E+00
    0.11166E-01        -0.67089E-02         0.00000E+00
    0.10984E-01        -0.65155E-02         0.00000E+00
    0.10796E-01        -0.63229E-02         0.00000E+00
    0.10601E-01        -0.61310E-02         0.00000E+00
    0.10401E-01        -0.59400E-02         0.00000E+00
    0.10195E-01        -0.57499E-02         0.00000E+00
    0.99839E-02        -0.55607E-02         0.00000E+00
    0.97670E-02        -0.53725E-02         0.00000E+00
    0.95445E-02        -0.51854E-02         0.00000E+00
    0.93167E-02        -0.49994E-02         0.00000E+00
    0.90836E-02        -0.48146E-02         0.00000E+00
    0.88453E-02        -0.46309E-02         0.00000E+00
    0.86018E-02        -0.44485E-02         0.00000E+00
    0.83532E-02        -0.42674E-02         0.00000E+00
    0.80996E-02        -0.40876E-02         0.00000E+00
    0.78411E-02        -0.39092E-02         0.00000E+00
    0.75778E-02        -0.37322E-02         0.00000E+00
    0.73097E-02        -0.35567E-02         0.00000E+00
    0.70369E-02        -0.33827E-02         0.00000E+00
    0.67596E-02        -0.32102E-02         0.00000E+00
    0.64776E-02        -0.30392E-02         0.00000E+00
    0.61913E-02        -0.28699E-02         0.00000E+00
    0.59005E-02        -0.27023E-02         0.00000E+00
    0.56054E-02        -0.25363E-02         0.00000E+00
    0.53061E-02        -0.23720E-02         0.00000E+00
    0.50027E-02        -0.22094E-02         0.00000E+00
    0.46951E-02        -0.20487E-02         0.00000E+00
    0.43835E-02        -0.18897E-02         0.00000E+00
    0.40680E-02        -0.17326E-02         0.00000E+00
    0.37486E-02        -0.15773E-02         0.00000E+00
    0.34255E-02        -0.14239E-02         0.00000E+00
    0.30985E-02        -0.12725E-02         0.00000E+00
    0.27680E-02        -0.11230E-02         0.00000E+00
    0.24338E-02        -0.97546E-03         0.00000E+00
    0.20961E-02        -0.82992E-03         0.00000E+00
    0.17550E-02        -0.68641E-03         0.00000E+00
    0.14105E-02        -0.54494E-03         0.00000E+00
    0.10627E-02        -0.40555E-03         0.00000E+00
    0.71161E-03        -0.26824E-03         0.00000E+00
    0.35736E-03        -0.13305E-03         0.00000E+00
    0.00000E+00         0.00000E+00         0.00000E+00
    0.13488E-01        -0.92696E-02         0.00000E+00
    0.13359E-01        -0.90592E-02         0.00000E+00
    0.13224E-01        -0.88489E-02         0.00000E+00
    0.13081E-01        -0.86387E-02         0.00000E+00
    0.12932E-01        -0.84288E-02         0.00000E+00
    0.12776E-01        -0.82191E-02         0.00000E+00
    0.12613E-01        -0.80099E-02         0.00000E+00
    0.12443E-01        -0.78010E-02         0.00000E+00
    0.12266E-01        -0.75927E-02         0.00000E+00
    0.12083E-01        -0.73850E-02         0.00000E+00
    0.11894E-01        -0.71779E-02         0.00000E+00
    0.11698E-01        -0.69716E-02         0.00000E+00
    0.11496E-01        -0.67660E-02         0.00000E+00
    0.11288E-01        -0.65612E-02         0.00000E+00
    0.11074E-01        -0.63573E-02         0.00000E+00
    0.10853E-01        -0.61544E-02         0.00000E+00
    0.10627E-01        -0.59525E-02         0.00000E+00
    0.10395E-01        -0.57516E-02         0.00000E+00
    0.10157E-01        -0.55518E-02         0.00000E+00
    0.99137E-02        -0.53532E-02         0.00000E+00
    0.96646E-02        -0.51558E-02         0.00000E+00
    0.94100E-02        -0.49597E-02         0.00000E+00
    0.91500E-02        -0.47649E-02         0.00000E+00
    0.88847E-02        -0.45714E-02         0.00000E+00
    0.86142E-02        -0.43793E-02         0.00000E+00
    0.83384E-02        -0.41887E-02         0.00000E+00
    0.80576E-02        -0.39995E-02         0.00000E+00
    0.77718E-02        -0.38119E-02         0.00000E+00
    0.74811E-02        -0.36259E-02         0.00000E+00
    0.71856E-02        -0.34414E-02         0.00000E+00
    0.68853E-02        -0.32586E-02         0.00000E+00
    0.65803E-02        -0.30775E-02         0.00000E+00
    0.62708E-02        -0.28981E-02         0.00000E+00
    0.59567E-02        -0.27205E-02         0.00000E+00
    0.56382E-02        -0.25446E-02         0.00000E+00
    0.53153E-02        -0.23706E-02         0.00000E+00
    0.49882E-02        -0.21985E-02         0.00000E+00
    0.46569E-02        -0.20282E-02         0.00000E+00
    0.43214E-02        -0.18598E-02         0.00000E+00
    0.39818E-02        -0.16934E-02         0.00000E+00
    0.36383E-02        -0.15290E-02         0.00000E+00
    0.32909E-02        -0.13666E-02         0.00000E+00
    0.29396E-02        -0.12063E-02         0.00000E+00
    0.25846E-02        -0.10480E-02         0.00000E+00
    0.22259E-02        -0.89176E-03         0.00000E+00
    0.18636E-02        -0.73768E-03         0.00000E+00
    0.14977E-02        -0.58575E-03         0.00000E+00
    0.11283E-02        -0.43599E-03         0.00000E+00
    0.75553E-03        -0.28843E-03         0.00000E+00
    0.37940E-03        -0.14309E-03         0.00000E+00
    0.00000E+00         0.00000E+00         0.00000E+00
    0.14383E-01        -0.99182E-02         0.00000E+00
    0.14244E-01        -0.96936E-02         0.00000E+00
    0.14098E-01        -0.94692E-02         0.00000E+00
    0.13944E-01        -0.92449E-02         0.00000E+00
    0.13783E-01        -0.90208E-02         0.00000E+00
    0.13615E-01        -0.87971E-02         0.00000E+00
    0.13439E-01        -0.85738E-02         0.00000E+00
    0.13256E-01        -0.83509E-02         0.00000E+00
    0.13067E-01        -0.81286E-02         0.00000E+00
    0.12870E-01        -0.79069E-02         0.00000E+00
    0.12667E-01        -0.76859E-02         0.00000E+00
    0.12456E-01        -0.74656E-02         0.00000E+00
    0.12240E-01        -0.72461E-02         0.00000E+00
    0.12016E-01        -0.70275E-02         0.00000E+00
    0.11787E-01        -0.68098E-02         0.00000E+00
    0.11551E-01        -0.65932E-02         0.00000E+00
    0.11309E-01        -0.63775E-02         0.00000E+00
    0.11060E-01        -0.61630E-02         0.00000E+00
    0.10806E-01        -0.59496E-02         0.00000E+00
    0.10545E-01        -0.57375E-02         0.00000E+00
    0.10279E-01        -0.55266E-02         0.00000E+00
    0.10007E-01        -0.53170E-02         0.00000E+00
    0.97296E-02        -0.51088E-02         0.00000E+00
    0.94464E-02        -0.49021E-02         0.00000E+00
    0.91577E-02        -0.46967E-02         0.00000E+00
    0.88636E-02        -0.44929E-02         0.00000E+00
    0.85642E-02        -0.42906E-02         0.00000E+00
    0.82596E-02        -0.40900E-02         0.00000E+00
    0.79498E-02        -0.38909E-02         0.00000E+00
    0.76350E-02        -0.36936E-02         0.00000E+00
    0.73152E-02        -0.34979E-02         0.00000E+00
    0.69905E-02        -0.33040E-02         0.00000E+00
    0.66610E-02        -0.31120E-02         0.00000E+00
    0.63269E-02        -0.29217E-02         0.00000E+00
    0.59880E-02        -0.27333E-02         0.00000E+00
    0.56447E-02        -0.25468E-02         0.00000E+00
    0.52968E-02        -0.23623E-02         0.00000E+00
    0.49446E-02        -0.21797E-02         0.00000E+00
    0.45880E-02        -0.19991E-02         0.00000E+00
    0.42273E-02        -0.18206E-02         0.00000E+00
    0.38623E-02        -0.16441E-02         0.00000E+00
    0.34933E-02        -0.14698E-02         0.00000E+00
    0.31202E-02        -0.12976E-02         0.00000E+00
    0.27432E-02        -0.11275E-02         0.00000E+00
    0.23624E-02        -0.95963E-03         0.00000E+00
    0.19777E-02        -0.79398E-03         0.00000E+00
    0.15893E-02        -0.63058E-03         0.00000E+00
    0.11973E-02        -0.46946E-03         0.00000E+00
    0.80169E-03        -0.31063E-03         0.00000E+00
    0.40257E-03        -0.15414E-03         0.00000E+00
    0.00000E+00         0.00000E+00         0.00000E+00
    0.15337E-01        -0.10620E-01         0.00000E+00
    0.15187E-01        -0.10381E-01         0.00000E+00
    0.15029E-01        -0.10141E-01         0.00000E+00
    0.14863E-01        -0.99016E-02         0.00000E+00
    0.14689E-01        -0.96625E-02         0.00000E+00
    0.14507E-01        -0.94237E-02         0.00000E+00
    0.14317E-01        -0.91853E-02         0.00000E+00
    0.14121E-01        -0.89474E-02         0.00000E+00
    0.13916E-01        -0.87100E-02         0.00000E+00
    0.13705E-01        -0.84733E-02         0.00000E+00
    0.13486E-01        -0.82373E-02         0.00000E+00
    0.13260E-01        -0.80021E-02         0.00000E+00
    0.13028E-01        -0.77677E-02         0.00000E+00
    0.12788E-01        -0.75343E-02         0.00000E+00
    0.12542E-01        -0.73018E-02         0.00000E+00
    0.12289E-01        -0.70703E-02         0.00000E+00
    0.12030E-01        -0.68400E-02         0.00000E+00
    0.11764E-01        -0.66108E-02         0.00000E+00
    0.11491E-01        -0.63828E-02         0.00000E+00
    0.11213E-01        -0.61561E-02         0.00000E+00
    0.10929E-01        -0.59306E-02         0.00000E+00
    0.10638E-01        -0.57066E-02         0.00000E+00
    0.10341E-01        -0.54840E-02         0.00000E+00
    0.10039E-01        -0.52628E-02         0.00000E+00
    0.97311E-02        -0.50432E-02         0.00000E+00
    0.94174E-02        -0.48251E-02         0.00000E+00
    0.90982E-02        -0.46086E-02         0.00000E+00
    0.87735E-02        -0.43938E-02         0.00000E+00
    0.84435E-02        -0.41807E-02         0.00000E+00
    0.81082E-02        -0.39694E-02         0.00000E+00
    0.77677E-02        -0.37598E-02         0.00000E+00
    0.74222E-02        -0.35520E-02         0.00000E+00
    0.70716E-02        -0.33462E-02         0.00000E+00
    0.67162E-02        -0.31422E-02         0.00000E+00
    0.63559E-02        -0.29401E-02         0.00000E+00
    0.59909E-02        -0.27401E-02         0.00000E+00
    0.56212E-02        -0.25420E-02         0.00000E+00
    0.52469E-02        -0.23460E-02         0.00000E+00
    0.48682E-02        -0.21521E-02         0.00000E+00
    0.44850E-02        -0.19603E-02         0.00000E+00
    0.40975E-02        -0.17707E-02         0.00000E+00
    0.37057E-02        -0.15833E-02         0.00000E+00
    0.33097E-02        -0.13980E-02         0.00000E+00
    0.29097E-02        -0.12151E-02         0.00000E+00
    0.25055E-02        -0.10344E-02         0.00000E+00
    0.20974E-02        -0.85603E-03         0.00000E+00
    0.16855E-02        -0.68001E-03         0.00000E+00
    0.12697E-02        -0.50637E-03         0.00000E+00
    0.85010E-03        -0.33513E-03         0.00000E+00
    0.42686E-03        -0.16633E-03         0.00000E+00
    0.00000E+00         0.00000E+00         0.00000E+00
    0.16354E-01        -0.11382E-01         0.00000E+00
    0.16191E-01        -0.11126E-01         0.00000E+00
    0.16020E-01        -0.10871E-01         0.00000E+00
    0.15840E-01        -0.10615E-01         0.00000E+00
    0.15651E-01        -0.10360E-01         0.00000E+00
    0.15455E-01        -0.10105E-01         0.00000E+00
    0.15250E-01        -0.98500E-02         0.00000E+00
    0.15038E-01        -0.95960E-02         0.00000E+00
    0.14818E-01        -0.93425E-02         0.00000E+00
    0.14590E-01        -0.90897E-02         0.00000E+00
    0.14355E-01        -0.88376E-02         0.00000E+00
    0.14112E-01        -0.85864E-02         0.00000E+00
    0.13862E-01        -0.83360E-02         0.00000E+00
    0.13605E-01        -0.80866E-02         0.00000E+00
    0.13340E-01        -0.78381E-02         0.00000E+00
    0.13069E-01        -0.75908E-02         0.00000E+00
    0.12791E-01        -0.73446E-02         0.00000E+00
    0.12507E-01        -0.70996E-02         0.00000E+00
    0.12215E-01        -0.68558E-02         0.00000E+00
    0.11917E-01        -0.66133E-02         0.00000E+00
    0.11613E-01        -0.63722E-02         0.00000E+00
    0.11303E-01        -0.61325E-02         0.00000E+00
    0.10986E-01        -0.58943E-02         0.00000E+00
    0.10663E-01        -0.56576E-02         0.00000E+00
    0.10335E-01        -0.54225E-02         0.00000E+00
    0.10000E-01        -0.51890E-02         0.00000E+00
    0.96599E-02        -0.49571E-02         0.00000E+00
    0.93139E-02        -0.47270E-02         0.00000E+00
    0.89624E-02        -0.44986E-02         0.00000E+00
    0.86055E-02        -0.42721E-02         0.00000E+00
    0.82431E-02        -0.40473E-02         0.00000E+00
    0.78755E-02        -0.38245E-02         0.00000E+00
    0.75027E-02        -0.36036E-02         0.00000E+00
    0.71248E-02        -0.33846E-02         0.00000E+00
    0.67419E-02        -0.31677E-02         0.00000E+00
    0.63540E-02        -0.29528E-02         0.00000E+00
    0.59614E-02        -0.27400E-02         0.00000E+00
    0.55639E-02        -0.25293E-02         0.00000E+00
    0.51618E-02        -0.23208E-02         0.00000E+00
    0.47551E-02        -0.21145E-02         0.00000E+00
    0.43439E-02        -0.19104E-02         0.00000E+00
    0.39282E-02        -0.17085E-02         0.00000E+00
    0.35082E-02        -0.15090E-02         0.00000E+00
    0.30839E-02        -0.13119E-02         0.00000E+00
    0.26554E-02        -0.11171E-02         0.00000E+00
    0.22228E-02        -0.92466E-03         0.00000E+00
    0.17861E-02        -0.73471E-03         0.00000E+00
    0.13454E-02        -0.54724E-03         0.00000E+00
    0.90075E-03        -0.36227E-03         0.00000E+00
    0.45227E-03        -0.17985E-03         0.00000E+00
    0.00000E+00         0.00000E+00         0.00000E+00
    0.17437E-01        -0.12211E-01         0.00000E+00
    0.17260E-01        -0.11938E-01         0.00000E+00
    0.17073E-01        -0.11665E-01         0.00000E+00
    0.16878E-01        -0.11392E-01         0.00000E+00
    0.16674E-01        -0.11119E-01         0.00000E+00
    0.16461E-01        -0.10847E-01         0.00000E+00
    0.16240E-01        -0.10575E-01         0.00000E+00
    0.16010E-01        -0.10303E-01         0.00000E+00
    0.15773E-01        -0.10032E-01         0.00000E+00
    0.15527E-01        -0.97624E-02         0.00000E+00
    0.15274E-01        -0.94930E-02         0.00000E+00
    0.15012E-01        -0.92245E-02         0.00000E+00
    0.14743E-01        -0.89569E-02         0.00000E+00
    0.14467E-01        -0.86902E-02         0.00000E+00
    0.14183E-01        -0.84246E-02         0.00000E+00
    0.13892E-01        -0.81601E-02         0.00000E+00
    0.13594E-01        -0.78968E-02         0.00000E+00
    0.13289E-01        -0.76347E-02         0.00000E+00
    0.12978E-01        -0.73739E-02         0.00000E+00
    0.12659E-01        -0.71145E-02         0.00000E+00
    0.12334E-01        -0.68564E-02         0.00000E+00
    0.12002E-01        -0.65998E-02         0.00000E+00
    0.11664E-01        -0.63447E-02         0.00000E+00
    0.11319E-01        -0.60911E-02         0.00000E+00
    0.10969E-01        -0.58392E-02         0.00000E+00
    0.10612E-01        -0.55889E-02         0.00000E+00
    0.10249E-01        -0.53404E-02         0.00000E+00
    0.98809E-02        -0.50936E-02         0.00000E+00
    0.95067E-02        -0.48486E-02         0.00000E+00
    0.91268E-02        -0.46054E-02         0.00000E+00
    0.87413E-02        -0.43642E-02         0.00000E+00
    0.83504E-02        -0.41248E-02         0.00000E+00
    0.79541E-02        -0.38875E-02         0.00000E+00
    0.75526E-02        -0.36522E-02         0.00000E+00
    0.71458E-02        -0.34189E-02         0.00000E+00
    0.67340E-02        -0.31878E-02         0.00000E+00
    0.63172E-02        -0.29588E-02         0.00000E+00
    0.58954E-02        -0.27320E-02         0.00000E+00
    0.54688E-02        -0.25074E-02         0.00000E+00
    0.50374E-02        -0.22850E-02         0.00000E+00
    0.46014E-02        -0.20650E-02         0.00000E+00
    0.41607E-02        -0.18474E-02         0.00000E+00
    0.37156E-02        -0.16321E-02         0.00000E+00
    0.32660E-02        -0.14192E-02         0.00000E+00
    0.28120E-02        -0.12088E-02         0.00000E+00
    0.23536E-02        -0.10009E-02         0.00000E+00
    0.18911E-02        -0.79549E-03         0.00000E+00
    0.14244E-02        -0.59267E-03         0.00000E+00
    0.95361E-03        -0.39246E-03         0.00000E+00
    0.47879E-03        -0.19489E-03         0.00000E+00
    0.00000E+00         0.00000E+00         0.00000E+00
    0.18589E-01        -0.13116E-01         0.00000E+00
    0.18395E-01        -0.12824E-01         0.00000E+00
    0.18192E-01        -0.12532E-01         0.00000E+00
    0.17980E-01        -0.12240E-01         0.00000E+00
    0.17758E-01        -0.11949E-01         0.00000E+00
    0.17527E-01        -0.11657E-01         0.00000E+00
    0.17288E-01        -0.11367E-01         0.00000E+00
    0.17039E-01        -0.11077E-01         0.00000E+00
    0.16783E-01        -0.10787E-01         0.00000E+00
    0.16517E-01        -0.10499E-01         0.00000E+00
    0.16244E-01        -0.10211E-01         0.00000E+00
    0.15963E-01        -0.99235E-02         0.00000E+00
    0.15673E-01        -0.96373E-02         0.00000E+00
    0.15376E-01        -0.93521E-02         0.00000E+00
    0.15071E-01        -0.90679E-02         0.00000E+00
    0.14759E-01        -0.87849E-02         0.00000E+00
    0.14440E-01        -0.85031E-02         0.00000E+00
    0.14113E-01        -0.82226E-02         0.00000E+00
    0.13779E-01        -0.79433E-02         0.00000E+00
    0.13438E-01        -0.76654E-02         0.00000E+00
    0.13090E-01        -0.73890E-02         0.00000E+00
    0.12736E-01        -0.71140E-02         0.00000E+00
    0.12374E-01        -0.68406E-02         0.00000E+00
    0.12007E-01        -0.65687E-02         0.00000E+00
    0.11633E-01        -0.62985E-02         0.00000E+00
    0.11253E-01        -0.60300E-02         0.00000E+00
    0.10867E-01        -0.57632E-02         0.00000E+00
    0.10474E-01        -0.54982E-02         0.00000E+00
    0.10076E-01        -0.52351E-02         0.00000E+00
    0.96718E-02        -0.49738E-02         0.00000E+00
    0.92620E-02        -0.47144E-02         0.00000E+00
    0.88465E-02        -0.44571E-02         0.00000E+00
    0.84256E-02        -0.42017E-02         0.00000E+00
    0.79992E-02        -0.39485E-02         0.00000E+00
    0.75674E-02        -0.36973E-02         0.00000E+00
    0.71304E-02        -0.34483E-02         0.00000E+00
    0.66883E-02        -0.32014E-02         0.00000E+00
    0.62410E-02        -0.29569E-02         0.00000E+00
    0.57888E-02        -0.27146E-02         0.00000E+00
    0.53317E-02        -0.24746E-02         0.00000E+00
    0.48697E-02        -0.22370E-02         0.00000E+00
    0.44029E-02        -0.20017E-02         0.00000E+00
    0.39315E-02        -0.17690E-02         0.00000E+00
    0.34555E-02        -0.15387E-02         0.00000E+00
    0.29749E-02        -0.13110E-02         0.00000E+00
    0.24899E-02        -0.10858E-02         0.00000E+00
    0.20004E-02        -0.86325E-03         0.00000E+00
    0.15067E-02        -0.64335E-03         0.00000E+00
    0.10086E-02        -0.42615E-03         0.00000E+00
    0.50638E-03        -0.21169E-03         0.00000E+00
    0.00000E+00         0.00000E+00         0.00000E+00
    0.19813E-01        -0.14105E-01         0.00000E+00
    0.19601E-01        -0.13793E-01         0.00000E+00
    0.19379E-01        -0.13481E-01         0.00000E+00
    0.19147E-01        -0.13169E-01         0.00000E+00
    0.18906E-01        -0.12857E-01         0.00000E+00
    0.18655E-01        -0.12546E-01         0.00000E+00
    0.18395E-01        -0.12235E-01         0.00000E+00
    0.18126E-01        -0.11925E-01         0.00000E+00
    0.17848E-01        -0.11616E-01         0.00000E+00
    0.17562E-01        -0.11307E-01         0.00000E+00
    0.17267E-01        -0.10999E-01         0.00000E+00
    0.16963E-01        -0.10691E-01         0.00000E+00
    0.16652E-01        -0.10385E-01         0.00000E+00
    0.16332E-01        -0.10080E-01         0.00000E+00
    0.16005E-01        -0.97757E-02         0.00000E+00
    0.15669E-01        -0.94727E-02         0.00000E+00
    0.15326E-01        -0.91708E-02         0.00000E+00
    0.14976E-01        -0.88703E-02         0.00000E+00
    0.14619E-01        -0.85710E-02         0.00000E+00
    0.14254E-01        -0.82731E-02         0.00000E+00
    0.13882E-01        -0.79767E-02         0.00000E+00
    0.13503E-01        -0.76817E-02         0.00000E+00
    0.13118E-01        -0.73883E-02         0.00000E+00
    0.12726E-01        -0.70965E-02         0.00000E+00
    0.12327E-01        -0.68064E-02         0.00000E+00
    0.11922E-01        -0.65180E-02         0.00000E+00
    0.11511E-01        -0.62313E-02         0.00000E+00
    0.11093E-01        -0.59464E-02         0.00000E+00
    0.10669E-01        -0.56634E-02         0.00000E+00
    0.10240E-01        -0.53822E-02         0.00000E+00
    0.98043E-02        -0.51030E-02         0.00000E+00
    0.93631E-02        -0.48259E-02         0.00000E+00
    0.89163E-02        -0.45507E-02         0.00000E+00
    0.84638E-02        -0.42777E-02         0.00000E+00
    0.80059E-02        -0.40068E-02         0.00000E+00
    0.75426E-02        -0.37380E-02         0.00000E+00
    0.70740E-02        -0.34715E-02         0.00000E+00
    0.66002E-02        -0.32073E-02         0.00000E+00
    0.61213E-02        -0.29454E-02         0.00000E+00
    0.56372E-02        -0.26858E-02         0.00000E+00
    0.51483E-02        -0.24287E-02         0.00000E+00
    0.46544E-02        -0.21740E-02         0.00000E+00
    0.41556E-02        -0.19218E-02         0.00000E+00
    0.36521E-02        -0.16722E-02         0.00000E+00
    0.31440E-02        -0.14252E-02         0.00000E+00
    0.26312E-02        -0.11808E-02         0.00000E+00
    0.21138E-02        -0.93907E-03         0.00000E+00
    0.15919E-02        -0.70009E-03         0.00000E+00
    0.10656E-02        -0.46389E-03         0.00000E+00
    0.53498E-03        -0.23051E-03         0.00000E+00
    0.00000E+00         0.00000E+00         0.00000E+00
    0.21111E-01        -0.15190E-01         0.00000E+00
    0.20878E-01        -0.14857E-01         0.00000E+00
    0.20635E-01        -0.14523E-01         0.00000E+00
    0.20382E-01        -0.14189E-01         0.00000E+00
    0.20119E-01        -0.13856E-01         0.00000E+00
    0.19846E-01        -0.13523E-01         0.00000E+00
    0.19563E-01        -0.13190E-01         0.00000E+00
    0.19271E-01        -0.12858E-01         0.00000E+00
    0.18970E-01        -0.12527E-01         0.00000E+00
    0.18660E-01        -0.12196E-01         0.00000E+00
    0.18342E-01        -0.11867E-01         0.00000E+00
    0.18014E-01        -0.11538E-01         0.00000E+00
    0.17678E-01        -0.11210E-01         0.00000E+00
    0.17334E-01        -0.10883E-01         0.00000E+00
    0.16982E-01        -0.10557E-01         0.00000E+00
    0.16622E-01        -0.10232E-01         0.00000E+00
    0.16254E-01        -0.99085E-02         0.00000E+00
    0.15879E-01        -0.95862E-02         0.00000E+00
    0.15496E-01        -0.92651E-02         0.00000E+00
    0.15106E-01        -0.89455E-02         0.00000E+00
    0.14708E-01        -0.86273E-02         0.00000E+00
    0.14304E-01        -0.83106E-02         0.00000E+00
    0.13892E-01        -0.79954E-02         0.00000E+00
    0.13474E-01        -0.76818E-02         0.00000E+00
    0.13049E-01        -0.73699E-02         0.00000E+00
    0.12618E-01        -0.70596E-02         0.00000E+00
    0.12180E-01        -0.67511E-02         0.00000E+00
    0.11736E-01        -0.64444E-02         0.00000E+00
    0.11286E-01        -0.61395E-02         0.00000E+00
    0.10830E-01        -0.58366E-02         0.00000E+00
    0.10367E-01        -0.55355E-02         0.00000E+00
    0.98991E-02        -0.52365E-02         0.00000E+00
    0.94251E-02        -0.49396E-02         0.00000E+00
    0.89455E-02        -0.46447E-02         0.00000E+00
    0.84603E-02        -0.43519E-02         0.00000E+00
    0.79696E-02        -0.40614E-02         0.00000E+00
    0.74735E-02        -0.37731E-02         0.00000E+00
    0.69720E-02        -0.34871E-02         0.00000E+00
    0.64653E-02        -0.32034E-02         0.00000E+00
    0.59534E-02        -0.29221E-02         0.00000E+00
    0.54364E-02        -0.26433E-02         0.00000E+00
    0.49144E-02        -0.23669E-02         0.00000E+00
    0.43874E-02        -0.20931E-02         0.00000E+00
    0.38554E-02        -0.18218E-02         0.00000E+00
    0.33187E-02        -0.15532E-02         0.00000E+00
    0.27772E-02        -0.12873E-02         0.00000E+00
    0.22309E-02        -0.10242E-02         0.00000E+00
    0.16801E-02        -0.76380E-03         0.00000E+00
    0.11246E-02        -0.50628E-03         0.00000E+00
    0.56453E-03        -0.25166E-03         0.00000E+00
    0.00000E+00         0.00000E+00         0.00000E+00
    0.22484E-01        -0.16384E-01         0.00000E+00
    0.22228E-01        -0.16027E-01         0.00000E+00
    0.21961E-01        -0.15669E-01         0.00000E+00
    0.21684E-01        -0.15312E-01         0.00000E+00
    0.21397E-01        -0.14956E-01         0.00000E+00
    0.21099E-01        -0.14599E-01         0.00000E+00
    0.20792E-01        -0.14243E-01         0.00000E+00
    0.20475E-01        -0.13888E-01         0.00000E+00
    0.20148E-01        -0.13533E-01         0.00000E+00
    0.19812E-01        -0.13179E-01         0.00000E+00
    0.19468E-01        -0.12826E-01         0.00000E+00
    0.19114E-01        -0.12473E-01         0.00000E+00
    0.18752E-01        -0.12122E-01         0.00000E+00
    0.18382E-01        -0.11771E-01         0.00000E+00
    0.18003E-01        -0.11421E-01         0.00000E+00
    0.17616E-01        -0.11073E-01         0.00000E+00
    0.17222E-01        -0.10726E-01         0.00000E+00
    0.16819E-01        -0.10380E-01         0.00000E+00
    0.16409E-01        -0.10035E-01         0.00000E+00
    0.15992E-01        -0.96917E-02         0.00000E+00
    0.15567E-01        -0.93497E-02         0.00000E+00
    0.15135E-01        -0.90092E-02         0.00000E+00
    0.14696E-01        -0.86701E-02         0.00000E+00
    0.14251E-01        -0.83327E-02         0.00000E+00
    0.13798E-01        -0.79968E-02         0.00000E+00
    0.13339E-01        -0.76626E-02         0.00000E+00
    0.12874E-01        -0.73301E-02         0.00000E+00
    0.12402E-01        -0.69994E-02         0.00000E+00
    0.11924E-01        -0.66705E-02         0.00000E+00
    0.11439E-01        -0.63435E-02         0.00000E+00
    0.10949E-01        -0.60183E-02         0.00000E+00
    0.10453E-01        -0.56952E-02         0.00000E+00
    0.99505E-02        -0.53741E-02         0.00000E+00
    0.94427E-02        -0.50550E-02         0.00000E+00
    0.89291E-02        -0.47381E-02         0.00000E+00
    0.84100E-02        -0.44233E-02         0.00000E+00
    0.78853E-02        -0.41108E-02         0.00000E+00
    0.73552E-02        -0.38005E-02         0.00000E+00
    0.68198E-02        -0.34926E-02         0.00000E+00
    0.62791E-02        -0.31871E-02         0.00000E+00
    0.57331E-02        -0.28840E-02         0.00000E+00
    0.51820E-02        -0.25834E-02         0.00000E+00
    0.46259E-02        -0.22854E-02         0.00000E+00
    0.40647E-02        -0.19900E-02         0.00000E+00
    0.34985E-02        -0.16972E-02         0.00000E+00
    0.29274E-02        -0.14072E-02         0.00000E+00
    0.23514E-02        -0.11199E-02         0.00000E+00
    0.17707E-02        -0.83554E-03         0.00000E+00
    0.11852E-02        -0.55405E-03         0.00000E+00
    0.59491E-03        -0.27551E-03         0.00000E+00
    0.00000E+00         0.00000E+00         0.00000E+00
    0.23934E-01        -0.17701E-01         0.00000E+00
    0.23652E-01        -0.17318E-01         0.00000E+00
    0.23358E-01        -0.16935E-01         0.00000E+00
    0.23054E-01        -0.16553E-01         0.00000E+00
    0.22739E-01        -0.16170E-01         0.00000E+00
    0.22414E-01        -0.15789E-01         0.00000E+00
    0.22079E-01        -0.15407E-01         0.00000E+00
    0.21734E-01        -0.15026E-01         0.00000E+00
    0.21380E-01        -0.14646E-01         0.00000E+00
    0.21016E-01        -0.14266E-01         0.00000E+00
    0.20643E-01        -0.13888E-01         0.00000E+00
    0.20261E-01        -0.13510E-01         0.00000E+00
    0.19871E-01        -0.13132E-01         0.00000E+00
    0.19472E-01        -0.12756E-01         0.00000E+00
    0.19064E-01        -0.12381E-01         0.00000E+00
    0.18649E-01        -0.12007E-01         0.00000E+00
    0.18225E-01        -0.11634E-01         0.00000E+00
    0.17794E-01        -0.11262E-01         0.00000E+00
    0.17355E-01        -0.10891E-01         0.00000E+00
    0.16909E-01        -0.10522E-01         0.00000E+00
    0.16455E-01        -0.10154E-01         0.00000E+00
    0.15995E-01        -0.97873E-02         0.00000E+00
    0.15527E-01        -0.94221E-02         0.00000E+00
    0.15052E-01        -0.90584E-02         0.00000E+00
    0.14571E-01        -0.86963E-02         0.00000E+00
    0.14083E-01        -0.83357E-02         0.00000E+00
    0.13588E-01        -0.79768E-02         0.00000E+00
    0.13087E-01        -0.76196E-02         0.00000E+00
    0.12580E-01        -0.72641E-02         0.00000E+00
    0.12066E-01        -0.69105E-02         0.00000E+00
    0.11547E-01        -0.65587E-02         0.00000E+00
    0.11022E-01        -0.62088E-02         0.00000E+00
    0.10490E-01        -0.58608E-02         0.00000E+00
    0.99531E-02        -0.55149E-02         0.00000E+00
    0.94102E-02        -0.51711E-02         0.00000E+00
    0.88618E-02        -0.48294E-02         0.00000E+00
    0.83077E-02        -0.44899E-02         0.00000E+00
    0.77481E-02        -0.41526E-02         0.00000E+00
    0.71832E-02        -0.38176E-02         0.00000E+00
    0.66128E-02        -0.34850E-02         0.00000E+00
    0.60371E-02        -0.31548E-02         0.00000E+00
    0.54562E-02        -0.28271E-02         0.00000E+00
    0.48701E-02        -0.25019E-02         0.00000E+00
    0.42789E-02        -0.21794E-02         0.00000E+00
    0.36826E-02        -0.18595E-02         0.00000E+00
    0.30812E-02        -0.15423E-02         0.00000E+00
    0.24748E-02        -0.12280E-02         0.00000E+00
    0.18634E-02        -0.91651E-03         0.00000E+00
    0.12472E-02        -0.60798E-03         0.00000E+00
    0.62600E-03        -0.30245E-03         0.00000E+00
    0.00000E+00         0.00000E+00         0.00000E+00
    0.25459E-01        -0.19156E-01         0.00000E+00
    0.25147E-01        -0.18746E-01         0.00000E+00
    0.24824E-01        -0.18336E-01         0.00000E+00
    0.24490E-01        -0.17926E-01         0.00000E+00
    0.24145E-01        -0.17516E-01         0.00000E+00
    0.23789E-01        -0.17107E-01         0.00000E+00
    0.23424E-01        -0.16698E-01         0.00000E+00
    0.23048E-01        -0.16289E-01         0.00000E+00
    0.22663E-01        -0.15881E-01         0.00000E+00
    0.22268E-01        -0.15474E-01         0.00000E+00
    0.21865E-01        -0.15067E-01         0.00000E+00
    0.21452E-01        -0.14661E-01         0.00000E+00
    0.21031E-01        -0.14256E-01         0.00000E+00
    0.20601E-01        -0.13852E-01         0.00000E+00
    0.20163E-01        -0.13449E-01         0.00000E+00
    0.19716E-01        -0.13046E-01         0.00000E+00
    0.19262E-01        -0.12645E-01         0.00000E+00
    0.18800E-01        -0.12245E-01         0.00000E+00
    0.18331E-01        -0.11846E-01         0.00000E+00
    0.17854E-01        -0.11448E-01         0.00000E+00
    0.17369E-01        -0.11052E-01         0.00000E+00
    0.16878E-01        -0.10656E-01         0.00000E+00
    0.16380E-01        -0.10262E-01         0.00000E+00
    0.15875E-01        -0.98697E-02         0.00000E+00
    0.15363E-01        -0.94785E-02         0.00000E+00
    0.14845E-01        -0.90889E-02         0.00000E+00
    0.14320E-01        -0.87008E-02         0.00000E+00
    0.13789E-01        -0.83142E-02         0.00000E+00
    0.13251E-01        -0.79294E-02         0.00000E+00
    0.12708E-01        -0.75462E-02         0.00000E+00
    0.12158E-01        -0.71648E-02         0.00000E+00
    0.11603E-01        -0.67852E-02         0.00000E+00
    0.11041E-01        -0.64074E-02         0.00000E+00
    0.10474E-01        -0.60316E-02         0.00000E+00
    0.99012E-02        -0.56578E-02         0.00000E+00
    0.93226E-02        -0.52860E-02         0.00000E+00
    0.87384E-02        -0.49163E-02         0.00000E+00
    0.81486E-02        -0.45488E-02         0.00000E+00
    0.75534E-02        -0.41836E-02         0.00000E+00
    0.69528E-02        -0.38206E-02         0.00000E+00
    0.63468E-02        -0.34600E-02         0.00000E+00
    0.57354E-02        -0.31019E-02         0.00000E+00
    0.51188E-02        -0.27462E-02         0.00000E+00
    0.44970E-02        -0.23931E-02         0.00000E+00
    0.38699E-02        -0.20427E-02         0.00000E+00
    0.32377E-02        -0.16950E-02         0.00000E+00
    0.26003E-02        -0.13501E-02         0.00000E+00
    0.19578E-02        -0.10081E-02         0.00000E+00
    0.13103E-02        -0.66898E-03         0.00000E+00
    0.65764E-03        -0.33293E-03         0.00000E+00
    0.00000E+00         0.00000E+00         0.00000E+00
    0.27057E-01        -0.20769E-01         0.00000E+00
    0.26712E-01        -0.20329E-01         0.00000E+00
    0.26355E-01        -0.19889E-01         0.00000E+00
    0.25987E-01        -0.19449E-01         0.00000E+00
    0.25608E-01        -0.19009E-01         0.00000E+00
    0.25219E-01        -0.18570E-01         0.00000E+00
    0.24820E-01        -0.18131E-01         0.00000E+00
    0.24411E-01        -0.17692E-01         0.00000E+00
    0.23992E-01        -0.17254E-01         0.00000E+00
    0.23564E-01        -0.16817E-01         0.00000E+00
    0.23127E-01        -0.16380E-01         0.00000E+00
    0.22681E-01        -0.15944E-01         0.00000E+00
    0.22226E-01        -0.15508E-01         0.00000E+00
    0.21763E-01        -0.15073E-01         0.00000E+00
    0.21292E-01        -0.14639E-01         0.00000E+00
    0.20813E-01        -0.14206E-01         0.00000E+00
    0.20326E-01        -0.13774E-01         0.00000E+00
    0.19831E-01        -0.13343E-01         0.00000E+00
    0.19329E-01        -0.12913E-01         0.00000E+00
    0.18820E-01        -0.12483E-01         0.00000E+00
    0.18304E-01        -0.12055E-01         0.00000E+00
    0.17781E-01        -0.11628E-01         0.00000E+00
    0.17251E-01        -0.11203E-01         0.00000E+00
    0.16714E-01        -0.10778E-01         0.00000E+00
    0.16170E-01        -0.10355E-01         0.00000E+00
    0.15621E-01        -0.99332E-02         0.00000E+00
    0.15065E-01        -0.95127E-02         0.00000E+00
    0.14502E-01        -0.90937E-02         0.00000E+00
    0.13934E-01        -0.86762E-02         0.00000E+00
    0.13359E-01        -0.82602E-02         0.00000E+00
    0.12779E-01        -0.78458E-02         0.00000E+00
    0.12192E-01        -0.74331E-02         0.00000E+00
    0.11600E-01        -0.70221E-02         0.00000E+00
    0.11002E-01        -0.66130E-02         0.00000E+00
    0.10399E-01        -0.62057E-02         0.00000E+00
    0.97893E-02        -0.58003E-02         0.00000E+00
    0.91744E-02        -0.53968E-02         0.00000E+00
    0.85540E-02        -0.49955E-02         0.00000E+00
    0.79281E-02        -0.45963E-02         0.00000E+00
    0.72967E-02        -0.41992E-02         0.00000E+00
    0.66600E-02        -0.38045E-02         0.00000E+00
    0.60178E-02        -0.34121E-02         0.00000E+00
    0.53703E-02        -0.30221E-02         0.00000E+00
    0.47175E-02        -0.26347E-02         0.00000E+00
    0.40593E-02        -0.22498E-02         0.00000E+00
    0.33959E-02        -0.18677E-02         0.00000E+00
    0.27272E-02        -0.14882E-02         0.00000E+00
    0.20532E-02        -0.11117E-02         0.00000E+00
    0.13740E-02        -0.73806E-03         0.00000E+00
    0.68963E-03        -0.36747E-03         0.00000E+00
    0.00000E+00         0.00000E+00         0.00000E+00
    0.28724E-01        -0.22560E-01         0.00000E+00
    0.28341E-01        -0.22087E-01         0.00000E+00
    0.27946E-01        -0.21615E-01         0.00000E+00
    0.27541E-01        -0.21142E-01         0.00000E+00
    0.27125E-01        -0.20670E-01         0.00000E+00
    0.26698E-01        -0.20198E-01         0.00000E+00
    0.26262E-01        -0.19726E-01         0.00000E+00
    0.25816E-01        -0.19255E-01         0.00000E+00
    0.25360E-01        -0.18784E-01         0.00000E+00
    0.24896E-01        -0.18313E-01         0.00000E+00
    0.24422E-01        -0.17843E-01         0.00000E+00
    0.23940E-01        -0.17374E-01         0.00000E+00
    0.23450E-01        -0.16905E-01         0.00000E+00
    0.22951E-01        -0.16437E-01         0.00000E+00
    0.22445E-01        -0.15969E-01         0.00000E+00
    0.21931E-01        -0.15502E-01         0.00000E+00
    0.21409E-01        -0.15036E-01         0.00000E+00
    0.20881E-01        -0.14571E-01         0.00000E+00
    0.20345E-01        -0.14106E-01         0.00000E+00
    0.19802E-01        -0.13643E-01         0.00000E+00
    0.19252E-01        -0.13180E-01         0.00000E+00
    0.18695E-01        -0.12718E-01         0.00000E+00
    0.18132E-01        -0.12257E-01         0.00000E+00
    0.17562E-01        -0.11797E-01         0.00000E+00
    0.16987E-01        -0.11339E-01         0.00000E+00
    0.16404E-01        -0.10881E-01         0.00000E+00
    0.15816E-01        -0.10425E-01         0.00000E+00
    0.15222E-01        -0.99695E-02         0.00000E+00
    0.14622E-01        -0.95156E-02         0.00000E+00
    0.14015E-01        -0.90631E-02         0.00000E+00
    0.13403E-01        -0.86120E-02         0.00000E+00
    0.12786E-01        -0.81624E-02         0.00000E+00
    0.12162E-01        -0.77143E-02         0.00000E+00
    0.11533E-01        -0.72678E-02         0.00000E+00
    0.10898E-01        -0.68230E-02         0.00000E+00
    0.10258E-01        -0.63800E-02         0.00000E+00
    0.96123E-02        -0.59388E-02         0.00000E+00
    0.89610E-02        -0.54994E-02         0.00000E+00
    0.83042E-02        -0.50621E-02         0.00000E+00
    0.76419E-02        -0.46268E-02         0.00000E+00
    0.69742E-02        -0.41936E-02         0.00000E+00
    0.63011E-02        -0.37627E-02         0.00000E+00
    0.56226E-02        -0.33341E-02         0.00000E+00
    0.49387E-02        -0.29079E-02         0.00000E+00
    0.42493E-02        -0.24842E-02         0.00000E+00
    0.35546E-02        -0.20631E-02         0.00000E+00
    0.28545E-02        -0.16447E-02         0.00000E+00
    0.21490E-02        -0.12290E-02         0.00000E+00
    0.14380E-02        -0.81632E-03         0.00000E+00
    0.72173E-03        -0.40661E-03         0.00000E+00
    0.00000E+00         0.00000E+00         0.00000E+00
    0.30452E-01        -0.24552E-01         0.00000E+00
    0.30026E-01        -0.24044E-01         0.00000E+00
    0.29590E-01        -0.23535E-01         0.00000E+00
    0.29142E-01        -0.23027E-01         0.00000E+00
    0.28685E-01        -0.22520E-01         0.00000E+00
    0.28217E-01        -0.22012E-01         0.00000E+00
    0.27740E-01        -0.21504E-01         0.00000E+00
    0.27253E-01        -0.20997E-01         0.00000E+00
    0.26758E-01        -0.20490E-01         0.00000E+00
    0.26254E-01        -0.19984E-01         0.00000E+00
    0.25741E-01        -0.19478E-01         0.00000E+00
    0.25221E-01        -0.18972E-01         0.00000E+00
    0.24692E-01        -0.18466E-01         0.00000E+00
    0.24156E-01        -0.17961E-01         0.00000E+00
    0.23612E-01        -0.17457E-01         0.00000E+00
    0.23061E-01        -0.16952E-01         0.00000E+00
    0.22503E-01        -0.16449E-01         0.00000E+00
    0.21938E-01        -0.15946E-01         0.00000E+00
    0.21367E-01        -0.15443E-01         0.00000E+00
    0.20789E-01        -0.14942E-01         0.00000E+00
    0.20204E-01        -0.14440E-01         0.00000E+00
    0.19613E-01        -0.13940E-01         0.00000E+00
    0.19016E-01        -0.13440E-01         0.00000E+00
    0.18413E-01        -0.12941E-01         0.00000E+00
    0.17803E-01        -0.12443E-01         0.00000E+00
    0.17188E-01        -0.11946E-01         0.00000E+00
    0.16567E-01        -0.11450E-01         0.00000E+00
    0.15940E-01        -0.10954E-01         0.00000E+00
    0.15308E-01        -0.10460E-01         0.00000E+00
    0.14670E-01        -0.99666E-02         0.00000E+00
    0.14026E-01        -0.94745E-02         0.00000E+00
    0.13377E-01        -0.89836E-02         0.00000E+00
    0.12722E-01        -0.84940E-02         0.00000E+00
    0.12062E-01        -0.80058E-02         0.00000E+00
    0.11396E-01        -0.75190E-02         0.00000E+00
    0.10725E-01        -0.70338E-02         0.00000E+00
    0.10048E-01        -0.65501E-02         0.00000E+00
    0.93657E-02        -0.60681E-02         0.00000E+00
    0.86781E-02        -0.55879E-02         0.00000E+00
    0.79851E-02        -0.51096E-02         0.00000E+00
    0.72866E-02        -0.46332E-02         0.00000E+00
    0.65827E-02        -0.41589E-02         0.00000E+00
    0.58733E-02        -0.36867E-02         0.00000E+00
    0.51585E-02        -0.32168E-02         0.00000E+00
    0.44382E-02        -0.27493E-02         0.00000E+00
    0.37124E-02        -0.22842E-02         0.00000E+00
    0.29810E-02        -0.18217E-02         0.00000E+00
    0.22442E-02        -0.13619E-02         0.00000E+00
    0.15017E-02        -0.90498E-03         0.00000E+00
    0.75366E-03        -0.45096E-03         0.00000E+00
    0.00000E+00         0.00000E+00         0.00000E+00
    0.32230E-01        -0.26769E-01         0.00000E+00
    0.31757E-01        -0.26222E-01         0.00000E+00
    0.31273E-01        -0.25675E-01         0.00000E+00
    0.30779E-01        -0.25129E-01         0.00000E+00
    0.30276E-01        -0.24582E-01         0.00000E+00
    0.29763E-01        -0.24035E-01         0.00000E+00
    0.29241E-01        -0.23489E-01         0.00000E+00
    0.28711E-01        -0.22942E-01         0.00000E+00
    0.28172E-01        -0.22396E-01         0.00000E+00
    0.27625E-01        -0.21850E-01         0.00000E+00
    0.27071E-01        -0.21304E-01         0.00000E+00
    0.26509E-01        -0.20758E-01         0.00000E+00
    0.25940E-01        -0.20212E-01         0.00000E+00
    0.25364E-01        -0.19667E-01         0.00000E+00
    0.24781E-01        -0.19121E-01         0.00000E+00
    0.24191E-01        -0.18576E-01         0.00000E+00
    0.23595E-01        -0.18031E-01         0.00000E+00
    0.22993E-01        -0.17487E-01         0.00000E+00
    0.22385E-01        -0.16942E-01         0.00000E+00
    0.21770E-01        -0.16398E-01         0.00000E+00
    0.21150E-01        -0.15855E-01         0.00000E+00
    0.20524E-01        -0.15311E-01         0.00000E+00
    0.19892E-01        -0.14768E-01         0.00000E+00
    0.19254E-01        -0.14226E-01         0.00000E+00
    0.18611E-01        -0.13684E-01         0.00000E+00
    0.17963E-01        -0.13143E-01         0.00000E+00
    0.17309E-01        -0.12602E-01         0.00000E+00
    0.16649E-01        -0.12061E-01         0.00000E+00
    0.15985E-01        -0.11522E-01         0.00000E+00
    0.15315E-01        -0.10983E-01         0.00000E+00
    0.14639E-01        -0.10445E-01         0.00000E+00
    0.13959E-01        -0.99083E-02         0.00000E+00
    0.13273E-01        -0.93723E-02         0.00000E+00
    0.12581E-01        -0.88373E-02         0.00000E+00
    0.11885E-01        -0.83035E-02         0.00000E+00
    0.11183E-01        -0.77709E-02         0.00000E+00
    0.10476E-01        -0.72396E-02         0.00000E+00
    0.97634E-02        -0.67097E-02         0.00000E+00
    0.90455E-02        -0.61814E-02         0.00000E+00
    0.83223E-02        -0.56546E-02         0.00000E+00
    0.75936E-02        -0.51296E-02         0.00000E+00
    0.68594E-02        -0.46064E-02         0.00000E+00
    0.61198E-02        -0.40851E-02         0.00000E+00
    0.53747E-02        -0.35660E-02         0.00000E+00
    0.46239E-02        -0.30490E-02         0.00000E+00
    0.38676E-02        -0.25343E-02         0.00000E+00
    0.31056E-02        -0.20220E-02         0.00000E+00
    0.23378E-02        -0.15123E-02         0.00000E+00
    0.15644E-02        -0.10053E-02         0.00000E+00
    0.78511E-03        -0.50117E-03         0.00000E+00
    0.00000E+00         0.00000E+00         0.00000E+00
    0.34042E-01        -0.29240E-01         0.00000E+00
    0.33516E-01        -0.28650E-01         0.00000E+00
    0.32980E-01        -0.28061E-01         0.00000E+00
    0.32435E-01        -0.27472E-01         0.00000E+00
    0.31881E-01        -0.26882E-01         0.00000E+00
    0.31319E-01        -0.26293E-01         0.00000E+00
    0.30749E-01        -0.25703E-01         0.00000E+00
    0.30171E-01        -0.25114E-01         0.00000E+00
    0.29586E-01        -0.24524E-01         0.00000E+00
    0.28994E-01        -0.23935E-01         0.00000E+00
    0.28395E-01        -0.23345E-01         0.00000E+00
    0.27790E-01        -0.22755E-01         0.00000E+00
    0.27178E-01        -0.22165E-01         0.00000E+00
    0.26560E-01        -0.21575E-01         0.00000E+00
    0.25936E-01        -0.20985E-01         0.00000E+00
    0.25306E-01        -0.20394E-01         0.00000E+00
    0.24671E-01        -0.19804E-01         0.00000E+00
    0.24030E-01        -0.19213E-01         0.00000E+00
    0.23384E-01        -0.18622E-01         0.00000E+00
    0.22733E-01        -0.18032E-01         0.00000E+00
    0.22076E-01        -0.17441E-01         0.00000E+00
    0.21414E-01        -0.16850E-01         0.00000E+00
    0.20747E-01        -0.16259E-01         0.00000E+00
    0.20075E-01        -0.15668E-01         0.00000E+00
    0.19399E-01        -0.15077E-01         0.00000E+00
    0.18717E-01        -0.14487E-01         0.00000E+00
    0.18030E-01        -0.13896E-01         0.00000E+00
    0.17339E-01        -0.13306E-01         0.00000E+00
    0.16642E-01        -0.12716E-01         0.00000E+00
    0.15941E-01        -0.12126E-01         0.00000E+00
    0.15234E-01        -0.11537E-01         0.00000E+00
    0.14523E-01        -0.10949E-01         0.00000E+00
    0.13807E-01        -0.10361E-01         0.00000E+00
    0.13085E-01        -0.97733E-02         0.00000E+00
    0.12359E-01        -0.91868E-02         0.00000E+00
    0.11627E-01        -0.86011E-02         0.00000E+00
    0.10891E-01        -0.80163E-02         0.00000E+00
    0.10149E-01        -0.74327E-02         0.00000E+00
    0.94016E-02        -0.68502E-02         0.00000E+00
    0.86490E-02        -0.62691E-02         0.00000E+00
    0.78911E-02        -0.56894E-02         0.00000E+00
    0.71277E-02        -0.51112E-02         0.00000E+00
    0.63588E-02        -0.45347E-02         0.00000E+00
    0.55843E-02        -0.39600E-02         0.00000E+00
    0.48041E-02        -0.33873E-02         0.00000E+00
    0.40182E-02        -0.28166E-02         0.00000E+00
    0.32265E-02        -0.22482E-02         0.00000E+00
    0.24289E-02        -0.16822E-02         0.00000E+00
    0.16253E-02        -0.11187E-02         0.00000E+00
    0.81571E-03        -0.55793E-03         0.00000E+00
    0.00000E+00         0.00000E+00         0.00000E+00
    0.35868E-01        -0.31992E-01         0.00000E+00
    0.35283E-01        -0.31356E-01         0.00000E+00
    0.34690E-01        -0.30720E-01         0.00000E+00
    0.34088E-01        -0.30084E-01         0.00000E+00
    0.33480E-01        -0.29448E-01         0.00000E+00
    0.32864E-01        -0.28812E-01         0.00000E+00
    0.32242E-01        -0.28175E-01         0.00000E+00
    0.31613E-01        -0.27539E-01         0.00000E+00
    0.30979E-01        -0.26901E-01         0.00000E+00
    0.30338E-01        -0.26264E-01         0.00000E+00
    0.29693E-01        -0.25626E-01         0.00000E+00
    0.29041E-01        -0.24987E-01         0.00000E+00
    0.28385E-01        -0.24348E-01         0.00000E+00
    0.27724E-01        -0.23709E-01         0.00000E+00
    0.27058E-01        -0.23069E-01         0.00000E+00
    0.26387E-01        -0.22429E-01         0.00000E+00
    0.25711E-01        -0.21788E-01         0.00000E+00
    0.25032E-01        -0.21146E-01         0.00000E+00
    0.24347E-01        -0.20504E-01         0.00000E+00
    0.23659E-01        -0.19861E-01         0.00000E+00
    0.22966E-01        -0.19218E-01         0.00000E+00
    0.22269E-01        -0.18574E-01         0.00000E+00
    0.21567E-01        -0.17930E-01         0.00000E+00
    0.20862E-01        -0.17285E-01         0.00000E+00
    0.20152E-01        -0.16640E-01         0.00000E+00
    0.19438E-01        -0.15995E-01         0.00000E+00
    0.18719E-01        -0.15349E-01         0.00000E+00
    0.17996E-01        -0.14703E-01         0.00000E+00
    0.17269E-01        -0.14057E-01         0.00000E+00
    0.16537E-01        -0.13410E-01         0.00000E+00
    0.15801E-01        -0.12764E-01         0.00000E+00
    0.15060E-01        -0.12117E-01         0.00000E+00
    0.14315E-01        -0.11471E-01         0.00000E+00
    0.13565E-01        -0.10825E-01         0.00000E+00
    0.12810E-01        -0.10180E-01         0.00000E+00
    0.12050E-01        -0.95345E-02         0.00000E+00
    0.11285E-01        -0.88898E-02         0.00000E+00
    0.10516E-01        -0.82459E-02         0.00000E+00
    0.97405E-02        -0.76027E-02         0.00000E+00
    0.89602E-02        -0.69605E-02         0.00000E+00
    0.81745E-02        -0.63194E-02         0.00000E+00
    0.73834E-02        -0.56794E-02         0.00000E+00
    0.65867E-02        -0.50408E-02         0.00000E+00
    0.57843E-02        -0.44038E-02         0.00000E+00
    0.49762E-02        -0.37684E-02         0.00000E+00
    0.41622E-02        -0.31348E-02         0.00000E+00
    0.33421E-02        -0.25031E-02         0.00000E+00
    0.25160E-02        -0.18737E-02         0.00000E+00
    0.16837E-02        -0.12466E-02         0.00000E+00
    0.84504E-03        -0.62194E-03         0.00000E+00
    0.00000E+00         0.00000E+00         0.00000E+00
    0.37680E-01        -0.35058E-01         0.00000E+00
    0.37030E-01        -0.34371E-01         0.00000E+00
    0.36374E-01        -0.33683E-01         0.00000E+00
    0.35712E-01        -0.32996E-01         0.00000E+00
    0.35044E-01        -0.32309E-01         0.00000E+00
    0.34371E-01        -0.31621E-01         0.00000E+00
    0.33693E-01        -0.30932E-01         0.00000E+00
    0.33010E-01        -0.30243E-01         0.00000E+00
    0.32324E-01        -0.29553E-01         0.00000E+00
    0.31633E-01        -0.28863E-01         0.00000E+00
    0.30938E-01        -0.28172E-01         0.00000E+00
    0.30239E-01        -0.27480E-01         0.00000E+00
    0.29537E-01        -0.26787E-01         0.00000E+00
    0.28832E-01        -0.26093E-01         0.00000E+00
    0.28123E-01        -0.25398E-01         0.00000E+00
    0.27410E-01        -0.24702E-01         0.00000E+00
    0.26695E-01        -0.24005E-01         0.00000E+00
    0.25976E-01        -0.23307E-01         0.00000E+00
    0.25254E-01        -0.22608E-01         0.00000E+00
    0.24529E-01        -0.21907E-01         0.00000E+00
    0.23801E-01        -0.21206E-01         0.00000E+00
    0.23069E-01        -0.20503E-01         0.00000E+00
    0.22334E-01        -0.19800E-01         0.00000E+00
    0.21596E-01        -0.19095E-01         0.00000E+00
    0.20854E-01        -0.18390E-01         0.00000E+00
    0.20109E-01        -0.17683E-01         0.00000E+00
    0.19360E-01        -0.16976E-01         0.00000E+00
    0.18608E-01        -0.16267E-01         0.00000E+00
    0.17852E-01        -0.15558E-01         0.00000E+00
    0.17092E-01        -0.14849E-01         0.00000E+00
    0.16328E-01        -0.14138E-01         0.00000E+00
    0.15560E-01        -0.13427E-01         0.00000E+00
    0.14787E-01        -0.12716E-01         0.00000E+00
    0.14010E-01        -0.12005E-01         0.00000E+00
    0.13229E-01        -0.11293E-01         0.00000E+00
    0.12443E-01        -0.10581E-01         0.00000E+00
    0.11652E-01        -0.98696E-02         0.00000E+00
    0.10857E-01        -0.91582E-02         0.00000E+00
    0.10056E-01        -0.84471E-02         0.00000E+00
    0.92499E-02        -0.77365E-02         0.00000E+00
    0.84386E-02        -0.70265E-02         0.00000E+00
    0.76218E-02        -0.63174E-02         0.00000E+00
    0.67994E-02        -0.56092E-02         0.00000E+00
    0.59712E-02        -0.49021E-02         0.00000E+00
    0.51371E-02        -0.41964E-02         0.00000E+00
    0.42969E-02        -0.34922E-02         0.00000E+00
    0.34505E-02        -0.27896E-02         0.00000E+00
    0.25978E-02        -0.20889E-02         0.00000E+00
    0.17385E-02        -0.13903E-02         0.00000E+00
    0.87264E-03        -0.69390E-03         0.00000E+00
    0.00000E+00         0.00000E+00         0.00000E+00
    0.39442E-01        -0.38467E-01         0.00000E+00
    0.38722E-01        -0.37723E-01         0.00000E+00
    0.37998E-01        -0.36980E-01         0.00000E+00
    0.37270E-01        -0.36236E-01         0.00000E+00
    0.36539E-01        -0.35492E-01         0.00000E+00
    0.35805E-01        -0.34747E-01         0.00000E+00
    0.35068E-01        -0.34001E-01         0.00000E+00
    0.34329E-01        -0.33255E-01         0.00000E+00
    0.33588E-01        -0.32507E-01         0.00000E+00
    0.32845E-01        -0.31759E-01         0.00000E+00
    0.32100E-01        -0.31009E-01         0.00000E+00
    0.31353E-01        -0.30257E-01         0.00000E+00
    0.30605E-01        -0.29505E-01         0.00000E+00
    0.29855E-01        -0.28751E-01         0.00000E+00
    0.29103E-01        -0.27995E-01         0.00000E+00
    0.28350E-01        -0.27237E-01         0.00000E+00
    0.27595E-01        -0.26478E-01         0.00000E+00
    0.26838E-01        -0.25717E-01         0.00000E+00
    0.26080E-01        -0.24955E-01         0.00000E+00
    0.25320E-01        -0.24191E-01         0.00000E+00
    0.24558E-01        -0.23425E-01         0.00000E+00
    0.23794E-01        -0.22657E-01         0.00000E+00
    0.23027E-01        -0.21887E-01         0.00000E+00
    0.22259E-01        -0.21116E-01         0.00000E+00
    0.21488E-01        -0.20343E-01         0.00000E+00
    0.20714E-01        -0.19568E-01         0.00000E+00
    0.19937E-01        -0.18792E-01         0.00000E+00
    0.19158E-01        -0.18015E-01         0.00000E+00
    0.18376E-01        -0.17236E-01         0.00000E+00
    0.17590E-01        -0.16455E-01         0.00000E+00
    0.16801E-01        -0.15674E-01         0.00000E+00
    0.16008E-01        -0.14891E-01         0.00000E+00
    0.15211E-01        -0.14107E-01         0.00000E+00
    0.14411E-01        -0.13323E-01         0.00000E+00
    0.13606E-01        -0.12537E-01         0.00000E+00
    0.12797E-01        -0.11751E-01         0.00000E+00
    0.11983E-01        -0.10965E-01         0.00000E+00
    0.11164E-01        -0.10178E-01         0.00000E+00
    0.10340E-01        -0.93912E-02         0.00000E+00
    0.95116E-02        -0.86043E-02         0.00000E+00
    0.86775E-02        -0.78175E-02         0.00000E+00
    0.78378E-02        -0.70310E-02         0.00000E+00
    0.69923E-02        -0.62450E-02         0.00000E+00
    0.61409E-02        -0.54598E-02         0.00000E+00
    0.52835E-02        -0.46754E-02         0.00000E+00
    0.44197E-02        -0.38922E-02         0.00000E+00
    0.35494E-02        -0.31103E-02         0.00000E+00
    0.26725E-02        -0.23299E-02         0.00000E+00
    0.17887E-02        -0.15512E-02         0.00000E+00
    0.89797E-03        -0.77451E-03         0.00000E+00
    0.00000E+00         0.00000E+00         0.00000E+00
    0.41111E-01        -0.42250E-01         0.00000E+00
    0.40314E-01        -0.41445E-01         0.00000E+00
    0.39517E-01        -0.40639E-01         0.00000E+00
    0.38719E-01        -0.39833E-01         0.00000E+00
    0.37921E-01        -0.39027E-01         0.00000E+00
    0.37123E-01        -0.38219E-01         0.00000E+00
    0.36326E-01        -0.37410E-01         0.00000E+00
    0.35529E-01        -0.36600E-01         0.00000E+00
    0.34732E-01        -0.35789E-01         0.00000E+00
    0.33936E-01        -0.34976E-01         0.00000E+00
    0.33141E-01        -0.34161E-01         0.00000E+00
    0.32346E-01        -0.33344E-01         0.00000E+00
    0.31552E-01        -0.32525E-01         0.00000E+00
    0.30759E-01        -0.31704E-01         0.00000E+00
    0.29966E-01        -0.30881E-01         0.00000E+00
    0.29174E-01        -0.30056E-01         0.00000E+00
    0.28381E-01        -0.29228E-01         0.00000E+00
    0.27589E-01        -0.28398E-01         0.00000E+00
    0.26797E-01        -0.27565E-01         0.00000E+00
    0.26004E-01        -0.26730E-01         0.00000E+00
    0.25211E-01        -0.25892E-01         0.00000E+00
    0.24418E-01        -0.25052E-01         0.00000E+00
    0.23623E-01        -0.24209E-01         0.00000E+00
    0.22828E-01        -0.23364E-01         0.00000E+00
    0.22031E-01        -0.22516E-01         0.00000E+00
    0.21232E-01        -0.21666E-01         0.00000E+00
    0.20431E-01        -0.20814E-01         0.00000E+00
    0.19629E-01        -0.19959E-01         0.00000E+00
    0.18824E-01        -0.19103E-01         0.00000E+00
    0.18016E-01        -0.18244E-01         0.00000E+00
    0.17206E-01        -0.17383E-01         0.00000E+00
    0.16392E-01        -0.16520E-01         0.00000E+00
    0.15575E-01        -0.15656E-01         0.00000E+00
    0.14754E-01        -0.14790E-01         0.00000E+00
    0.13929E-01        -0.13923E-01         0.00000E+00
    0.13100E-01        -0.13054E-01         0.00000E+00
    0.12267E-01        -0.12185E-01         0.00000E+00
    0.11429E-01        -0.11314E-01         0.00000E+00
    0.10586E-01        -0.10443E-01         0.00000E+00
    0.97380E-02        -0.95708E-02         0.00000E+00
    0.88845E-02        -0.86985E-02         0.00000E+00
    0.80253E-02        -0.78260E-02         0.00000E+00
    0.71602E-02        -0.69535E-02         0.00000E+00
    0.62890E-02        -0.60812E-02         0.00000E+00
    0.54114E-02        -0.52094E-02         0.00000E+00
    0.45273E-02        -0.43381E-02         0.00000E+00
    0.36363E-02        -0.34678E-02         0.00000E+00
    0.27384E-02        -0.25986E-02         0.00000E+00
    0.18331E-02        -0.17307E-02         0.00000E+00
    0.92041E-03        -0.86443E-03         0.00000E+00
    0.00000E+00         0.00000E+00         0.00000E+00
    0.42629E-01        -0.46436E-01         0.00000E+00
    0.41751E-01        -0.45562E-01         0.00000E+00
    0.40877E-01        -0.44688E-01         0.00000E+00
    0.40006E-01        -0.43813E-01         0.00000E+00
    0.39139E-01        -0.42938E-01         0.00000E+00
    0.38276E-01        -0.42061E-01         0.00000E+00
    0.37417E-01        -0.41183E-01         0.00000E+00
    0.36561E-01        -0.40303E-01         0.00000E+00
    0.35709E-01        -0.39421E-01         0.00000E+00
    0.34861E-01        -0.38536E-01         0.00000E+00
    0.34017E-01        -0.37650E-01         0.00000E+00
    0.33176E-01        -0.36761E-01         0.00000E+00
    0.32339E-01        -0.35869E-01         0.00000E+00
    0.31504E-01        -0.34974E-01         0.00000E+00
    0.30673E-01        -0.34077E-01         0.00000E+00
    0.29845E-01        -0.33176E-01         0.00000E+00
    0.29018E-01        -0.32273E-01         0.00000E+00
    0.28194E-01        -0.31366E-01         0.00000E+00
    0.27372E-01        -0.30455E-01         0.00000E+00
    0.26551E-01        -0.29542E-01         0.00000E+00
    0.25732E-01        -0.28625E-01         0.00000E+00
    0.24913E-01        -0.27704E-01         0.00000E+00
    0.24095E-01        -0.26781E-01         0.00000E+00
    0.23277E-01        -0.25854E-01         0.00000E+00
    0.22459E-01        -0.24924E-01         0.00000E+00
    0.21640E-01        -0.23990E-01         0.00000E+00
    0.20821E-01        -0.23053E-01         0.00000E+00
    0.20000E-01        -0.22114E-01         0.00000E+00
    0.19177E-01        -0.21171E-01         0.00000E+00
    0.18353E-01        -0.20225E-01         0.00000E+00
    0.17526E-01        -0.19277E-01         0.00000E+00
    0.16696E-01        -0.18326E-01         0.00000E+00
    0.15863E-01        -0.17372E-01         0.00000E+00
    0.15027E-01        -0.16417E-01         0.00000E+00
    0.14187E-01        -0.15459E-01         0.00000E+00
    0.13343E-01        -0.14499E-01         0.00000E+00
    0.12495E-01        -0.13537E-01         0.00000E+00
    0.11642E-01        -0.12573E-01         0.00000E+00
    0.10784E-01        -0.11609E-01         0.00000E+00
    0.99210E-02        -0.10643E-01         0.00000E+00
    0.90523E-02        -0.96755E-02         0.00000E+00
    0.81778E-02        -0.87077E-02         0.00000E+00
    0.72971E-02        -0.77393E-02         0.00000E+00
    0.64101E-02        -0.67706E-02         0.00000E+00
    0.55165E-02        -0.58017E-02         0.00000E+00
    0.46160E-02        -0.48330E-02         0.00000E+00
    0.37082E-02        -0.38646E-02         0.00000E+00
    0.27930E-02        -0.28969E-02         0.00000E+00
    0.18701E-02        -0.19300E-02         0.00000E+00
    0.93922E-03        -0.96431E-03         0.00000E+00
    0.00000E+00         0.00000E+00         0.00000E+00
    0.43928E-01        -0.51046E-01         0.00000E+00
    0.42966E-01        -0.50097E-01         0.00000E+00
    0.42013E-01        -0.49148E-01         0.00000E+00
    0.41067E-01        -0.48197E-01         0.00000E+00
    0.40130E-01        -0.47246E-01         0.00000E+00
    0.39202E-01        -0.46292E-01         0.00000E+00
    0.38281E-01        -0.45337E-01         0.00000E+00
    0.37368E-01        -0.44380E-01         0.00000E+00
    0.36463E-01        -0.43420E-01         0.00000E+00
    0.35566E-01        -0.42458E-01         0.00000E+00
    0.34676E-01        -0.41492E-01         0.00000E+00
    0.33792E-01        -0.40524E-01         0.00000E+00
    0.32915E-01        -0.39551E-01         0.00000E+00
    0.32044E-01        -0.38576E-01         0.00000E+00
    0.31180E-01        -0.37596E-01         0.00000E+00
    0.30320E-01        -0.36613E-01         0.00000E+00
    0.29465E-01        -0.35625E-01         0.00000E+00
    0.28615E-01        -0.34634E-01         0.00000E+00
    0.27768E-01        -0.33638E-01         0.00000E+00
    0.26926E-01        -0.32639E-01         0.00000E+00
    0.26086E-01        -0.31635E-01         0.00000E+00
    0.25248E-01        -0.30626E-01         0.00000E+00
    0.24413E-01        -0.29614E-01         0.00000E+00
    0.23579E-01        -0.28597E-01         0.00000E+00
    0.22746E-01        -0.27576E-01         0.00000E+00
    0.21914E-01        -0.26551E-01         0.00000E+00
    0.21082E-01        -0.25521E-01         0.00000E+00
    0.20249E-01        -0.24488E-01         0.00000E+00
    0.19415E-01        -0.23451E-01         0.00000E+00
    0.18580E-01        -0.22410E-01         0.00000E+00
    0.17743E-01        -0.21365E-01         0.00000E+00
    0.16903E-01        -0.20317E-01         0.00000E+00
    0.16061E-01        -0.19265E-01         0.00000E+00
    0.15216E-01        -0.18211E-01         0.00000E+00
    0.14366E-01        -0.17153E-01         0.00000E+00
    0.13513E-01        -0.16092E-01         0.00000E+00
    0.12655E-01        -0.15029E-01         0.00000E+00
    0.11793E-01        -0.13963E-01         0.00000E+00
    0.10925E-01        -0.12896E-01         0.00000E+00
    0.10052E-01        -0.11826E-01         0.00000E+00
    0.91730E-02        -0.10754E-01         0.00000E+00
    0.82880E-02        -0.96813E-02         0.00000E+00
    0.73965E-02        -0.86072E-02         0.00000E+00
    0.64984E-02        -0.75320E-02         0.00000E+00
    0.55934E-02        -0.64562E-02         0.00000E+00
    0.46812E-02        -0.53799E-02         0.00000E+00
    0.37614E-02        -0.43033E-02         0.00000E+00
    0.28337E-02        -0.32267E-02         0.00000E+00
    0.18977E-02        -0.21505E-02         0.00000E+00
    0.95318E-03        -0.10748E-02         0.00000E+00
    0.00000E+00         0.00000E+00         0.00000E+00
    0.44925E-01        -0.56097E-01         0.00000E+00
    0.43878E-01        -0.55064E-01         0.00000E+00
    0.42845E-01        -0.54031E-01         0.00000E+00
    0.41826E-01        -0.52997E-01         0.00000E+00
    0.40820E-01        -0.51962E-01         0.00000E+00
    0.39829E-01        -0.50925E-01         0.00000E+00
    0.38850E-01        -0.49885E-01         0.00000E+00
    0.37884E-01        -0.48843E-01         0.00000E+00
    0.36930E-01        -0.47797E-01         0.00000E+00
    0.35988E-01        -0.46749E-01         0.00000E+00
    0.35057E-01        -0.45696E-01         0.00000E+00
    0.34137E-01        -0.44640E-01         0.00000E+00
    0.33227E-01        -0.43579E-01         0.00000E+00
    0.32326E-01        -0.42515E-01         0.00000E+00
    0.31434E-01        -0.41445E-01         0.00000E+00
    0.30551E-01        -0.40371E-01         0.00000E+00
    0.29675E-01        -0.39292E-01         0.00000E+00
    0.28806E-01        -0.38209E-01         0.00000E+00
    0.27944E-01        -0.37120E-01         0.00000E+00
    0.27087E-01        -0.36026E-01         0.00000E+00
    0.26235E-01        -0.34927E-01         0.00000E+00
    0.25387E-01        -0.33823E-01         0.00000E+00
    0.24543E-01        -0.32713E-01         0.00000E+00
    0.23701E-01        -0.31599E-01         0.00000E+00
    0.22862E-01        -0.30479E-01         0.00000E+00
    0.22025E-01        -0.29354E-01         0.00000E+00
    0.21188E-01        -0.28224E-01         0.00000E+00
    0.20352E-01        -0.27089E-01         0.00000E+00
    0.19515E-01        -0.25949E-01         0.00000E+00
    0.18677E-01        -0.24804E-01         0.00000E+00
    0.17838E-01        -0.23655E-01         0.00000E+00
    0.16996E-01        -0.22501E-01         0.00000E+00
    0.16152E-01        -0.21343E-01         0.00000E+00
    0.15304E-01        -0.20180E-01         0.00000E+00
    0.14453E-01        -0.19014E-01         0.00000E+00
    0.13597E-01        -0.17844E-01         0.00000E+00
    0.12736E-01        -0.16670E-01         0.00000E+00
    0.11870E-01        -0.15492E-01         0.00000E+00
    0.10999E-01        -0.14312E-01         0.00000E+00
    0.10122E-01        -0.13129E-01         0.00000E+00
    0.92384E-02        -0.11943E-01         0.00000E+00
    0.83483E-02        -0.10754E-01         0.00000E+00
    0.74513E-02        -0.95640E-02         0.00000E+00
    0.65472E-02        -0.83718E-02         0.00000E+00
    0.56358E-02        -0.71781E-02         0.00000E+00
    0.47167E-02        -0.59832E-02         0.00000E+00
    0.37900E-02        -0.47875E-02         0.00000E+00
    0.28555E-02        -0.35912E-02         0.00000E+00
    0.19129E-02        -0.23944E-02         0.00000E+00
    0.96163E-03        -0.11973E-02         0.00000E+00
    0.00000E+00         0.00000E+00         0.00000E+00
    0.45522E-01        -0.61588E-01         0.00000E+00
    0.44391E-01        -0.60464E-01         0.00000E+00
    0.43282E-01        -0.59339E-01         0.00000E+00
    0.42193E-01        -0.58213E-01         0.00000E+00
    0.41124E-01        -0.57085E-01         0.00000E+00
    0.40074E-01        -0.55955E-01         0.00000E+00
    0.39044E-01        -0.54823E-01         0.00000E+00
    0.38031E-01        -0.53687E-01         0.00000E+00
    0.37035E-01        -0.52548E-01         0.00000E+00
    0.36056E-01        -0.51404E-01         0.00000E+00
    0.35093E-01        -0.50257E-01         0.00000E+00
    0.34145E-01        -0.49105E-01         0.00000E+00
    0.33211E-01        -0.47948E-01         0.00000E+00
    0.32289E-01        -0.46786E-01         0.00000E+00
    0.31381E-01        -0.45619E-01         0.00000E+00
    0.30483E-01        -0.44446E-01         0.00000E+00
    0.29596E-01        -0.43268E-01         0.00000E+00
    0.28719E-01        -0.42084E-01         0.00000E+00
    0.27850E-01        -0.40894E-01         0.00000E+00
    0.26990E-01        -0.39699E-01         0.00000E+00
    0.26136E-01        -0.38497E-01         0.00000E+00
    0.25288E-01        -0.37289E-01         0.00000E+00
    0.24446E-01        -0.36076E-01         0.00000E+00
    0.23607E-01        -0.34856E-01         0.00000E+00
    0.22772E-01        -0.33630E-01         0.00000E+00
    0.21940E-01        -0.32398E-01         0.00000E+00
    0.21109E-01        -0.31160E-01         0.00000E+00
    0.20279E-01        -0.29916E-01         0.00000E+00
    0.19449E-01        -0.28667E-01         0.00000E+00
    0.18619E-01        -0.27411E-01         0.00000E+00
    0.17787E-01        -0.26150E-01         0.00000E+00
    0.16953E-01        -0.24883E-01         0.00000E+00
    0.16115E-01        -0.23611E-01         0.00000E+00
    0.15275E-01        -0.22334E-01         0.00000E+00
    0.14430E-01        -0.21051E-01         0.00000E+00
    0.13580E-01        -0.19763E-01         0.00000E+00
    0.12724E-01        -0.18471E-01         0.00000E+00
    0.11863E-01        -0.17174E-01         0.00000E+00
    0.10996E-01        -0.15873E-01         0.00000E+00
    0.10121E-01        -0.14567E-01         0.00000E+00
    0.92396E-02        -0.13258E-01         0.00000E+00
    0.83505E-02        -0.11945E-01         0.00000E+00
    0.74538E-02        -0.10628E-01         0.00000E+00
    0.65494E-02        -0.93082E-02         0.00000E+00
    0.56374E-02        -0.79850E-02         0.00000E+00
    0.47176E-02        -0.66587E-02         0.00000E+00
    0.37895E-02        -0.53293E-02         0.00000E+00
    0.28529E-02        -0.39976E-02         0.00000E+00
    0.19080E-02        -0.26653E-02         0.00000E+00
    0.95554E-03        -0.13328E-02         0.00000E+00
    0.00000E+00         0.00000E+00         0.00000E+00
    0.45606E-01        -0.67502E-01         0.00000E+00
    0.44398E-01        -0.66277E-01         0.00000E+00
    0.43219E-01        -0.65052E-01         0.00000E+00
    0.42068E-01        -0.63825E-01         0.00000E+00
    0.40944E-01        -0.62596E-01         0.00000E+00
    0.39846E-01        -0.61364E-01         0.00000E+00
    0.38773E-01        -0.60130E-01         0.00000E+00
    0.37724E-01        -0.58891E-01         0.00000E+00
    0.36698E-01        -0.57649E-01         0.00000E+00
    0.35693E-01        -0.56403E-01         0.00000E+00
    0.34709E-01        -0.55151E-01         0.00000E+00
    0.33744E-01        -0.53895E-01         0.00000E+00
    0.32798E-01        -0.52634E-01         0.00000E+00
    0.31868E-01        -0.51366E-01         0.00000E+00
    0.30955E-01        -0.50093E-01         0.00000E+00
    0.30056E-01        -0.48815E-01         0.00000E+00
    0.29170E-01        -0.47529E-01         0.00000E+00
    0.28297E-01        -0.46238E-01         0.00000E+00
    0.27436E-01        -0.44940E-01         0.00000E+00
    0.26584E-01        -0.43636E-01         0.00000E+00
    0.25741E-01        -0.42325E-01         0.00000E+00
    0.24906E-01        -0.41008E-01         0.00000E+00
    0.24078E-01        -0.39683E-01         0.00000E+00
    0.23255E-01        -0.38352E-01         0.00000E+00
    0.22437E-01        -0.37014E-01         0.00000E+00
    0.21622E-01        -0.35670E-01         0.00000E+00
    0.20809E-01        -0.34319E-01         0.00000E+00
    0.19998E-01        -0.32961E-01         0.00000E+00
    0.19187E-01        -0.31596E-01         0.00000E+00
    0.18376E-01        -0.30225E-01         0.00000E+00
    0.17563E-01        -0.28847E-01         0.00000E+00
    0.16747E-01        -0.27463E-01         0.00000E+00
    0.15928E-01        -0.26072E-01         0.00000E+00
    0.15105E-01        -0.24675E-01         0.00000E+00
    0.14276E-01        -0.23272E-01         0.00000E+00
    0.13442E-01        -0.21863E-01         0.00000E+00
    0.12601E-01        -0.20448E-01         0.00000E+00
    0.11754E-01        -0.19028E-01         0.00000E+00
    0.10898E-01        -0.17602E-01         0.00000E+00
    0.10035E-01        -0.16170E-01         0.00000E+00
    0.91630E-02        -0.14733E-01         0.00000E+00
    0.82825E-02        -0.13290E-01         0.00000E+00
    0.73923E-02        -0.11842E-01         0.00000E+00
    0.64922E-02        -0.10389E-01         0.00000E+00
    0.55816E-02        -0.89323E-02         0.00000E+00
    0.46616E-02        -0.74722E-02         0.00000E+00
    0.37356E-02        -0.60083E-02         0.00000E+00
    0.28055E-02        -0.45372E-02         0.00000E+00
    0.18730E-02        -0.30513E-02         0.00000E+00
    0.93749E-03        -0.15406E-02         0.00000E+00
    0.00000E+00         0.00000E+00         0.00000E+00
    0.45051E-01        -0.73799E-01         0.00000E+00
    0.43777E-01        -0.72464E-01         0.00000E+00
    0.42540E-01        -0.71127E-01         0.00000E+00
    0.41340E-01        -0.69789E-01         0.00000E+00
    0.40174E-01        -0.68449E-01         0.00000E+00
    0.39041E-01        -0.67106E-01         0.00000E+00
    0.37940E-01        -0.65760E-01         0.00000E+00
    0.36870E-01        -0.64411E-01         0.00000E+00
    0.35827E-01        -0.63056E-01         0.00000E+00
    0.34812E-01        -0.61698E-01         0.00000E+00
    0.33822E-01        -0.60334E-01         0.00000E+00
    0.32856E-01        -0.58965E-01         0.00000E+00
    0.31913E-01        -0.57590E-01         0.00000E+00
    0.30990E-01        -0.56210E-01         0.00000E+00
    0.30088E-01        -0.54824E-01         0.00000E+00
    0.29203E-01        -0.53431E-01         0.00000E+00
    0.28334E-01        -0.52032E-01         0.00000E+00
    0.27481E-01        -0.50626E-01         0.00000E+00
    0.26641E-01        -0.49214E-01         0.00000E+00
    0.25813E-01        -0.47795E-01         0.00000E+00
    0.24996E-01        -0.46369E-01         0.00000E+00
    0.24189E-01        -0.44936E-01         0.00000E+00
    0.23390E-01        -0.43497E-01         0.00000E+00
    0.22597E-01        -0.42050E-01         0.00000E+00
    0.21810E-01        -0.40596E-01         0.00000E+00
    0.21027E-01        -0.39135E-01         0.00000E+00
    0.20247E-01        -0.37668E-01         0.00000E+00
    0.19468E-01        -0.36193E-01         0.00000E+00
    0.18690E-01        -0.34711E-01         0.00000E+00
    0.17911E-01        -0.33222E-01         0.00000E+00
    0.17130E-01        -0.31726E-01         0.00000E+00
    0.16346E-01        -0.30223E-01         0.00000E+00
    0.15558E-01        -0.28714E-01         0.00000E+00
    0.14764E-01        -0.27197E-01         0.00000E+00
    0.13964E-01        -0.25674E-01         0.00000E+00
    0.13156E-01        -0.24145E-01         0.00000E+00
    0.12341E-01        -0.22609E-01         0.00000E+00
    0.11517E-01        -0.21066E-01         0.00000E+00
    0.10683E-01        -0.19516E-01         0.00000E+00
    0.98375E-02        -0.17961E-01         0.00000E+00
    0.89795E-02        -0.16402E-01         0.00000E+00
    0.81098E-02        -0.14838E-01         0.00000E+00
    0.72313E-02        -0.13270E-01         0.00000E+00
    0.63441E-02        -0.11693E-01         0.00000E+00
    0.54519E-02        -0.10101E-01         0.00000E+00
    0.45524E-02        -0.84841E-02         0.00000E+00
    0.36484E-02        -0.68402E-02         0.00000E+00
    0.27427E-02        -0.51690E-02         0.00000E+00
    0.18339E-02        -0.34699E-02         0.00000E+00
    0.92069E-03        -0.17462E-02         0.00000E+00
    0.00000E+00         0.00000E+00         0.00000E+00
    0.43717E-01        -0.80406E-01         0.00000E+00
    0.42395E-01        -0.78949E-01         0.00000E+00
    0.41120E-01        -0.77492E-01         0.00000E+00
    0.39889E-01        -0.76033E-01         0.00000E+00
    0.38700E-01        -0.74572E-01         0.00000E+00
    0.37552E-01        -0.73108E-01         0.00000E+00
    0.36443E-01        -0.71640E-01         0.00000E+00
    0.35369E-01        -0.70169E-01         0.00000E+00
    0.34331E-01        -0.68693E-01         0.00000E+00
    0.33324E-01        -0.67213E-01         0.00000E+00
    0.32348E-01        -0.65728E-01         0.00000E+00
    0.31400E-01        -0.64238E-01         0.00000E+00
    0.30478E-01        -0.62742E-01         0.00000E+00
    0.29582E-01        -0.61241E-01         0.00000E+00
    0.28708E-01        -0.59734E-01         0.00000E+00
    0.27855E-01        -0.58220E-01         0.00000E+00
    0.27022E-01        -0.56701E-01         0.00000E+00
    0.26205E-01        -0.55175E-01         0.00000E+00
    0.25405E-01        -0.53643E-01         0.00000E+00
    0.24619E-01        -0.52104E-01         0.00000E+00
    0.23845E-01        -0.50559E-01         0.00000E+00
    0.23082E-01        -0.49007E-01         0.00000E+00
    0.22328E-01        -0.47448E-01         0.00000E+00
    0.21582E-01        -0.45883E-01         0.00000E+00
    0.20842E-01        -0.44311E-01         0.00000E+00
    0.20107E-01        -0.42733E-01         0.00000E+00
    0.19375E-01        -0.41148E-01         0.00000E+00
    0.18644E-01        -0.39556E-01         0.00000E+00
    0.17914E-01        -0.37957E-01         0.00000E+00
    0.17183E-01        -0.36352E-01         0.00000E+00
    0.16448E-01        -0.34740E-01         0.00000E+00
    0.15710E-01        -0.33121E-01         0.00000E+00
    0.14966E-01        -0.31496E-01         0.00000E+00
    0.14216E-01        -0.29864E-01         0.00000E+00
    0.13458E-01        -0.28225E-01         0.00000E+00
    0.12690E-01        -0.26579E-01         0.00000E+00
    0.11909E-01        -0.24928E-01         0.00000E+00
    0.11116E-01        -0.23273E-01         0.00000E+00
    0.10312E-01        -0.21613E-01         0.00000E+00
    0.94977E-02        -0.19945E-01         0.00000E+00
    0.86757E-02        -0.18261E-01         0.00000E+00
    0.78450E-02        -0.16551E-01         0.00000E+00
    0.70082E-02        -0.14814E-01         0.00000E+00
    0.61670E-02        -0.13049E-01         0.00000E+00
    0.53199E-02        -0.11254E-01         0.00000E+00
    0.44658E-02        -0.94341E-02         0.00000E+00
    0.36016E-02        -0.75888E-02         0.00000E+00
    0.27240E-02        -0.57204E-02         0.00000E+00
    0.18320E-02        -0.38316E-02         0.00000E+00
    0.92436E-03        -0.19241E-02         0.00000E+00
    0.00000E+00         0.00000E+00         0.00000E+00
    0.41459E-01        -0.87214E-01         0.00000E+00
    0.40115E-01        -0.85625E-01         0.00000E+00
    0.38827E-01        -0.84036E-01         0.00000E+00
    0.37592E-01        -0.82445E-01         0.00000E+00
    0.36406E-01        -0.80852E-01         0.00000E+00
    0.35268E-01        -0.79257E-01         0.00000E+00
    0.34175E-01        -0.77658E-01         0.00000E+00
    0.33124E-01        -0.76056E-01         0.00000E+00
    0.32113E-01        -0.74449E-01         0.00000E+00
    0.31139E-01        -0.72839E-01         0.00000E+00
    0.30200E-01        -0.71223E-01         0.00000E+00
    0.29293E-01        -0.69603E-01         0.00000E+00
    0.28416E-01        -0.67979E-01         0.00000E+00
    0.27568E-01        -0.66348E-01         0.00000E+00
    0.26744E-01        -0.64713E-01         0.00000E+00
    0.25945E-01        -0.63073E-01         0.00000E+00
    0.25167E-01        -0.61427E-01         0.00000E+00
    0.24408E-01        -0.59775E-01         0.00000E+00
    0.23666E-01        -0.58118E-01         0.00000E+00
    0.22941E-01        -0.56456E-01         0.00000E+00
    0.22228E-01        -0.54788E-01         0.00000E+00
    0.21528E-01        -0.53114E-01         0.00000E+00
    0.20838E-01        -0.51435E-01         0.00000E+00
    0.20155E-01        -0.49750E-01         0.00000E+00
    0.19480E-01        -0.48060E-01         0.00000E+00
    0.18809E-01        -0.46364E-01         0.00000E+00
    0.18142E-01        -0.44663E-01         0.00000E+00
    0.17476E-01        -0.42956E-01         0.00000E+00
    0.16810E-01        -0.41243E-01         0.00000E+00
    0.16142E-01        -0.39525E-01         0.00000E+00
    0.15471E-01        -0.37801E-01         0.00000E+00
    0.14795E-01        -0.36071E-01         0.00000E+00
    0.14111E-01        -0.34335E-01         0.00000E+00
    0.13418E-01        -0.32595E-01         0.00000E+00
    0.12715E-01        -0.30850E-01         0.00000E+00
    0.12003E-01        -0.29101E-01         0.00000E+00
    0.11282E-01        -0.27341E-01         0.00000E+00
    0.10555E-01        -0.25557E-01         0.00000E+00
    0.98206E-02        -0.23746E-01         0.00000E+00
    0.90818E-02        -0.21907E-01         0.00000E+00
    0.83368E-02        -0.20038E-01         0.00000E+00
    0.75839E-02        -0.18141E-01         0.00000E+00
    0.68189E-02        -0.16215E-01         0.00000E+00
    0.60390E-02        -0.14263E-01         0.00000E+00
    0.52418E-02        -0.12287E-01         0.00000E+00
    0.44250E-02        -0.10286E-01         0.00000E+00
    0.35871E-02        -0.82650E-02         0.00000E+00
    0.27268E-02        -0.62239E-02         0.00000E+00
    0.18429E-02        -0.41648E-02         0.00000E+00
    0.93422E-03        -0.20896E-02         0.00000E+00
    0.00000E+00         0.00000E+00         0.00000E+00
    0.38131E-01        -0.94071E-01         0.00000E+00
    0.36800E-01        -0.92340E-01         0.00000E+00
    0.35533E-01        -0.90608E-01         0.00000E+00
    0.34327E-01        -0.88875E-01         0.00000E+00
    0.33178E-01        -0.87140E-01         0.00000E+00
    0.32082E-01        -0.85403E-01         0.00000E+00
    0.31037E-01        -0.83663E-01         0.00000E+00
    0.30039E-01        -0.81919E-01         0.00000E+00
    0.29086E-01        -0.80173E-01         0.00000E+00
    0.28173E-01        -0.78422E-01         0.00000E+00
    0.27299E-01        -0.76668E-01         0.00000E+00
    0.26461E-01        -0.74911E-01         0.00000E+00
    0.25655E-01        -0.73149E-01         0.00000E+00
    0.24879E-01        -0.71383E-01         0.00000E+00
    0.24131E-01        -0.69613E-01         0.00000E+00
    0.23408E-01        -0.67840E-01         0.00000E+00
    0.22708E-01        -0.66062E-01         0.00000E+00
    0.22028E-01        -0.64280E-01         0.00000E+00
    0.21367E-01        -0.62495E-01         0.00000E+00
    0.20721E-01        -0.60705E-01         0.00000E+00
    0.20090E-01        -0.58912E-01         0.00000E+00
    0.19471E-01        -0.57115E-01         0.00000E+00
    0.18862E-01        -0.55315E-01         0.00000E+00
    0.18262E-01        -0.53510E-01         0.00000E+00
    0.17668E-01        -0.51702E-01         0.00000E+00
    0.17079E-01        -0.49891E-01         0.00000E+00
    0.16494E-01        -0.48075E-01         0.00000E+00
    0.15909E-01        -0.46256E-01         0.00000E+00
    0.15325E-01        -0.44434E-01         0.00000E+00
    0.14737E-01        -0.42606E-01         0.00000E+00
    0.14145E-01        -0.40776E-01         0.00000E+00
    0.13548E-01        -0.38943E-01         0.00000E+00
    0.12947E-01        -0.37107E-01         0.00000E+00
    0.12342E-01        -0.35259E-01         0.00000E+00
    0.11732E-01        -0.33389E-01         0.00000E+00
    0.11121E-01        -0.31495E-01         0.00000E+00
    0.10507E-01        -0.29575E-01         0.00000E+00
    0.98893E-02        -0.27628E-01         0.00000E+00
    0.92636E-02        -0.25653E-01         0.00000E+00
    0.86261E-02        -0.23651E-01         0.00000E+00
    0.79736E-02        -0.21622E-01         0.00000E+00
    0.73029E-02        -0.19566E-01         0.00000E+00
    0.66112E-02        -0.17483E-01         0.00000E+00
    0.58955E-02        -0.15376E-01         0.00000E+00
    0.51532E-02        -0.13243E-01         0.00000E+00
    0.43822E-02        -0.11087E-01         0.00000E+00
    0.35798E-02        -0.89076E-02         0.00000E+00
    0.27424E-02        -0.67074E-02         0.00000E+00
    0.18680E-02        -0.44880E-02         0.00000E+00
    0.95452E-03        -0.22513E-02         0.00000E+00
    0.00000E+00         0.00000E+00         0.00000E+00
    0.33591E-01        -0.10078E+00         0.00000E+00
    0.32318E-01        -0.98894E-01         0.00000E+00
    0.31116E-01        -0.97009E-01         0.00000E+00
    0.29981E-01        -0.95124E-01         0.00000E+00
    0.28909E-01        -0.93237E-01         0.00000E+00
    0.27895E-01        -0.91348E-01         0.00000E+00
    0.26937E-01        -0.89457E-01         0.00000E+00
    0.26029E-01        -0.87564E-01         0.00000E+00
    0.25169E-01        -0.85668E-01         0.00000E+00
    0.24353E-01        -0.83770E-01         0.00000E+00
    0.23577E-01        -0.81870E-01         0.00000E+00
    0.22838E-01        -0.79967E-01         0.00000E+00
    0.22133E-01        -0.78061E-01         0.00000E+00
    0.21459E-01        -0.76154E-01         0.00000E+00
    0.20813E-01        -0.74244E-01         0.00000E+00
    0.20192E-01        -0.72333E-01         0.00000E+00
    0.19593E-01        -0.70419E-01         0.00000E+00
    0.19015E-01        -0.68504E-01         0.00000E+00
    0.18455E-01        -0.66588E-01         0.00000E+00
    0.17911E-01        -0.64670E-01         0.00000E+00
    0.17380E-01        -0.62751E-01         0.00000E+00
    0.16861E-01        -0.60831E-01         0.00000E+00
    0.16352E-01        -0.58909E-01         0.00000E+00
    0.15850E-01        -0.56987E-01         0.00000E+00
    0.15355E-01        -0.55063E-01         0.00000E+00
    0.14863E-01        -0.53138E-01         0.00000E+00
    0.14375E-01        -0.51211E-01         0.00000E+00
    0.13888E-01        -0.49284E-01         0.00000E+00
    0.13402E-01        -0.47356E-01         0.00000E+00
    0.12918E-01        -0.45428E-01         0.00000E+00
    0.12433E-01        -0.43489E-01         0.00000E+00
    0.11950E-01        -0.41535E-01         0.00000E+00
    0.11468E-01        -0.39564E-01         0.00000E+00
    0.10988E-01        -0.37575E-01         0.00000E+00
    0.10509E-01        -0.35565E-01         0.00000E+00
    0.10026E-01        -0.33533E-01         0.00000E+00
    0.95363E-02        -0.31479E-01         0.00000E+00
    0.90371E-02        -0.29402E-01         0.00000E+00
    0.85251E-02        -0.27299E-01         0.00000E+00
    0.79968E-02        -0.25172E-01         0.00000E+00
    0.74488E-02        -0.23018E-01         0.00000E+00
    0.68773E-02        -0.20837E-01         0.00000E+00
    0.62787E-02        -0.18628E-01         0.00000E+00
    0.56497E-02        -0.16390E-01         0.00000E+00
    0.49852E-02        -0.14124E-01         0.00000E+00
    0.42804E-02        -0.11830E-01         0.00000E+00
    0.35306E-02        -0.95089E-02         0.00000E+00
    0.27304E-02        -0.71631E-02         0.00000E+00
    0.18766E-02        -0.47944E-02         0.00000E+00
    0.96755E-03        -0.24055E-02         0.00000E+00
    0.00000E+00         0.00000E+00         0.00000E+00
    0.27717E-01        -0.10708E+00         0.00000E+00
    0.26555E-01        -0.10504E+00         0.00000E+00
    0.25470E-01        -0.10299E+00         0.00000E+00
    0.24456E-01        -0.10094E+00         0.00000E+00
    0.23510E-01        -0.98896E-01         0.00000E+00
    0.22627E-01        -0.96848E-01         0.00000E+00
    0.21801E-01        -0.94798E-01         0.00000E+00
    0.21029E-01        -0.92747E-01         0.00000E+00
    0.20305E-01        -0.90694E-01         0.00000E+00
    0.19625E-01        -0.88641E-01         0.00000E+00
    0.18985E-01        -0.86587E-01         0.00000E+00
    0.18381E-01        -0.84532E-01         0.00000E+00
    0.17810E-01        -0.82478E-01         0.00000E+00
    0.17268E-01        -0.80425E-01         0.00000E+00
    0.16752E-01        -0.78372E-01         0.00000E+00
    0.16259E-01        -0.76321E-01         0.00000E+00
    0.15787E-01        -0.74271E-01         0.00000E+00
    0.15332E-01        -0.72222E-01         0.00000E+00
    0.14894E-01        -0.70176E-01         0.00000E+00
    0.14469E-01        -0.68131E-01         0.00000E+00
    0.14056E-01        -0.66089E-01         0.00000E+00
    0.13653E-01        -0.64049E-01         0.00000E+00
    0.13258E-01        -0.62011E-01         0.00000E+00
    0.12871E-01        -0.59976E-01         0.00000E+00
    0.12490E-01        -0.57943E-01         0.00000E+00
    0.12115E-01        -0.55911E-01         0.00000E+00
    0.11743E-01        -0.53877E-01         0.00000E+00
    0.11376E-01        -0.51838E-01         0.00000E+00
    0.11012E-01        -0.49792E-01         0.00000E+00
    0.10654E-01        -0.47739E-01         0.00000E+00
    0.10300E-01        -0.45676E-01         0.00000E+00
    0.99504E-02        -0.43603E-01         0.00000E+00
    0.96020E-02        -0.41515E-01         0.00000E+00
    0.92530E-02        -0.39414E-01         0.00000E+00
    0.89016E-02        -0.37297E-01         0.00000E+00
    0.85454E-02        -0.35164E-01         0.00000E+00
    0.81820E-02        -0.33011E-01         0.00000E+00
    0.78084E-02        -0.30839E-01         0.00000E+00
    0.74215E-02        -0.28644E-01         0.00000E+00
    0.70179E-02        -0.26426E-01         0.00000E+00
    0.65938E-02        -0.24181E-01         0.00000E+00
    0.61456E-02        -0.21908E-01         0.00000E+00
    0.56692E-02        -0.19605E-01         0.00000E+00
    0.51593E-02        -0.17270E-01         0.00000E+00
    0.46079E-02        -0.14902E-01         0.00000E+00
    0.40074E-02        -0.12499E-01         0.00000E+00
    0.33493E-02        -0.10061E-01         0.00000E+00
    0.26276E-02        -0.75901E-02         0.00000E+00
    0.18364E-02        -0.50869E-02         0.00000E+00
    0.96231E-03        -0.25557E-02         0.00000E+00
    0.00000E+00         0.00000E+00         0.00000E+00
    0.20409E-01        -0.11270E+00         0.00000E+00
    0.19418E-01        -0.11048E+00         0.00000E+00
    0.18509E-01        -0.10826E+00         0.00000E+00
    0.17679E-01        -0.10604E+00         0.00000E+00
    0.16922E-01        -0.10382E+00         0.00000E+00
    0.16230E-01        -0.10160E+00         0.00000E+00
    0.15595E-01        -0.99372E-01         0.00000E+00
    0.15011E-01        -0.97151E-01         0.00000E+00
    0.14472E-01        -0.94933E-01         0.00000E+00
    0.13974E-01        -0.92719E-01         0.00000E+00
    0.13511E-01        -0.90508E-01         0.00000E+00
    0.13080E-01        -0.88301E-01         0.00000E+00
    0.12675E-01        -0.86099E-01         0.00000E+00
    0.12295E-01        -0.83902E-01         0.00000E+00
    0.11937E-01        -0.81711E-01         0.00000E+00
    0.11596E-01        -0.79527E-01         0.00000E+00
    0.11271E-01        -0.77348E-01         0.00000E+00
    0.10960E-01        -0.75176E-01         0.00000E+00
    0.10661E-01        -0.73010E-01         0.00000E+00
    0.10372E-01        -0.70849E-01         0.00000E+00
    0.10092E-01        -0.68694E-01         0.00000E+00
    0.98191E-02        -0.66545E-01         0.00000E+00
    0.95533E-02        -0.64399E-01         0.00000E+00
    0.92937E-02        -0.62256E-01         0.00000E+00
    0.90398E-02        -0.60116E-01         0.00000E+00
    0.87915E-02        -0.57976E-01         0.00000E+00
    0.85489E-02        -0.55837E-01         0.00000E+00
    0.83113E-02        -0.53696E-01         0.00000E+00
    0.80782E-02        -0.51551E-01         0.00000E+00
    0.78485E-02        -0.49401E-01         0.00000E+00
    0.76214E-02        -0.47245E-01         0.00000E+00
    0.73961E-02        -0.45083E-01         0.00000E+00
    0.71716E-02        -0.42912E-01         0.00000E+00
    0.69466E-02        -0.40731E-01         0.00000E+00
    0.67195E-02        -0.38539E-01         0.00000E+00
    0.64887E-02        -0.36334E-01         0.00000E+00
    0.62523E-02        -0.34114E-01         0.00000E+00
    0.60082E-02        -0.31878E-01         0.00000E+00
    0.57539E-02        -0.29623E-01         0.00000E+00
    0.54865E-02        -0.27346E-01         0.00000E+00
    0.52027E-02        -0.25045E-01         0.00000E+00
    0.48989E-02        -0.22717E-01         0.00000E+00
    0.45709E-02        -0.20359E-01         0.00000E+00
    0.42137E-02        -0.17966E-01         0.00000E+00
    0.38204E-02        -0.15536E-01         0.00000E+00
    0.33805E-02        -0.13064E-01         0.00000E+00
    0.28825E-02        -0.10547E-01         0.00000E+00
    0.23135E-02        -0.79810E-02         0.00000E+00
    0.16565E-02        -0.53650E-02         0.00000E+00
    0.88593E-03        -0.27019E-02         0.00000E+00
    0.00000E+00         0.00000E+00         0.00000E+00
    0.11484E-01        -0.11729E+00         0.00000E+00
    0.10758E-01        -0.11487E+00         0.00000E+00
    0.10140E-01        -0.11244E+00         0.00000E+00
    0.96057E-02        -0.11000E+00         0.00000E+00
    0.91372E-02        -0.10758E+00         0.00000E+00
    0.87217E-02        -0.10516E+00         0.00000E+00
    0.83498E-02        -0.10276E+00         0.00000E+00
    0.80150E-02        -0.10036E+00         0.00000E+00
    0.77123E-02        -0.97974E-01         0.00000E+00
    0.74377E-02        -0.95598E-01         0.00000E+00
    0.71882E-02        -0.93236E-01         0.00000E+00
    0.69601E-02        -0.90887E-01         0.00000E+00
    0.67497E-02        -0.88553E-01         0.00000E+00
    0.65537E-02        -0.86232E-01         0.00000E+00
    0.63698E-02        -0.83924E-01         0.00000E+00
    0.61963E-02        -0.81630E-01         0.00000E+00
    0.60315E-02        -0.79348E-01         0.00000E+00
    0.58744E-02        -0.77078E-01         0.00000E+00
    0.57237E-02        -0.74819E-01         0.00000E+00
    0.55787E-02        -0.72570E-01         0.00000E+00
    0.54387E-02        -0.70330E-01         0.00000E+00
    0.53031E-02        -0.68098E-01         0.00000E+00
    0.51716E-02        -0.65873E-01         0.00000E+00
    0.50438E-02        -0.63653E-01         0.00000E+00
    0.49196E-02        -0.61438E-01         0.00000E+00
    0.47985E-02        -0.59226E-01         0.00000E+00
    0.46804E-02        -0.57016E-01         0.00000E+00
    0.45650E-02        -0.54807E-01         0.00000E+00
    0.44520E-02        -0.52597E-01         0.00000E+00
    0.43410E-02        -0.50386E-01         0.00000E+00
    0.42314E-02        -0.48173E-01         0.00000E+00
    0.41229E-02        -0.45955E-01         0.00000E+00
    0.40147E-02        -0.43732E-01         0.00000E+00
    0.39063E-02        -0.41502E-01         0.00000E+00
    0.37970E-02        -0.39264E-01         0.00000E+00
    0.36860E-02        -0.37016E-01         0.00000E+00
    0.35723E-02        -0.34756E-01         0.00000E+00
    0.34548E-02        -0.32483E-01         0.00000E+00
    0.33322E-02        -0.30193E-01         0.00000E+00
    0.32029E-02        -0.27886E-01         0.00000E+00
    0.30648E-02        -0.25557E-01         0.00000E+00
    0.29158E-02        -0.23204E-01         0.00000E+00
    0.27528E-02        -0.20823E-01         0.00000E+00
    0.25727E-02        -0.18408E-01         0.00000E+00
    0.23710E-02        -0.15956E-01         0.00000E+00
    0.21418E-02        -0.13459E-01         0.00000E+00
    0.18760E-02        -0.10910E-01         0.00000E+00
    0.15588E-02        -0.83003E-02         0.00000E+00
    0.11695E-02        -0.56194E-02         0.00000E+00
    0.67314E-03        -0.28557E-02         0.00000E+00
    0.00000E+00         0.00000E+00         0.00000E+00
    0.00000E+00        -0.11964E+00         0.00000E+00
    0.00000E+00        -0.11699E+00         0.00000E+00
    0.00000E+00        -0.11436E+00         0.00000E+00
    0.00000E+00        -0.11176E+00         0.00000E+00
    0.00000E+00        -0.10918E+00         0.00000E+00
    0.00000E+00        -0.10664E+00         0.00000E+00
    0.00000E+00        -0.10413E+00         0.00000E+00
    0.00000E+00        -0.10164E+00         0.00000E+00
    0.00000E+00        -0.99163E-01         0.00000E+00
    0.00000E+00        -0.96705E-01         0.00000E+00
    0.00000E+00        -0.94265E-01         0.00000E+00
    0.00000E+00        -0.91846E-01         0.00000E+00
    0.00000E+00        -0.89449E-01         0.00000E+00
    0.00000E+00        -0.87072E-01         0.00000E+00
    0.00000E+00        -0.84714E-01         0.00000E+00
    0.00000E+00        -0.82373E-01         0.00000E+00
    0.00000E+00        -0.80048E-01         0.00000E+00
    0.00000E+00        -0.77739E-01         0.00000E+00
    0.00000E+00        -0.75443E-01         0.00000E+00
    0.00000E+00        -0.73159E-01         0.00000E+00
    0.00000E+00        -0.70886E-01         0.00000E+00
    0.00000E+00        -0.68623E-01         0.00000E+00
    0.00000E+00        -0.66368E-01         0.00000E+00
    0.00000E+00        -0.64120E-01         0.00000E+00
    0.00000E+00        -0.61878E-01         0.00000E+00
    0.00000E+00        -0.59640E-01         0.00000E+00
    0.00000E+00        -0.57406E-01         0.00000E+00
    0.00000E+00        -0.55173E-01         0.00000E+00
    0.00000E+00        -0.52942E-01         0.00000E+00
    0.00000E+00        -0.50710E-01         0.00000E+00
    0.00000E+00        -0.48476E-01         0.00000E+00
    0.00000E+00        -0.46239E-01         0.00000E+00
    0.00000E+00        -0.43998E-01         0.00000E+00
    0.00000E+00        -0.41752E-01         0.00000E+00
    0.00000E+00        -0.39498E-01         0.00000E+00
    0.00000E+00        -0.37235E-01         0.00000E+00
    0.00000E+00        -0.34962E-01         0.00000E+00
    0.00000E+00        -0.32677E-01         0.00000E+00
    0.00000E+00        -0.30377E-01         0.00000E+00
    0.00000E+00        -0.28061E-01         0.00000E+00
    0.00000E+00        -0.25724E-01         0.00000E+00
    0.00000E+00        -0.23365E-01         0.00000E+00
    0.00000E+00        -0.20980E-01         0.00000E+00
    0.00000E+00        -0.18563E-01         0.00000E+00
    0.00000E+00        -0.16110E-01         0.00000E+00
    0.00000E+00        -0.13613E-01         0.00000E+00
    0.00000E+00        -0.11064E-01         0.00000E+00
    0.00000E+00        -0.84499E-02         0.00000E+00
    0.00000E+00        -0.57544E-02         0.00000E+00
    0.00000E+00        -0.29512E-02         0.00000E+00
    0.00000E+00         0.00000E+00         0.00000E+00
CELL_DATA       5000
VECTORS vDarcy double 
    0.75481E-09         0.73265E-12         0.00000E+00
    0.75427E-09         0.19978E-11         0.00000E+00
    0.75326E-09         0.30222E-11         0.00000E+00
    0.75189E-09         0.38634E-11         0.00000E+00
    0.75020E-09         0.45625E-11         0.00000E+00
    0.74826E-09         0.51495E-11         0.00000E+00
    0.74610E-09         0.56463E-11         0.00000E+00
    0.74376E-09         0.60696E-11         0.00000E+00
    0.74126E-09         0.64321E-11         0.00000E+00
    0.73862E-09         0.67434E-11         0.00000E+00
    0.73587E-09         0.70113E-11         0.00000E+00
    0.73302E-09         0.72417E-11         0.00000E+00
    0.73008E-09         0.74396E-11         0.00000E+00
    0.72707E-09         0.76087E-11         0.00000E+00
    0.72400E-09         0.77523E-11         0.00000E+00
    0.72088E-09         0.78727E-11         0.00000E+00
    0.71771E-09         0.79723E-11         0.00000E+00
    0.71450E-09         0.80525E-11         0.00000E+00
    0.71127E-09         0.81148E-11         0.00000E+00
    0.70801E-09         0.81603E-11         0.00000E+00
    0.70474E-09         0.81898E-11         0.00000E+00
    0.70146E-09         0.82041E-11         0.00000E+00
    0.69818E-09         0.82037E-11         0.00000E+00
    0.69490E-09         0.81890E-11         0.00000E+00
    0.69164E-09         0.81602E-11         0.00000E+00
    0.68838E-09         0.81175E-11         0.00000E+00
    0.68514E-09         0.80609E-11         0.00000E+00
    0.68193E-09         0.79903E-11         0.00000E+00
    0.67875E-09         0.79056E-11         0.00000E+00
    0.67561E-09         0.78065E-11         0.00000E+00
    0.67251E-09         0.76927E-11         0.00000E+00
    0.66946E-09         0.75635E-11         0.00000E+00
    0.66646E-09         0.74185E-11         0.00000E+00
    0.66353E-09         0.72569E-11         0.00000E+00
    0.66066E-09         0.70777E-11         0.00000E+00
    0.65787E-09         0.68799E-11         0.00000E+00
    0.65516E-09         0.66624E-11         0.00000E+00
    0.65255E-09         0.64234E-11         0.00000E+00
    0.65003E-09         0.61614E-11         0.00000E+00
    0.64762E-09         0.58740E-11         0.00000E+00
    0.64533E-09         0.55587E-11         0.00000E+00
    0.64318E-09         0.52123E-11         0.00000E+00
    0.64117E-09         0.48309E-11         0.00000E+00
    0.63932E-09         0.44095E-11         0.00000E+00
    0.63765E-09         0.39419E-11         0.00000E+00
    0.63618E-09         0.34199E-11         0.00000E+00
    0.63493E-09         0.28331E-11         0.00000E+00
    0.63393E-09         0.21671E-11         0.00000E+00
    0.63322E-09         0.14025E-11         0.00000E+00
    0.63283E-09         0.51190E-12         0.00000E+00
    0.68363E-09         0.15420E-11         0.00000E+00
    0.68355E-09         0.43401E-11         0.00000E+00
    0.68333E-09         0.67607E-11         0.00000E+00
    0.68296E-09         0.88609E-11         0.00000E+00
    0.68242E-09         0.10689E-10         0.00000E+00
    0.68172E-09         0.12284E-10         0.00000E+00
    0.68084E-09         0.13680E-10         0.00000E+00
    0.67981E-09         0.14903E-10         0.00000E+00
    0.67864E-09         0.15977E-10         0.00000E+00
    0.67733E-09         0.16921E-10         0.00000E+00
    0.67589E-09         0.17749E-10         0.00000E+00
    0.67435E-09         0.18476E-10         0.00000E+00
    0.67270E-09         0.19111E-10         0.00000E+00
    0.67097E-09         0.19664E-10         0.00000E+00
    0.66915E-09         0.20142E-10         0.00000E+00
    0.66726E-09         0.20552E-10         0.00000E+00
    0.66531E-09         0.20898E-10         0.00000E+00
    0.66330E-09         0.21187E-10         0.00000E+00
    0.66125E-09         0.21420E-10         0.00000E+00
    0.65916E-09         0.21601E-10         0.00000E+00
    0.65703E-09         0.21733E-10         0.00000E+00
    0.65488E-09         0.21817E-10         0.00000E+00
    0.65271E-09         0.21855E-10         0.00000E+00
    0.65052E-09         0.21849E-10         0.00000E+00
    0.64833E-09         0.21798E-10         0.00000E+00
    0.64614E-09         0.21705E-10         0.00000E+00
    0.64396E-09         0.21567E-10         0.00000E+00
    0.64179E-09         0.21387E-10         0.00000E+00
    0.63964E-09         0.21163E-10         0.00000E+00
    0.63751E-09         0.20894E-10         0.00000E+00
    0.63542E-09         0.20580E-10         0.00000E+00
    0.63336E-09         0.20219E-10         0.00000E+00
    0.63135E-09         0.19811E-10         0.00000E+00
    0.62938E-09         0.19352E-10         0.00000E+00
    0.62748E-09         0.18841E-10         0.00000E+00
    0.62564E-09         0.18275E-10         0.00000E+00
    0.62387E-09         0.17650E-10         0.00000E+00
    0.62218E-09         0.16964E-10         0.00000E+00
    0.62058E-09         0.16212E-10         0.00000E+00
    0.61907E-09         0.15388E-10         0.00000E+00
    0.61767E-09         0.14488E-10         0.00000E+00
    0.61638E-09         0.13503E-10         0.00000E+00
    0.61521E-09         0.12425E-10         0.00000E+00
    0.61418E-09         0.11245E-10         0.00000E+00
    0.61328E-09         0.99511E-11         0.00000E+00
    0.61253E-09         0.85292E-11         0.00000E+00
    0.61193E-09         0.69625E-11         0.00000E+00
    0.61149E-09         0.52309E-11         0.00000E+00
    0.61121E-09         0.33104E-11         0.00000E+00
    0.61108E-09         0.11722E-11         0.00000E+00
    0.62844E-09         0.16390E-11         0.00000E+00
    0.62842E-09         0.47608E-11         0.00000E+00
    0.62837E-09         0.76435E-11         0.00000E+00
    0.62828E-09         0.10289E-10         0.00000E+00
    0.62813E-09         0.12706E-10         0.00000E+00
    0.62791E-09         0.14908E-10         0.00000E+00
    0.62761E-09         0.16907E-10         0.00000E+00
    0.62723E-09         0.18719E-10         0.00000E+00
    0.62677E-09         0.20357E-10         0.00000E+00
    0.62622E-09         0.21835E-10         0.00000E+00
    0.62559E-09         0.23165E-10         0.00000E+00
    0.62487E-09         0.24357E-10         0.00000E+00
    0.62408E-09         0.25423E-10         0.00000E+00
    0.62321E-09         0.26370E-10         0.00000E+00
    0.62227E-09         0.27207E-10         0.00000E+00
    0.62127E-09         0.27940E-10         0.00000E+00
    0.62021E-09         0.28576E-10         0.00000E+00
    0.61909E-09         0.29119E-10         0.00000E+00
    0.61793E-09         0.29574E-10         0.00000E+00
    0.61673E-09         0.29944E-10         0.00000E+00
    0.61548E-09         0.30233E-10         0.00000E+00
    0.61421E-09         0.30444E-10         0.00000E+00
    0.61291E-09         0.30578E-10         0.00000E+00
    0.61159E-09         0.30638E-10         0.00000E+00
    0.61026E-09         0.30623E-10         0.00000E+00
    0.60892E-09         0.30536E-10         0.00000E+00
    0.60757E-09         0.30376E-10         0.00000E+00
    0.60623E-09         0.30143E-10         0.00000E+00
    0.60490E-09         0.29838E-10         0.00000E+00
    0.60357E-09         0.29458E-10         0.00000E+00
    0.60227E-09         0.29004E-10         0.00000E+00
    0.60099E-09         0.28473E-10         0.00000E+00
    0.59974E-09         0.27864E-10         0.00000E+00
    0.59853E-09         0.27175E-10         0.00000E+00
    0.59736E-09         0.26402E-10         0.00000E+00
    0.59623E-09         0.25543E-10         0.00000E+00
    0.59516E-09         0.24594E-10         0.00000E+00
    0.59414E-09         0.23550E-10         0.00000E+00
    0.59319E-09         0.22408E-10         0.00000E+00
    0.59230E-09         0.21162E-10         0.00000E+00
    0.59148E-09         0.19806E-10         0.00000E+00
    0.59074E-09         0.18333E-10         0.00000E+00
    0.59008E-09         0.16737E-10         0.00000E+00
    0.58951E-09         0.15009E-10         0.00000E+00
    0.58901E-09         0.13142E-10         0.00000E+00
    0.58861E-09         0.11126E-10         0.00000E+00
    0.58829E-09         0.89531E-11         0.00000E+00
    0.58805E-09         0.66149E-11         0.00000E+00
    0.58790E-09         0.41043E-11         0.00000E+00
    0.58782E-09         0.14171E-11         0.00000E+00
    0.58551E-09         0.16286E-11         0.00000E+00
    0.58553E-09         0.47680E-11         0.00000E+00
    0.58555E-09         0.77323E-11         0.00000E+00
    0.58558E-09         0.10522E-10         0.00000E+00
    0.58560E-09         0.13139E-10         0.00000E+00
    0.58560E-09         0.15586E-10         0.00000E+00
    0.58556E-09         0.17864E-10         0.00000E+00
    0.58550E-09         0.19979E-10         0.00000E+00
    0.58540E-09         0.21935E-10         0.00000E+00
    0.58525E-09         0.23738E-10         0.00000E+00
    0.58506E-09         0.25394E-10         0.00000E+00
    0.58481E-09         0.26908E-10         0.00000E+00
    0.58453E-09         0.28286E-10         0.00000E+00
    0.58419E-09         0.29532E-10         0.00000E+00
    0.58381E-09         0.30654E-10         0.00000E+00
    0.58338E-09         0.31653E-10         0.00000E+00
    0.58290E-09         0.32536E-10         0.00000E+00
    0.58239E-09         0.33306E-10         0.00000E+00
    0.58183E-09         0.33967E-10         0.00000E+00
    0.58125E-09         0.34520E-10         0.00000E+00
    0.58063E-09         0.34970E-10         0.00000E+00
    0.57998E-09         0.35318E-10         0.00000E+00
    0.57930E-09         0.35565E-10         0.00000E+00
    0.57861E-09         0.35714E-10         0.00000E+00
    0.57790E-09         0.35765E-10         0.00000E+00
    0.57718E-09         0.35719E-10         0.00000E+00
    0.57644E-09         0.35577E-10         0.00000E+00
    0.57571E-09         0.35337E-10         0.00000E+00
    0.57497E-09         0.35001E-10         0.00000E+00
    0.57424E-09         0.34566E-10         0.00000E+00
    0.57351E-09         0.34033E-10         0.00000E+00
    0.57280E-09         0.33400E-10         0.00000E+00
    0.57210E-09         0.32664E-10         0.00000E+00
    0.57143E-09         0.31825E-10         0.00000E+00
    0.57077E-09         0.30880E-10         0.00000E+00
    0.57015E-09         0.29825E-10         0.00000E+00
    0.56955E-09         0.28659E-10         0.00000E+00
    0.56899E-09         0.27378E-10         0.00000E+00
    0.56847E-09         0.25978E-10         0.00000E+00
    0.56798E-09         0.24456E-10         0.00000E+00
    0.56754E-09         0.22806E-10         0.00000E+00
    0.56714E-09         0.21027E-10         0.00000E+00
    0.56679E-09         0.19111E-10         0.00000E+00
    0.56648E-09         0.17056E-10         0.00000E+00
    0.56622E-09         0.14857E-10         0.00000E+00
    0.56600E-09         0.12510E-10         0.00000E+00
    0.56584E-09         0.10010E-10         0.00000E+00
    0.56571E-09         0.73539E-11         0.00000E+00
    0.56563E-09         0.45382E-11         0.00000E+00
    0.56560E-09         0.15592E-11         0.00000E+00
    0.55289E-09         0.15519E-11         0.00000E+00
    0.55293E-09         0.45753E-11         0.00000E+00
    0.55299E-09         0.74739E-11         0.00000E+00
    0.55307E-09         0.10243E-10         0.00000E+00
    0.55316E-09         0.12880E-10         0.00000E+00
    0.55326E-09         0.15383E-10         0.00000E+00
    0.55335E-09         0.17751E-10         0.00000E+00
    0.55344E-09         0.19982E-10         0.00000E+00
    0.55351E-09         0.22078E-10         0.00000E+00
    0.55357E-09         0.24039E-10         0.00000E+00
    0.55361E-09         0.25866E-10         0.00000E+00
    0.55362E-09         0.27560E-10         0.00000E+00
    0.55361E-09         0.29123E-10         0.00000E+00
    0.55358E-09         0.30557E-10         0.00000E+00
    0.55352E-09         0.31864E-10         0.00000E+00
    0.55343E-09         0.33046E-10         0.00000E+00
    0.55331E-09         0.34105E-10         0.00000E+00
    0.55316E-09         0.35042E-10         0.00000E+00
    0.55299E-09         0.35859E-10         0.00000E+00
    0.55279E-09         0.36558E-10         0.00000E+00
    0.55257E-09         0.37141E-10         0.00000E+00
    0.55233E-09         0.37607E-10         0.00000E+00
    0.55206E-09         0.37958E-10         0.00000E+00
    0.55178E-09         0.38196E-10         0.00000E+00
    0.55148E-09         0.38319E-10         0.00000E+00
    0.55117E-09         0.38329E-10         0.00000E+00
    0.55085E-09         0.38226E-10         0.00000E+00
    0.55053E-09         0.38009E-10         0.00000E+00
    0.55019E-09         0.37678E-10         0.00000E+00
    0.54986E-09         0.37232E-10         0.00000E+00
    0.54952E-09         0.36670E-10         0.00000E+00
    0.54919E-09         0.35992E-10         0.00000E+00
    0.54886E-09         0.35196E-10         0.00000E+00
    0.54854E-09         0.34280E-10         0.00000E+00
    0.54823E-09         0.33242E-10         0.00000E+00
    0.54793E-09         0.32082E-10         0.00000E+00
    0.54765E-09         0.30796E-10         0.00000E+00
    0.54738E-09         0.29383E-10         0.00000E+00
    0.54714E-09         0.27840E-10         0.00000E+00
    0.54691E-09         0.26165E-10         0.00000E+00
    0.54670E-09         0.24355E-10         0.00000E+00
    0.54651E-09         0.22408E-10         0.00000E+00
    0.54635E-09         0.20322E-10         0.00000E+00
    0.54620E-09         0.18094E-10         0.00000E+00
    0.54608E-09         0.15721E-10         0.00000E+00
    0.54599E-09         0.13202E-10         0.00000E+00
    0.54591E-09         0.10535E-10         0.00000E+00
    0.54585E-09         0.77172E-11         0.00000E+00
    0.54582E-09         0.47476E-11         0.00000E+00
    0.54580E-09         0.16251E-11         0.00000E+00
    0.52919E-09         0.14572E-11         0.00000E+00
    0.52923E-09         0.43152E-11         0.00000E+00
    0.52930E-09         0.70837E-11         0.00000E+00
    0.52939E-09         0.97566E-11         0.00000E+00
    0.52951E-09         0.12329E-10         0.00000E+00
    0.52964E-09         0.14796E-10         0.00000E+00
    0.52978E-09         0.17154E-10         0.00000E+00
    0.52993E-09         0.19399E-10         0.00000E+00
    0.53008E-09         0.21530E-10         0.00000E+00
    0.53023E-09         0.23544E-10         0.00000E+00
    0.53038E-09         0.25440E-10         0.00000E+00
    0.53052E-09         0.27216E-10         0.00000E+00
    0.53065E-09         0.28871E-10         0.00000E+00
    0.53076E-09         0.30404E-10         0.00000E+00
    0.53087E-09         0.31816E-10         0.00000E+00
    0.53096E-09         0.33106E-10         0.00000E+00
    0.53103E-09         0.34273E-10         0.00000E+00
    0.53109E-09         0.35319E-10         0.00000E+00
    0.53113E-09         0.36242E-10         0.00000E+00
    0.53115E-09         0.37043E-10         0.00000E+00
    0.53116E-09         0.37722E-10         0.00000E+00
    0.53115E-09         0.38279E-10         0.00000E+00
    0.53113E-09         0.38713E-10         0.00000E+00
    0.53109E-09         0.39026E-10         0.00000E+00
    0.53104E-09         0.39215E-10         0.00000E+00
    0.53098E-09         0.39282E-10         0.00000E+00
    0.53091E-09         0.39226E-10         0.00000E+00
    0.53083E-09         0.39045E-10         0.00000E+00
    0.53075E-09         0.38740E-10         0.00000E+00
    0.53066E-09         0.38311E-10         0.00000E+00
    0.53056E-09         0.37755E-10         0.00000E+00
    0.53046E-09         0.37072E-10         0.00000E+00
    0.53036E-09         0.36261E-10         0.00000E+00
    0.53026E-09         0.35321E-10         0.00000E+00
    0.53016E-09         0.34250E-10         0.00000E+00
    0.53006E-09         0.33048E-10         0.00000E+00
    0.52997E-09         0.31713E-10         0.00000E+00
    0.52988E-09         0.30244E-10         0.00000E+00
    0.52979E-09         0.28639E-10         0.00000E+00
    0.52972E-09         0.26896E-10         0.00000E+00
    0.52965E-09         0.25015E-10         0.00000E+00
    0.52959E-09         0.22994E-10         0.00000E+00
    0.52953E-09         0.20831E-10         0.00000E+00
    0.52949E-09         0.18526E-10         0.00000E+00
    0.52945E-09         0.16078E-10         0.00000E+00
    0.52942E-09         0.13484E-10         0.00000E+00
    0.52939E-09         0.10746E-10         0.00000E+00
    0.52938E-09         0.78606E-11         0.00000E+00
    0.52937E-09         0.48290E-11         0.00000E+00
    0.52936E-09         0.16505E-11         0.00000E+00
    0.51329E-09         0.13643E-11         0.00000E+00
    0.51333E-09         0.40536E-11         0.00000E+00
    0.51339E-09         0.66782E-11         0.00000E+00
    0.51348E-09         0.92312E-11         0.00000E+00
    0.51360E-09         0.11706E-10         0.00000E+00
    0.51373E-09         0.14098E-10         0.00000E+00
    0.51387E-09         0.16401E-10         0.00000E+00
    0.51403E-09         0.18610E-10         0.00000E+00
    0.51420E-09         0.20722E-10         0.00000E+00
    0.51438E-09         0.22732E-10         0.00000E+00
    0.51455E-09         0.24638E-10         0.00000E+00
    0.51473E-09         0.26436E-10         0.00000E+00
    0.51491E-09         0.28124E-10         0.00000E+00
    0.51508E-09         0.29700E-10         0.00000E+00
    0.51525E-09         0.31161E-10         0.00000E+00
    0.51541E-09         0.32507E-10         0.00000E+00
    0.51557E-09         0.33734E-10         0.00000E+00
    0.51571E-09         0.34843E-10         0.00000E+00
    0.51585E-09         0.35831E-10         0.00000E+00
    0.51598E-09         0.36697E-10         0.00000E+00
    0.51609E-09         0.37441E-10         0.00000E+00
    0.51620E-09         0.38062E-10         0.00000E+00
    0.51630E-09         0.38557E-10         0.00000E+00
    0.51638E-09         0.38928E-10         0.00000E+00
    0.51646E-09         0.39172E-10         0.00000E+00
    0.51653E-09         0.39289E-10         0.00000E+00
    0.51659E-09         0.39277E-10         0.00000E+00
    0.51664E-09         0.39137E-10         0.00000E+00
    0.51668E-09         0.38868E-10         0.00000E+00
    0.51672E-09         0.38467E-10         0.00000E+00
    0.51675E-09         0.37935E-10         0.00000E+00
    0.51677E-09         0.37270E-10         0.00000E+00
    0.51679E-09         0.36472E-10         0.00000E+00
    0.51680E-09         0.35540E-10         0.00000E+00
    0.51682E-09         0.34472E-10         0.00000E+00
    0.51683E-09         0.33268E-10         0.00000E+00
    0.51683E-09         0.31927E-10         0.00000E+00
    0.51684E-09         0.30447E-10         0.00000E+00
    0.51684E-09         0.28829E-10         0.00000E+00
    0.51685E-09         0.27070E-10         0.00000E+00
    0.51685E-09         0.25171E-10         0.00000E+00
    0.51685E-09         0.23130E-10         0.00000E+00
    0.51686E-09         0.20947E-10         0.00000E+00
    0.51686E-09         0.18622E-10         0.00000E+00
    0.51686E-09         0.16153E-10         0.00000E+00
    0.51687E-09         0.13540E-10         0.00000E+00
    0.51687E-09         0.10784E-10         0.00000E+00
    0.51688E-09         0.78843E-11         0.00000E+00
    0.51688E-09         0.48406E-11         0.00000E+00
    0.51688E-09         0.16533E-11         0.00000E+00
    0.50431E-09         0.12856E-11         0.00000E+00
    0.50434E-09         0.38284E-11         0.00000E+00
    0.50439E-09         0.63232E-11         0.00000E+00
    0.50447E-09         0.87627E-11         0.00000E+00
    0.50456E-09         0.11140E-10         0.00000E+00
    0.50467E-09         0.13449E-10         0.00000E+00
    0.50480E-09         0.15684E-10         0.00000E+00
    0.50493E-09         0.17839E-10         0.00000E+00
    0.50508E-09         0.19910E-10         0.00000E+00
    0.50524E-09         0.21892E-10         0.00000E+00
    0.50540E-09         0.23780E-10         0.00000E+00
    0.50557E-09         0.25571E-10         0.00000E+00
    0.50574E-09         0.27261E-10         0.00000E+00
    0.50591E-09         0.28846E-10         0.00000E+00
    0.50608E-09         0.30325E-10         0.00000E+00
    0.50624E-09         0.31694E-10         0.00000E+00
    0.50641E-09         0.32950E-10         0.00000E+00
    0.50657E-09         0.34092E-10         0.00000E+00
    0.50673E-09         0.35117E-10         0.00000E+00
    0.50688E-09         0.36023E-10         0.00000E+00
    0.50702E-09         0.36808E-10         0.00000E+00
    0.50716E-09         0.37470E-10         0.00000E+00
    0.50729E-09         0.38009E-10         0.00000E+00
    0.50741E-09         0.38422E-10         0.00000E+00
    0.50753E-09         0.38708E-10         0.00000E+00
    0.50764E-09         0.38865E-10         0.00000E+00
    0.50774E-09         0.38893E-10         0.00000E+00
    0.50784E-09         0.38790E-10         0.00000E+00
    0.50793E-09         0.38556E-10         0.00000E+00
    0.50801E-09         0.38188E-10         0.00000E+00
    0.50809E-09         0.37686E-10         0.00000E+00
    0.50816E-09         0.37049E-10         0.00000E+00
    0.50822E-09         0.36276E-10         0.00000E+00
    0.50828E-09         0.35365E-10         0.00000E+00
    0.50834E-09         0.34317E-10         0.00000E+00
    0.50839E-09         0.33131E-10         0.00000E+00
    0.50843E-09         0.31804E-10         0.00000E+00
    0.50847E-09         0.30338E-10         0.00000E+00
    0.50851E-09         0.28731E-10         0.00000E+00
    0.50854E-09         0.26982E-10         0.00000E+00
    0.50857E-09         0.25091E-10         0.00000E+00
    0.50860E-09         0.23058E-10         0.00000E+00
    0.50862E-09         0.20882E-10         0.00000E+00
    0.50864E-09         0.18563E-10         0.00000E+00
    0.50866E-09         0.16101E-10         0.00000E+00
    0.50868E-09         0.13496E-10         0.00000E+00
    0.50869E-09         0.10748E-10         0.00000E+00
    0.50870E-09         0.78568E-11         0.00000E+00
    0.50871E-09         0.48230E-11         0.00000E+00
    0.50871E-09         0.16470E-11         0.00000E+00
    0.50152E-09         0.12273E-11         0.00000E+00
    0.50154E-09         0.36601E-11         0.00000E+00
    0.50157E-09         0.60550E-11         0.00000E+00
    0.50162E-09         0.84046E-11         0.00000E+00
    0.50169E-09         0.10702E-10         0.00000E+00
    0.50177E-09         0.12941E-10         0.00000E+00
    0.50186E-09         0.15116E-10         0.00000E+00
    0.50196E-09         0.17220E-10         0.00000E+00
    0.50206E-09         0.19249E-10         0.00000E+00
    0.50218E-09         0.21197E-10         0.00000E+00
    0.50230E-09         0.23060E-10         0.00000E+00
    0.50242E-09         0.24833E-10         0.00000E+00
    0.50255E-09         0.26513E-10         0.00000E+00
    0.50268E-09         0.28095E-10         0.00000E+00
    0.50281E-09         0.29575E-10         0.00000E+00
    0.50294E-09         0.30951E-10         0.00000E+00
    0.50307E-09         0.32220E-10         0.00000E+00
    0.50320E-09         0.33378E-10         0.00000E+00
    0.50333E-09         0.34422E-10         0.00000E+00
    0.50345E-09         0.35351E-10         0.00000E+00
    0.50357E-09         0.36161E-10         0.00000E+00
    0.50368E-09         0.36851E-10         0.00000E+00
    0.50379E-09         0.37419E-10         0.00000E+00
    0.50390E-09         0.37862E-10         0.00000E+00
    0.50400E-09         0.38178E-10         0.00000E+00
    0.50410E-09         0.38367E-10         0.00000E+00
    0.50419E-09         0.38426E-10         0.00000E+00
    0.50427E-09         0.38353E-10         0.00000E+00
    0.50435E-09         0.38149E-10         0.00000E+00
    0.50443E-09         0.37810E-10         0.00000E+00
    0.50449E-09         0.37337E-10         0.00000E+00
    0.50456E-09         0.36727E-10         0.00000E+00
    0.50462E-09         0.35980E-10         0.00000E+00
    0.50467E-09         0.35095E-10         0.00000E+00
    0.50472E-09         0.34070E-10         0.00000E+00
    0.50477E-09         0.32906E-10         0.00000E+00
    0.50481E-09         0.31601E-10         0.00000E+00
    0.50484E-09         0.30154E-10         0.00000E+00
    0.50488E-09         0.28565E-10         0.00000E+00
    0.50490E-09         0.26834E-10         0.00000E+00
    0.50493E-09         0.24960E-10         0.00000E+00
    0.50495E-09         0.22943E-10         0.00000E+00
    0.50497E-09         0.20782E-10         0.00000E+00
    0.50499E-09         0.18478E-10         0.00000E+00
    0.50500E-09         0.16030E-10         0.00000E+00
    0.50501E-09         0.13438E-10         0.00000E+00
    0.50502E-09         0.10703E-10         0.00000E+00
    0.50503E-09         0.78251E-11         0.00000E+00
    0.50503E-09         0.48041E-11         0.00000E+00
    0.50503E-09         0.16408E-11         0.00000E+00
    0.50430E-09         0.11923E-11         0.00000E+00
    0.50431E-09         0.35584E-11         0.00000E+00
    0.50433E-09         0.58911E-11         0.00000E+00
    0.50435E-09         0.81837E-11         0.00000E+00
    0.50439E-09         0.10430E-10         0.00000E+00
    0.50443E-09         0.12622E-10         0.00000E+00
    0.50447E-09         0.14756E-10         0.00000E+00
    0.50453E-09         0.16825E-10         0.00000E+00
    0.50458E-09         0.18824E-10         0.00000E+00
    0.50464E-09         0.20747E-10         0.00000E+00
    0.50471E-09         0.22590E-10         0.00000E+00
    0.50477E-09         0.24349E-10         0.00000E+00
    0.50484E-09         0.26018E-10         0.00000E+00
    0.50491E-09         0.27594E-10         0.00000E+00
    0.50498E-09         0.29073E-10         0.00000E+00
    0.50505E-09         0.30451E-10         0.00000E+00
    0.50512E-09         0.31725E-10         0.00000E+00
    0.50519E-09         0.32892E-10         0.00000E+00
    0.50525E-09         0.33948E-10         0.00000E+00
    0.50532E-09         0.34891E-10         0.00000E+00
    0.50538E-09         0.35717E-10         0.00000E+00
    0.50544E-09         0.36425E-10         0.00000E+00
    0.50549E-09         0.37012E-10         0.00000E+00
    0.50555E-09         0.37475E-10         0.00000E+00
    0.50560E-09         0.37813E-10         0.00000E+00
    0.50564E-09         0.38024E-10         0.00000E+00
    0.50568E-09         0.38105E-10         0.00000E+00
    0.50572E-09         0.38056E-10         0.00000E+00
    0.50576E-09         0.37874E-10         0.00000E+00
    0.50579E-09         0.37558E-10         0.00000E+00
    0.50582E-09         0.37106E-10         0.00000E+00
    0.50584E-09         0.36518E-10         0.00000E+00
    0.50586E-09         0.35791E-10         0.00000E+00
    0.50588E-09         0.34926E-10         0.00000E+00
    0.50589E-09         0.33920E-10         0.00000E+00
    0.50590E-09         0.32774E-10         0.00000E+00
    0.50591E-09         0.31485E-10         0.00000E+00
    0.50592E-09         0.30055E-10         0.00000E+00
    0.50592E-09         0.28481E-10         0.00000E+00
    0.50592E-09         0.26763E-10         0.00000E+00
    0.50593E-09         0.24902E-10         0.00000E+00
    0.50592E-09         0.22896E-10         0.00000E+00
    0.50592E-09         0.20745E-10         0.00000E+00
    0.50592E-09         0.18450E-10         0.00000E+00
    0.50592E-09         0.16010E-10         0.00000E+00
    0.50591E-09         0.13425E-10         0.00000E+00
    0.50591E-09         0.10695E-10         0.00000E+00
    0.50590E-09         0.78208E-11         0.00000E+00
    0.50590E-09         0.48025E-11         0.00000E+00
    0.50590E-09         0.16406E-11         0.00000E+00
    0.51217E-09         0.11813E-11         0.00000E+00
    0.51217E-09         0.35256E-11         0.00000E+00
    0.51217E-09         0.58373E-11         0.00000E+00
    0.51217E-09         0.81098E-11         0.00000E+00
    0.51217E-09         0.10337E-10         0.00000E+00
    0.51217E-09         0.12513E-10         0.00000E+00
    0.51217E-09         0.14631E-10         0.00000E+00
    0.51217E-09         0.16687E-10         0.00000E+00
    0.51217E-09         0.18675E-10         0.00000E+00
    0.51217E-09         0.20590E-10         0.00000E+00
    0.51218E-09         0.22426E-10         0.00000E+00
    0.51218E-09         0.24181E-10         0.00000E+00
    0.51217E-09         0.25848E-10         0.00000E+00
    0.51217E-09         0.27425E-10         0.00000E+00
    0.51217E-09         0.28906E-10         0.00000E+00
    0.51217E-09         0.30289E-10         0.00000E+00
    0.51216E-09         0.31569E-10         0.00000E+00
    0.51215E-09         0.32744E-10         0.00000E+00
    0.51215E-09         0.33809E-10         0.00000E+00
    0.51213E-09         0.34763E-10         0.00000E+00
    0.51212E-09         0.35601E-10         0.00000E+00
    0.51211E-09         0.36322E-10         0.00000E+00
    0.51209E-09         0.36922E-10         0.00000E+00
    0.51207E-09         0.37400E-10         0.00000E+00
    0.51205E-09         0.37752E-10         0.00000E+00
    0.51202E-09         0.37978E-10         0.00000E+00
    0.51200E-09         0.38074E-10         0.00000E+00
    0.51197E-09         0.38039E-10         0.00000E+00
    0.51194E-09         0.37871E-10         0.00000E+00
    0.51190E-09         0.37568E-10         0.00000E+00
    0.51187E-09         0.37130E-10         0.00000E+00
    0.51183E-09         0.36553E-10         0.00000E+00
    0.51180E-09         0.35838E-10         0.00000E+00
    0.51176E-09         0.34983E-10         0.00000E+00
    0.51172E-09         0.33987E-10         0.00000E+00
    0.51168E-09         0.32848E-10         0.00000E+00
    0.51164E-09         0.31567E-10         0.00000E+00
    0.51160E-09         0.30141E-10         0.00000E+00
    0.51156E-09         0.28571E-10         0.00000E+00
    0.51152E-09         0.26856E-10         0.00000E+00
    0.51148E-09         0.24994E-10         0.00000E+00
    0.51145E-09         0.22987E-10         0.00000E+00
    0.51141E-09         0.20834E-10         0.00000E+00
    0.51138E-09         0.18533E-10         0.00000E+00
    0.51136E-09         0.16086E-10         0.00000E+00
    0.51133E-09         0.13492E-10         0.00000E+00
    0.51131E-09         0.10751E-10         0.00000E+00
    0.51129E-09         0.78640E-11         0.00000E+00
    0.51128E-09         0.48303E-11         0.00000E+00
    0.51128E-09         0.16506E-11         0.00000E+00
    0.52472E-09         0.11935E-11         0.00000E+00
    0.52471E-09         0.35601E-11         0.00000E+00
    0.52469E-09         0.58915E-11         0.00000E+00
    0.52467E-09         0.81815E-11         0.00000E+00
    0.52464E-09         0.10424E-10         0.00000E+00
    0.52460E-09         0.12615E-10         0.00000E+00
    0.52455E-09         0.14747E-10         0.00000E+00
    0.52450E-09         0.16815E-10         0.00000E+00
    0.52445E-09         0.18815E-10         0.00000E+00
    0.52439E-09         0.20741E-10         0.00000E+00
    0.52433E-09         0.22590E-10         0.00000E+00
    0.52426E-09         0.24355E-10         0.00000E+00
    0.52419E-09         0.26034E-10         0.00000E+00
    0.52411E-09         0.27622E-10         0.00000E+00
    0.52403E-09         0.29115E-10         0.00000E+00
    0.52395E-09         0.30509E-10         0.00000E+00
    0.52387E-09         0.31801E-10         0.00000E+00
    0.52378E-09         0.32987E-10         0.00000E+00
    0.52369E-09         0.34064E-10         0.00000E+00
    0.52359E-09         0.35029E-10         0.00000E+00
    0.52350E-09         0.35879E-10         0.00000E+00
    0.52340E-09         0.36610E-10         0.00000E+00
    0.52330E-09         0.37221E-10         0.00000E+00
    0.52320E-09         0.37709E-10         0.00000E+00
    0.52310E-09         0.38070E-10         0.00000E+00
    0.52299E-09         0.38304E-10         0.00000E+00
    0.52289E-09         0.38408E-10         0.00000E+00
    0.52278E-09         0.38380E-10         0.00000E+00
    0.52267E-09         0.38218E-10         0.00000E+00
    0.52256E-09         0.37920E-10         0.00000E+00
    0.52246E-09         0.37484E-10         0.00000E+00
    0.52235E-09         0.36910E-10         0.00000E+00
    0.52225E-09         0.36195E-10         0.00000E+00
    0.52214E-09         0.35338E-10         0.00000E+00
    0.52204E-09         0.34339E-10         0.00000E+00
    0.52194E-09         0.33195E-10         0.00000E+00
    0.52184E-09         0.31906E-10         0.00000E+00
    0.52175E-09         0.30472E-10         0.00000E+00
    0.52166E-09         0.28890E-10         0.00000E+00
    0.52157E-09         0.27161E-10         0.00000E+00
    0.52149E-09         0.25284E-10         0.00000E+00
    0.52141E-09         0.23258E-10         0.00000E+00
    0.52134E-09         0.21084E-10         0.00000E+00
    0.52128E-09         0.18760E-10         0.00000E+00
    0.52122E-09         0.16286E-10         0.00000E+00
    0.52117E-09         0.13663E-10         0.00000E+00
    0.52113E-09         0.10890E-10         0.00000E+00
    0.52110E-09         0.79668E-11         0.00000E+00
    0.52108E-09         0.48945E-11         0.00000E+00
    0.52106E-09         0.16729E-11         0.00000E+00
    0.54162E-09         0.12272E-11         0.00000E+00
    0.54160E-09         0.36575E-11         0.00000E+00
    0.54157E-09         0.60474E-11         0.00000E+00
    0.54152E-09         0.83914E-11         0.00000E+00
    0.54146E-09         0.10684E-10         0.00000E+00
    0.54138E-09         0.12920E-10         0.00000E+00
    0.54130E-09         0.15094E-10         0.00000E+00
    0.54120E-09         0.17202E-10         0.00000E+00
    0.54109E-09         0.19238E-10         0.00000E+00
    0.54097E-09         0.21198E-10         0.00000E+00
    0.54085E-09         0.23078E-10         0.00000E+00
    0.54072E-09         0.24873E-10         0.00000E+00
    0.54057E-09         0.26579E-10         0.00000E+00
    0.54043E-09         0.28192E-10         0.00000E+00
    0.54027E-09         0.29708E-10         0.00000E+00
    0.54011E-09         0.31123E-10         0.00000E+00
    0.53995E-09         0.32435E-10         0.00000E+00
    0.53978E-09         0.33639E-10         0.00000E+00
    0.53961E-09         0.34732E-10         0.00000E+00
    0.53943E-09         0.35712E-10         0.00000E+00
    0.53925E-09         0.36574E-10         0.00000E+00
    0.53907E-09         0.37317E-10         0.00000E+00
    0.53888E-09         0.37937E-10         0.00000E+00
    0.53870E-09         0.38433E-10         0.00000E+00
    0.53851E-09         0.38800E-10         0.00000E+00
    0.53832E-09         0.39038E-10         0.00000E+00
    0.53813E-09         0.39144E-10         0.00000E+00
    0.53795E-09         0.39116E-10         0.00000E+00
    0.53776E-09         0.38952E-10         0.00000E+00
    0.53757E-09         0.38650E-10         0.00000E+00
    0.53739E-09         0.38208E-10         0.00000E+00
    0.53721E-09         0.37624E-10         0.00000E+00
    0.53703E-09         0.36898E-10         0.00000E+00
    0.53686E-09         0.36027E-10         0.00000E+00
    0.53669E-09         0.35011E-10         0.00000E+00
    0.53652E-09         0.33848E-10         0.00000E+00
    0.53636E-09         0.32537E-10         0.00000E+00
    0.53621E-09         0.31077E-10         0.00000E+00
    0.53606E-09         0.29467E-10         0.00000E+00
    0.53593E-09         0.27707E-10         0.00000E+00
    0.53580E-09         0.25795E-10         0.00000E+00
    0.53568E-09         0.23731E-10         0.00000E+00
    0.53557E-09         0.21515E-10         0.00000E+00
    0.53547E-09         0.19146E-10         0.00000E+00
    0.53538E-09         0.16623E-10         0.00000E+00
    0.53530E-09         0.13948E-10         0.00000E+00
    0.53524E-09         0.11118E-10         0.00000E+00
    0.53519E-09         0.81355E-11         0.00000E+00
    0.53516E-09         0.49989E-11         0.00000E+00
    0.53514E-09         0.17089E-11         0.00000E+00
    0.56261E-09         0.12804E-11         0.00000E+00
    0.56259E-09         0.38122E-11         0.00000E+00
    0.56254E-09         0.62965E-11         0.00000E+00
    0.56247E-09         0.87283E-11         0.00000E+00
    0.56238E-09         0.11102E-10         0.00000E+00
    0.56227E-09         0.13414E-10         0.00000E+00
    0.56215E-09         0.15659E-10         0.00000E+00
    0.56201E-09         0.17832E-10         0.00000E+00
    0.56185E-09         0.19929E-10         0.00000E+00
    0.56168E-09         0.21945E-10         0.00000E+00
    0.56150E-09         0.23876E-10         0.00000E+00
    0.56130E-09         0.25718E-10         0.00000E+00
    0.56109E-09         0.27468E-10         0.00000E+00
    0.56088E-09         0.29121E-10         0.00000E+00
    0.56065E-09         0.30673E-10         0.00000E+00
    0.56042E-09         0.32121E-10         0.00000E+00
    0.56018E-09         0.33462E-10         0.00000E+00
    0.55993E-09         0.34692E-10         0.00000E+00
    0.55968E-09         0.35809E-10         0.00000E+00
    0.55942E-09         0.36808E-10         0.00000E+00
    0.55916E-09         0.37687E-10         0.00000E+00
    0.55889E-09         0.38443E-10         0.00000E+00
    0.55863E-09         0.39073E-10         0.00000E+00
    0.55836E-09         0.39576E-10         0.00000E+00
    0.55809E-09         0.39948E-10         0.00000E+00
    0.55782E-09         0.40186E-10         0.00000E+00
    0.55755E-09         0.40290E-10         0.00000E+00
    0.55728E-09         0.40256E-10         0.00000E+00
    0.55701E-09         0.40082E-10         0.00000E+00
    0.55675E-09         0.39768E-10         0.00000E+00
    0.55649E-09         0.39310E-10         0.00000E+00
    0.55623E-09         0.38707E-10         0.00000E+00
    0.55598E-09         0.37958E-10         0.00000E+00
    0.55573E-09         0.37061E-10         0.00000E+00
    0.55550E-09         0.36014E-10         0.00000E+00
    0.55527E-09         0.34817E-10         0.00000E+00
    0.55505E-09         0.33469E-10         0.00000E+00
    0.55483E-09         0.31967E-10         0.00000E+00
    0.55463E-09         0.30311E-10         0.00000E+00
    0.55444E-09         0.28501E-10         0.00000E+00
    0.55426E-09         0.26535E-10         0.00000E+00
    0.55410E-09         0.24413E-10         0.00000E+00
    0.55395E-09         0.22134E-10         0.00000E+00
    0.55382E-09         0.19698E-10         0.00000E+00
    0.55370E-09         0.17104E-10         0.00000E+00
    0.55360E-09         0.14352E-10         0.00000E+00
    0.55351E-09         0.11441E-10         0.00000E+00
    0.55345E-09         0.83722E-11         0.00000E+00
    0.55340E-09         0.51448E-11         0.00000E+00
    0.55338E-09         0.17589E-11         0.00000E+00
    0.58750E-09         0.13511E-11         0.00000E+00
    0.58747E-09         0.40182E-11         0.00000E+00
    0.58741E-09         0.66294E-11         0.00000E+00
    0.58732E-09         0.91800E-11         0.00000E+00
    0.58721E-09         0.11665E-10         0.00000E+00
    0.58707E-09         0.14081E-10         0.00000E+00
    0.58691E-09         0.16422E-10         0.00000E+00
    0.58673E-09         0.18685E-10         0.00000E+00
    0.58653E-09         0.20866E-10         0.00000E+00
    0.58631E-09         0.22959E-10         0.00000E+00
    0.58607E-09         0.24962E-10         0.00000E+00
    0.58582E-09         0.26870E-10         0.00000E+00
    0.58555E-09         0.28680E-10         0.00000E+00
    0.58527E-09         0.30388E-10         0.00000E+00
    0.58498E-09         0.31990E-10         0.00000E+00
    0.58468E-09         0.33483E-10         0.00000E+00
    0.58437E-09         0.34864E-10         0.00000E+00
    0.58405E-09         0.36129E-10         0.00000E+00
    0.58372E-09         0.37276E-10         0.00000E+00
    0.58339E-09         0.38300E-10         0.00000E+00
    0.58305E-09         0.39201E-10         0.00000E+00
    0.58270E-09         0.39973E-10         0.00000E+00
    0.58236E-09         0.40616E-10         0.00000E+00
    0.58201E-09         0.41126E-10         0.00000E+00
    0.58166E-09         0.41500E-10         0.00000E+00
    0.58131E-09         0.41738E-10         0.00000E+00
    0.58096E-09         0.41835E-10         0.00000E+00
    0.58061E-09         0.41791E-10         0.00000E+00
    0.58027E-09         0.41602E-10         0.00000E+00
    0.57993E-09         0.41268E-10         0.00000E+00
    0.57959E-09         0.40786E-10         0.00000E+00
    0.57926E-09         0.40154E-10         0.00000E+00
    0.57894E-09         0.39371E-10         0.00000E+00
    0.57863E-09         0.38436E-10         0.00000E+00
    0.57832E-09         0.37346E-10         0.00000E+00
    0.57803E-09         0.36101E-10         0.00000E+00
    0.57775E-09         0.34700E-10         0.00000E+00
    0.57748E-09         0.33140E-10         0.00000E+00
    0.57722E-09         0.31422E-10         0.00000E+00
    0.57698E-09         0.29543E-10         0.00000E+00
    0.57676E-09         0.27504E-10         0.00000E+00
    0.57655E-09         0.25304E-10         0.00000E+00
    0.57636E-09         0.22941E-10         0.00000E+00
    0.57619E-09         0.20415E-10         0.00000E+00
    0.57604E-09         0.17726E-10         0.00000E+00
    0.57592E-09         0.14874E-10         0.00000E+00
    0.57581E-09         0.11858E-10         0.00000E+00
    0.57573E-09         0.86770E-11         0.00000E+00
    0.57568E-09         0.53322E-11         0.00000E+00
    0.57565E-09         0.18230E-11         0.00000E+00
    0.61615E-09         0.14371E-11         0.00000E+00
    0.61612E-09         0.42699E-11         0.00000E+00
    0.61605E-09         0.70371E-11         0.00000E+00
    0.61594E-09         0.97345E-11         0.00000E+00
    0.61581E-09         0.12358E-10         0.00000E+00
    0.61564E-09         0.14903E-10         0.00000E+00
    0.61545E-09         0.17365E-10         0.00000E+00
    0.61523E-09         0.19741E-10         0.00000E+00
    0.61499E-09         0.22027E-10         0.00000E+00
    0.61472E-09         0.24218E-10         0.00000E+00
    0.61444E-09         0.26312E-10         0.00000E+00
    0.61413E-09         0.28303E-10         0.00000E+00
    0.61381E-09         0.30190E-10         0.00000E+00
    0.61347E-09         0.31968E-10         0.00000E+00
    0.61312E-09         0.33633E-10         0.00000E+00
    0.61276E-09         0.35183E-10         0.00000E+00
    0.61238E-09         0.36615E-10         0.00000E+00
    0.61199E-09         0.37924E-10         0.00000E+00
    0.61159E-09         0.39109E-10         0.00000E+00
    0.61119E-09         0.40166E-10         0.00000E+00
    0.61077E-09         0.41092E-10         0.00000E+00
    0.61036E-09         0.41885E-10         0.00000E+00
    0.60994E-09         0.42542E-10         0.00000E+00
    0.60951E-09         0.43061E-10         0.00000E+00
    0.60909E-09         0.43439E-10         0.00000E+00
    0.60866E-09         0.43673E-10         0.00000E+00
    0.60824E-09         0.43762E-10         0.00000E+00
    0.60782E-09         0.43703E-10         0.00000E+00
    0.60740E-09         0.43495E-10         0.00000E+00
    0.60699E-09         0.43135E-10         0.00000E+00
    0.60658E-09         0.42621E-10         0.00000E+00
    0.60619E-09         0.41952E-10         0.00000E+00
    0.60580E-09         0.41126E-10         0.00000E+00
    0.60542E-09         0.40141E-10         0.00000E+00
    0.60505E-09         0.38996E-10         0.00000E+00
    0.60470E-09         0.37690E-10         0.00000E+00
    0.60436E-09         0.36221E-10         0.00000E+00
    0.60403E-09         0.34588E-10         0.00000E+00
    0.60372E-09         0.32791E-10         0.00000E+00
    0.60343E-09         0.30827E-10         0.00000E+00
    0.60316E-09         0.28696E-10         0.00000E+00
    0.60291E-09         0.26397E-10         0.00000E+00
    0.60269E-09         0.23930E-10         0.00000E+00
    0.60248E-09         0.21294E-10         0.00000E+00
    0.60230E-09         0.18488E-10         0.00000E+00
    0.60215E-09         0.15512E-10         0.00000E+00
    0.60203E-09         0.12366E-10         0.00000E+00
    0.60193E-09         0.90483E-11         0.00000E+00
    0.60187E-09         0.55601E-11         0.00000E+00
    0.60183E-09         0.19009E-11         0.00000E+00
    0.64847E-09         0.15369E-11         0.00000E+00
    0.64843E-09         0.45620E-11         0.00000E+00
    0.64835E-09         0.75113E-11         0.00000E+00
    0.64823E-09         0.10381E-10         0.00000E+00
    0.64807E-09         0.13166E-10         0.00000E+00
    0.64788E-09         0.15864E-10         0.00000E+00
    0.64766E-09         0.18469E-10         0.00000E+00
    0.64741E-09         0.20980E-10         0.00000E+00
    0.64713E-09         0.23391E-10         0.00000E+00
    0.64683E-09         0.25699E-10         0.00000E+00
    0.64650E-09         0.27901E-10         0.00000E+00
    0.64615E-09         0.29993E-10         0.00000E+00
    0.64578E-09         0.31972E-10         0.00000E+00
    0.64538E-09         0.33834E-10         0.00000E+00
    0.64498E-09         0.35576E-10         0.00000E+00
    0.64455E-09         0.37195E-10         0.00000E+00
    0.64411E-09         0.38687E-10         0.00000E+00
    0.64366E-09         0.40051E-10         0.00000E+00
    0.64320E-09         0.41282E-10         0.00000E+00
    0.64273E-09         0.42378E-10         0.00000E+00
    0.64225E-09         0.43336E-10         0.00000E+00
    0.64176E-09         0.44154E-10         0.00000E+00
    0.64127E-09         0.44829E-10         0.00000E+00
    0.64078E-09         0.45358E-10         0.00000E+00
    0.64028E-09         0.45739E-10         0.00000E+00
    0.63979E-09         0.45970E-10         0.00000E+00
    0.63930E-09         0.46049E-10         0.00000E+00
    0.63881E-09         0.45973E-10         0.00000E+00
    0.63832E-09         0.45740E-10         0.00000E+00
    0.63784E-09         0.45349E-10         0.00000E+00
    0.63737E-09         0.44797E-10         0.00000E+00
    0.63690E-09         0.44082E-10         0.00000E+00
    0.63645E-09         0.43204E-10         0.00000E+00
    0.63601E-09         0.42160E-10         0.00000E+00
    0.63558E-09         0.40949E-10         0.00000E+00
    0.63517E-09         0.39570E-10         0.00000E+00
    0.63478E-09         0.38020E-10         0.00000E+00
    0.63440E-09         0.36300E-10         0.00000E+00
    0.63404E-09         0.34407E-10         0.00000E+00
    0.63370E-09         0.32342E-10         0.00000E+00
    0.63339E-09         0.30102E-10         0.00000E+00
    0.63310E-09         0.27687E-10         0.00000E+00
    0.63284E-09         0.25096E-10         0.00000E+00
    0.63260E-09         0.22328E-10         0.00000E+00
    0.63239E-09         0.19384E-10         0.00000E+00
    0.63222E-09         0.16262E-10         0.00000E+00
    0.63207E-09         0.12962E-10         0.00000E+00
    0.63196E-09         0.94837E-11         0.00000E+00
    0.63189E-09         0.58271E-11         0.00000E+00
    0.63185E-09         0.19920E-11         0.00000E+00
    0.68440E-09         0.16487E-11         0.00000E+00
    0.68436E-09         0.48901E-11         0.00000E+00
    0.68427E-09         0.80447E-11         0.00000E+00
    0.68414E-09         0.11109E-10         0.00000E+00
    0.68396E-09         0.14078E-10         0.00000E+00
    0.68375E-09         0.16950E-10         0.00000E+00
    0.68351E-09         0.19719E-10         0.00000E+00
    0.68322E-09         0.22384E-10         0.00000E+00
    0.68291E-09         0.24939E-10         0.00000E+00
    0.68257E-09         0.27382E-10         0.00000E+00
    0.68220E-09         0.29709E-10         0.00000E+00
    0.68181E-09         0.31917E-10         0.00000E+00
    0.68139E-09         0.34002E-10         0.00000E+00
    0.68095E-09         0.35962E-10         0.00000E+00
    0.68049E-09         0.37793E-10         0.00000E+00
    0.68001E-09         0.39493E-10         0.00000E+00
    0.67952E-09         0.41057E-10         0.00000E+00
    0.67901E-09         0.42483E-10         0.00000E+00
    0.67848E-09         0.43769E-10         0.00000E+00
    0.67795E-09         0.44911E-10         0.00000E+00
    0.67741E-09         0.45907E-10         0.00000E+00
    0.67686E-09         0.46755E-10         0.00000E+00
    0.67631E-09         0.47451E-10         0.00000E+00
    0.67575E-09         0.47993E-10         0.00000E+00
    0.67519E-09         0.48379E-10         0.00000E+00
    0.67463E-09         0.48607E-10         0.00000E+00
    0.67407E-09         0.48674E-10         0.00000E+00
    0.67351E-09         0.48578E-10         0.00000E+00
    0.67296E-09         0.48317E-10         0.00000E+00
    0.67242E-09         0.47890E-10         0.00000E+00
    0.67188E-09         0.47294E-10         0.00000E+00
    0.67136E-09         0.46528E-10         0.00000E+00
    0.67085E-09         0.45589E-10         0.00000E+00
    0.67035E-09         0.44477E-10         0.00000E+00
    0.66986E-09         0.43190E-10         0.00000E+00
    0.66939E-09         0.41726E-10         0.00000E+00
    0.66895E-09         0.40084E-10         0.00000E+00
    0.66852E-09         0.38262E-10         0.00000E+00
    0.66811E-09         0.36260E-10         0.00000E+00
    0.66773E-09         0.34077E-10         0.00000E+00
    0.66738E-09         0.31712E-10         0.00000E+00
    0.66705E-09         0.29163E-10         0.00000E+00
    0.66675E-09         0.26429E-10         0.00000E+00
    0.66648E-09         0.23511E-10         0.00000E+00
    0.66625E-09         0.20408E-10         0.00000E+00
    0.66605E-09         0.17119E-10         0.00000E+00
    0.66589E-09         0.13643E-10         0.00000E+00
    0.66576E-09         0.99809E-11         0.00000E+00
    0.66568E-09         0.61319E-11         0.00000E+00
    0.66563E-09         0.20959E-11         0.00000E+00
    0.72395E-09         0.17715E-11         0.00000E+00
    0.72390E-09         0.52507E-11         0.00000E+00
    0.72380E-09         0.86318E-11         0.00000E+00
    0.72366E-09         0.11911E-10         0.00000E+00
    0.72347E-09         0.15085E-10         0.00000E+00
    0.72324E-09         0.18149E-10         0.00000E+00
    0.72297E-09         0.21102E-10         0.00000E+00
    0.72266E-09         0.23938E-10         0.00000E+00
    0.72232E-09         0.26655E-10         0.00000E+00
    0.72194E-09         0.29249E-10         0.00000E+00
    0.72154E-09         0.31717E-10         0.00000E+00
    0.72110E-09         0.34056E-10         0.00000E+00
    0.72064E-09         0.36262E-10         0.00000E+00
    0.72016E-09         0.38333E-10         0.00000E+00
    0.71965E-09         0.40265E-10         0.00000E+00
    0.71912E-09         0.42056E-10         0.00000E+00
    0.71857E-09         0.43701E-10         0.00000E+00
    0.71801E-09         0.45200E-10         0.00000E+00
    0.71743E-09         0.46548E-10         0.00000E+00
    0.71684E-09         0.47744E-10         0.00000E+00
    0.71624E-09         0.48783E-10         0.00000E+00
    0.71563E-09         0.49665E-10         0.00000E+00
    0.71502E-09         0.50386E-10         0.00000E+00
    0.71440E-09         0.50944E-10         0.00000E+00
    0.71378E-09         0.51336E-10         0.00000E+00
    0.71316E-09         0.51561E-10         0.00000E+00
    0.71254E-09         0.51616E-10         0.00000E+00
    0.71192E-09         0.51499E-10         0.00000E+00
    0.71131E-09         0.51208E-10         0.00000E+00
    0.71070E-09         0.50741E-10         0.00000E+00
    0.71011E-09         0.50096E-10         0.00000E+00
    0.70952E-09         0.49272E-10         0.00000E+00
    0.70895E-09         0.48266E-10         0.00000E+00
    0.70840E-09         0.47077E-10         0.00000E+00
    0.70786E-09         0.45704E-10         0.00000E+00
    0.70734E-09         0.44145E-10         0.00000E+00
    0.70684E-09         0.42398E-10         0.00000E+00
    0.70637E-09         0.40464E-10         0.00000E+00
    0.70591E-09         0.38339E-10         0.00000E+00
    0.70549E-09         0.36024E-10         0.00000E+00
    0.70510E-09         0.33517E-10         0.00000E+00
    0.70473E-09         0.30817E-10         0.00000E+00
    0.70440E-09         0.27924E-10         0.00000E+00
    0.70410E-09         0.24837E-10         0.00000E+00
    0.70384E-09         0.21556E-10         0.00000E+00
    0.70362E-09         0.18079E-10         0.00000E+00
    0.70344E-09         0.14406E-10         0.00000E+00
    0.70330E-09         0.10538E-10         0.00000E+00
    0.70321E-09         0.64729E-11         0.00000E+00
    0.70316E-09         0.22121E-11         0.00000E+00
    0.76714E-09         0.19042E-11         0.00000E+00
    0.76709E-09         0.56410E-11         0.00000E+00
    0.76698E-09         0.92680E-11         0.00000E+00
    0.76683E-09         0.12781E-10         0.00000E+00
    0.76662E-09         0.16178E-10         0.00000E+00
    0.76637E-09         0.19454E-10         0.00000E+00
    0.76608E-09         0.22606E-10         0.00000E+00
    0.76575E-09         0.25631E-10         0.00000E+00
    0.76538E-09         0.28526E-10         0.00000E+00
    0.76497E-09         0.31287E-10         0.00000E+00
    0.76453E-09         0.33911E-10         0.00000E+00
    0.76406E-09         0.36394E-10         0.00000E+00
    0.76356E-09         0.38735E-10         0.00000E+00
    0.76303E-09         0.40929E-10         0.00000E+00
    0.76248E-09         0.42974E-10         0.00000E+00
    0.76190E-09         0.44866E-10         0.00000E+00
    0.76131E-09         0.46604E-10         0.00000E+00
    0.76069E-09         0.48183E-10         0.00000E+00
    0.76006E-09         0.49602E-10         0.00000E+00
    0.75942E-09         0.50857E-10         0.00000E+00
    0.75876E-09         0.51947E-10         0.00000E+00
    0.75810E-09         0.52867E-10         0.00000E+00
    0.75743E-09         0.53617E-10         0.00000E+00
    0.75675E-09         0.54194E-10         0.00000E+00
    0.75607E-09         0.54595E-10         0.00000E+00
    0.75539E-09         0.54817E-10         0.00000E+00
    0.75471E-09         0.54860E-10         0.00000E+00
    0.75403E-09         0.54720E-10         0.00000E+00
    0.75336E-09         0.54396E-10         0.00000E+00
    0.75270E-09         0.53886E-10         0.00000E+00
    0.75205E-09         0.53188E-10         0.00000E+00
    0.75141E-09         0.52299E-10         0.00000E+00
    0.75078E-09         0.51220E-10         0.00000E+00
    0.75017E-09         0.49947E-10         0.00000E+00
    0.74958E-09         0.48479E-10         0.00000E+00
    0.74901E-09         0.46815E-10         0.00000E+00
    0.74847E-09         0.44954E-10         0.00000E+00
    0.74795E-09         0.42894E-10         0.00000E+00
    0.74745E-09         0.40634E-10         0.00000E+00
    0.74699E-09         0.38173E-10         0.00000E+00
    0.74655E-09         0.35510E-10         0.00000E+00
    0.74615E-09         0.32644E-10         0.00000E+00
    0.74579E-09         0.29575E-10         0.00000E+00
    0.74546E-09         0.26301E-10         0.00000E+00
    0.74518E-09         0.22822E-10         0.00000E+00
    0.74493E-09         0.19138E-10         0.00000E+00
    0.74473E-09         0.15248E-10         0.00000E+00
    0.74458E-09         0.11152E-10         0.00000E+00
    0.74448E-09         0.68492E-11         0.00000E+00
    0.74443E-09         0.23404E-11         0.00000E+00
    0.81404E-09         0.20462E-11         0.00000E+00
    0.81398E-09         0.60591E-11         0.00000E+00
    0.81387E-09         0.99501E-11         0.00000E+00
    0.81370E-09         0.13716E-10         0.00000E+00
    0.81348E-09         0.17352E-10         0.00000E+00
    0.81322E-09         0.20857E-10         0.00000E+00
    0.81291E-09         0.24226E-10         0.00000E+00
    0.81255E-09         0.27456E-10         0.00000E+00
    0.81215E-09         0.30544E-10         0.00000E+00
    0.81172E-09         0.33486E-10         0.00000E+00
    0.81124E-09         0.36280E-10         0.00000E+00
    0.81073E-09         0.38922E-10         0.00000E+00
    0.81020E-09         0.41409E-10         0.00000E+00
    0.80963E-09         0.43738E-10         0.00000E+00
    0.80903E-09         0.45907E-10         0.00000E+00
    0.80841E-09         0.47912E-10         0.00000E+00
    0.80777E-09         0.49750E-10         0.00000E+00
    0.80711E-09         0.51419E-10         0.00000E+00
    0.80643E-09         0.52916E-10         0.00000E+00
    0.80573E-09         0.54238E-10         0.00000E+00
    0.80502E-09         0.55383E-10         0.00000E+00
    0.80430E-09         0.56348E-10         0.00000E+00
    0.80358E-09         0.57131E-10         0.00000E+00
    0.80284E-09         0.57729E-10         0.00000E+00
    0.80211E-09         0.58140E-10         0.00000E+00
    0.80137E-09         0.58362E-10         0.00000E+00
    0.80063E-09         0.58392E-10         0.00000E+00
    0.79990E-09         0.58229E-10         0.00000E+00
    0.79918E-09         0.57870E-10         0.00000E+00
    0.79846E-09         0.57313E-10         0.00000E+00
    0.79775E-09         0.56558E-10         0.00000E+00
    0.79706E-09         0.55601E-10         0.00000E+00
    0.79638E-09         0.54441E-10         0.00000E+00
    0.79572E-09         0.53077E-10         0.00000E+00
    0.79508E-09         0.51507E-10         0.00000E+00
    0.79446E-09         0.49729E-10         0.00000E+00
    0.79386E-09         0.47743E-10         0.00000E+00
    0.79330E-09         0.45547E-10         0.00000E+00
    0.79276E-09         0.43139E-10         0.00000E+00
    0.79225E-09         0.40519E-10         0.00000E+00
    0.79178E-09         0.37686E-10         0.00000E+00
    0.79135E-09         0.34639E-10         0.00000E+00
    0.79095E-09         0.31377E-10         0.00000E+00
    0.79060E-09         0.27899E-10         0.00000E+00
    0.79029E-09         0.24205E-10         0.00000E+00
    0.79002E-09         0.20294E-10         0.00000E+00
    0.78981E-09         0.16167E-10         0.00000E+00
    0.78964E-09         0.11822E-10         0.00000E+00
    0.78953E-09         0.72599E-11         0.00000E+00
    0.78947E-09         0.24803E-11         0.00000E+00
    0.86475E-09         0.21972E-11         0.00000E+00
    0.86468E-09         0.65039E-11         0.00000E+00
    0.86456E-09         0.10676E-10         0.00000E+00
    0.86439E-09         0.14711E-10         0.00000E+00
    0.86416E-09         0.18605E-10         0.00000E+00
    0.86387E-09         0.22354E-10         0.00000E+00
    0.86354E-09         0.25956E-10         0.00000E+00
    0.86316E-09         0.29406E-10         0.00000E+00
    0.86274E-09         0.32701E-10         0.00000E+00
    0.86227E-09         0.35840E-10         0.00000E+00
    0.86176E-09         0.38817E-10         0.00000E+00
    0.86122E-09         0.41630E-10         0.00000E+00
    0.86065E-09         0.44277E-10         0.00000E+00
    0.86004E-09         0.46753E-10         0.00000E+00
    0.85940E-09         0.49056E-10         0.00000E+00
    0.85874E-09         0.51183E-10         0.00000E+00
    0.85805E-09         0.53132E-10         0.00000E+00
    0.85734E-09         0.54899E-10         0.00000E+00
    0.85661E-09         0.56482E-10         0.00000E+00
    0.85587E-09         0.57878E-10         0.00000E+00
    0.85511E-09         0.59084E-10         0.00000E+00
    0.85433E-09         0.60098E-10         0.00000E+00
    0.85355E-09         0.60918E-10         0.00000E+00
    0.85277E-09         0.61540E-10         0.00000E+00
    0.85198E-09         0.61964E-10         0.00000E+00
    0.85118E-09         0.62186E-10         0.00000E+00
    0.85039E-09         0.62204E-10         0.00000E+00
    0.84960E-09         0.62016E-10         0.00000E+00
    0.84882E-09         0.61621E-10         0.00000E+00
    0.84805E-09         0.61016E-10         0.00000E+00
    0.84729E-09         0.60199E-10         0.00000E+00
    0.84654E-09         0.59169E-10         0.00000E+00
    0.84581E-09         0.57923E-10         0.00000E+00
    0.84510E-09         0.56461E-10         0.00000E+00
    0.84441E-09         0.54781E-10         0.00000E+00
    0.84374E-09         0.52881E-10         0.00000E+00
    0.84310E-09         0.50760E-10         0.00000E+00
    0.84249E-09         0.48416E-10         0.00000E+00
    0.84191E-09         0.45849E-10         0.00000E+00
    0.84137E-09         0.43058E-10         0.00000E+00
    0.84086E-09         0.40041E-10         0.00000E+00
    0.84039E-09         0.36797E-10         0.00000E+00
    0.83996E-09         0.33327E-10         0.00000E+00
    0.83958E-09         0.29628E-10         0.00000E+00
    0.83925E-09         0.25702E-10         0.00000E+00
    0.83896E-09         0.21546E-10         0.00000E+00
    0.83873E-09         0.17162E-10         0.00000E+00
    0.83855E-09         0.12548E-10         0.00000E+00
    0.83843E-09         0.77045E-11         0.00000E+00
    0.83837E-09         0.26319E-11         0.00000E+00
    0.91938E-09         0.23569E-11         0.00000E+00
    0.91932E-09         0.69747E-11         0.00000E+00
    0.91919E-09         0.11446E-10         0.00000E+00
    0.91900E-09         0.15767E-10         0.00000E+00
    0.91876E-09         0.19934E-10         0.00000E+00
    0.91846E-09         0.23944E-10         0.00000E+00
    0.91811E-09         0.27793E-10         0.00000E+00
    0.91770E-09         0.31479E-10         0.00000E+00
    0.91725E-09         0.34997E-10         0.00000E+00
    0.91676E-09         0.38345E-10         0.00000E+00
    0.91622E-09         0.41519E-10         0.00000E+00
    0.91565E-09         0.44517E-10         0.00000E+00
    0.91503E-09         0.47334E-10         0.00000E+00
    0.91439E-09         0.49969E-10         0.00000E+00
    0.91371E-09         0.52417E-10         0.00000E+00
    0.91300E-09         0.54677E-10         0.00000E+00
    0.91227E-09         0.56745E-10         0.00000E+00
    0.91151E-09         0.58618E-10         0.00000E+00
    0.91074E-09         0.60295E-10         0.00000E+00
    0.90994E-09         0.61771E-10         0.00000E+00
    0.90913E-09         0.63044E-10         0.00000E+00
    0.90831E-09         0.64113E-10         0.00000E+00
    0.90747E-09         0.64973E-10         0.00000E+00
    0.90663E-09         0.65624E-10         0.00000E+00
    0.90579E-09         0.66062E-10         0.00000E+00
    0.90494E-09         0.66285E-10         0.00000E+00
    0.90409E-09         0.66292E-10         0.00000E+00
    0.90325E-09         0.66079E-10         0.00000E+00
    0.90241E-09         0.65646E-10         0.00000E+00
    0.90159E-09         0.64989E-10         0.00000E+00
    0.90077E-09         0.64108E-10         0.00000E+00
    0.89997E-09         0.63000E-10         0.00000E+00
    0.89919E-09         0.61663E-10         0.00000E+00
    0.89843E-09         0.60097E-10         0.00000E+00
    0.89769E-09         0.58298E-10         0.00000E+00
    0.89697E-09         0.56267E-10         0.00000E+00
    0.89629E-09         0.54002E-10         0.00000E+00
    0.89563E-09         0.51501E-10         0.00000E+00
    0.89501E-09         0.48763E-10         0.00000E+00
    0.89443E-09         0.45787E-10         0.00000E+00
    0.89388E-09         0.42573E-10         0.00000E+00
    0.89338E-09         0.39118E-10         0.00000E+00
    0.89292E-09         0.35424E-10         0.00000E+00
    0.89251E-09         0.31489E-10         0.00000E+00
    0.89215E-09         0.27312E-10         0.00000E+00
    0.89185E-09         0.22893E-10         0.00000E+00
    0.89160E-09         0.18232E-10         0.00000E+00
    0.89140E-09         0.13329E-10         0.00000E+00
    0.89127E-09         0.81829E-11         0.00000E+00
    0.89121E-09         0.27949E-11         0.00000E+00
    0.97811E-09         0.25254E-11         0.00000E+00
    0.97805E-09         0.74717E-11         0.00000E+00
    0.97791E-09         0.12258E-10         0.00000E+00
    0.97771E-09         0.16882E-10         0.00000E+00
    0.97745E-09         0.21339E-10         0.00000E+00
    0.97714E-09         0.25626E-10         0.00000E+00
    0.97676E-09         0.29739E-10         0.00000E+00
    0.97634E-09         0.33675E-10         0.00000E+00
    0.97586E-09         0.37430E-10         0.00000E+00
    0.97534E-09         0.41001E-10         0.00000E+00
    0.97477E-09         0.44386E-10         0.00000E+00
    0.97416E-09         0.47580E-10         0.00000E+00
    0.97351E-09         0.50581E-10         0.00000E+00
    0.97283E-09         0.53385E-10         0.00000E+00
    0.97211E-09         0.55990E-10         0.00000E+00
    0.97136E-09         0.58392E-10         0.00000E+00
    0.97058E-09         0.60589E-10         0.00000E+00
    0.96977E-09         0.62577E-10         0.00000E+00
    0.96895E-09         0.64354E-10         0.00000E+00
    0.96810E-09         0.65917E-10         0.00000E+00
    0.96724E-09         0.67264E-10         0.00000E+00
    0.96636E-09         0.68391E-10         0.00000E+00
    0.96548E-09         0.69297E-10         0.00000E+00
    0.96458E-09         0.69979E-10         0.00000E+00
    0.96368E-09         0.70434E-10         0.00000E+00
    0.96278E-09         0.70660E-10         0.00000E+00
    0.96188E-09         0.70656E-10         0.00000E+00
    0.96098E-09         0.70418E-10         0.00000E+00
    0.96009E-09         0.69944E-10         0.00000E+00
    0.95921E-09         0.69234E-10         0.00000E+00
    0.95834E-09         0.68285E-10         0.00000E+00
    0.95748E-09         0.67094E-10         0.00000E+00
    0.95665E-09         0.65661E-10         0.00000E+00
    0.95583E-09         0.63983E-10         0.00000E+00
    0.95504E-09         0.62060E-10         0.00000E+00
    0.95428E-09         0.59889E-10         0.00000E+00
    0.95355E-09         0.57470E-10         0.00000E+00
    0.95285E-09         0.54801E-10         0.00000E+00
    0.95219E-09         0.51880E-10         0.00000E+00
    0.95156E-09         0.48708E-10         0.00000E+00
    0.95098E-09         0.45283E-10         0.00000E+00
    0.95045E-09         0.41603E-10         0.00000E+00
    0.94996E-09         0.37670E-10         0.00000E+00
    0.94952E-09         0.33481E-10         0.00000E+00
    0.94914E-09         0.29036E-10         0.00000E+00
    0.94881E-09         0.24335E-10         0.00000E+00
    0.94854E-09         0.19378E-10         0.00000E+00
    0.94834E-09         0.14165E-10         0.00000E+00
    0.94820E-09         0.86954E-11         0.00000E+00
    0.94813E-09         0.29696E-11         0.00000E+00
    0.10411E-08         0.27029E-11         0.00000E+00
    0.10410E-08         0.79955E-11         0.00000E+00
    0.10409E-08         0.13115E-10         0.00000E+00
    0.10407E-08         0.18059E-10         0.00000E+00
    0.10404E-08         0.22822E-10         0.00000E+00
    0.10401E-08         0.27402E-10         0.00000E+00
    0.10397E-08         0.31794E-10         0.00000E+00
    0.10392E-08         0.35995E-10         0.00000E+00
    0.10387E-08         0.40002E-10         0.00000E+00
    0.10382E-08         0.43812E-10         0.00000E+00
    0.10376E-08         0.47420E-10         0.00000E+00
    0.10369E-08         0.50824E-10         0.00000E+00
    0.10363E-08         0.54020E-10         0.00000E+00
    0.10355E-08         0.57006E-10         0.00000E+00
    0.10348E-08         0.59777E-10         0.00000E+00
    0.10340E-08         0.62332E-10         0.00000E+00
    0.10331E-08         0.64666E-10         0.00000E+00
    0.10323E-08         0.66777E-10         0.00000E+00
    0.10314E-08         0.68663E-10         0.00000E+00
    0.10305E-08         0.70320E-10         0.00000E+00
    0.10296E-08         0.71746E-10         0.00000E+00
    0.10287E-08         0.72937E-10         0.00000E+00
    0.10277E-08         0.73893E-10         0.00000E+00
    0.10268E-08         0.74609E-10         0.00000E+00
    0.10258E-08         0.75083E-10         0.00000E+00
    0.10249E-08         0.75314E-10         0.00000E+00
    0.10239E-08         0.75298E-10         0.00000E+00
    0.10230E-08         0.75034E-10         0.00000E+00
    0.10220E-08         0.74520E-10         0.00000E+00
    0.10211E-08         0.73754E-10         0.00000E+00
    0.10202E-08         0.72732E-10         0.00000E+00
    0.10192E-08         0.71455E-10         0.00000E+00
    0.10184E-08         0.69920E-10         0.00000E+00
    0.10175E-08         0.68125E-10         0.00000E+00
    0.10166E-08         0.66069E-10         0.00000E+00
    0.10158E-08         0.63750E-10         0.00000E+00
    0.10151E-08         0.61168E-10         0.00000E+00
    0.10143E-08         0.58320E-10         0.00000E+00
    0.10136E-08         0.55205E-10         0.00000E+00
    0.10129E-08         0.51824E-10         0.00000E+00
    0.10123E-08         0.48174E-10         0.00000E+00
    0.10118E-08         0.44254E-10         0.00000E+00
    0.10112E-08         0.40066E-10         0.00000E+00
    0.10108E-08         0.35606E-10         0.00000E+00
    0.10104E-08         0.30876E-10         0.00000E+00
    0.10100E-08         0.25875E-10         0.00000E+00
    0.10097E-08         0.20602E-10         0.00000E+00
    0.10095E-08         0.15058E-10         0.00000E+00
    0.10094E-08         0.92425E-11         0.00000E+00
    0.10093E-08         0.31560E-11         0.00000E+00
    0.11086E-08         0.28897E-11         0.00000E+00
    0.11085E-08         0.85470E-11         0.00000E+00
    0.11084E-08         0.14018E-10         0.00000E+00
    0.11082E-08         0.19299E-10         0.00000E+00
    0.11079E-08         0.24386E-10         0.00000E+00
    0.11075E-08         0.29275E-10         0.00000E+00
    0.11071E-08         0.33963E-10         0.00000E+00
    0.11066E-08         0.38445E-10         0.00000E+00
    0.11061E-08         0.42719E-10         0.00000E+00
    0.11055E-08         0.46781E-10         0.00000E+00
    0.11049E-08         0.50626E-10         0.00000E+00
    0.11042E-08         0.54253E-10         0.00000E+00
    0.11035E-08         0.57657E-10         0.00000E+00
    0.11027E-08         0.60835E-10         0.00000E+00
    0.11019E-08         0.63785E-10         0.00000E+00
    0.11011E-08         0.66502E-10         0.00000E+00
    0.11002E-08         0.68983E-10         0.00000E+00
    0.10993E-08         0.71226E-10         0.00000E+00
    0.10984E-08         0.73228E-10         0.00000E+00
    0.10974E-08         0.74986E-10         0.00000E+00
    0.10964E-08         0.76497E-10         0.00000E+00
    0.10955E-08         0.77758E-10         0.00000E+00
    0.10945E-08         0.78767E-10         0.00000E+00
    0.10935E-08         0.79520E-10         0.00000E+00
    0.10924E-08         0.80017E-10         0.00000E+00
    0.10914E-08         0.80253E-10         0.00000E+00
    0.10904E-08         0.80227E-10         0.00000E+00
    0.10894E-08         0.79937E-10         0.00000E+00
    0.10884E-08         0.79380E-10         0.00000E+00
    0.10874E-08         0.78554E-10         0.00000E+00
    0.10864E-08         0.77458E-10         0.00000E+00
    0.10855E-08         0.76090E-10         0.00000E+00
    0.10845E-08         0.74447E-10         0.00000E+00
    0.10836E-08         0.72528E-10         0.00000E+00
    0.10827E-08         0.70331E-10         0.00000E+00
    0.10818E-08         0.67856E-10         0.00000E+00
    0.10810E-08         0.65100E-10         0.00000E+00
    0.10802E-08         0.62063E-10         0.00000E+00
    0.10795E-08         0.58742E-10         0.00000E+00
    0.10788E-08         0.55139E-10         0.00000E+00
    0.10781E-08         0.51250E-10         0.00000E+00
    0.10775E-08         0.47076E-10         0.00000E+00
    0.10769E-08         0.42616E-10         0.00000E+00
    0.10764E-08         0.37869E-10         0.00000E+00
    0.10760E-08         0.32835E-10         0.00000E+00
    0.10756E-08         0.27513E-10         0.00000E+00
    0.10753E-08         0.21905E-10         0.00000E+00
    0.10751E-08         0.16009E-10         0.00000E+00
    0.10749E-08         0.98251E-11         0.00000E+00
    0.10749E-08         0.33546E-11         0.00000E+00
    0.11808E-08         0.30863E-11         0.00000E+00
    0.11807E-08         0.91275E-11         0.00000E+00
    0.11806E-08         0.14969E-10         0.00000E+00
    0.11804E-08         0.20605E-10         0.00000E+00
    0.11800E-08         0.26034E-10         0.00000E+00
    0.11797E-08         0.31250E-10         0.00000E+00
    0.11792E-08         0.36250E-10         0.00000E+00
    0.11787E-08         0.41030E-10         0.00000E+00
    0.11782E-08         0.45586E-10         0.00000E+00
    0.11776E-08         0.49914E-10         0.00000E+00
    0.11769E-08         0.54012E-10         0.00000E+00
    0.11762E-08         0.57875E-10         0.00000E+00
    0.11754E-08         0.61500E-10         0.00000E+00
    0.11746E-08         0.64883E-10         0.00000E+00
    0.11737E-08         0.68021E-10         0.00000E+00
    0.11729E-08         0.70911E-10         0.00000E+00
    0.11719E-08         0.73549E-10         0.00000E+00
    0.11710E-08         0.75933E-10         0.00000E+00
    0.11700E-08         0.78060E-10         0.00000E+00
    0.11690E-08         0.79925E-10         0.00000E+00
    0.11680E-08         0.81527E-10         0.00000E+00
    0.11669E-08         0.82863E-10         0.00000E+00
    0.11659E-08         0.83929E-10         0.00000E+00
    0.11648E-08         0.84724E-10         0.00000E+00
    0.11637E-08         0.85244E-10         0.00000E+00
    0.11627E-08         0.85488E-10         0.00000E+00
    0.11616E-08         0.85452E-10         0.00000E+00
    0.11605E-08         0.85135E-10         0.00000E+00
    0.11594E-08         0.84533E-10         0.00000E+00
    0.11584E-08         0.83646E-10         0.00000E+00
    0.11573E-08         0.82471E-10         0.00000E+00
    0.11563E-08         0.81007E-10         0.00000E+00
    0.11553E-08         0.79250E-10         0.00000E+00
    0.11544E-08         0.77200E-10         0.00000E+00
    0.11534E-08         0.74856E-10         0.00000E+00
    0.11525E-08         0.72214E-10         0.00000E+00
    0.11516E-08         0.69275E-10         0.00000E+00
    0.11508E-08         0.66037E-10         0.00000E+00
    0.11500E-08         0.62499E-10         0.00000E+00
    0.11492E-08         0.58659E-10         0.00000E+00
    0.11485E-08         0.54518E-10         0.00000E+00
    0.11479E-08         0.50073E-10         0.00000E+00
    0.11473E-08         0.45325E-10         0.00000E+00
    0.11468E-08         0.40273E-10         0.00000E+00
    0.11463E-08         0.34916E-10         0.00000E+00
    0.11459E-08         0.29255E-10         0.00000E+00
    0.11456E-08         0.23289E-10         0.00000E+00
    0.11453E-08         0.17019E-10         0.00000E+00
    0.11452E-08         0.10444E-10         0.00000E+00
    0.11451E-08         0.35657E-11         0.00000E+00
    0.12580E-08         0.32933E-11         0.00000E+00
    0.12579E-08         0.97389E-11         0.00000E+00
    0.12578E-08         0.15970E-10         0.00000E+00
    0.12575E-08         0.21982E-10         0.00000E+00
    0.12572E-08         0.27770E-10         0.00000E+00
    0.12568E-08         0.33331E-10         0.00000E+00
    0.12563E-08         0.38661E-10         0.00000E+00
    0.12558E-08         0.43755E-10         0.00000E+00
    0.12552E-08         0.48610E-10         0.00000E+00
    0.12546E-08         0.53222E-10         0.00000E+00
    0.12539E-08         0.57586E-10         0.00000E+00
    0.12531E-08         0.61699E-10         0.00000E+00
    0.12523E-08         0.65558E-10         0.00000E+00
    0.12514E-08         0.69158E-10         0.00000E+00
    0.12506E-08         0.72497E-10         0.00000E+00
    0.12496E-08         0.75571E-10         0.00000E+00
    0.12486E-08         0.78376E-10         0.00000E+00
    0.12476E-08         0.80910E-10         0.00000E+00
    0.12466E-08         0.83169E-10         0.00000E+00
    0.12455E-08         0.85149E-10         0.00000E+00
    0.12444E-08         0.86849E-10         0.00000E+00
    0.12433E-08         0.88264E-10         0.00000E+00
    0.12422E-08         0.89393E-10         0.00000E+00
    0.12411E-08         0.90232E-10         0.00000E+00
    0.12400E-08         0.90779E-10         0.00000E+00
    0.12388E-08         0.91031E-10         0.00000E+00
    0.12377E-08         0.90985E-10         0.00000E+00
    0.12365E-08         0.90640E-10         0.00000E+00
    0.12354E-08         0.89993E-10         0.00000E+00
    0.12343E-08         0.89042E-10         0.00000E+00
    0.12332E-08         0.87784E-10         0.00000E+00
    0.12321E-08         0.86218E-10         0.00000E+00
    0.12311E-08         0.84342E-10         0.00000E+00
    0.12300E-08         0.82154E-10         0.00000E+00
    0.12290E-08         0.79653E-10         0.00000E+00
    0.12281E-08         0.76836E-10         0.00000E+00
    0.12271E-08         0.73703E-10         0.00000E+00
    0.12262E-08         0.70253E-10         0.00000E+00
    0.12254E-08         0.66484E-10         0.00000E+00
    0.12246E-08         0.62394E-10         0.00000E+00
    0.12239E-08         0.57985E-10         0.00000E+00
    0.12232E-08         0.53253E-10         0.00000E+00
    0.12225E-08         0.48200E-10         0.00000E+00
    0.12220E-08         0.42824E-10         0.00000E+00
    0.12215E-08         0.37126E-10         0.00000E+00
    0.12211E-08         0.31104E-10         0.00000E+00
    0.12207E-08         0.24759E-10         0.00000E+00
    0.12205E-08         0.18092E-10         0.00000E+00
    0.12203E-08         0.11102E-10         0.00000E+00
    0.12202E-08         0.37899E-11         0.00000E+00
    0.13405E-08         0.35112E-11         0.00000E+00
    0.13404E-08         0.10383E-10         0.00000E+00
    0.13402E-08         0.17025E-10         0.00000E+00
    0.13400E-08         0.23432E-10         0.00000E+00
    0.13396E-08         0.29601E-10         0.00000E+00
    0.13392E-08         0.35527E-10         0.00000E+00
    0.13387E-08         0.41205E-10         0.00000E+00
    0.13382E-08         0.46631E-10         0.00000E+00
    0.13376E-08         0.51801E-10         0.00000E+00
    0.13369E-08         0.56712E-10         0.00000E+00
    0.13361E-08         0.61358E-10         0.00000E+00
    0.13353E-08         0.65737E-10         0.00000E+00
    0.13345E-08         0.69843E-10         0.00000E+00
    0.13336E-08         0.73674E-10         0.00000E+00
    0.13326E-08         0.77226E-10         0.00000E+00
    0.13316E-08         0.80495E-10         0.00000E+00
    0.13306E-08         0.83478E-10         0.00000E+00
    0.13295E-08         0.86170E-10         0.00000E+00
    0.13284E-08         0.88570E-10         0.00000E+00
    0.13273E-08         0.90673E-10         0.00000E+00
    0.13262E-08         0.92477E-10         0.00000E+00
    0.13250E-08         0.93978E-10         0.00000E+00
    0.13238E-08         0.95173E-10         0.00000E+00
    0.13226E-08         0.96060E-10         0.00000E+00
    0.13214E-08         0.96636E-10         0.00000E+00
    0.13202E-08         0.96897E-10         0.00000E+00
    0.13190E-08         0.96843E-10         0.00000E+00
    0.13178E-08         0.96469E-10         0.00000E+00
    0.13166E-08         0.95774E-10         0.00000E+00
    0.13154E-08         0.94755E-10         0.00000E+00
    0.13143E-08         0.93410E-10         0.00000E+00
    0.13131E-08         0.91738E-10         0.00000E+00
    0.13120E-08         0.89736E-10         0.00000E+00
    0.13109E-08         0.87402E-10         0.00000E+00
    0.13098E-08         0.84735E-10         0.00000E+00
    0.13088E-08         0.81734E-10         0.00000E+00
    0.13078E-08         0.78396E-10         0.00000E+00
    0.13069E-08         0.74721E-10         0.00000E+00
    0.13060E-08         0.70707E-10         0.00000E+00
    0.13051E-08         0.66354E-10         0.00000E+00
    0.13044E-08         0.61660E-10         0.00000E+00
    0.13036E-08         0.56625E-10         0.00000E+00
    0.13030E-08         0.51248E-10         0.00000E+00
    0.13024E-08         0.45530E-10         0.00000E+00
    0.13019E-08         0.39468E-10         0.00000E+00
    0.13014E-08         0.33064E-10         0.00000E+00
    0.13011E-08         0.26318E-10         0.00000E+00
    0.13008E-08         0.19230E-10         0.00000E+00
    0.13006E-08         0.11799E-10         0.00000E+00
    0.13005E-08         0.40277E-11         0.00000E+00
    0.14285E-08         0.37410E-11         0.00000E+00
    0.14285E-08         0.11062E-10         0.00000E+00
    0.14283E-08         0.18137E-10         0.00000E+00
    0.14280E-08         0.24962E-10         0.00000E+00
    0.14276E-08         0.31532E-10         0.00000E+00
    0.14272E-08         0.37842E-10         0.00000E+00
    0.14267E-08         0.43888E-10         0.00000E+00
    0.14261E-08         0.49666E-10         0.00000E+00
    0.14255E-08         0.55170E-10         0.00000E+00
    0.14247E-08         0.60396E-10         0.00000E+00
    0.14239E-08         0.65341E-10         0.00000E+00
    0.14231E-08         0.70000E-10         0.00000E+00
    0.14222E-08         0.74369E-10         0.00000E+00
    0.14212E-08         0.78445E-10         0.00000E+00
    0.14202E-08         0.82222E-10         0.00000E+00
    0.14192E-08         0.85698E-10         0.00000E+00
    0.14181E-08         0.88869E-10         0.00000E+00
    0.14170E-08         0.91731E-10         0.00000E+00
    0.14158E-08         0.94280E-10         0.00000E+00
    0.14146E-08         0.96514E-10         0.00000E+00
    0.14134E-08         0.98428E-10         0.00000E+00
    0.14122E-08         0.10002E-09         0.00000E+00
    0.14109E-08         0.10129E-09         0.00000E+00
    0.14097E-08         0.10223E-09         0.00000E+00
    0.14084E-08         0.10283E-09         0.00000E+00
    0.14071E-08         0.10311E-09         0.00000E+00
    0.14058E-08         0.10304E-09         0.00000E+00
    0.14046E-08         0.10264E-09         0.00000E+00
    0.14033E-08         0.10189E-09         0.00000E+00
    0.14021E-08         0.10080E-09         0.00000E+00
    0.14008E-08         0.99367E-10         0.00000E+00
    0.13996E-08         0.97582E-10         0.00000E+00
    0.13984E-08         0.95447E-10         0.00000E+00
    0.13973E-08         0.92960E-10         0.00000E+00
    0.13961E-08         0.90118E-10         0.00000E+00
    0.13950E-08         0.86921E-10         0.00000E+00
    0.13940E-08         0.83367E-10         0.00000E+00
    0.13930E-08         0.79454E-10         0.00000E+00
    0.13921E-08         0.75182E-10         0.00000E+00
    0.13912E-08         0.70549E-10         0.00000E+00
    0.13903E-08         0.65555E-10         0.00000E+00
    0.13896E-08         0.60198E-10         0.00000E+00
    0.13889E-08         0.54479E-10         0.00000E+00
    0.13882E-08         0.48397E-10         0.00000E+00
    0.13877E-08         0.41951E-10         0.00000E+00
    0.13872E-08         0.35142E-10         0.00000E+00
    0.13868E-08         0.27970E-10         0.00000E+00
    0.13865E-08         0.20436E-10         0.00000E+00
    0.13863E-08         0.12539E-10         0.00000E+00
    0.13862E-08         0.42797E-11         0.00000E+00
    0.15225E-08         0.39832E-11         0.00000E+00
    0.15224E-08         0.11778E-10         0.00000E+00
    0.15222E-08         0.19310E-10         0.00000E+00
    0.15220E-08         0.26576E-10         0.00000E+00
    0.15216E-08         0.33570E-10         0.00000E+00
    0.15211E-08         0.40286E-10         0.00000E+00
    0.15206E-08         0.46721E-10         0.00000E+00
    0.15200E-08         0.52869E-10         0.00000E+00
    0.15193E-08         0.58726E-10         0.00000E+00
    0.15185E-08         0.64287E-10         0.00000E+00
    0.15177E-08         0.69548E-10         0.00000E+00
    0.15168E-08         0.74504E-10         0.00000E+00
    0.15158E-08         0.79152E-10         0.00000E+00
    0.15148E-08         0.83486E-10         0.00000E+00
    0.15138E-08         0.87502E-10         0.00000E+00
    0.15126E-08         0.91198E-10         0.00000E+00
    0.15115E-08         0.94568E-10         0.00000E+00
    0.15103E-08         0.97609E-10         0.00000E+00
    0.15091E-08         0.10032E-09         0.00000E+00
    0.15078E-08         0.10269E-09         0.00000E+00
    0.15065E-08         0.10472E-09         0.00000E+00
    0.15052E-08         0.10641E-09         0.00000E+00
    0.15039E-08         0.10775E-09         0.00000E+00
    0.15026E-08         0.10875E-09         0.00000E+00
    0.15012E-08         0.10939E-09         0.00000E+00
    0.14999E-08         0.10967E-09         0.00000E+00
    0.14985E-08         0.10960E-09         0.00000E+00
    0.14972E-08         0.10917E-09         0.00000E+00
    0.14959E-08         0.10837E-09         0.00000E+00
    0.14945E-08         0.10720E-09         0.00000E+00
    0.14932E-08         0.10567E-09         0.00000E+00
    0.14919E-08         0.10377E-09         0.00000E+00
    0.14907E-08         0.10149E-09         0.00000E+00
    0.14895E-08         0.98844E-10         0.00000E+00
    0.14883E-08         0.95818E-10         0.00000E+00
    0.14871E-08         0.92414E-10         0.00000E+00
    0.14860E-08         0.88631E-10         0.00000E+00
    0.14849E-08         0.84467E-10         0.00000E+00
    0.14839E-08         0.79921E-10         0.00000E+00
    0.14830E-08         0.74992E-10         0.00000E+00
    0.14821E-08         0.69680E-10         0.00000E+00
    0.14813E-08         0.63983E-10         0.00000E+00
    0.14806E-08         0.57901E-10         0.00000E+00
    0.14799E-08         0.51434E-10         0.00000E+00
    0.14793E-08         0.44582E-10         0.00000E+00
    0.14788E-08         0.37344E-10         0.00000E+00
    0.14784E-08         0.29721E-10         0.00000E+00
    0.14781E-08         0.21714E-10         0.00000E+00
    0.14779E-08         0.13322E-10         0.00000E+00
    0.14778E-08         0.45468E-11         0.00000E+00
    0.16228E-08         0.42389E-11         0.00000E+00
    0.16227E-08         0.12533E-10         0.00000E+00
    0.16225E-08         0.20549E-10         0.00000E+00
    0.16222E-08         0.28280E-10         0.00000E+00
    0.16218E-08         0.35721E-10         0.00000E+00
    0.16213E-08         0.42867E-10         0.00000E+00
    0.16208E-08         0.49713E-10         0.00000E+00
    0.16201E-08         0.56253E-10         0.00000E+00
    0.16194E-08         0.62484E-10         0.00000E+00
    0.16186E-08         0.68399E-10         0.00000E+00
    0.16177E-08         0.73994E-10         0.00000E+00
    0.16167E-08         0.79264E-10         0.00000E+00
    0.16157E-08         0.84206E-10         0.00000E+00
    0.16147E-08         0.88814E-10         0.00000E+00
    0.16135E-08         0.93084E-10         0.00000E+00
    0.16124E-08         0.97012E-10         0.00000E+00
    0.16112E-08         0.10059E-09         0.00000E+00
    0.16099E-08         0.10382E-09         0.00000E+00
    0.16086E-08         0.10670E-09         0.00000E+00
    0.16073E-08         0.10922E-09         0.00000E+00
    0.16059E-08         0.11138E-09         0.00000E+00
    0.16045E-08         0.11317E-09         0.00000E+00
    0.16031E-08         0.11460E-09         0.00000E+00
    0.16017E-08         0.11565E-09         0.00000E+00
    0.16003E-08         0.11632E-09         0.00000E+00
    0.15989E-08         0.11662E-09         0.00000E+00
    0.15975E-08         0.11654E-09         0.00000E+00
    0.15960E-08         0.11608E-09         0.00000E+00
    0.15946E-08         0.11522E-09         0.00000E+00
    0.15932E-08         0.11398E-09         0.00000E+00
    0.15918E-08         0.11235E-09         0.00000E+00
    0.15905E-08         0.11032E-09         0.00000E+00
    0.15891E-08         0.10790E-09         0.00000E+00
    0.15878E-08         0.10507E-09         0.00000E+00
    0.15866E-08         0.10185E-09         0.00000E+00
    0.15854E-08         0.98231E-10         0.00000E+00
    0.15842E-08         0.94205E-10         0.00000E+00
    0.15831E-08         0.89775E-10         0.00000E+00
    0.15820E-08         0.84940E-10         0.00000E+00
    0.15810E-08         0.79698E-10         0.00000E+00
    0.15801E-08         0.74049E-10         0.00000E+00
    0.15792E-08         0.67992E-10         0.00000E+00
    0.15784E-08         0.61526E-10         0.00000E+00
    0.15777E-08         0.54652E-10         0.00000E+00
    0.15771E-08         0.47368E-10         0.00000E+00
    0.15766E-08         0.39676E-10         0.00000E+00
    0.15761E-08         0.31576E-10         0.00000E+00
    0.15758E-08         0.23067E-10         0.00000E+00
    0.15756E-08         0.14152E-10         0.00000E+00
    0.15755E-08         0.48298E-11         0.00000E+00
    0.17298E-08         0.45089E-11         0.00000E+00
    0.17297E-08         0.13332E-10         0.00000E+00
    0.17295E-08         0.21857E-10         0.00000E+00
    0.17292E-08         0.30080E-10         0.00000E+00
    0.17288E-08         0.37994E-10         0.00000E+00
    0.17282E-08         0.45594E-10         0.00000E+00
    0.17276E-08         0.52875E-10         0.00000E+00
    0.17270E-08         0.59830E-10         0.00000E+00
    0.17262E-08         0.66455E-10         0.00000E+00
    0.17253E-08         0.72744E-10         0.00000E+00
    0.17244E-08         0.78693E-10         0.00000E+00
    0.17234E-08         0.84297E-10         0.00000E+00
    0.17223E-08         0.89550E-10         0.00000E+00
    0.17212E-08         0.94448E-10         0.00000E+00
    0.17200E-08         0.98986E-10         0.00000E+00
    0.17188E-08         0.10316E-09         0.00000E+00
    0.17175E-08         0.10697E-09         0.00000E+00
    0.17162E-08         0.11040E-09         0.00000E+00
    0.17148E-08         0.11346E-09         0.00000E+00
    0.17134E-08         0.11613E-09         0.00000E+00
    0.17119E-08         0.11842E-09         0.00000E+00
    0.17105E-08         0.12033E-09         0.00000E+00
    0.17090E-08         0.12184E-09         0.00000E+00
    0.17075E-08         0.12295E-09         0.00000E+00
    0.17060E-08         0.12367E-09         0.00000E+00
    0.17045E-08         0.12398E-09         0.00000E+00
    0.17030E-08         0.12389E-09         0.00000E+00
    0.17015E-08         0.12339E-09         0.00000E+00
    0.17000E-08         0.12248E-09         0.00000E+00
    0.16985E-08         0.12115E-09         0.00000E+00
    0.16970E-08         0.11941E-09         0.00000E+00
    0.16956E-08         0.11725E-09         0.00000E+00
    0.16942E-08         0.11467E-09         0.00000E+00
    0.16928E-08         0.11167E-09         0.00000E+00
    0.16915E-08         0.10824E-09         0.00000E+00
    0.16902E-08         0.10439E-09         0.00000E+00
    0.16889E-08         0.10011E-09         0.00000E+00
    0.16877E-08         0.95397E-10         0.00000E+00
    0.16866E-08         0.90255E-10         0.00000E+00
    0.16856E-08         0.84682E-10         0.00000E+00
    0.16846E-08         0.78676E-10         0.00000E+00
    0.16837E-08         0.72237E-10         0.00000E+00
    0.16828E-08         0.65365E-10         0.00000E+00
    0.16821E-08         0.58059E-10         0.00000E+00
    0.16814E-08         0.50320E-10         0.00000E+00
    0.16809E-08         0.42147E-10         0.00000E+00
    0.16804E-08         0.33540E-10         0.00000E+00
    0.16801E-08         0.24501E-10         0.00000E+00
    0.16798E-08         0.15031E-10         0.00000E+00
    0.16797E-08         0.51295E-11         0.00000E+00
    0.18439E-08         0.47942E-11         0.00000E+00
    0.18438E-08         0.14175E-10         0.00000E+00
    0.18436E-08         0.23240E-10         0.00000E+00
    0.18433E-08         0.31983E-10         0.00000E+00
    0.18428E-08         0.40397E-10         0.00000E+00
    0.18423E-08         0.48477E-10         0.00000E+00
    0.18416E-08         0.56218E-10         0.00000E+00
    0.18409E-08         0.63612E-10         0.00000E+00
    0.18401E-08         0.70654E-10         0.00000E+00
    0.18392E-08         0.77340E-10         0.00000E+00
    0.18382E-08         0.83664E-10         0.00000E+00
    0.18371E-08         0.89619E-10         0.00000E+00
    0.18360E-08         0.95203E-10         0.00000E+00
    0.18348E-08         0.10041E-09         0.00000E+00
    0.18336E-08         0.10523E-09         0.00000E+00
    0.18322E-08         0.10967E-09         0.00000E+00
    0.18309E-08         0.11371E-09         0.00000E+00
    0.18295E-08         0.11736E-09         0.00000E+00
    0.18280E-08         0.12060E-09         0.00000E+00
    0.18265E-08         0.12344E-09         0.00000E+00
    0.18250E-08         0.12588E-09         0.00000E+00
    0.18235E-08         0.12790E-09         0.00000E+00
    0.18219E-08         0.12950E-09         0.00000E+00
    0.18203E-08         0.13068E-09         0.00000E+00
    0.18187E-08         0.13144E-09         0.00000E+00
    0.18171E-08         0.13177E-09         0.00000E+00
    0.18155E-08         0.13167E-09         0.00000E+00
    0.18139E-08         0.13113E-09         0.00000E+00
    0.18123E-08         0.13016E-09         0.00000E+00
    0.18108E-08         0.12875E-09         0.00000E+00
    0.18092E-08         0.12689E-09         0.00000E+00
    0.18077E-08         0.12460E-09         0.00000E+00
    0.18062E-08         0.12185E-09         0.00000E+00
    0.18048E-08         0.11866E-09         0.00000E+00
    0.18033E-08         0.11501E-09         0.00000E+00
    0.18020E-08         0.11091E-09         0.00000E+00
    0.18007E-08         0.10636E-09         0.00000E+00
    0.17994E-08         0.10135E-09         0.00000E+00
    0.17982E-08         0.95884E-10         0.00000E+00
    0.17971E-08         0.89960E-10         0.00000E+00
    0.17960E-08         0.83576E-10         0.00000E+00
    0.17951E-08         0.76734E-10         0.00000E+00
    0.17942E-08         0.69431E-10         0.00000E+00
    0.17934E-08         0.61668E-10         0.00000E+00
    0.17927E-08         0.53446E-10         0.00000E+00
    0.17921E-08         0.44763E-10         0.00000E+00
    0.17916E-08         0.35621E-10         0.00000E+00
    0.17913E-08         0.26020E-10         0.00000E+00
    0.17910E-08         0.15962E-10         0.00000E+00
    0.17909E-08         0.54470E-11         0.00000E+00
    0.19656E-08         0.50960E-11         0.00000E+00
    0.19655E-08         0.15067E-10         0.00000E+00
    0.19653E-08         0.24703E-10         0.00000E+00
    0.19649E-08         0.33995E-10         0.00000E+00
    0.19645E-08         0.42939E-10         0.00000E+00
    0.19639E-08         0.51527E-10         0.00000E+00
    0.19632E-08         0.59754E-10         0.00000E+00
    0.19624E-08         0.67612E-10         0.00000E+00
    0.19616E-08         0.75097E-10         0.00000E+00
    0.19606E-08         0.82203E-10         0.00000E+00
    0.19596E-08         0.88923E-10         0.00000E+00
    0.19584E-08         0.95252E-10         0.00000E+00
    0.19572E-08         0.10118E-09         0.00000E+00
    0.19560E-08         0.10672E-09         0.00000E+00
    0.19547E-08         0.11184E-09         0.00000E+00
    0.19533E-08         0.11655E-09         0.00000E+00
    0.19518E-08         0.12085E-09         0.00000E+00
    0.19503E-08         0.12472E-09         0.00000E+00
    0.19488E-08         0.12817E-09         0.00000E+00
    0.19472E-08         0.13119E-09         0.00000E+00
    0.19456E-08         0.13377E-09         0.00000E+00
    0.19440E-08         0.13591E-09         0.00000E+00
    0.19423E-08         0.13761E-09         0.00000E+00
    0.19406E-08         0.13886E-09         0.00000E+00
    0.19390E-08         0.13967E-09         0.00000E+00
    0.19373E-08         0.14001E-09         0.00000E+00
    0.19356E-08         0.13990E-09         0.00000E+00
    0.19339E-08         0.13933E-09         0.00000E+00
    0.19322E-08         0.13829E-09         0.00000E+00
    0.19305E-08         0.13679E-09         0.00000E+00
    0.19289E-08         0.13482E-09         0.00000E+00
    0.19273E-08         0.13237E-09         0.00000E+00
    0.19257E-08         0.12945E-09         0.00000E+00
    0.19241E-08         0.12605E-09         0.00000E+00
    0.19226E-08         0.12218E-09         0.00000E+00
    0.19212E-08         0.11782E-09         0.00000E+00
    0.19198E-08         0.11298E-09         0.00000E+00
    0.19185E-08         0.10765E-09         0.00000E+00
    0.19172E-08         0.10185E-09         0.00000E+00
    0.19160E-08         0.95550E-10         0.00000E+00
    0.19149E-08         0.88767E-10         0.00000E+00
    0.19139E-08         0.81496E-10         0.00000E+00
    0.19130E-08         0.73738E-10         0.00000E+00
    0.19121E-08         0.65491E-10         0.00000E+00
    0.19114E-08         0.56756E-10         0.00000E+00
    0.19108E-08         0.47534E-10         0.00000E+00
    0.19103E-08         0.37824E-10         0.00000E+00
    0.19099E-08         0.27628E-10         0.00000E+00
    0.19096E-08         0.16948E-10         0.00000E+00
    0.19095E-08         0.57832E-11         0.00000E+00
    0.20954E-08         0.54152E-11         0.00000E+00
    0.20953E-08         0.16011E-10         0.00000E+00
    0.20950E-08         0.26250E-10         0.00000E+00
    0.20947E-08         0.36125E-10         0.00000E+00
    0.20942E-08         0.45629E-10         0.00000E+00
    0.20935E-08         0.54755E-10         0.00000E+00
    0.20928E-08         0.63496E-10         0.00000E+00
    0.20920E-08         0.71847E-10         0.00000E+00
    0.20911E-08         0.79800E-10         0.00000E+00
    0.20901E-08         0.87350E-10         0.00000E+00
    0.20890E-08         0.94490E-10         0.00000E+00
    0.20878E-08         0.10121E-09         0.00000E+00
    0.20865E-08         0.10752E-09         0.00000E+00
    0.20852E-08         0.11339E-09         0.00000E+00
    0.20838E-08         0.11884E-09         0.00000E+00
    0.20823E-08         0.12384E-09         0.00000E+00
    0.20808E-08         0.12841E-09         0.00000E+00
    0.20792E-08         0.13252E-09         0.00000E+00
    0.20776E-08         0.13618E-09         0.00000E+00
    0.20759E-08         0.13938E-09         0.00000E+00
    0.20742E-08         0.14213E-09         0.00000E+00
    0.20725E-08         0.14440E-09         0.00000E+00
    0.20707E-08         0.14620E-09         0.00000E+00
    0.20689E-08         0.14753E-09         0.00000E+00
    0.20672E-08         0.14838E-09         0.00000E+00
    0.20654E-08         0.14875E-09         0.00000E+00
    0.20636E-08         0.14862E-09         0.00000E+00
    0.20618E-08         0.14801E-09         0.00000E+00
    0.20600E-08         0.14691E-09         0.00000E+00
    0.20582E-08         0.14531E-09         0.00000E+00
    0.20565E-08         0.14321E-09         0.00000E+00
    0.20548E-08         0.14061E-09         0.00000E+00
    0.20531E-08         0.13750E-09         0.00000E+00
    0.20515E-08         0.13389E-09         0.00000E+00
    0.20499E-08         0.12977E-09         0.00000E+00
    0.20483E-08         0.12514E-09         0.00000E+00
    0.20469E-08         0.11999E-09         0.00000E+00
    0.20455E-08         0.11433E-09         0.00000E+00
    0.20441E-08         0.10816E-09         0.00000E+00
    0.20429E-08         0.10147E-09         0.00000E+00
    0.20417E-08         0.94265E-10         0.00000E+00
    0.20406E-08         0.86541E-10         0.00000E+00
    0.20396E-08         0.78299E-10         0.00000E+00
    0.20387E-08         0.69540E-10         0.00000E+00
    0.20380E-08         0.60263E-10         0.00000E+00
    0.20373E-08         0.50469E-10         0.00000E+00
    0.20368E-08         0.40158E-10         0.00000E+00
    0.20363E-08         0.29332E-10         0.00000E+00
    0.20361E-08         0.17992E-10         0.00000E+00
    0.20359E-08         0.61392E-11         0.00000E+00
    0.22338E-08         0.57530E-11         0.00000E+00
    0.22336E-08         0.17010E-10         0.00000E+00
    0.22334E-08         0.27888E-10         0.00000E+00
    0.22330E-08         0.38379E-10         0.00000E+00
    0.22325E-08         0.48476E-10         0.00000E+00
    0.22318E-08         0.58172E-10         0.00000E+00
    0.22310E-08         0.67459E-10         0.00000E+00
    0.22302E-08         0.76331E-10         0.00000E+00
    0.22292E-08         0.84780E-10         0.00000E+00
    0.22281E-08         0.92801E-10         0.00000E+00
    0.22270E-08         0.10039E-09         0.00000E+00
    0.22257E-08         0.10753E-09         0.00000E+00
    0.22244E-08         0.11423E-09         0.00000E+00
    0.22230E-08         0.12047E-09         0.00000E+00
    0.22215E-08         0.12625E-09         0.00000E+00
    0.22199E-08         0.13157E-09         0.00000E+00
    0.22183E-08         0.13641E-09         0.00000E+00
    0.22166E-08         0.14078E-09         0.00000E+00
    0.22149E-08         0.14467E-09         0.00000E+00
    0.22131E-08         0.14807E-09         0.00000E+00
    0.22113E-08         0.15098E-09         0.00000E+00
    0.22095E-08         0.15339E-09         0.00000E+00
    0.22076E-08         0.15531E-09         0.00000E+00
    0.22057E-08         0.15671E-09         0.00000E+00
    0.22038E-08         0.15761E-09         0.00000E+00
    0.22019E-08         0.15800E-09         0.00000E+00
    0.22000E-08         0.15787E-09         0.00000E+00
    0.21981E-08         0.15721E-09         0.00000E+00
    0.21963E-08         0.15604E-09         0.00000E+00
    0.21944E-08         0.15434E-09         0.00000E+00
    0.21925E-08         0.15210E-09         0.00000E+00
    0.21907E-08         0.14933E-09         0.00000E+00
    0.21890E-08         0.14603E-09         0.00000E+00
    0.21872E-08         0.14219E-09         0.00000E+00
    0.21855E-08         0.13781E-09         0.00000E+00
    0.21839E-08         0.13289E-09         0.00000E+00
    0.21824E-08         0.12742E-09         0.00000E+00
    0.21809E-08         0.12141E-09         0.00000E+00
    0.21794E-08         0.11485E-09         0.00000E+00
    0.21781E-08         0.10774E-09         0.00000E+00
    0.21769E-08         0.10009E-09         0.00000E+00
    0.21757E-08         0.91885E-10         0.00000E+00
    0.21747E-08         0.83132E-10         0.00000E+00
    0.21737E-08         0.73829E-10         0.00000E+00
    0.21729E-08         0.63978E-10         0.00000E+00
    0.21722E-08         0.53578E-10         0.00000E+00
    0.21716E-08         0.42630E-10         0.00000E+00
    0.21712E-08         0.31137E-10         0.00000E+00
    0.21709E-08         0.19098E-10         0.00000E+00
    0.21707E-08         0.65164E-11         0.00000E+00
    0.23813E-08         0.61109E-11         0.00000E+00
    0.23812E-08         0.18068E-10         0.00000E+00
    0.23809E-08         0.29623E-10         0.00000E+00
    0.23805E-08         0.40767E-10         0.00000E+00
    0.23799E-08         0.51493E-10         0.00000E+00
    0.23792E-08         0.61792E-10         0.00000E+00
    0.23784E-08         0.71657E-10         0.00000E+00
    0.23775E-08         0.81081E-10         0.00000E+00
    0.23765E-08         0.90056E-10         0.00000E+00
    0.23753E-08         0.98576E-10         0.00000E+00
    0.23741E-08         0.10663E-09         0.00000E+00
    0.23728E-08         0.11422E-09         0.00000E+00
    0.23713E-08         0.12133E-09         0.00000E+00
    0.23698E-08         0.12796E-09         0.00000E+00
    0.23682E-08         0.13410E-09         0.00000E+00
    0.23666E-08         0.13975E-09         0.00000E+00
    0.23649E-08         0.14490E-09         0.00000E+00
    0.23631E-08         0.14954E-09         0.00000E+00
    0.23613E-08         0.15366E-09         0.00000E+00
    0.23594E-08         0.15727E-09         0.00000E+00
    0.23575E-08         0.16036E-09         0.00000E+00
    0.23556E-08         0.16292E-09         0.00000E+00
    0.23536E-08         0.16495E-09         0.00000E+00
    0.23516E-08         0.16645E-09         0.00000E+00
    0.23496E-08         0.16740E-09         0.00000E+00
    0.23476E-08         0.16780E-09         0.00000E+00
    0.23455E-08         0.16766E-09         0.00000E+00
    0.23435E-08         0.16697E-09         0.00000E+00
    0.23415E-08         0.16571E-09         0.00000E+00
    0.23395E-08         0.16390E-09         0.00000E+00
    0.23376E-08         0.16153E-09         0.00000E+00
    0.23357E-08         0.15858E-09         0.00000E+00
    0.23338E-08         0.15507E-09         0.00000E+00
    0.23320E-08         0.15099E-09         0.00000E+00
    0.23302E-08         0.14634E-09         0.00000E+00
    0.23285E-08         0.14110E-09         0.00000E+00
    0.23268E-08         0.13530E-09         0.00000E+00
    0.23252E-08         0.12891E-09         0.00000E+00
    0.23237E-08         0.12194E-09         0.00000E+00
    0.23223E-08         0.11439E-09         0.00000E+00
    0.23210E-08         0.10626E-09         0.00000E+00
    0.23198E-08         0.97548E-10         0.00000E+00
    0.23187E-08         0.88252E-10         0.00000E+00
    0.23177E-08         0.78374E-10         0.00000E+00
    0.23168E-08         0.67913E-10         0.00000E+00
    0.23160E-08         0.56872E-10         0.00000E+00
    0.23154E-08         0.45250E-10         0.00000E+00
    0.23150E-08         0.33048E-10         0.00000E+00
    0.23146E-08         0.20270E-10         0.00000E+00
    0.23145E-08         0.69159E-11         0.00000E+00
    0.25386E-08         0.64900E-11         0.00000E+00
    0.25384E-08         0.19190E-10         0.00000E+00
    0.25381E-08         0.31462E-10         0.00000E+00
    0.25377E-08         0.43298E-10         0.00000E+00
    0.25371E-08         0.54690E-10         0.00000E+00
    0.25364E-08         0.65629E-10         0.00000E+00
    0.25355E-08         0.76107E-10         0.00000E+00
    0.25345E-08         0.86116E-10         0.00000E+00
    0.25334E-08         0.95649E-10         0.00000E+00
    0.25322E-08         0.10470E-09         0.00000E+00
    0.25309E-08         0.11326E-09         0.00000E+00
    0.25295E-08         0.12131E-09         0.00000E+00
    0.25280E-08         0.12887E-09         0.00000E+00
    0.25264E-08         0.13591E-09         0.00000E+00
    0.25247E-08         0.14243E-09         0.00000E+00
    0.25230E-08         0.14843E-09         0.00000E+00
    0.25212E-08         0.15389E-09         0.00000E+00
    0.25193E-08         0.15882E-09         0.00000E+00
    0.25174E-08         0.16320E-09         0.00000E+00
    0.25154E-08         0.16703E-09         0.00000E+00
    0.25133E-08         0.17031E-09         0.00000E+00
    0.25113E-08         0.17303E-09         0.00000E+00
    0.25092E-08         0.17518E-09         0.00000E+00
    0.25071E-08         0.17676E-09         0.00000E+00
    0.25049E-08         0.17777E-09         0.00000E+00
    0.25028E-08         0.17820E-09         0.00000E+00
    0.25007E-08         0.17805E-09         0.00000E+00
    0.24985E-08         0.17730E-09         0.00000E+00
    0.24964E-08         0.17597E-09         0.00000E+00
    0.24943E-08         0.17404E-09         0.00000E+00
    0.24922E-08         0.17152E-09         0.00000E+00
    0.24902E-08         0.16839E-09         0.00000E+00
    0.24882E-08         0.16466E-09         0.00000E+00
    0.24863E-08         0.16032E-09         0.00000E+00
    0.24844E-08         0.15537E-09         0.00000E+00
    0.24825E-08         0.14981E-09         0.00000E+00
    0.24808E-08         0.14364E-09         0.00000E+00
    0.24791E-08         0.13686E-09         0.00000E+00
    0.24775E-08         0.12945E-09         0.00000E+00
    0.24760E-08         0.12144E-09         0.00000E+00
    0.24746E-08         0.11280E-09         0.00000E+00
    0.24733E-08         0.10355E-09         0.00000E+00
    0.24722E-08         0.93678E-10         0.00000E+00
    0.24711E-08         0.83190E-10         0.00000E+00
    0.24702E-08         0.72084E-10         0.00000E+00
    0.24694E-08         0.60362E-10         0.00000E+00
    0.24687E-08         0.48025E-10         0.00000E+00
    0.24682E-08         0.35074E-10         0.00000E+00
    0.24679E-08         0.21511E-10         0.00000E+00
    0.24677E-08         0.73391E-11         0.00000E+00
    0.27063E-08         0.68921E-11         0.00000E+00
    0.27061E-08         0.20379E-10         0.00000E+00
    0.27058E-08         0.33412E-10         0.00000E+00
    0.27053E-08         0.45982E-10         0.00000E+00
    0.27047E-08         0.58080E-10         0.00000E+00
    0.27039E-08         0.69698E-10         0.00000E+00
    0.27030E-08         0.80826E-10         0.00000E+00
    0.27020E-08         0.91457E-10         0.00000E+00
    0.27008E-08         0.10158E-09         0.00000E+00
    0.26995E-08         0.11119E-09         0.00000E+00
    0.26981E-08         0.12028E-09         0.00000E+00
    0.26966E-08         0.12884E-09         0.00000E+00
    0.26950E-08         0.13686E-09         0.00000E+00
    0.26933E-08         0.14434E-09         0.00000E+00
    0.26916E-08         0.15126E-09         0.00000E+00
    0.26897E-08         0.15763E-09         0.00000E+00
    0.26878E-08         0.16343E-09         0.00000E+00
    0.26858E-08         0.16866E-09         0.00000E+00
    0.26837E-08         0.17331E-09         0.00000E+00
    0.26816E-08         0.17738E-09         0.00000E+00
    0.26795E-08         0.18086E-09         0.00000E+00
    0.26773E-08         0.18375E-09         0.00000E+00
    0.26751E-08         0.18603E-09         0.00000E+00
    0.26728E-08         0.18771E-09         0.00000E+00
    0.26706E-08         0.18878E-09         0.00000E+00
    0.26683E-08         0.18923E-09         0.00000E+00
    0.26660E-08         0.18906E-09         0.00000E+00
    0.26638E-08         0.18827E-09         0.00000E+00
    0.26615E-08         0.18685E-09         0.00000E+00
    0.26593E-08         0.18480E-09         0.00000E+00
    0.26571E-08         0.18211E-09         0.00000E+00
    0.26549E-08         0.17879E-09         0.00000E+00
    0.26528E-08         0.17482E-09         0.00000E+00
    0.26507E-08         0.17021E-09         0.00000E+00
    0.26487E-08         0.16495E-09         0.00000E+00
    0.26468E-08         0.15905E-09         0.00000E+00
    0.26449E-08         0.15249E-09         0.00000E+00
    0.26432E-08         0.14528E-09         0.00000E+00
    0.26415E-08         0.13742E-09         0.00000E+00
    0.26399E-08         0.12891E-09         0.00000E+00
    0.26384E-08         0.11974E-09         0.00000E+00
    0.26370E-08         0.10991E-09         0.00000E+00
    0.26358E-08         0.99430E-10         0.00000E+00
    0.26347E-08         0.88294E-10         0.00000E+00
    0.26337E-08         0.76504E-10         0.00000E+00
    0.26329E-08         0.64061E-10         0.00000E+00
    0.26322E-08         0.50966E-10         0.00000E+00
    0.26316E-08         0.37220E-10         0.00000E+00
    0.26313E-08         0.22827E-10         0.00000E+00
    0.26311E-08         0.77875E-11         0.00000E+00
    0.28850E-08         0.73186E-11         0.00000E+00
    0.28848E-08         0.21640E-10         0.00000E+00
    0.28845E-08         0.35480E-10         0.00000E+00
    0.28840E-08         0.48829E-10         0.00000E+00
    0.28833E-08         0.61678E-10         0.00000E+00
    0.28825E-08         0.74016E-10         0.00000E+00
    0.28815E-08         0.85834E-10         0.00000E+00
    0.28804E-08         0.97124E-10         0.00000E+00
    0.28792E-08         0.10788E-09         0.00000E+00
    0.28778E-08         0.11808E-09         0.00000E+00
    0.28764E-08         0.12773E-09         0.00000E+00
    0.28748E-08         0.13682E-09         0.00000E+00
    0.28731E-08         0.14534E-09         0.00000E+00
    0.28713E-08         0.15328E-09         0.00000E+00
    0.28694E-08         0.16064E-09         0.00000E+00
    0.28674E-08         0.16740E-09         0.00000E+00
    0.28654E-08         0.17356E-09         0.00000E+00
    0.28633E-08         0.17911E-09         0.00000E+00
    0.28611E-08         0.18405E-09         0.00000E+00
    0.28588E-08         0.18837E-09         0.00000E+00
    0.28566E-08         0.19206E-09         0.00000E+00
    0.28542E-08         0.19512E-09         0.00000E+00
    0.28519E-08         0.19754E-09         0.00000E+00
    0.28495E-08         0.19932E-09         0.00000E+00
    0.28471E-08         0.20045E-09         0.00000E+00
    0.28447E-08         0.20093E-09         0.00000E+00
    0.28423E-08         0.20075E-09         0.00000E+00
    0.28399E-08         0.19990E-09         0.00000E+00
    0.28375E-08         0.19839E-09         0.00000E+00
    0.28351E-08         0.19621E-09         0.00000E+00
    0.28328E-08         0.19335E-09         0.00000E+00
    0.28305E-08         0.18982E-09         0.00000E+00
    0.28283E-08         0.18560E-09         0.00000E+00
    0.28261E-08         0.18070E-09         0.00000E+00
    0.28239E-08         0.17511E-09         0.00000E+00
    0.28219E-08         0.16884E-09         0.00000E+00
    0.28199E-08         0.16188E-09         0.00000E+00
    0.28180E-08         0.15422E-09         0.00000E+00
    0.28162E-08         0.14587E-09         0.00000E+00
    0.28146E-08         0.13683E-09         0.00000E+00
    0.28130E-08         0.12709E-09         0.00000E+00
    0.28115E-08         0.11666E-09         0.00000E+00
    0.28102E-08         0.10553E-09         0.00000E+00
    0.28090E-08         0.93706E-10         0.00000E+00
    0.28080E-08         0.81190E-10         0.00000E+00
    0.28071E-08         0.67982E-10         0.00000E+00
    0.28064E-08         0.54083E-10         0.00000E+00
    0.28058E-08         0.39495E-10         0.00000E+00
    0.28054E-08         0.24221E-10         0.00000E+00
    0.28052E-08         0.82627E-11         0.00000E+00
    0.30755E-08         0.77715E-11         0.00000E+00
    0.30754E-08         0.22979E-10         0.00000E+00
    0.30750E-08         0.37677E-10         0.00000E+00
    0.30745E-08         0.51853E-10         0.00000E+00
    0.30737E-08         0.65498E-10         0.00000E+00
    0.30729E-08         0.78601E-10         0.00000E+00
    0.30719E-08         0.91152E-10         0.00000E+00
    0.30707E-08         0.10314E-09         0.00000E+00
    0.30694E-08         0.11456E-09         0.00000E+00
    0.30679E-08         0.12540E-09         0.00000E+00
    0.30664E-08         0.13565E-09         0.00000E+00
    0.30647E-08         0.14530E-09         0.00000E+00
    0.30629E-08         0.15435E-09         0.00000E+00
    0.30610E-08         0.16278E-09         0.00000E+00
    0.30590E-08         0.17059E-09         0.00000E+00
    0.30569E-08         0.17777E-09         0.00000E+00
    0.30547E-08         0.18431E-09         0.00000E+00
    0.30524E-08         0.19021E-09         0.00000E+00
    0.30501E-08         0.19545E-09         0.00000E+00
    0.30478E-08         0.20003E-09         0.00000E+00
    0.30453E-08         0.20395E-09         0.00000E+00
    0.30429E-08         0.20720E-09         0.00000E+00
    0.30404E-08         0.20977E-09         0.00000E+00
    0.30378E-08         0.21165E-09         0.00000E+00
    0.30353E-08         0.21285E-09         0.00000E+00
    0.30327E-08         0.21335E-09         0.00000E+00
    0.30302E-08         0.21315E-09         0.00000E+00
    0.30276E-08         0.21225E-09         0.00000E+00
    0.30251E-08         0.21064E-09         0.00000E+00
    0.30226E-08         0.20832E-09         0.00000E+00
    0.30201E-08         0.20528E-09         0.00000E+00
    0.30177E-08         0.20152E-09         0.00000E+00
    0.30153E-08         0.19704E-09         0.00000E+00
    0.30130E-08         0.19183E-09         0.00000E+00
    0.30107E-08         0.18590E-09         0.00000E+00
    0.30085E-08         0.17923E-09         0.00000E+00
    0.30064E-08         0.17183E-09         0.00000E+00
    0.30044E-08         0.16370E-09         0.00000E+00
    0.30025E-08         0.15483E-09         0.00000E+00
    0.30007E-08         0.14523E-09         0.00000E+00
    0.29991E-08         0.13489E-09         0.00000E+00
    0.29975E-08         0.12381E-09         0.00000E+00
    0.29961E-08         0.11200E-09         0.00000E+00
    0.29949E-08         0.99445E-10         0.00000E+00
    0.29938E-08         0.86159E-10         0.00000E+00
    0.29928E-08         0.72139E-10         0.00000E+00
    0.29921E-08         0.57388E-10         0.00000E+00
    0.29915E-08         0.41906E-10         0.00000E+00
    0.29911E-08         0.25698E-10         0.00000E+00
    0.29909E-08         0.87663E-11         0.00000E+00
    0.32786E-08         0.82527E-11         0.00000E+00
    0.32785E-08         0.24403E-10         0.00000E+00
    0.32781E-08         0.40011E-10         0.00000E+00
    0.32775E-08         0.55066E-10         0.00000E+00
    0.32767E-08         0.69557E-10         0.00000E+00
    0.32758E-08         0.83473E-10         0.00000E+00
    0.32747E-08         0.96804E-10         0.00000E+00
    0.32735E-08         0.10954E-09         0.00000E+00
    0.32721E-08         0.12167E-09         0.00000E+00
    0.32706E-08         0.13318E-09         0.00000E+00
    0.32689E-08         0.14406E-09         0.00000E+00
    0.32671E-08         0.15432E-09         0.00000E+00
    0.32652E-08         0.16392E-09         0.00000E+00
    0.32632E-08         0.17288E-09         0.00000E+00
    0.32610E-08         0.18117E-09         0.00000E+00
    0.32588E-08         0.18879E-09         0.00000E+00
    0.32565E-08         0.19574E-09         0.00000E+00
    0.32541E-08         0.20200E-09         0.00000E+00
    0.32516E-08         0.20756E-09         0.00000E+00
    0.32491E-08         0.21243E-09         0.00000E+00
    0.32465E-08         0.21659E-09         0.00000E+00
    0.32439E-08         0.22003E-09         0.00000E+00
    0.32412E-08         0.22276E-09         0.00000E+00
    0.32386E-08         0.22475E-09         0.00000E+00
    0.32359E-08         0.22602E-09         0.00000E+00
    0.32331E-08         0.22655E-09         0.00000E+00
    0.32304E-08         0.22633E-09         0.00000E+00
    0.32277E-08         0.22537E-09         0.00000E+00
    0.32250E-08         0.22366E-09         0.00000E+00
    0.32223E-08         0.22118E-09         0.00000E+00
    0.32197E-08         0.21795E-09         0.00000E+00
    0.32171E-08         0.21396E-09         0.00000E+00
    0.32146E-08         0.20919E-09         0.00000E+00
    0.32121E-08         0.20366E-09         0.00000E+00
    0.32097E-08         0.19735E-09         0.00000E+00
    0.32074E-08         0.19027E-09         0.00000E+00
    0.32052E-08         0.18241E-09         0.00000E+00
    0.32031E-08         0.17377E-09         0.00000E+00
    0.32010E-08         0.16435E-09         0.00000E+00
    0.31992E-08         0.15415E-09         0.00000E+00
    0.31974E-08         0.14316E-09         0.00000E+00
    0.31957E-08         0.13140E-09         0.00000E+00
    0.31943E-08         0.11886E-09         0.00000E+00
    0.31929E-08         0.10553E-09         0.00000E+00
    0.31918E-08         0.91429E-10         0.00000E+00
    0.31908E-08         0.76548E-10         0.00000E+00
    0.31899E-08         0.60892E-10         0.00000E+00
    0.31893E-08         0.44464E-10         0.00000E+00
    0.31889E-08         0.27265E-10         0.00000E+00
    0.31887E-08         0.93002E-11         0.00000E+00
    0.34952E-08         0.87645E-11         0.00000E+00
    0.34949E-08         0.25917E-10         0.00000E+00
    0.34945E-08         0.42494E-10         0.00000E+00
    0.34939E-08         0.58485E-10         0.00000E+00
    0.34931E-08         0.73876E-10         0.00000E+00
    0.34922E-08         0.88657E-10         0.00000E+00
    0.34910E-08         0.10282E-09         0.00000E+00
    0.34897E-08         0.11634E-09         0.00000E+00
    0.34882E-08         0.12922E-09         0.00000E+00
    0.34866E-08         0.14145E-09         0.00000E+00
    0.34848E-08         0.15301E-09         0.00000E+00
    0.34829E-08         0.16390E-09         0.00000E+00
    0.34808E-08         0.17411E-09         0.00000E+00
    0.34787E-08         0.18362E-09         0.00000E+00
    0.34764E-08         0.19242E-09         0.00000E+00
    0.34740E-08         0.20052E-09         0.00000E+00
    0.34716E-08         0.20789E-09         0.00000E+00
    0.34690E-08         0.21454E-09         0.00000E+00
    0.34664E-08         0.22045E-09         0.00000E+00
    0.34637E-08         0.22561E-09         0.00000E+00
    0.34610E-08         0.23002E-09         0.00000E+00
    0.34582E-08         0.23368E-09         0.00000E+00
    0.34554E-08         0.23657E-09         0.00000E+00
    0.34525E-08         0.23868E-09         0.00000E+00
    0.34496E-08         0.24002E-09         0.00000E+00
    0.34467E-08         0.24058E-09         0.00000E+00
    0.34438E-08         0.24034E-09         0.00000E+00
    0.34410E-08         0.23931E-09         0.00000E+00
    0.34381E-08         0.23749E-09         0.00000E+00
    0.34353E-08         0.23486E-09         0.00000E+00
    0.34325E-08         0.23142E-09         0.00000E+00
    0.34297E-08         0.22717E-09         0.00000E+00
    0.34270E-08         0.22210E-09         0.00000E+00
    0.34244E-08         0.21622E-09         0.00000E+00
    0.34219E-08         0.20951E-09         0.00000E+00
    0.34194E-08         0.20198E-09         0.00000E+00
    0.34170E-08         0.19363E-09         0.00000E+00
    0.34148E-08         0.18445E-09         0.00000E+00
    0.34126E-08         0.17445E-09         0.00000E+00
    0.34106E-08         0.16361E-09         0.00000E+00
    0.34087E-08         0.15195E-09         0.00000E+00
    0.34070E-08         0.13946E-09         0.00000E+00
    0.34054E-08         0.12614E-09         0.00000E+00
    0.34040E-08         0.11199E-09         0.00000E+00
    0.34028E-08         0.97022E-10         0.00000E+00
    0.34017E-08         0.81227E-10         0.00000E+00
    0.34008E-08         0.64611E-10         0.00000E+00
    0.34002E-08         0.47176E-10         0.00000E+00
    0.33997E-08         0.28927E-10         0.00000E+00
    0.33995E-08         0.98665E-11         0.00000E+00
    0.37259E-08         0.93096E-11         0.00000E+00
    0.37257E-08         0.27529E-10         0.00000E+00
    0.37253E-08         0.45138E-10         0.00000E+00
    0.37246E-08         0.62125E-10         0.00000E+00
    0.37238E-08         0.78475E-10         0.00000E+00
    0.37227E-08         0.94177E-10         0.00000E+00
    0.37215E-08         0.10922E-09         0.00000E+00
    0.37201E-08         0.12359E-09         0.00000E+00
    0.37185E-08         0.13727E-09         0.00000E+00
    0.37168E-08         0.15026E-09         0.00000E+00
    0.37149E-08         0.16255E-09         0.00000E+00
    0.37129E-08         0.17411E-09         0.00000E+00
    0.37107E-08         0.18495E-09         0.00000E+00
    0.37084E-08         0.19505E-09         0.00000E+00
    0.37060E-08         0.20440E-09         0.00000E+00
    0.37034E-08         0.21300E-09         0.00000E+00
    0.37008E-08         0.22083E-09         0.00000E+00
    0.36981E-08         0.22789E-09         0.00000E+00
    0.36953E-08         0.23416E-09         0.00000E+00
    0.36925E-08         0.23964E-09         0.00000E+00
    0.36895E-08         0.24432E-09         0.00000E+00
    0.36866E-08         0.24820E-09         0.00000E+00
    0.36836E-08         0.25126E-09         0.00000E+00
    0.36805E-08         0.25350E-09         0.00000E+00
    0.36774E-08         0.25492E-09         0.00000E+00
    0.36744E-08         0.25550E-09         0.00000E+00
    0.36713E-08         0.25525E-09         0.00000E+00
    0.36682E-08         0.25415E-09         0.00000E+00
    0.36652E-08         0.25220E-09         0.00000E+00
    0.36622E-08         0.24939E-09         0.00000E+00
    0.36592E-08         0.24573E-09         0.00000E+00
    0.36563E-08         0.24121E-09         0.00000E+00
    0.36534E-08         0.23582E-09         0.00000E+00
    0.36506E-08         0.22957E-09         0.00000E+00
    0.36479E-08         0.22244E-09         0.00000E+00
    0.36453E-08         0.21444E-09         0.00000E+00
    0.36428E-08         0.20556E-09         0.00000E+00
    0.36404E-08         0.19581E-09         0.00000E+00
    0.36381E-08         0.18518E-09         0.00000E+00
    0.36360E-08         0.17367E-09         0.00000E+00
    0.36340E-08         0.16128E-09         0.00000E+00
    0.36321E-08         0.14802E-09         0.00000E+00
    0.36304E-08         0.13387E-09         0.00000E+00
    0.36289E-08         0.11885E-09         0.00000E+00
    0.36276E-08         0.10296E-09         0.00000E+00
    0.36265E-08         0.86193E-10         0.00000E+00
    0.36256E-08         0.68557E-10         0.00000E+00
    0.36249E-08         0.50055E-10         0.00000E+00
    0.36244E-08         0.30690E-10         0.00000E+00
    0.36242E-08         0.10467E-10         0.00000E+00
    0.39720E-08         0.98908E-11         0.00000E+00
    0.39717E-08         0.29248E-10         0.00000E+00
    0.39713E-08         0.47958E-10         0.00000E+00
    0.39706E-08         0.66006E-10         0.00000E+00
    0.39697E-08         0.83379E-10         0.00000E+00
    0.39685E-08         0.10006E-09         0.00000E+00
    0.39672E-08         0.11605E-09         0.00000E+00
    0.39657E-08         0.13131E-09         0.00000E+00
    0.39640E-08         0.14585E-09         0.00000E+00
    0.39622E-08         0.15966E-09         0.00000E+00
    0.39602E-08         0.17271E-09         0.00000E+00
    0.39580E-08         0.18499E-09         0.00000E+00
    0.39557E-08         0.19651E-09         0.00000E+00
    0.39532E-08         0.20724E-09         0.00000E+00
    0.39506E-08         0.21717E-09         0.00000E+00
    0.39480E-08         0.22630E-09         0.00000E+00
    0.39452E-08         0.23462E-09         0.00000E+00
    0.39423E-08         0.24211E-09         0.00000E+00
    0.39393E-08         0.24877E-09         0.00000E+00
    0.39362E-08         0.25459E-09         0.00000E+00
    0.39331E-08         0.25956E-09         0.00000E+00
    0.39300E-08         0.26367E-09         0.00000E+00
    0.39267E-08         0.26692E-09         0.00000E+00
    0.39235E-08         0.26929E-09         0.00000E+00
    0.39202E-08         0.27079E-09         0.00000E+00
    0.39170E-08         0.27140E-09         0.00000E+00
    0.39137E-08         0.27111E-09         0.00000E+00
    0.39104E-08         0.26994E-09         0.00000E+00
    0.39072E-08         0.26786E-09         0.00000E+00
    0.39040E-08         0.26487E-09         0.00000E+00
    0.39008E-08         0.26097E-09         0.00000E+00
    0.38977E-08         0.25616E-09         0.00000E+00
    0.38946E-08         0.25042E-09         0.00000E+00
    0.38917E-08         0.24377E-09         0.00000E+00
    0.38888E-08         0.23619E-09         0.00000E+00
    0.38860E-08         0.22768E-09         0.00000E+00
    0.38833E-08         0.21825E-09         0.00000E+00
    0.38808E-08         0.20788E-09         0.00000E+00
    0.38784E-08         0.19659E-09         0.00000E+00
    0.38761E-08         0.18436E-09         0.00000E+00
    0.38740E-08         0.17120E-09         0.00000E+00
    0.38720E-08         0.15711E-09         0.00000E+00
    0.38702E-08         0.14209E-09         0.00000E+00
    0.38686E-08         0.12614E-09         0.00000E+00
    0.38672E-08         0.10926E-09         0.00000E+00
    0.38660E-08         0.91466E-10         0.00000E+00
    0.38650E-08         0.72746E-10         0.00000E+00
    0.38643E-08         0.53110E-10         0.00000E+00
    0.38638E-08         0.32561E-10         0.00000E+00
    0.38635E-08         0.11105E-10         0.00000E+00
    0.42342E-08         0.10512E-10         0.00000E+00
    0.42339E-08         0.31084E-10         0.00000E+00
    0.42334E-08         0.50969E-10         0.00000E+00
    0.42327E-08         0.70152E-10         0.00000E+00
    0.42317E-08         0.88616E-10         0.00000E+00
    0.42305E-08         0.10635E-09         0.00000E+00
    0.42291E-08         0.12334E-09         0.00000E+00
    0.42275E-08         0.13956E-09         0.00000E+00
    0.42257E-08         0.15502E-09         0.00000E+00
    0.42238E-08         0.16968E-09         0.00000E+00
    0.42216E-08         0.18355E-09         0.00000E+00
    0.42193E-08         0.19661E-09         0.00000E+00
    0.42168E-08         0.20885E-09         0.00000E+00
    0.42142E-08         0.22025E-09         0.00000E+00
    0.42114E-08         0.23080E-09         0.00000E+00
    0.42086E-08         0.24050E-09         0.00000E+00
    0.42056E-08         0.24933E-09         0.00000E+00
    0.42025E-08         0.25729E-09         0.00000E+00
    0.41993E-08         0.26436E-09         0.00000E+00
    0.41961E-08         0.27054E-09         0.00000E+00
    0.41927E-08         0.27581E-09         0.00000E+00
    0.41893E-08         0.28017E-09         0.00000E+00
    0.41859E-08         0.28361E-09         0.00000E+00
    0.41825E-08         0.28612E-09         0.00000E+00
    0.41790E-08         0.28770E-09         0.00000E+00
    0.41755E-08         0.28834E-09         0.00000E+00
    0.41720E-08         0.28803E-09         0.00000E+00
    0.41685E-08         0.28676E-09         0.00000E+00
    0.41650E-08         0.28454E-09         0.00000E+00
    0.41616E-08         0.28135E-09         0.00000E+00
    0.41583E-08         0.27720E-09         0.00000E+00
    0.41549E-08         0.27207E-09         0.00000E+00
    0.41517E-08         0.26597E-09         0.00000E+00
    0.41485E-08         0.25889E-09         0.00000E+00
    0.41455E-08         0.25083E-09         0.00000E+00
    0.41425E-08         0.24178E-09         0.00000E+00
    0.41396E-08         0.23175E-09         0.00000E+00
    0.41369E-08         0.22073E-09         0.00000E+00
    0.41344E-08         0.20872E-09         0.00000E+00
    0.41319E-08         0.19573E-09         0.00000E+00
    0.41297E-08         0.18175E-09         0.00000E+00
    0.41276E-08         0.16678E-09         0.00000E+00
    0.41257E-08         0.15082E-09         0.00000E+00
    0.41240E-08         0.13388E-09         0.00000E+00
    0.41225E-08         0.11597E-09         0.00000E+00
    0.41212E-08         0.97068E-10         0.00000E+00
    0.41202E-08         0.77197E-10         0.00000E+00
    0.41194E-08         0.56355E-10         0.00000E+00
    0.41189E-08         0.34548E-10         0.00000E+00
    0.41186E-08         0.11781E-10         0.00000E+00
    0.45137E-08         0.11176E-10         0.00000E+00
    0.45135E-08         0.33048E-10         0.00000E+00
    0.45129E-08         0.54190E-10         0.00000E+00
    0.45121E-08         0.74586E-10         0.00000E+00
    0.45111E-08         0.94218E-10         0.00000E+00
    0.45098E-08         0.11307E-09         0.00000E+00
    0.45083E-08         0.13113E-09         0.00000E+00
    0.45066E-08         0.14838E-09         0.00000E+00
    0.45047E-08         0.16481E-09         0.00000E+00
    0.45026E-08         0.18041E-09         0.00000E+00
    0.45003E-08         0.19515E-09         0.00000E+00
    0.44978E-08         0.20903E-09         0.00000E+00
    0.44951E-08         0.22203E-09         0.00000E+00
    0.44923E-08         0.23415E-09         0.00000E+00
    0.44894E-08         0.24537E-09         0.00000E+00
    0.44863E-08         0.25567E-09         0.00000E+00
    0.44831E-08         0.26505E-09         0.00000E+00
    0.44798E-08         0.27350E-09         0.00000E+00
    0.44764E-08         0.28101E-09         0.00000E+00
    0.44729E-08         0.28757E-09         0.00000E+00
    0.44694E-08         0.29316E-09         0.00000E+00
    0.44658E-08         0.29778E-09         0.00000E+00
    0.44621E-08         0.30143E-09         0.00000E+00
    0.44584E-08         0.30408E-09         0.00000E+00
    0.44547E-08         0.30575E-09         0.00000E+00
    0.44510E-08         0.30641E-09         0.00000E+00
    0.44472E-08         0.30607E-09         0.00000E+00
    0.44435E-08         0.30471E-09         0.00000E+00
    0.44398E-08         0.30233E-09         0.00000E+00
    0.44362E-08         0.29893E-09         0.00000E+00
    0.44326E-08         0.29450E-09         0.00000E+00
    0.44290E-08         0.28904E-09         0.00000E+00
    0.44256E-08         0.28254E-09         0.00000E+00
    0.44222E-08         0.27500E-09         0.00000E+00
    0.44189E-08         0.26642E-09         0.00000E+00
    0.44158E-08         0.25680E-09         0.00000E+00
    0.44127E-08         0.24613E-09         0.00000E+00
    0.44098E-08         0.23441E-09         0.00000E+00
    0.44071E-08         0.22164E-09         0.00000E+00
    0.44045E-08         0.20783E-09         0.00000E+00
    0.44021E-08         0.19297E-09         0.00000E+00
    0.43999E-08         0.17706E-09         0.00000E+00
    0.43979E-08         0.16011E-09         0.00000E+00
    0.43961E-08         0.14212E-09         0.00000E+00
    0.43945E-08         0.12309E-09         0.00000E+00
    0.43931E-08         0.10302E-09         0.00000E+00
    0.43920E-08         0.81927E-10         0.00000E+00
    0.43912E-08         0.59803E-10         0.00000E+00
    0.43906E-08         0.36659E-10         0.00000E+00
    0.43903E-08         0.12500E-10         0.00000E+00
    0.48117E-08         0.11887E-10         0.00000E+00
    0.48114E-08         0.35153E-10         0.00000E+00
    0.48109E-08         0.57642E-10         0.00000E+00
    0.48100E-08         0.79337E-10         0.00000E+00
    0.48089E-08         0.10022E-09         0.00000E+00
    0.48075E-08         0.12028E-09         0.00000E+00
    0.48059E-08         0.13949E-09         0.00000E+00
    0.48041E-08         0.15784E-09         0.00000E+00
    0.48020E-08         0.17531E-09         0.00000E+00
    0.47997E-08         0.19189E-09         0.00000E+00
    0.47973E-08         0.20757E-09         0.00000E+00
    0.47946E-08         0.22233E-09         0.00000E+00
    0.47918E-08         0.23615E-09         0.00000E+00
    0.47888E-08         0.24903E-09         0.00000E+00
    0.47856E-08         0.26095E-09         0.00000E+00
    0.47823E-08         0.27191E-09         0.00000E+00
    0.47789E-08         0.28187E-09         0.00000E+00
    0.47754E-08         0.29085E-09         0.00000E+00
    0.47717E-08         0.29882E-09         0.00000E+00
    0.47680E-08         0.30578E-09         0.00000E+00
    0.47642E-08         0.31171E-09         0.00000E+00
    0.47604E-08         0.31661E-09         0.00000E+00
    0.47564E-08         0.32047E-09         0.00000E+00
    0.47525E-08         0.32328E-09         0.00000E+00
    0.47485E-08         0.32504E-09         0.00000E+00
    0.47445E-08         0.32572E-09         0.00000E+00
    0.47405E-08         0.32534E-09         0.00000E+00
    0.47366E-08         0.32388E-09         0.00000E+00
    0.47326E-08         0.32133E-09         0.00000E+00
    0.47287E-08         0.31770E-09         0.00000E+00
    0.47249E-08         0.31297E-09         0.00000E+00
    0.47211E-08         0.30714E-09         0.00000E+00
    0.47174E-08         0.30022E-09         0.00000E+00
    0.47138E-08         0.29219E-09         0.00000E+00
    0.47103E-08         0.28305E-09         0.00000E+00
    0.47069E-08         0.27281E-09         0.00000E+00
    0.47037E-08         0.26145E-09         0.00000E+00
    0.47006E-08         0.24898E-09         0.00000E+00
    0.46977E-08         0.23541E-09         0.00000E+00
    0.46949E-08         0.22072E-09         0.00000E+00
    0.46924E-08         0.20492E-09         0.00000E+00
    0.46900E-08         0.18801E-09         0.00000E+00
    0.46879E-08         0.17000E-09         0.00000E+00
    0.46859E-08         0.15089E-09         0.00000E+00
    0.46843E-08         0.13067E-09         0.00000E+00
    0.46828E-08         0.10936E-09         0.00000E+00
    0.46817E-08         0.86957E-10         0.00000E+00
    0.46808E-08         0.63469E-10         0.00000E+00
    0.46802E-08         0.38903E-10         0.00000E+00
    0.46798E-08         0.13264E-10         0.00000E+00
    0.51294E-08         0.12652E-10         0.00000E+00
    0.51291E-08         0.37414E-10         0.00000E+00
    0.51285E-08         0.61350E-10         0.00000E+00
    0.51276E-08         0.84440E-10         0.00000E+00
    0.51264E-08         0.10667E-09         0.00000E+00
    0.51249E-08         0.12801E-09         0.00000E+00
    0.51232E-08         0.14845E-09         0.00000E+00
    0.51212E-08         0.16798E-09         0.00000E+00
    0.51190E-08         0.18657E-09         0.00000E+00
    0.51165E-08         0.20421E-09         0.00000E+00
    0.51139E-08         0.22089E-09         0.00000E+00
    0.51110E-08         0.23659E-09         0.00000E+00
    0.51080E-08         0.25130E-09         0.00000E+00
    0.51048E-08         0.26499E-09         0.00000E+00
    0.51014E-08         0.27767E-09         0.00000E+00
    0.50978E-08         0.28931E-09         0.00000E+00
    0.50942E-08         0.29990E-09         0.00000E+00
    0.50904E-08         0.30944E-09         0.00000E+00
    0.50865E-08         0.31790E-09         0.00000E+00
    0.50825E-08         0.32529E-09         0.00000E+00
    0.50784E-08         0.33158E-09         0.00000E+00
    0.50743E-08         0.33678E-09         0.00000E+00
    0.50701E-08         0.34086E-09         0.00000E+00
    0.50659E-08         0.34383E-09         0.00000E+00
    0.50616E-08         0.34567E-09         0.00000E+00
    0.50573E-08         0.34638E-09         0.00000E+00
    0.50531E-08         0.34595E-09         0.00000E+00
    0.50488E-08         0.34437E-09         0.00000E+00
    0.50446E-08         0.34164E-09         0.00000E+00
    0.50404E-08         0.33775E-09         0.00000E+00
    0.50363E-08         0.33270E-09         0.00000E+00
    0.50323E-08         0.32648E-09         0.00000E+00
    0.50283E-08         0.31910E-09         0.00000E+00
    0.50245E-08         0.31054E-09         0.00000E+00
    0.50208E-08         0.30080E-09         0.00000E+00
    0.50172E-08         0.28989E-09         0.00000E+00
    0.50137E-08         0.27780E-09         0.00000E+00
    0.50104E-08         0.26453E-09         0.00000E+00
    0.50073E-08         0.25008E-09         0.00000E+00
    0.50044E-08         0.23446E-09         0.00000E+00
    0.50016E-08         0.21766E-09         0.00000E+00
    0.49991E-08         0.19968E-09         0.00000E+00
    0.49968E-08         0.18053E-09         0.00000E+00
    0.49948E-08         0.16022E-09         0.00000E+00
    0.49930E-08         0.13874E-09         0.00000E+00
    0.49914E-08         0.11610E-09         0.00000E+00
    0.49902E-08         0.92309E-10         0.00000E+00
    0.49892E-08         0.67369E-10         0.00000E+00
    0.49886E-08         0.41289E-10         0.00000E+00
    0.49883E-08         0.14075E-10         0.00000E+00
    0.54681E-08         0.13475E-10         0.00000E+00
    0.54678E-08         0.39848E-10         0.00000E+00
    0.54671E-08         0.65341E-10         0.00000E+00
    0.54661E-08         0.89932E-10         0.00000E+00
    0.54648E-08         0.11360E-09         0.00000E+00
    0.54633E-08         0.13633E-09         0.00000E+00
    0.54614E-08         0.15810E-09         0.00000E+00
    0.54593E-08         0.17889E-09         0.00000E+00
    0.54569E-08         0.19868E-09         0.00000E+00
    0.54543E-08         0.21746E-09         0.00000E+00
    0.54514E-08         0.23521E-09         0.00000E+00
    0.54483E-08         0.25192E-09         0.00000E+00
    0.54450E-08         0.26757E-09         0.00000E+00
    0.54416E-08         0.28213E-09         0.00000E+00
    0.54379E-08         0.29561E-09         0.00000E+00
    0.54342E-08         0.30799E-09         0.00000E+00
    0.54302E-08         0.31925E-09         0.00000E+00
    0.54261E-08         0.32938E-09         0.00000E+00
    0.54220E-08         0.33837E-09         0.00000E+00
    0.54177E-08         0.34621E-09         0.00000E+00
    0.54133E-08         0.35289E-09         0.00000E+00
    0.54089E-08         0.35839E-09         0.00000E+00
    0.54044E-08         0.36272E-09         0.00000E+00
    0.53998E-08         0.36585E-09         0.00000E+00
    0.53952E-08         0.36778E-09         0.00000E+00
    0.53907E-08         0.36851E-09         0.00000E+00
    0.53861E-08         0.36802E-09         0.00000E+00
    0.53815E-08         0.36631E-09         0.00000E+00
    0.53770E-08         0.36338E-09         0.00000E+00
    0.53726E-08         0.35921E-09         0.00000E+00
    0.53682E-08         0.35381E-09         0.00000E+00
    0.53638E-08         0.34716E-09         0.00000E+00
    0.53596E-08         0.33928E-09         0.00000E+00
    0.53555E-08         0.33015E-09         0.00000E+00
    0.53515E-08         0.31977E-09         0.00000E+00
    0.53477E-08         0.30814E-09         0.00000E+00
    0.53440E-08         0.29526E-09         0.00000E+00
    0.53405E-08         0.28113E-09         0.00000E+00
    0.53371E-08         0.26575E-09         0.00000E+00
    0.53340E-08         0.24912E-09         0.00000E+00
    0.53311E-08         0.23124E-09         0.00000E+00
    0.53284E-08         0.21212E-09         0.00000E+00
    0.53259E-08         0.19176E-09         0.00000E+00
    0.53238E-08         0.17017E-09         0.00000E+00
    0.53219E-08         0.14734E-09         0.00000E+00
    0.53202E-08         0.12328E-09         0.00000E+00
    0.53189E-08         0.98007E-10         0.00000E+00
    0.53179E-08         0.71520E-10         0.00000E+00
    0.53172E-08         0.43827E-10         0.00000E+00
    0.53168E-08         0.14939E-10         0.00000E+00
    0.58293E-08         0.14364E-10         0.00000E+00
    0.58289E-08         0.42475E-10         0.00000E+00
    0.58282E-08         0.69647E-10         0.00000E+00
    0.58271E-08         0.95856E-10         0.00000E+00
    0.58257E-08         0.12108E-09         0.00000E+00
    0.58240E-08         0.14530E-09         0.00000E+00
    0.58220E-08         0.16849E-09         0.00000E+00
    0.58197E-08         0.19064E-09         0.00000E+00
    0.58171E-08         0.21173E-09         0.00000E+00
    0.58143E-08         0.23173E-09         0.00000E+00
    0.58112E-08         0.25064E-09         0.00000E+00
    0.58079E-08         0.26842E-09         0.00000E+00
    0.58044E-08         0.28508E-09         0.00000E+00
    0.58006E-08         0.30058E-09         0.00000E+00
    0.57967E-08         0.31493E-09         0.00000E+00
    0.57926E-08         0.32809E-09         0.00000E+00
    0.57884E-08         0.34006E-09         0.00000E+00
    0.57840E-08         0.35083E-09         0.00000E+00
    0.57795E-08         0.36038E-09         0.00000E+00
    0.57749E-08         0.36870E-09         0.00000E+00
    0.57702E-08         0.37578E-09         0.00000E+00
    0.57654E-08         0.38161E-09         0.00000E+00
    0.57606E-08         0.38618E-09         0.00000E+00
    0.57557E-08         0.38948E-09         0.00000E+00
    0.57508E-08         0.39150E-09         0.00000E+00
    0.57459E-08         0.39224E-09         0.00000E+00
    0.57410E-08         0.39168E-09         0.00000E+00
    0.57361E-08         0.38983E-09         0.00000E+00
    0.57313E-08         0.38667E-09         0.00000E+00
    0.57265E-08         0.38220E-09         0.00000E+00
    0.57218E-08         0.37641E-09         0.00000E+00
    0.57171E-08         0.36931E-09         0.00000E+00
    0.57126E-08         0.36088E-09         0.00000E+00
    0.57082E-08         0.35113E-09         0.00000E+00
    0.57039E-08         0.34005E-09         0.00000E+00
    0.56998E-08         0.32765E-09         0.00000E+00
    0.56959E-08         0.31392E-09         0.00000E+00
    0.56921E-08         0.29886E-09         0.00000E+00
    0.56886E-08         0.28248E-09         0.00000E+00
    0.56852E-08         0.26477E-09         0.00000E+00
    0.56821E-08         0.24575E-09         0.00000E+00
    0.56792E-08         0.22540E-09         0.00000E+00
    0.56766E-08         0.20374E-09         0.00000E+00
    0.56743E-08         0.18077E-09         0.00000E+00
    0.56722E-08         0.15650E-09         0.00000E+00
    0.56705E-08         0.13094E-09         0.00000E+00
    0.56691E-08         0.10408E-09         0.00000E+00
    0.56680E-08         0.75940E-10         0.00000E+00
    0.56673E-08         0.46530E-10         0.00000E+00
    0.56669E-08         0.15858E-10         0.00000E+00
    0.62144E-08         0.15325E-10         0.00000E+00
    0.62140E-08         0.45317E-10         0.00000E+00
    0.62132E-08         0.74304E-10         0.00000E+00
    0.62121E-08         0.10226E-09         0.00000E+00
    0.62106E-08         0.12917E-09         0.00000E+00
    0.62087E-08         0.15500E-09         0.00000E+00
    0.62065E-08         0.17973E-09         0.00000E+00
    0.62040E-08         0.20334E-09         0.00000E+00
    0.62013E-08         0.22582E-09         0.00000E+00
    0.61982E-08         0.24714E-09         0.00000E+00
    0.61949E-08         0.26728E-09         0.00000E+00
    0.61913E-08         0.28623E-09         0.00000E+00
    0.61875E-08         0.30397E-09         0.00000E+00
    0.61835E-08         0.32048E-09         0.00000E+00
    0.61792E-08         0.33574E-09         0.00000E+00
    0.61748E-08         0.34975E-09         0.00000E+00
    0.61703E-08         0.36248E-09         0.00000E+00
    0.61655E-08         0.37392E-09         0.00000E+00
    0.61607E-08         0.38407E-09         0.00000E+00
    0.61557E-08         0.39290E-09         0.00000E+00
    0.61506E-08         0.40040E-09         0.00000E+00
    0.61455E-08         0.40658E-09         0.00000E+00
    0.61403E-08         0.41140E-09         0.00000E+00
    0.61351E-08         0.41488E-09         0.00000E+00
    0.61298E-08         0.41699E-09         0.00000E+00
    0.61245E-08         0.41773E-09         0.00000E+00
    0.61192E-08         0.41709E-09         0.00000E+00
    0.61140E-08         0.41507E-09         0.00000E+00
    0.61088E-08         0.41166E-09         0.00000E+00
    0.61036E-08         0.40685E-09         0.00000E+00
    0.60986E-08         0.40065E-09         0.00000E+00
    0.60936E-08         0.39304E-09         0.00000E+00
    0.60888E-08         0.38403E-09         0.00000E+00
    0.60840E-08         0.37360E-09         0.00000E+00
    0.60795E-08         0.36177E-09         0.00000E+00
    0.60751E-08         0.34854E-09         0.00000E+00
    0.60708E-08         0.33389E-09         0.00000E+00
    0.60668E-08         0.31783E-09         0.00000E+00
    0.60630E-08         0.30037E-09         0.00000E+00
    0.60594E-08         0.28151E-09         0.00000E+00
    0.60561E-08         0.26124E-09         0.00000E+00
    0.60530E-08         0.23958E-09         0.00000E+00
    0.60502E-08         0.21653E-09         0.00000E+00
    0.60478E-08         0.19209E-09         0.00000E+00
    0.60456E-08         0.16628E-09         0.00000E+00
    0.60437E-08         0.13910E-09         0.00000E+00
    0.60422E-08         0.11055E-09         0.00000E+00
    0.60411E-08         0.80650E-10         0.00000E+00
    0.60403E-08         0.49409E-10         0.00000E+00
    0.60399E-08         0.16836E-10         0.00000E+00
    0.66252E-08         0.16368E-10         0.00000E+00
    0.66247E-08         0.48399E-10         0.00000E+00
    0.66239E-08         0.79353E-10         0.00000E+00
    0.66226E-08         0.10920E-09         0.00000E+00
    0.66210E-08         0.13793E-09         0.00000E+00
    0.66190E-08         0.16550E-09         0.00000E+00
    0.66166E-08         0.19189E-09         0.00000E+00
    0.66139E-08         0.21709E-09         0.00000E+00
    0.66109E-08         0.24107E-09         0.00000E+00
    0.66076E-08         0.26381E-09         0.00000E+00
    0.66040E-08         0.28528E-09         0.00000E+00
    0.66001E-08         0.30548E-09         0.00000E+00
    0.65960E-08         0.32438E-09         0.00000E+00
    0.65917E-08         0.34196E-09         0.00000E+00
    0.65871E-08         0.35822E-09         0.00000E+00
    0.65823E-08         0.37312E-09         0.00000E+00
    0.65774E-08         0.38667E-09         0.00000E+00
    0.65723E-08         0.39883E-09         0.00000E+00
    0.65671E-08         0.40961E-09         0.00000E+00
    0.65617E-08         0.41898E-09         0.00000E+00
    0.65562E-08         0.42694E-09         0.00000E+00
    0.65507E-08         0.43347E-09         0.00000E+00
    0.65451E-08         0.43856E-09         0.00000E+00
    0.65394E-08         0.44221E-09         0.00000E+00
    0.65338E-08         0.44441E-09         0.00000E+00
    0.65281E-08         0.44514E-09         0.00000E+00
    0.65224E-08         0.44441E-09         0.00000E+00
    0.65168E-08         0.44220E-09         0.00000E+00
    0.65112E-08         0.43850E-09         0.00000E+00
    0.65056E-08         0.43333E-09         0.00000E+00
    0.65002E-08         0.42666E-09         0.00000E+00
    0.64949E-08         0.41850E-09         0.00000E+00
    0.64897E-08         0.40885E-09         0.00000E+00
    0.64846E-08         0.39770E-09         0.00000E+00
    0.64797E-08         0.38505E-09         0.00000E+00
    0.64750E-08         0.37091E-09         0.00000E+00
    0.64704E-08         0.35527E-09         0.00000E+00
    0.64661E-08         0.33814E-09         0.00000E+00
    0.64621E-08         0.31951E-09         0.00000E+00
    0.64582E-08         0.29940E-09         0.00000E+00
    0.64547E-08         0.27781E-09         0.00000E+00
    0.64514E-08         0.25474E-09         0.00000E+00
    0.64484E-08         0.23019E-09         0.00000E+00
    0.64457E-08         0.20418E-09         0.00000E+00
    0.64434E-08         0.17672E-09         0.00000E+00
    0.64414E-08         0.14780E-09         0.00000E+00
    0.64398E-08         0.11745E-09         0.00000E+00
    0.64386E-08         0.85672E-10         0.00000E+00
    0.64378E-08         0.52477E-10         0.00000E+00
    0.64373E-08         0.17879E-10         0.00000E+00
    0.70634E-08         0.17502E-10         0.00000E+00
    0.70629E-08         0.51750E-10         0.00000E+00
    0.70620E-08         0.84841E-10         0.00000E+00
    0.70606E-08         0.11675E-09         0.00000E+00
    0.70589E-08         0.14744E-09         0.00000E+00
    0.70567E-08         0.17690E-09         0.00000E+00
    0.70541E-08         0.20509E-09         0.00000E+00
    0.70512E-08         0.23200E-09         0.00000E+00
    0.70479E-08         0.25760E-09         0.00000E+00
    0.70443E-08         0.28187E-09         0.00000E+00
    0.70404E-08         0.30478E-09         0.00000E+00
    0.70362E-08         0.32633E-09         0.00000E+00
    0.70317E-08         0.34648E-09         0.00000E+00
    0.70270E-08         0.36522E-09         0.00000E+00
    0.70221E-08         0.38253E-09         0.00000E+00
    0.70169E-08         0.39840E-09         0.00000E+00
    0.70116E-08         0.41281E-09         0.00000E+00
    0.70061E-08         0.42574E-09         0.00000E+00
    0.70004E-08         0.43719E-09         0.00000E+00
    0.69946E-08         0.44713E-09         0.00000E+00
    0.69887E-08         0.45556E-09         0.00000E+00
    0.69827E-08         0.46247E-09         0.00000E+00
    0.69767E-08         0.46784E-09         0.00000E+00
    0.69706E-08         0.47167E-09         0.00000E+00
    0.69645E-08         0.47395E-09         0.00000E+00
    0.69583E-08         0.47466E-09         0.00000E+00
    0.69522E-08         0.47381E-09         0.00000E+00
    0.69462E-08         0.47138E-09         0.00000E+00
    0.69401E-08         0.46737E-09         0.00000E+00
    0.69342E-08         0.46179E-09         0.00000E+00
    0.69284E-08         0.45461E-09         0.00000E+00
    0.69226E-08         0.44585E-09         0.00000E+00
    0.69170E-08         0.43550E-09         0.00000E+00
    0.69116E-08         0.42355E-09         0.00000E+00
    0.69063E-08         0.41002E-09         0.00000E+00
    0.69013E-08         0.39490E-09         0.00000E+00
    0.68964E-08         0.37819E-09         0.00000E+00
    0.68918E-08         0.35989E-09         0.00000E+00
    0.68874E-08         0.34001E-09         0.00000E+00
    0.68833E-08         0.31856E-09         0.00000E+00
    0.68795E-08         0.29553E-09         0.00000E+00
    0.68760E-08         0.27094E-09         0.00000E+00
    0.68728E-08         0.24479E-09         0.00000E+00
    0.68700E-08         0.21710E-09         0.00000E+00
    0.68675E-08         0.18786E-09         0.00000E+00
    0.68654E-08         0.15710E-09         0.00000E+00
    0.68637E-08         0.12481E-09         0.00000E+00
    0.68623E-08         0.91027E-10         0.00000E+00
    0.68615E-08         0.55747E-10         0.00000E+00
    0.68610E-08         0.18989E-10         0.00000E+00
    0.75310E-08         0.18739E-10         0.00000E+00
    0.75305E-08         0.55402E-10         0.00000E+00
    0.75295E-08         0.90819E-10         0.00000E+00
    0.75280E-08         0.12496E-09         0.00000E+00
    0.75261E-08         0.15780E-09         0.00000E+00
    0.75237E-08         0.18930E-09         0.00000E+00
    0.75209E-08         0.21945E-09         0.00000E+00
    0.75177E-08         0.24821E-09         0.00000E+00
    0.75142E-08         0.27556E-09         0.00000E+00
    0.75103E-08         0.30148E-09         0.00000E+00
    0.75060E-08         0.32595E-09         0.00000E+00
    0.75015E-08         0.34894E-09         0.00000E+00
    0.74966E-08         0.37044E-09         0.00000E+00
    0.74915E-08         0.39042E-09         0.00000E+00
    0.74861E-08         0.40887E-09         0.00000E+00
    0.74805E-08         0.42577E-09         0.00000E+00
    0.74748E-08         0.44111E-09         0.00000E+00
    0.74688E-08         0.45486E-09         0.00000E+00
    0.74627E-08         0.46702E-09         0.00000E+00
    0.74564E-08         0.47756E-09         0.00000E+00
    0.74500E-08         0.48649E-09         0.00000E+00
    0.74436E-08         0.49379E-09         0.00000E+00
    0.74370E-08         0.49945E-09         0.00000E+00
    0.74304E-08         0.50345E-09         0.00000E+00
    0.74238E-08         0.50580E-09         0.00000E+00
    0.74172E-08         0.50647E-09         0.00000E+00
    0.74106E-08         0.50548E-09         0.00000E+00
    0.74041E-08         0.50280E-09         0.00000E+00
    0.73976E-08         0.49845E-09         0.00000E+00
    0.73912E-08         0.49240E-09         0.00000E+00
    0.73849E-08         0.48467E-09         0.00000E+00
    0.73788E-08         0.47524E-09         0.00000E+00
    0.73728E-08         0.46413E-09         0.00000E+00
    0.73669E-08         0.45132E-09         0.00000E+00
    0.73613E-08         0.43682E-09         0.00000E+00
    0.73558E-08         0.42063E-09         0.00000E+00
    0.73506E-08         0.40276E-09         0.00000E+00
    0.73457E-08         0.38320E-09         0.00000E+00
    0.73410E-08         0.36197E-09         0.00000E+00
    0.73366E-08         0.33906E-09         0.00000E+00
    0.73325E-08         0.31450E-09         0.00000E+00
    0.73288E-08         0.28828E-09         0.00000E+00
    0.73253E-08         0.26041E-09         0.00000E+00
    0.73223E-08         0.23090E-09         0.00000E+00
    0.73197E-08         0.19977E-09         0.00000E+00
    0.73174E-08         0.16702E-09         0.00000E+00
    0.73156E-08         0.13267E-09         0.00000E+00
    0.73142E-08         0.96738E-10         0.00000E+00
    0.73132E-08         0.59233E-10         0.00000E+00
    0.73127E-08         0.20172E-10         0.00000E+00
    0.80302E-08         0.20091E-10         0.00000E+00
    0.80297E-08         0.59391E-10         0.00000E+00
    0.80286E-08         0.97345E-10         0.00000E+00
    0.80270E-08         0.13392E-09         0.00000E+00
    0.80248E-08         0.16909E-09         0.00000E+00
    0.80223E-08         0.20282E-09         0.00000E+00
    0.80192E-08         0.23508E-09         0.00000E+00
    0.80157E-08         0.26585E-09         0.00000E+00
    0.80119E-08         0.29511E-09         0.00000E+00
    0.80076E-08         0.32282E-09         0.00000E+00
    0.80030E-08         0.34896E-09         0.00000E+00
    0.79980E-08         0.37352E-09         0.00000E+00
    0.79928E-08         0.39646E-09         0.00000E+00
    0.79872E-08         0.41778E-09         0.00000E+00
    0.79814E-08         0.43745E-09         0.00000E+00
    0.79753E-08         0.45545E-09         0.00000E+00
    0.79690E-08         0.47177E-09         0.00000E+00
    0.79626E-08         0.48639E-09         0.00000E+00
    0.79559E-08         0.49930E-09         0.00000E+00
    0.79492E-08         0.51049E-09         0.00000E+00
    0.79423E-08         0.51994E-09         0.00000E+00
    0.79353E-08         0.52764E-09         0.00000E+00
    0.79282E-08         0.53359E-09         0.00000E+00
    0.79211E-08         0.53777E-09         0.00000E+00
    0.79140E-08         0.54017E-09         0.00000E+00
    0.79068E-08         0.54079E-09         0.00000E+00
    0.78997E-08         0.53962E-09         0.00000E+00
    0.78927E-08         0.53667E-09         0.00000E+00
    0.78857E-08         0.53191E-09         0.00000E+00
    0.78788E-08         0.52536E-09         0.00000E+00
    0.78720E-08         0.51701E-09         0.00000E+00
    0.78654E-08         0.50685E-09         0.00000E+00
    0.78589E-08         0.49490E-09         0.00000E+00
    0.78526E-08         0.48114E-09         0.00000E+00
    0.78466E-08         0.46559E-09         0.00000E+00
    0.78407E-08         0.44824E-09         0.00000E+00
    0.78352E-08         0.42911E-09         0.00000E+00
    0.78298E-08         0.40819E-09         0.00000E+00
    0.78248E-08         0.38549E-09         0.00000E+00
    0.78201E-08         0.36103E-09         0.00000E+00
    0.78157E-08         0.33480E-09         0.00000E+00
    0.78117E-08         0.30682E-09         0.00000E+00
    0.78081E-08         0.27710E-09         0.00000E+00
    0.78048E-08         0.24565E-09         0.00000E+00
    0.78020E-08         0.21248E-09         0.00000E+00
    0.77996E-08         0.17761E-09         0.00000E+00
    0.77976E-08         0.14106E-09         0.00000E+00
    0.77961E-08         0.10283E-09         0.00000E+00
    0.77951E-08         0.62949E-10         0.00000E+00
    0.77946E-08         0.21432E-10         0.00000E+00
    0.85634E-08         0.21570E-10         0.00000E+00
    0.85628E-08         0.63754E-10         0.00000E+00
    0.85616E-08         0.10448E-09         0.00000E+00
    0.85598E-08         0.14371E-09         0.00000E+00
    0.85575E-08         0.18142E-09         0.00000E+00
    0.85547E-08         0.21757E-09         0.00000E+00
    0.85514E-08         0.25214E-09         0.00000E+00
    0.85476E-08         0.28509E-09         0.00000E+00
    0.85433E-08         0.31640E-09         0.00000E+00
    0.85387E-08         0.34605E-09         0.00000E+00
    0.85337E-08         0.37400E-09         0.00000E+00
    0.85283E-08         0.40024E-09         0.00000E+00
    0.85225E-08         0.42475E-09         0.00000E+00
    0.85165E-08         0.44750E-09         0.00000E+00
    0.85102E-08         0.46847E-09         0.00000E+00
    0.85036E-08         0.48765E-09         0.00000E+00
    0.84968E-08         0.50503E-09         0.00000E+00
    0.84897E-08         0.52057E-09         0.00000E+00
    0.84826E-08         0.53428E-09         0.00000E+00
    0.84752E-08         0.54614E-09         0.00000E+00
    0.84677E-08         0.55613E-09         0.00000E+00
    0.84602E-08         0.56425E-09         0.00000E+00
    0.84525E-08         0.57049E-09         0.00000E+00
    0.84448E-08         0.57484E-09         0.00000E+00
    0.84371E-08         0.57728E-09         0.00000E+00
    0.84294E-08         0.57782E-09         0.00000E+00
    0.84218E-08         0.57645E-09         0.00000E+00
    0.84142E-08         0.57317E-09         0.00000E+00
    0.84066E-08         0.56796E-09         0.00000E+00
    0.83992E-08         0.56084E-09         0.00000E+00
    0.83919E-08         0.55180E-09         0.00000E+00
    0.83848E-08         0.54085E-09         0.00000E+00
    0.83779E-08         0.52797E-09         0.00000E+00
    0.83711E-08         0.51318E-09         0.00000E+00
    0.83646E-08         0.49649E-09         0.00000E+00
    0.83583E-08         0.47788E-09         0.00000E+00
    0.83523E-08         0.45738E-09         0.00000E+00
    0.83466E-08         0.43498E-09         0.00000E+00
    0.83412E-08         0.41070E-09         0.00000E+00
    0.83362E-08         0.38455E-09         0.00000E+00
    0.83315E-08         0.35653E-09         0.00000E+00
    0.83272E-08         0.32666E-09         0.00000E+00
    0.83233E-08         0.29495E-09         0.00000E+00
    0.83199E-08         0.26141E-09         0.00000E+00
    0.83168E-08         0.22607E-09         0.00000E+00
    0.83143E-08         0.18892E-09         0.00000E+00
    0.83122E-08         0.15000E-09         0.00000E+00
    0.83106E-08         0.10933E-09         0.00000E+00
    0.83095E-08         0.66909E-10         0.00000E+00
    0.83090E-08         0.22775E-10         0.00000E+00
    0.91331E-08         0.23191E-10         0.00000E+00
    0.91324E-08         0.68535E-10         0.00000E+00
    0.91311E-08         0.11229E-09         0.00000E+00
    0.91292E-08         0.15443E-09         0.00000E+00
    0.91267E-08         0.19491E-09         0.00000E+00
    0.91236E-08         0.23370E-09         0.00000E+00
    0.91199E-08         0.27077E-09         0.00000E+00
    0.91158E-08         0.30609E-09         0.00000E+00
    0.91112E-08         0.33963E-09         0.00000E+00
    0.91061E-08         0.37137E-09         0.00000E+00
    0.91006E-08         0.40128E-09         0.00000E+00
    0.90948E-08         0.42933E-09         0.00000E+00
    0.90885E-08         0.45551E-09         0.00000E+00
    0.90820E-08         0.47980E-09         0.00000E+00
    0.90751E-08         0.50218E-09         0.00000E+00
    0.90679E-08         0.52262E-09         0.00000E+00
    0.90605E-08         0.54111E-09         0.00000E+00
    0.90529E-08         0.55764E-09         0.00000E+00
    0.90451E-08         0.57219E-09         0.00000E+00
    0.90372E-08         0.58475E-09         0.00000E+00
    0.90291E-08         0.59531E-09         0.00000E+00
    0.90209E-08         0.60386E-09         0.00000E+00
    0.90126E-08         0.61039E-09         0.00000E+00
    0.90043E-08         0.61489E-09         0.00000E+00
    0.89960E-08         0.61735E-09         0.00000E+00
    0.89877E-08         0.61778E-09         0.00000E+00
    0.89794E-08         0.61617E-09         0.00000E+00
    0.89712E-08         0.61251E-09         0.00000E+00
    0.89631E-08         0.60680E-09         0.00000E+00
    0.89551E-08         0.59905E-09         0.00000E+00
    0.89473E-08         0.58925E-09         0.00000E+00
    0.89396E-08         0.57740E-09         0.00000E+00
    0.89321E-08         0.56352E-09         0.00000E+00
    0.89249E-08         0.54760E-09         0.00000E+00
    0.89179E-08         0.52965E-09         0.00000E+00
    0.89112E-08         0.50968E-09         0.00000E+00
    0.89047E-08         0.48769E-09         0.00000E+00
    0.88986E-08         0.46369E-09         0.00000E+00
    0.88929E-08         0.43770E-09         0.00000E+00
    0.88875E-08         0.40973E-09         0.00000E+00
    0.88825E-08         0.37978E-09         0.00000E+00
    0.88779E-08         0.34787E-09         0.00000E+00
    0.88737E-08         0.31402E-09         0.00000E+00
    0.88700E-08         0.27825E-09         0.00000E+00
    0.88668E-08         0.24056E-09         0.00000E+00
    0.88640E-08         0.20099E-09         0.00000E+00
    0.88618E-08         0.15954E-09         0.00000E+00
    0.88601E-08         0.11625E-09         0.00000E+00
    0.88590E-08         0.71126E-10         0.00000E+00
    0.88584E-08         0.24203E-10         0.00000E+00
    0.97423E-08         0.24971E-10         0.00000E+00
    0.97416E-08         0.73777E-10         0.00000E+00
    0.97401E-08         0.12085E-09         0.00000E+00
    0.97380E-08         0.16616E-09         0.00000E+00
    0.97352E-08         0.20966E-09         0.00000E+00
    0.97319E-08         0.25132E-09         0.00000E+00
    0.97279E-08         0.29111E-09         0.00000E+00
    0.97234E-08         0.32900E-09         0.00000E+00
    0.97183E-08         0.36496E-09         0.00000E+00
    0.97128E-08         0.39897E-09         0.00000E+00
    0.97068E-08         0.43099E-09         0.00000E+00
    0.97004E-08         0.46100E-09         0.00000E+00
    0.96936E-08         0.48899E-09         0.00000E+00
    0.96865E-08         0.51492E-09         0.00000E+00
    0.96790E-08         0.53879E-09         0.00000E+00
    0.96713E-08         0.56058E-09         0.00000E+00
    0.96632E-08         0.58026E-09         0.00000E+00
    0.96550E-08         0.59782E-09         0.00000E+00
    0.96465E-08         0.61326E-09         0.00000E+00
    0.96379E-08         0.62655E-09         0.00000E+00
    0.96292E-08         0.63770E-09         0.00000E+00
    0.96203E-08         0.64668E-09         0.00000E+00
    0.96114E-08         0.65350E-09         0.00000E+00
    0.96024E-08         0.65814E-09         0.00000E+00
    0.95934E-08         0.66060E-09         0.00000E+00
    0.95845E-08         0.66088E-09         0.00000E+00
    0.95756E-08         0.65898E-09         0.00000E+00
    0.95667E-08         0.65488E-09         0.00000E+00
    0.95580E-08         0.64861E-09         0.00000E+00
    0.95494E-08         0.64015E-09         0.00000E+00
    0.95410E-08         0.62951E-09         0.00000E+00
    0.95327E-08         0.61669E-09         0.00000E+00
    0.95247E-08         0.60170E-09         0.00000E+00
    0.95169E-08         0.58454E-09         0.00000E+00
    0.95094E-08         0.56523E-09         0.00000E+00
    0.95022E-08         0.54376E-09         0.00000E+00
    0.94953E-08         0.52016E-09         0.00000E+00
    0.94888E-08         0.49443E-09         0.00000E+00
    0.94826E-08         0.46659E-09         0.00000E+00
    0.94769E-08         0.43665E-09         0.00000E+00
    0.94715E-08         0.40462E-09         0.00000E+00
    0.94666E-08         0.37053E-09         0.00000E+00
    0.94622E-08         0.33438E-09         0.00000E+00
    0.94582E-08         0.29621E-09         0.00000E+00
    0.94548E-08         0.25602E-09         0.00000E+00
    0.94519E-08         0.21384E-09         0.00000E+00
    0.94495E-08         0.16970E-09         0.00000E+00
    0.94477E-08         0.12361E-09         0.00000E+00
    0.94465E-08         0.75611E-10         0.00000E+00
    0.94458E-08         0.25721E-10         0.00000E+00
    0.10394E-07         0.26923E-10         0.00000E+00
    0.10393E-07         0.79525E-10         0.00000E+00
    0.10392E-07         0.13023E-09         0.00000E+00
    0.10390E-07         0.17900E-09         0.00000E+00
    0.10386E-07         0.22580E-09         0.00000E+00
    0.10383E-07         0.27059E-09         0.00000E+00
    0.10378E-07         0.31334E-09         0.00000E+00
    0.10374E-07         0.35402E-09         0.00000E+00
    0.10368E-07         0.39259E-09         0.00000E+00
    0.10362E-07         0.42904E-09         0.00000E+00
    0.10355E-07         0.46334E-09         0.00000E+00
    0.10349E-07         0.49546E-09         0.00000E+00
    0.10341E-07         0.52538E-09         0.00000E+00
    0.10333E-07         0.55308E-09         0.00000E+00
    0.10325E-07         0.57855E-09         0.00000E+00
    0.10317E-07         0.60176E-09         0.00000E+00
    0.10308E-07         0.62270E-09         0.00000E+00
    0.10299E-07         0.64136E-09         0.00000E+00
    0.10290E-07         0.65772E-09         0.00000E+00
    0.10281E-07         0.67178E-09         0.00000E+00
    0.10271E-07         0.68352E-09         0.00000E+00
    0.10262E-07         0.69294E-09         0.00000E+00
    0.10252E-07         0.70004E-09         0.00000E+00
    0.10242E-07         0.70480E-09         0.00000E+00
    0.10233E-07         0.70723E-09         0.00000E+00
    0.10223E-07         0.70732E-09         0.00000E+00
    0.10214E-07         0.70507E-09         0.00000E+00
    0.10204E-07         0.70048E-09         0.00000E+00
    0.10195E-07         0.69356E-09         0.00000E+00
    0.10185E-07         0.68431E-09         0.00000E+00
    0.10176E-07         0.67274E-09         0.00000E+00
    0.10168E-07         0.65884E-09         0.00000E+00
    0.10159E-07         0.64264E-09         0.00000E+00
    0.10151E-07         0.62413E-09         0.00000E+00
    0.10143E-07         0.60333E-09         0.00000E+00
    0.10135E-07         0.58025E-09         0.00000E+00
    0.10127E-07         0.55490E-09         0.00000E+00
    0.10120E-07         0.52730E-09         0.00000E+00
    0.10114E-07         0.49746E-09         0.00000E+00
    0.10108E-07         0.46540E-09         0.00000E+00
    0.10102E-07         0.43113E-09         0.00000E+00
    0.10097E-07         0.39469E-09         0.00000E+00
    0.10092E-07         0.35608E-09         0.00000E+00
    0.10088E-07         0.31533E-09         0.00000E+00
    0.10084E-07         0.27247E-09         0.00000E+00
    0.10081E-07         0.22751E-09         0.00000E+00
    0.10079E-07         0.18049E-09         0.00000E+00
    0.10077E-07         0.13144E-09         0.00000E+00
    0.10075E-07         0.80373E-10         0.00000E+00
    0.10075E-07         0.27332E-10         0.00000E+00
    0.11093E-07         0.29065E-10         0.00000E+00
    0.11092E-07         0.85826E-10         0.00000E+00
    0.11090E-07         0.14050E-09         0.00000E+00
    0.11087E-07         0.19305E-09         0.00000E+00
    0.11084E-07         0.24344E-09         0.00000E+00
    0.11080E-07         0.29163E-09         0.00000E+00
    0.11075E-07         0.33759E-09         0.00000E+00
    0.11070E-07         0.38129E-09         0.00000E+00
    0.11064E-07         0.42269E-09         0.00000E+00
    0.11057E-07         0.46178E-09         0.00000E+00
    0.11050E-07         0.49853E-09         0.00000E+00
    0.11043E-07         0.53291E-09         0.00000E+00
    0.11035E-07         0.56490E-09         0.00000E+00
    0.11026E-07         0.59448E-09         0.00000E+00
    0.11018E-07         0.62165E-09         0.00000E+00
    0.11008E-07         0.64637E-09         0.00000E+00
    0.10999E-07         0.66864E-09         0.00000E+00
    0.10989E-07         0.68845E-09         0.00000E+00
    0.10979E-07         0.70578E-09         0.00000E+00
    0.10969E-07         0.72062E-09         0.00000E+00
    0.10959E-07         0.73298E-09         0.00000E+00
    0.10949E-07         0.74284E-09         0.00000E+00
    0.10938E-07         0.75019E-09         0.00000E+00
    0.10928E-07         0.75505E-09         0.00000E+00
    0.10918E-07         0.75740E-09         0.00000E+00
    0.10907E-07         0.75725E-09         0.00000E+00
    0.10897E-07         0.75460E-09         0.00000E+00
    0.10887E-07         0.74944E-09         0.00000E+00
    0.10877E-07         0.74180E-09         0.00000E+00
    0.10867E-07         0.73167E-09         0.00000E+00
    0.10857E-07         0.71906E-09         0.00000E+00
    0.10848E-07         0.70399E-09         0.00000E+00
    0.10839E-07         0.68645E-09         0.00000E+00
    0.10830E-07         0.66646E-09         0.00000E+00
    0.10821E-07         0.64405E-09         0.00000E+00
    0.10813E-07         0.61921E-09         0.00000E+00
    0.10805E-07         0.59197E-09         0.00000E+00
    0.10798E-07         0.56235E-09         0.00000E+00
    0.10791E-07         0.53036E-09         0.00000E+00
    0.10784E-07         0.49602E-09         0.00000E+00
    0.10778E-07         0.45936E-09         0.00000E+00
    0.10772E-07         0.42039E-09         0.00000E+00
    0.10767E-07         0.37915E-09         0.00000E+00
    0.10763E-07         0.33566E-09         0.00000E+00
    0.10759E-07         0.28994E-09         0.00000E+00
    0.10756E-07         0.24202E-09         0.00000E+00
    0.10753E-07         0.19194E-09         0.00000E+00
    0.10751E-07         0.13973E-09         0.00000E+00
    0.10750E-07         0.85417E-10         0.00000E+00
    0.10749E-07         0.29037E-10         0.00000E+00
    0.11841E-07         0.31411E-10         0.00000E+00
    0.11840E-07         0.92721E-10         0.00000E+00
    0.11838E-07         0.15173E-09         0.00000E+00
    0.11836E-07         0.20840E-09         0.00000E+00
    0.11832E-07         0.26270E-09         0.00000E+00
    0.11828E-07         0.31458E-09         0.00000E+00
    0.11823E-07         0.36401E-09         0.00000E+00
    0.11817E-07         0.41097E-09         0.00000E+00
    0.11810E-07         0.45543E-09         0.00000E+00
    0.11803E-07         0.49735E-09         0.00000E+00
    0.11795E-07         0.53672E-09         0.00000E+00
    0.11787E-07         0.57352E-09         0.00000E+00
    0.11779E-07         0.60772E-09         0.00000E+00
    0.11769E-07         0.63931E-09         0.00000E+00
    0.11760E-07         0.66827E-09         0.00000E+00
    0.11750E-07         0.69459E-09         0.00000E+00
    0.11740E-07         0.71826E-09         0.00000E+00
    0.11729E-07         0.73926E-09         0.00000E+00
    0.11719E-07         0.75759E-09         0.00000E+00
    0.11708E-07         0.77325E-09         0.00000E+00
    0.11697E-07         0.78622E-09         0.00000E+00
    0.11686E-07         0.79651E-09         0.00000E+00
    0.11675E-07         0.80411E-09         0.00000E+00
    0.11664E-07         0.80902E-09         0.00000E+00
    0.11652E-07         0.81125E-09         0.00000E+00
    0.11641E-07         0.81080E-09         0.00000E+00
    0.11630E-07         0.80767E-09         0.00000E+00
    0.11619E-07         0.80188E-09         0.00000E+00
    0.11609E-07         0.79342E-09         0.00000E+00
    0.11598E-07         0.78231E-09         0.00000E+00
    0.11588E-07         0.76857E-09         0.00000E+00
    0.11578E-07         0.75219E-09         0.00000E+00
    0.11568E-07         0.73320E-09         0.00000E+00
    0.11558E-07         0.71161E-09         0.00000E+00
    0.11549E-07         0.68744E-09         0.00000E+00
    0.11541E-07         0.66071E-09         0.00000E+00
    0.11532E-07         0.63143E-09         0.00000E+00
    0.11524E-07         0.59962E-09         0.00000E+00
    0.11517E-07         0.56532E-09         0.00000E+00
    0.11510E-07         0.52854E-09         0.00000E+00
    0.11503E-07         0.48931E-09         0.00000E+00
    0.11498E-07         0.44765E-09         0.00000E+00
    0.11492E-07         0.40360E-09         0.00000E+00
    0.11488E-07         0.35718E-09         0.00000E+00
    0.11483E-07         0.30843E-09         0.00000E+00
    0.11480E-07         0.25737E-09         0.00000E+00
    0.11477E-07         0.20405E-09         0.00000E+00
    0.11475E-07         0.14849E-09         0.00000E+00
    0.11474E-07         0.90742E-10         0.00000E+00
    0.11473E-07         0.30836E-10         0.00000E+00
    0.12645E-07         0.33975E-10         0.00000E+00
    0.12644E-07         0.10025E-09         0.00000E+00
    0.12642E-07         0.16398E-09         0.00000E+00
    0.12639E-07         0.22513E-09         0.00000E+00
    0.12635E-07         0.28366E-09         0.00000E+00
    0.12630E-07         0.33953E-09         0.00000E+00
    0.12625E-07         0.39272E-09         0.00000E+00
    0.12619E-07         0.44319E-09         0.00000E+00
    0.12612E-07         0.49092E-09         0.00000E+00
    0.12604E-07         0.53588E-09         0.00000E+00
    0.12596E-07         0.57806E-09         0.00000E+00
    0.12587E-07         0.61744E-09         0.00000E+00
    0.12577E-07         0.65398E-09         0.00000E+00
    0.12567E-07         0.68769E-09         0.00000E+00
    0.12557E-07         0.71855E-09         0.00000E+00
    0.12547E-07         0.74655E-09         0.00000E+00
    0.12536E-07         0.77167E-09         0.00000E+00
    0.12525E-07         0.79391E-09         0.00000E+00
    0.12513E-07         0.81328E-09         0.00000E+00
    0.12502E-07         0.82975E-09         0.00000E+00
    0.12490E-07         0.84334E-09         0.00000E+00
    0.12478E-07         0.85404E-09         0.00000E+00
    0.12466E-07         0.86185E-09         0.00000E+00
    0.12454E-07         0.86678E-09         0.00000E+00
    0.12442E-07         0.86883E-09         0.00000E+00
    0.12430E-07         0.86802E-09         0.00000E+00
    0.12419E-07         0.86434E-09         0.00000E+00
    0.12407E-07         0.85782E-09         0.00000E+00
    0.12395E-07         0.84845E-09         0.00000E+00
    0.12384E-07         0.83626E-09         0.00000E+00
    0.12373E-07         0.82126E-09         0.00000E+00
    0.12363E-07         0.80346E-09         0.00000E+00
    0.12352E-07         0.78289E-09         0.00000E+00
    0.12342E-07         0.75956E-09         0.00000E+00
    0.12332E-07         0.73349E-09         0.00000E+00
    0.12323E-07         0.70471E-09         0.00000E+00
    0.12314E-07         0.67324E-09         0.00000E+00
    0.12306E-07         0.63910E-09         0.00000E+00
    0.12298E-07         0.60233E-09         0.00000E+00
    0.12291E-07         0.56294E-09         0.00000E+00
    0.12284E-07         0.52097E-09         0.00000E+00
    0.12278E-07         0.47645E-09         0.00000E+00
    0.12272E-07         0.42941E-09         0.00000E+00
    0.12267E-07         0.37989E-09         0.00000E+00
    0.12263E-07         0.32792E-09         0.00000E+00
    0.12259E-07         0.27354E-09         0.00000E+00
    0.12256E-07         0.21679E-09         0.00000E+00
    0.12254E-07         0.15771E-09         0.00000E+00
    0.12253E-07         0.96341E-10         0.00000E+00
    0.12252E-07         0.32726E-10         0.00000E+00
    0.13510E-07         0.36767E-10         0.00000E+00
    0.13509E-07         0.10844E-09         0.00000E+00
    0.13507E-07         0.17729E-09         0.00000E+00
    0.13503E-07         0.24329E-09         0.00000E+00
    0.13499E-07         0.30639E-09         0.00000E+00
    0.13494E-07         0.36656E-09         0.00000E+00
    0.13488E-07         0.42378E-09         0.00000E+00
    0.13481E-07         0.47802E-09         0.00000E+00
    0.13473E-07         0.52925E-09         0.00000E+00
    0.13465E-07         0.57746E-09         0.00000E+00
    0.13456E-07         0.62262E-09         0.00000E+00
    0.13447E-07         0.66472E-09         0.00000E+00
    0.13437E-07         0.70375E-09         0.00000E+00
    0.13426E-07         0.73969E-09         0.00000E+00
    0.13415E-07         0.77253E-09         0.00000E+00
    0.13404E-07         0.80227E-09         0.00000E+00
    0.13392E-07         0.82891E-09         0.00000E+00
    0.13380E-07         0.85243E-09         0.00000E+00
    0.13368E-07         0.87284E-09         0.00000E+00
    0.13356E-07         0.89014E-09         0.00000E+00
    0.13343E-07         0.90433E-09         0.00000E+00
    0.13330E-07         0.91541E-09         0.00000E+00
    0.13318E-07         0.92340E-09         0.00000E+00
    0.13305E-07         0.92830E-09         0.00000E+00
    0.13292E-07         0.93011E-09         0.00000E+00
    0.13280E-07         0.92886E-09         0.00000E+00
    0.13267E-07         0.92455E-09         0.00000E+00
    0.13255E-07         0.91720E-09         0.00000E+00
    0.13243E-07         0.90682E-09         0.00000E+00
    0.13231E-07         0.89344E-09         0.00000E+00
    0.13219E-07         0.87707E-09         0.00000E+00
    0.13208E-07         0.85772E-09         0.00000E+00
    0.13197E-07         0.83544E-09         0.00000E+00
    0.13187E-07         0.81023E-09         0.00000E+00
    0.13176E-07         0.78212E-09         0.00000E+00
    0.13167E-07         0.75114E-09         0.00000E+00
    0.13157E-07         0.71733E-09         0.00000E+00
    0.13149E-07         0.68070E-09         0.00000E+00
    0.13140E-07         0.64129E-09         0.00000E+00
    0.13133E-07         0.59913E-09         0.00000E+00
    0.13126E-07         0.55425E-09         0.00000E+00
    0.13119E-07         0.50670E-09         0.00000E+00
    0.13113E-07         0.45651E-09         0.00000E+00
    0.13108E-07         0.40372E-09         0.00000E+00
    0.13103E-07         0.34836E-09         0.00000E+00
    0.13100E-07         0.29049E-09         0.00000E+00
    0.13096E-07         0.23014E-09         0.00000E+00
    0.13094E-07         0.16736E-09         0.00000E+00
    0.13093E-07         0.10220E-09         0.00000E+00
    0.13092E-07         0.34701E-10         0.00000E+00
    0.14441E-07         0.39794E-10         0.00000E+00
    0.14440E-07         0.11731E-09         0.00000E+00
    0.14438E-07         0.19169E-09         0.00000E+00
    0.14434E-07         0.26291E-09         0.00000E+00
    0.14429E-07         0.33092E-09         0.00000E+00
    0.14424E-07         0.39570E-09         0.00000E+00
    0.14417E-07         0.45723E-09         0.00000E+00
    0.14410E-07         0.51548E-09         0.00000E+00
    0.14402E-07         0.57044E-09         0.00000E+00
    0.14393E-07         0.62208E-09         0.00000E+00
    0.14383E-07         0.67039E-09         0.00000E+00
    0.14373E-07         0.71536E-09         0.00000E+00
    0.14363E-07         0.75699E-09         0.00000E+00
    0.14351E-07         0.79526E-09         0.00000E+00
    0.14340E-07         0.83017E-09         0.00000E+00
    0.14328E-07         0.86171E-09         0.00000E+00
    0.14315E-07         0.88990E-09         0.00000E+00
    0.14302E-07         0.91472E-09         0.00000E+00
    0.14290E-07         0.93619E-09         0.00000E+00
    0.14276E-07         0.95430E-09         0.00000E+00
    0.14263E-07         0.96907E-09         0.00000E+00
    0.14250E-07         0.98050E-09         0.00000E+00
    0.14236E-07         0.98862E-09         0.00000E+00
    0.14223E-07         0.99342E-09         0.00000E+00
    0.14210E-07         0.99492E-09         0.00000E+00
    0.14196E-07         0.99315E-09         0.00000E+00
    0.14183E-07         0.98812E-09         0.00000E+00
    0.14170E-07         0.97984E-09         0.00000E+00
    0.14158E-07         0.96834E-09         0.00000E+00
    0.14145E-07         0.95365E-09         0.00000E+00
    0.14133E-07         0.93578E-09         0.00000E+00
    0.14121E-07         0.91477E-09         0.00000E+00
    0.14110E-07         0.89064E-09         0.00000E+00
    0.14099E-07         0.86341E-09         0.00000E+00
    0.14088E-07         0.83312E-09         0.00000E+00
    0.14078E-07         0.79981E-09         0.00000E+00
    0.14068E-07         0.76350E-09         0.00000E+00
    0.14059E-07         0.72422E-09         0.00000E+00
    0.14050E-07         0.68203E-09         0.00000E+00
    0.14042E-07         0.63694E-09         0.00000E+00
    0.14035E-07         0.58901E-09         0.00000E+00
    0.14028E-07         0.53827E-09         0.00000E+00
    0.14022E-07         0.48476E-09         0.00000E+00
    0.14017E-07         0.42854E-09         0.00000E+00
    0.14012E-07         0.36964E-09         0.00000E+00
    0.14008E-07         0.30812E-09         0.00000E+00
    0.14005E-07         0.24401E-09         0.00000E+00
    0.14002E-07         0.17738E-09         0.00000E+00
    0.14001E-07         0.10827E-09         0.00000E+00
    0.14000E-07         0.36750E-10         0.00000E+00
    0.15446E-07         0.43056E-10         0.00000E+00
    0.15445E-07         0.12686E-09         0.00000E+00
    0.15442E-07         0.20717E-09         0.00000E+00
    0.15439E-07         0.28397E-09         0.00000E+00
    0.15434E-07         0.35722E-09         0.00000E+00
    0.15428E-07         0.42691E-09         0.00000E+00
    0.15421E-07         0.49301E-09         0.00000E+00
    0.15413E-07         0.55551E-09         0.00000E+00
    0.15404E-07         0.61439E-09         0.00000E+00
    0.15395E-07         0.66964E-09         0.00000E+00
    0.15385E-07         0.72125E-09         0.00000E+00
    0.15374E-07         0.76923E-09         0.00000E+00
    0.15363E-07         0.81355E-09         0.00000E+00
    0.15351E-07         0.85423E-09         0.00000E+00
    0.15338E-07         0.89126E-09         0.00000E+00
    0.15326E-07         0.92466E-09         0.00000E+00
    0.15313E-07         0.95441E-09         0.00000E+00
    0.15299E-07         0.98054E-09         0.00000E+00
    0.15286E-07         0.10031E-08         0.00000E+00
    0.15272E-07         0.10220E-08         0.00000E+00
    0.15258E-07         0.10373E-08         0.00000E+00
    0.15244E-07         0.10490E-08         0.00000E+00
    0.15230E-07         0.10572E-08         0.00000E+00
    0.15216E-07         0.10618E-08         0.00000E+00
    0.15202E-07         0.10629E-08         0.00000E+00
    0.15188E-07         0.10605E-08         0.00000E+00
    0.15174E-07         0.10547E-08         0.00000E+00
    0.15161E-07         0.10454E-08         0.00000E+00
    0.15148E-07         0.10327E-08         0.00000E+00
    0.15135E-07         0.10165E-08         0.00000E+00
    0.15122E-07         0.99707E-09         0.00000E+00
    0.15110E-07         0.97426E-09         0.00000E+00
    0.15098E-07         0.94815E-09         0.00000E+00
    0.15086E-07         0.91877E-09         0.00000E+00
    0.15075E-07         0.88617E-09         0.00000E+00
    0.15065E-07         0.85038E-09         0.00000E+00
    0.15055E-07         0.81144E-09         0.00000E+00
    0.15045E-07         0.76939E-09         0.00000E+00
    0.15036E-07         0.72427E-09         0.00000E+00
    0.15028E-07         0.67612E-09         0.00000E+00
    0.15020E-07         0.62499E-09         0.00000E+00
    0.15014E-07         0.57092E-09         0.00000E+00
    0.15007E-07         0.51397E-09         0.00000E+00
    0.15002E-07         0.45418E-09         0.00000E+00
    0.14997E-07         0.39161E-09         0.00000E+00
    0.14993E-07         0.32630E-09         0.00000E+00
    0.14990E-07         0.25831E-09         0.00000E+00
    0.14987E-07         0.18770E-09         0.00000E+00
    0.14985E-07         0.11453E-09         0.00000E+00
    0.14984E-07         0.38857E-10         0.00000E+00
    0.16533E-07         0.46544E-10         0.00000E+00
    0.16532E-07         0.13706E-09         0.00000E+00
    0.16529E-07         0.22369E-09         0.00000E+00
    0.16525E-07         0.30641E-09         0.00000E+00
    0.16520E-07         0.38521E-09         0.00000E+00
    0.16514E-07         0.46007E-09         0.00000E+00
    0.16506E-07         0.53098E-09         0.00000E+00
    0.16498E-07         0.59792E-09         0.00000E+00
    0.16489E-07         0.66090E-09         0.00000E+00
    0.16479E-07         0.71991E-09         0.00000E+00
    0.16468E-07         0.77495E-09         0.00000E+00
    0.16457E-07         0.82601E-09         0.00000E+00
    0.16445E-07         0.87311E-09         0.00000E+00
    0.16433E-07         0.91626E-09         0.00000E+00
    0.16420E-07         0.95545E-09         0.00000E+00
    0.16406E-07         0.99070E-09         0.00000E+00
    0.16393E-07         0.10220E-08         0.00000E+00
    0.16379E-07         0.10494E-08         0.00000E+00
    0.16365E-07         0.10730E-08         0.00000E+00
    0.16350E-07         0.10926E-08         0.00000E+00
    0.16336E-07         0.11084E-08         0.00000E+00
    0.16321E-07         0.11204E-08         0.00000E+00
    0.16307E-07         0.11286E-08         0.00000E+00
    0.16292E-07         0.11330E-08         0.00000E+00
    0.16278E-07         0.11336E-08         0.00000E+00
    0.16264E-07         0.11305E-08         0.00000E+00
    0.16250E-07         0.11237E-08         0.00000E+00
    0.16236E-07         0.11133E-08         0.00000E+00
    0.16222E-07         0.10992E-08         0.00000E+00
    0.16209E-07         0.10816E-08         0.00000E+00
    0.16196E-07         0.10604E-08         0.00000E+00
    0.16183E-07         0.10356E-08         0.00000E+00
    0.16171E-07         0.10074E-08         0.00000E+00
    0.16159E-07         0.97580E-09         0.00000E+00
    0.16148E-07         0.94077E-09         0.00000E+00
    0.16137E-07         0.90239E-09         0.00000E+00
    0.16127E-07         0.86070E-09         0.00000E+00
    0.16117E-07         0.81575E-09         0.00000E+00
    0.16108E-07         0.76759E-09         0.00000E+00
    0.16100E-07         0.71627E-09         0.00000E+00
    0.16092E-07         0.66183E-09         0.00000E+00
    0.16085E-07         0.60434E-09         0.00000E+00
    0.16078E-07         0.54383E-09         0.00000E+00
    0.16073E-07         0.48038E-09         0.00000E+00
    0.16068E-07         0.41403E-09         0.00000E+00
    0.16064E-07         0.34485E-09         0.00000E+00
    0.16060E-07         0.27289E-09         0.00000E+00
    0.16058E-07         0.19822E-09         0.00000E+00
    0.16056E-07         0.12090E-09         0.00000E+00
    0.16055E-07         0.41001E-10         0.00000E+00
    0.17712E-07         0.50239E-10         0.00000E+00
    0.17710E-07         0.14784E-09         0.00000E+00
    0.17707E-07         0.24113E-09         0.00000E+00
    0.17703E-07         0.33008E-09         0.00000E+00
    0.17698E-07         0.41468E-09         0.00000E+00
    0.17691E-07         0.49494E-09         0.00000E+00
    0.17683E-07         0.57085E-09         0.00000E+00
    0.17675E-07         0.64240E-09         0.00000E+00
    0.17665E-07         0.70961E-09         0.00000E+00
    0.17655E-07         0.77248E-09         0.00000E+00
    0.17644E-07         0.83102E-09         0.00000E+00
    0.17632E-07         0.88524E-09         0.00000E+00
    0.17620E-07         0.93515E-09         0.00000E+00
    0.17607E-07         0.98077E-09         0.00000E+00
    0.17594E-07         0.10221E-08         0.00000E+00
    0.17580E-07         0.10592E-08         0.00000E+00
    0.17566E-07         0.10921E-08         0.00000E+00
    0.17551E-07         0.11208E-08         0.00000E+00
    0.17537E-07         0.11452E-08         0.00000E+00
    0.17522E-07         0.11656E-08         0.00000E+00
    0.17507E-07         0.11818E-08         0.00000E+00
    0.17493E-07         0.11939E-08         0.00000E+00
    0.17478E-07         0.12020E-08         0.00000E+00
    0.17463E-07         0.12060E-08         0.00000E+00
    0.17448E-07         0.12061E-08         0.00000E+00
    0.17434E-07         0.12022E-08         0.00000E+00
    0.17419E-07         0.11944E-08         0.00000E+00
    0.17405E-07         0.11827E-08         0.00000E+00
    0.17391E-07         0.11672E-08         0.00000E+00
    0.17378E-07         0.11479E-08         0.00000E+00
    0.17365E-07         0.11249E-08         0.00000E+00
    0.17352E-07         0.10982E-08         0.00000E+00
    0.17339E-07         0.10678E-08         0.00000E+00
    0.17328E-07         0.10338E-08         0.00000E+00
    0.17316E-07         0.99621E-09         0.00000E+00
    0.17305E-07         0.95514E-09         0.00000E+00
    0.17295E-07         0.91062E-09         0.00000E+00
    0.17285E-07         0.86270E-09         0.00000E+00
    0.17276E-07         0.81142E-09         0.00000E+00
    0.17268E-07         0.75685E-09         0.00000E+00
    0.17260E-07         0.69904E-09         0.00000E+00
    0.17253E-07         0.63805E-09         0.00000E+00
    0.17247E-07         0.57394E-09         0.00000E+00
    0.17241E-07         0.50677E-09         0.00000E+00
    0.17236E-07         0.43660E-09         0.00000E+00
    0.17232E-07         0.36351E-09         0.00000E+00
    0.17229E-07         0.28754E-09         0.00000E+00
    0.17226E-07         0.20878E-09         0.00000E+00
    0.17224E-07         0.12729E-09         0.00000E+00
    0.17223E-07         0.43150E-10         0.00000E+00
    0.18992E-07         0.54106E-10         0.00000E+00
    0.18991E-07         0.15912E-09         0.00000E+00
    0.18988E-07         0.25932E-09         0.00000E+00
    0.18984E-07         0.35473E-09         0.00000E+00
    0.18978E-07         0.44533E-09         0.00000E+00
    0.18971E-07         0.53115E-09         0.00000E+00
    0.18963E-07         0.61218E-09         0.00000E+00
    0.18954E-07         0.68844E-09         0.00000E+00
    0.18945E-07         0.75995E-09         0.00000E+00
    0.18934E-07         0.82672E-09         0.00000E+00
    0.18923E-07         0.88879E-09         0.00000E+00
    0.18911E-07         0.94616E-09         0.00000E+00
    0.18898E-07         0.99886E-09         0.00000E+00
    0.18885E-07         0.10469E-08         0.00000E+00
    0.18871E-07         0.10904E-08         0.00000E+00
    0.18858E-07         0.11293E-08         0.00000E+00
    0.18843E-07         0.11636E-08         0.00000E+00
    0.18829E-07         0.11935E-08         0.00000E+00
    0.18814E-07         0.12188E-08         0.00000E+00
    0.18799E-07         0.12398E-08         0.00000E+00
    0.18784E-07         0.12563E-08         0.00000E+00
    0.18769E-07         0.12685E-08         0.00000E+00
    0.18754E-07         0.12763E-08         0.00000E+00
    0.18740E-07         0.12800E-08         0.00000E+00
    0.18725E-07         0.12793E-08         0.00000E+00
    0.18710E-07         0.12745E-08         0.00000E+00
    0.18696E-07         0.12656E-08         0.00000E+00
    0.18682E-07         0.12526E-08         0.00000E+00
    0.18668E-07         0.12356E-08         0.00000E+00
    0.18655E-07         0.12145E-08         0.00000E+00
    0.18642E-07         0.11896E-08         0.00000E+00
    0.18629E-07         0.11608E-08         0.00000E+00
    0.18617E-07         0.11281E-08         0.00000E+00
    0.18605E-07         0.10917E-08         0.00000E+00
    0.18594E-07         0.10515E-08         0.00000E+00
    0.18583E-07         0.10077E-08         0.00000E+00
    0.18573E-07         0.96033E-09         0.00000E+00
    0.18563E-07         0.90939E-09         0.00000E+00
    0.18554E-07         0.85497E-09         0.00000E+00
    0.18546E-07         0.79713E-09         0.00000E+00
    0.18538E-07         0.73594E-09         0.00000E+00
    0.18531E-07         0.67145E-09         0.00000E+00
    0.18525E-07         0.60374E-09         0.00000E+00
    0.18519E-07         0.53286E-09         0.00000E+00
    0.18515E-07         0.45890E-09         0.00000E+00
    0.18511E-07         0.38192E-09         0.00000E+00
    0.18507E-07         0.30199E-09         0.00000E+00
    0.18505E-07         0.21919E-09         0.00000E+00
    0.18503E-07         0.13359E-09         0.00000E+00
    0.18502E-07         0.45264E-10         0.00000E+00
    0.20388E-07         0.58093E-10         0.00000E+00
    0.20387E-07         0.17072E-09         0.00000E+00
    0.20384E-07         0.27802E-09         0.00000E+00
    0.20379E-07         0.38001E-09         0.00000E+00
    0.20374E-07         0.47671E-09         0.00000E+00
    0.20367E-07         0.56814E-09         0.00000E+00
    0.20359E-07         0.65433E-09         0.00000E+00
    0.20350E-07         0.73531E-09         0.00000E+00
    0.20340E-07         0.81111E-09         0.00000E+00
    0.20329E-07         0.88175E-09         0.00000E+00
    0.20318E-07         0.94729E-09         0.00000E+00
    0.20306E-07         0.10077E-08         0.00000E+00
    0.20293E-07         0.10632E-08         0.00000E+00
    0.20280E-07         0.11136E-08         0.00000E+00
    0.20267E-07         0.11591E-08         0.00000E+00
    0.20253E-07         0.11996E-08         0.00000E+00
    0.20239E-07         0.12353E-08         0.00000E+00
    0.20224E-07         0.12662E-08         0.00000E+00
    0.20210E-07         0.12923E-08         0.00000E+00
    0.20195E-07         0.13137E-08         0.00000E+00
    0.20180E-07         0.13305E-08         0.00000E+00
    0.20166E-07         0.13426E-08         0.00000E+00
    0.20151E-07         0.13502E-08         0.00000E+00
    0.20136E-07         0.13532E-08         0.00000E+00
    0.20122E-07         0.13518E-08         0.00000E+00
    0.20108E-07         0.13460E-08         0.00000E+00
    0.20094E-07         0.13359E-08         0.00000E+00
    0.20080E-07         0.13214E-08         0.00000E+00
    0.20067E-07         0.13028E-08         0.00000E+00
    0.20054E-07         0.12800E-08         0.00000E+00
    0.20041E-07         0.12531E-08         0.00000E+00
    0.20029E-07         0.12221E-08         0.00000E+00
    0.20017E-07         0.11871E-08         0.00000E+00
    0.20005E-07         0.11482E-08         0.00000E+00
    0.19995E-07         0.11055E-08         0.00000E+00
    0.19984E-07         0.10590E-08         0.00000E+00
    0.19975E-07         0.10087E-08         0.00000E+00
    0.19965E-07         0.95477E-09         0.00000E+00
    0.19957E-07         0.89724E-09         0.00000E+00
    0.19949E-07         0.83618E-09         0.00000E+00
    0.19942E-07         0.77166E-09         0.00000E+00
    0.19935E-07         0.70375E-09         0.00000E+00
    0.19929E-07         0.63252E-09         0.00000E+00
    0.19924E-07         0.55804E-09         0.00000E+00
    0.19919E-07         0.48040E-09         0.00000E+00
    0.19915E-07         0.39965E-09         0.00000E+00
    0.19912E-07         0.31589E-09         0.00000E+00
    0.19910E-07         0.22919E-09         0.00000E+00
    0.19908E-07         0.13963E-09         0.00000E+00
    0.19908E-07         0.47292E-10         0.00000E+00
    0.21914E-07         0.62127E-10         0.00000E+00
    0.21912E-07         0.18244E-09         0.00000E+00
    0.21909E-07         0.29686E-09         0.00000E+00
    0.21905E-07         0.40543E-09         0.00000E+00
    0.21899E-07         0.50819E-09         0.00000E+00
    0.21892E-07         0.60518E-09         0.00000E+00
    0.21885E-07         0.69644E-09         0.00000E+00
    0.21876E-07         0.78203E-09         0.00000E+00
    0.21866E-07         0.86199E-09         0.00000E+00
    0.21856E-07         0.93637E-09         0.00000E+00
    0.21845E-07         0.10052E-08         0.00000E+00
    0.21833E-07         0.10686E-08         0.00000E+00
    0.21821E-07         0.11266E-08         0.00000E+00
    0.21808E-07         0.11792E-08         0.00000E+00
    0.21795E-07         0.12265E-08         0.00000E+00
    0.21781E-07         0.12686E-08         0.00000E+00
    0.21768E-07         0.13055E-08         0.00000E+00
    0.21754E-07         0.13373E-08         0.00000E+00
    0.21740E-07         0.13640E-08         0.00000E+00
    0.21726E-07         0.13857E-08         0.00000E+00
    0.21712E-07         0.14025E-08         0.00000E+00
    0.21698E-07         0.14144E-08         0.00000E+00
    0.21684E-07         0.14215E-08         0.00000E+00
    0.21670E-07         0.14239E-08         0.00000E+00
    0.21656E-07         0.14216E-08         0.00000E+00
    0.21643E-07         0.14147E-08         0.00000E+00
    0.21629E-07         0.14033E-08         0.00000E+00
    0.21616E-07         0.13874E-08         0.00000E+00
    0.21604E-07         0.13671E-08         0.00000E+00
    0.21592E-07         0.13424E-08         0.00000E+00
    0.21580E-07         0.13135E-08         0.00000E+00
    0.21568E-07         0.12804E-08         0.00000E+00
    0.21557E-07         0.12431E-08         0.00000E+00
    0.21547E-07         0.12018E-08         0.00000E+00
    0.21537E-07         0.11565E-08         0.00000E+00
    0.21527E-07         0.11073E-08         0.00000E+00
    0.21518E-07         0.10543E-08         0.00000E+00
    0.21509E-07         0.99748E-09         0.00000E+00
    0.21502E-07         0.93696E-09         0.00000E+00
    0.21494E-07         0.87282E-09         0.00000E+00
    0.21488E-07         0.80513E-09         0.00000E+00
    0.21481E-07         0.73397E-09         0.00000E+00
    0.21476E-07         0.65941E-09         0.00000E+00
    0.21471E-07         0.58153E-09         0.00000E+00
    0.21467E-07         0.50042E-09         0.00000E+00
    0.21464E-07         0.41615E-09         0.00000E+00
    0.21461E-07         0.32880E-09         0.00000E+00
    0.21459E-07         0.23846E-09         0.00000E+00
    0.21457E-07         0.14522E-09         0.00000E+00
    0.21456E-07         0.49168E-10         0.00000E+00
    0.23586E-07         0.66107E-10         0.00000E+00
    0.23585E-07         0.19397E-09         0.00000E+00
    0.23582E-07         0.31536E-09         0.00000E+00
    0.23578E-07         0.43032E-09         0.00000E+00
    0.23572E-07         0.53894E-09         0.00000E+00
    0.23566E-07         0.64126E-09         0.00000E+00
    0.23558E-07         0.73736E-09         0.00000E+00
    0.23550E-07         0.82731E-09         0.00000E+00
    0.23541E-07         0.91117E-09         0.00000E+00
    0.23531E-07         0.98903E-09         0.00000E+00
    0.23520E-07         0.10609E-08         0.00000E+00
    0.23509E-07         0.11270E-08         0.00000E+00
    0.23498E-07         0.11873E-08         0.00000E+00
    0.23486E-07         0.12418E-08         0.00000E+00
    0.23473E-07         0.12907E-08         0.00000E+00
    0.23461E-07         0.13340E-08         0.00000E+00
    0.23448E-07         0.13719E-08         0.00000E+00
    0.23435E-07         0.14043E-08         0.00000E+00
    0.23422E-07         0.14314E-08         0.00000E+00
    0.23409E-07         0.14533E-08         0.00000E+00
    0.23397E-07         0.14699E-08         0.00000E+00
    0.23384E-07         0.14815E-08         0.00000E+00
    0.23371E-07         0.14880E-08         0.00000E+00
    0.23358E-07         0.14896E-08         0.00000E+00
    0.23346E-07         0.14863E-08         0.00000E+00
    0.23334E-07         0.14782E-08         0.00000E+00
    0.23322E-07         0.14654E-08         0.00000E+00
    0.23310E-07         0.14480E-08         0.00000E+00
    0.23299E-07         0.14260E-08         0.00000E+00
    0.23288E-07         0.13996E-08         0.00000E+00
    0.23277E-07         0.13687E-08         0.00000E+00
    0.23267E-07         0.13335E-08         0.00000E+00
    0.23257E-07         0.12940E-08         0.00000E+00
    0.23248E-07         0.12504E-08         0.00000E+00
    0.23239E-07         0.12027E-08         0.00000E+00
    0.23231E-07         0.11510E-08         0.00000E+00
    0.23223E-07         0.10954E-08         0.00000E+00
    0.23215E-07         0.10358E-08         0.00000E+00
    0.23209E-07         0.97257E-09         0.00000E+00
    0.23202E-07         0.90559E-09         0.00000E+00
    0.23196E-07         0.83500E-09         0.00000E+00
    0.23191E-07         0.76088E-09         0.00000E+00
    0.23186E-07         0.68330E-09         0.00000E+00
    0.23182E-07         0.60236E-09         0.00000E+00
    0.23179E-07         0.51814E-09         0.00000E+00
    0.23176E-07         0.43072E-09         0.00000E+00
    0.23173E-07         0.34018E-09         0.00000E+00
    0.23172E-07         0.24663E-09         0.00000E+00
    0.23170E-07         0.15014E-09         0.00000E+00
    0.23170E-07         0.50813E-10         0.00000E+00
    0.25425E-07         0.69906E-10         0.00000E+00
    0.25424E-07         0.20495E-09         0.00000E+00
    0.25421E-07         0.33290E-09         0.00000E+00
    0.25417E-07         0.45385E-09         0.00000E+00
    0.25412E-07         0.56789E-09         0.00000E+00
    0.25406E-07         0.67512E-09         0.00000E+00
    0.25399E-07         0.77563E-09         0.00000E+00
    0.25392E-07         0.86951E-09         0.00000E+00
    0.25383E-07         0.95685E-09         0.00000E+00
    0.25374E-07         0.10378E-08         0.00000E+00
    0.25365E-07         0.11123E-08         0.00000E+00
    0.25355E-07         0.11806E-08         0.00000E+00
    0.25345E-07         0.12428E-08         0.00000E+00
    0.25334E-07         0.12989E-08         0.00000E+00
    0.25323E-07         0.13490E-08         0.00000E+00
    0.25312E-07         0.13933E-08         0.00000E+00
    0.25301E-07         0.14318E-08         0.00000E+00
    0.25290E-07         0.14646E-08         0.00000E+00
    0.25279E-07         0.14918E-08         0.00000E+00
    0.25267E-07         0.15136E-08         0.00000E+00
    0.25256E-07         0.15299E-08         0.00000E+00
    0.25245E-07         0.15409E-08         0.00000E+00
    0.25234E-07         0.15467E-08         0.00000E+00
    0.25224E-07         0.15474E-08         0.00000E+00
    0.25213E-07         0.15430E-08         0.00000E+00
    0.25203E-07         0.15337E-08         0.00000E+00
    0.25193E-07         0.15195E-08         0.00000E+00
    0.25183E-07         0.15006E-08         0.00000E+00
    0.25174E-07         0.14769E-08         0.00000E+00
    0.25165E-07         0.14487E-08         0.00000E+00
    0.25156E-07         0.14160E-08         0.00000E+00
    0.25148E-07         0.13788E-08         0.00000E+00
    0.25140E-07         0.13373E-08         0.00000E+00
    0.25132E-07         0.12916E-08         0.00000E+00
    0.25125E-07         0.12417E-08         0.00000E+00
    0.25118E-07         0.11877E-08         0.00000E+00
    0.25112E-07         0.11298E-08         0.00000E+00
    0.25106E-07         0.10679E-08         0.00000E+00
    0.25101E-07         0.10022E-08         0.00000E+00
    0.25096E-07         0.93275E-09         0.00000E+00
    0.25091E-07         0.85967E-09         0.00000E+00
    0.25087E-07         0.78302E-09         0.00000E+00
    0.25083E-07         0.70290E-09         0.00000E+00
    0.25080E-07         0.61939E-09         0.00000E+00
    0.25078E-07         0.53257E-09         0.00000E+00
    0.25075E-07         0.44255E-09         0.00000E+00
    0.25073E-07         0.34940E-09         0.00000E+00
    0.25072E-07         0.25322E-09         0.00000E+00
    0.25071E-07         0.15410E-09         0.00000E+00
    0.25071E-07         0.52132E-10         0.00000E+00
    0.27454E-07         0.73359E-10         0.00000E+00
    0.27452E-07         0.21488E-09         0.00000E+00
    0.27450E-07         0.34870E-09         0.00000E+00
    0.27447E-07         0.47495E-09         0.00000E+00
    0.27442E-07         0.59374E-09         0.00000E+00
    0.27437E-07         0.70520E-09         0.00000E+00
    0.27431E-07         0.80945E-09         0.00000E+00
    0.27425E-07         0.90661E-09         0.00000E+00
    0.27418E-07         0.99681E-09         0.00000E+00
    0.27410E-07         0.10802E-08         0.00000E+00
    0.27402E-07         0.11568E-08         0.00000E+00
    0.27394E-07         0.12268E-08         0.00000E+00
    0.27385E-07         0.12904E-08         0.00000E+00
    0.27377E-07         0.13475E-08         0.00000E+00
    0.27368E-07         0.13985E-08         0.00000E+00
    0.27359E-07         0.14432E-08         0.00000E+00
    0.27350E-07         0.14820E-08         0.00000E+00
    0.27341E-07         0.15148E-08         0.00000E+00
    0.27333E-07         0.15419E-08         0.00000E+00
    0.27324E-07         0.15632E-08         0.00000E+00
    0.27315E-07         0.15789E-08         0.00000E+00
    0.27307E-07         0.15892E-08         0.00000E+00
    0.27299E-07         0.15941E-08         0.00000E+00
    0.27291E-07         0.15938E-08         0.00000E+00
    0.27283E-07         0.15882E-08         0.00000E+00
    0.27275E-07         0.15776E-08         0.00000E+00
    0.27268E-07         0.15621E-08         0.00000E+00
    0.27261E-07         0.15417E-08         0.00000E+00
    0.27254E-07         0.15165E-08         0.00000E+00
    0.27248E-07         0.14866E-08         0.00000E+00
    0.27242E-07         0.14522E-08         0.00000E+00
    0.27236E-07         0.14133E-08         0.00000E+00
    0.27230E-07         0.13700E-08         0.00000E+00
    0.27225E-07         0.13225E-08         0.00000E+00
    0.27220E-07         0.12707E-08         0.00000E+00
    0.27216E-07         0.12149E-08         0.00000E+00
    0.27212E-07         0.11550E-08         0.00000E+00
    0.27208E-07         0.10912E-08         0.00000E+00
    0.27204E-07         0.10236E-08         0.00000E+00
    0.27201E-07         0.95224E-09         0.00000E+00
    0.27198E-07         0.87724E-09         0.00000E+00
    0.27196E-07         0.79868E-09         0.00000E+00
    0.27193E-07         0.71666E-09         0.00000E+00
    0.27192E-07         0.63125E-09         0.00000E+00
    0.27190E-07         0.54256E-09         0.00000E+00
    0.27189E-07         0.45067E-09         0.00000E+00
    0.27187E-07         0.35568E-09         0.00000E+00
    0.27187E-07         0.25768E-09         0.00000E+00
    0.27186E-07         0.15675E-09         0.00000E+00
    0.27186E-07         0.53011E-10         0.00000E+00
    0.29697E-07         0.76269E-10         0.00000E+00
    0.29696E-07         0.22320E-09         0.00000E+00
    0.29694E-07         0.36184E-09         0.00000E+00
    0.29691E-07         0.49234E-09         0.00000E+00
    0.29688E-07         0.61488E-09         0.00000E+00
    0.29684E-07         0.72960E-09         0.00000E+00
    0.29680E-07         0.83666E-09         0.00000E+00
    0.29675E-07         0.93621E-09         0.00000E+00
    0.29670E-07         0.10284E-08         0.00000E+00
    0.29664E-07         0.11134E-08         0.00000E+00
    0.29658E-07         0.11913E-08         0.00000E+00
    0.29653E-07         0.12623E-08         0.00000E+00
    0.29647E-07         0.13266E-08         0.00000E+00
    0.29641E-07         0.13842E-08         0.00000E+00
    0.29635E-07         0.14353E-08         0.00000E+00
    0.29629E-07         0.14800E-08         0.00000E+00
    0.29623E-07         0.15186E-08         0.00000E+00
    0.29618E-07         0.15510E-08         0.00000E+00
    0.29612E-07         0.15775E-08         0.00000E+00
    0.29607E-07         0.15981E-08         0.00000E+00
    0.29601E-07         0.16130E-08         0.00000E+00
    0.29596E-07         0.16223E-08         0.00000E+00
    0.29592E-07         0.16262E-08         0.00000E+00
    0.29587E-07         0.16246E-08         0.00000E+00
    0.29583E-07         0.16179E-08         0.00000E+00
    0.29579E-07         0.16060E-08         0.00000E+00
    0.29575E-07         0.15892E-08         0.00000E+00
    0.29571E-07         0.15674E-08         0.00000E+00
    0.29568E-07         0.15408E-08         0.00000E+00
    0.29565E-07         0.15096E-08         0.00000E+00
    0.29562E-07         0.14737E-08         0.00000E+00
    0.29560E-07         0.14334E-08         0.00000E+00
    0.29558E-07         0.13887E-08         0.00000E+00
    0.29556E-07         0.13398E-08         0.00000E+00
    0.29554E-07         0.12866E-08         0.00000E+00
    0.29552E-07         0.12294E-08         0.00000E+00
    0.29551E-07         0.11682E-08         0.00000E+00
    0.29550E-07         0.11031E-08         0.00000E+00
    0.29549E-07         0.10343E-08         0.00000E+00
    0.29548E-07         0.96172E-09         0.00000E+00
    0.29547E-07         0.88556E-09         0.00000E+00
    0.29546E-07         0.80590E-09         0.00000E+00
    0.29546E-07         0.72281E-09         0.00000E+00
    0.29546E-07         0.63640E-09         0.00000E+00
    0.29545E-07         0.54676E-09         0.00000E+00
    0.29545E-07         0.45398E-09         0.00000E+00
    0.29545E-07         0.35816E-09         0.00000E+00
    0.29545E-07         0.25937E-09         0.00000E+00
    0.29545E-07         0.15773E-09         0.00000E+00
    0.29545E-07         0.53322E-10         0.00000E+00
    0.32185E-07         0.78398E-10         0.00000E+00
    0.32184E-07         0.22921E-09         0.00000E+00
    0.32183E-07         0.37118E-09         0.00000E+00
    0.32181E-07         0.50452E-09         0.00000E+00
    0.32179E-07         0.62943E-09         0.00000E+00
    0.32177E-07         0.74610E-09         0.00000E+00
    0.32175E-07         0.85472E-09         0.00000E+00
    0.32172E-07         0.95547E-09         0.00000E+00
    0.32169E-07         0.10485E-08         0.00000E+00
    0.32167E-07         0.11341E-08         0.00000E+00
    0.32164E-07         0.12123E-08         0.00000E+00
    0.32161E-07         0.12834E-08         0.00000E+00
    0.32159E-07         0.13475E-08         0.00000E+00
    0.32156E-07         0.14047E-08         0.00000E+00
    0.32154E-07         0.14553E-08         0.00000E+00
    0.32152E-07         0.14994E-08         0.00000E+00
    0.32151E-07         0.15371E-08         0.00000E+00
    0.32149E-07         0.15687E-08         0.00000E+00
    0.32148E-07         0.15941E-08         0.00000E+00
    0.32147E-07         0.16137E-08         0.00000E+00
    0.32146E-07         0.16274E-08         0.00000E+00
    0.32145E-07         0.16356E-08         0.00000E+00
    0.32145E-07         0.16382E-08         0.00000E+00
    0.32145E-07         0.16355E-08         0.00000E+00
    0.32145E-07         0.16275E-08         0.00000E+00
    0.32146E-07         0.16144E-08         0.00000E+00
    0.32146E-07         0.15963E-08         0.00000E+00
    0.32147E-07         0.15734E-08         0.00000E+00
    0.32148E-07         0.15457E-08         0.00000E+00
    0.32149E-07         0.15133E-08         0.00000E+00
    0.32151E-07         0.14764E-08         0.00000E+00
    0.32153E-07         0.14351E-08         0.00000E+00
    0.32154E-07         0.13896E-08         0.00000E+00
    0.32156E-07         0.13398E-08         0.00000E+00
    0.32158E-07         0.12859E-08         0.00000E+00
    0.32160E-07         0.12280E-08         0.00000E+00
    0.32162E-07         0.11662E-08         0.00000E+00
    0.32164E-07         0.11007E-08         0.00000E+00
    0.32166E-07         0.10314E-08         0.00000E+00
    0.32168E-07         0.95856E-09         0.00000E+00
    0.32170E-07         0.88221E-09         0.00000E+00
    0.32172E-07         0.80246E-09         0.00000E+00
    0.32174E-07         0.71939E-09         0.00000E+00
    0.32176E-07         0.63310E-09         0.00000E+00
    0.32177E-07         0.54369E-09         0.00000E+00
    0.32179E-07         0.45124E-09         0.00000E+00
    0.32180E-07         0.35585E-09         0.00000E+00
    0.32181E-07         0.25760E-09         0.00000E+00
    0.32181E-07         0.15660E-09         0.00000E+00
    0.32182E-07         0.52917E-10         0.00000E+00
    0.34951E-07         0.79471E-10         0.00000E+00
    0.34951E-07         0.23210E-09         0.00000E+00
    0.34951E-07         0.37544E-09         0.00000E+00
    0.34951E-07         0.50974E-09         0.00000E+00
    0.34950E-07         0.63523E-09         0.00000E+00
    0.34950E-07         0.75215E-09         0.00000E+00
    0.34950E-07         0.86072E-09         0.00000E+00
    0.34951E-07         0.96115E-09         0.00000E+00
    0.34951E-07         0.10537E-08         0.00000E+00
    0.34952E-07         0.11385E-08         0.00000E+00
    0.34953E-07         0.12158E-08         0.00000E+00
    0.34954E-07         0.12858E-08         0.00000E+00
    0.34956E-07         0.13487E-08         0.00000E+00
    0.34958E-07         0.14046E-08         0.00000E+00
    0.34961E-07         0.14539E-08         0.00000E+00
    0.34964E-07         0.14965E-08         0.00000E+00
    0.34967E-07         0.15328E-08         0.00000E+00
    0.34971E-07         0.15628E-08         0.00000E+00
    0.34975E-07         0.15868E-08         0.00000E+00
    0.34979E-07         0.16049E-08         0.00000E+00
    0.34984E-07         0.16172E-08         0.00000E+00
    0.34988E-07         0.16239E-08         0.00000E+00
    0.34994E-07         0.16252E-08         0.00000E+00
    0.34999E-07         0.16212E-08         0.00000E+00
    0.35005E-07         0.16120E-08         0.00000E+00
    0.35011E-07         0.15978E-08         0.00000E+00
    0.35017E-07         0.15787E-08         0.00000E+00
    0.35023E-07         0.15549E-08         0.00000E+00
    0.35030E-07         0.15264E-08         0.00000E+00
    0.35036E-07         0.14934E-08         0.00000E+00
    0.35043E-07         0.14559E-08         0.00000E+00
    0.35050E-07         0.14143E-08         0.00000E+00
    0.35056E-07         0.13684E-08         0.00000E+00
    0.35063E-07         0.13185E-08         0.00000E+00
    0.35069E-07         0.12646E-08         0.00000E+00
    0.35076E-07         0.12070E-08         0.00000E+00
    0.35082E-07         0.11455E-08         0.00000E+00
    0.35088E-07         0.10805E-08         0.00000E+00
    0.35094E-07         0.10119E-08         0.00000E+00
    0.35100E-07         0.93991E-09         0.00000E+00
    0.35105E-07         0.86456E-09         0.00000E+00
    0.35110E-07         0.78598E-09         0.00000E+00
    0.35114E-07         0.70425E-09         0.00000E+00
    0.35118E-07         0.61947E-09         0.00000E+00
    0.35122E-07         0.53172E-09         0.00000E+00
    0.35125E-07         0.44110E-09         0.00000E+00
    0.35128E-07         0.34769E-09         0.00000E+00
    0.35130E-07         0.25159E-09         0.00000E+00
    0.35131E-07         0.15288E-09         0.00000E+00
    0.35132E-07         0.51638E-10         0.00000E+00
    0.38034E-07         0.79175E-10         0.00000E+00
    0.38034E-07         0.23097E-09         0.00000E+00
    0.38035E-07         0.37317E-09         0.00000E+00
    0.38037E-07         0.50603E-09         0.00000E+00
    0.38039E-07         0.62985E-09         0.00000E+00
    0.38041E-07         0.74490E-09         0.00000E+00
    0.38045E-07         0.85143E-09         0.00000E+00
    0.38048E-07         0.94969E-09         0.00000E+00
    0.38053E-07         0.10399E-08         0.00000E+00
    0.38058E-07         0.11224E-08         0.00000E+00
    0.38064E-07         0.11973E-08         0.00000E+00
    0.38070E-07         0.12649E-08         0.00000E+00
    0.38077E-07         0.13254E-08         0.00000E+00
    0.38085E-07         0.13789E-08         0.00000E+00
    0.38093E-07         0.14258E-08         0.00000E+00
    0.38102E-07         0.14661E-08         0.00000E+00
    0.38112E-07         0.15002E-08         0.00000E+00
    0.38121E-07         0.15281E-08         0.00000E+00
    0.38132E-07         0.15501E-08         0.00000E+00
    0.38143E-07         0.15663E-08         0.00000E+00
    0.38154E-07         0.15768E-08         0.00000E+00
    0.38165E-07         0.15820E-08         0.00000E+00
    0.38177E-07         0.15818E-08         0.00000E+00
    0.38189E-07         0.15765E-08         0.00000E+00
    0.38202E-07         0.15662E-08         0.00000E+00
    0.38214E-07         0.15511E-08         0.00000E+00
    0.38227E-07         0.15313E-08         0.00000E+00
    0.38240E-07         0.15069E-08         0.00000E+00
    0.38252E-07         0.14781E-08         0.00000E+00
    0.38265E-07         0.14449E-08         0.00000E+00
    0.38278E-07         0.14076E-08         0.00000E+00
    0.38290E-07         0.13663E-08         0.00000E+00
    0.38303E-07         0.13210E-08         0.00000E+00
    0.38315E-07         0.12718E-08         0.00000E+00
    0.38327E-07         0.12190E-08         0.00000E+00
    0.38339E-07         0.11625E-08         0.00000E+00
    0.38350E-07         0.11026E-08         0.00000E+00
    0.38361E-07         0.10393E-08         0.00000E+00
    0.38371E-07         0.97264E-09         0.00000E+00
    0.38381E-07         0.90282E-09         0.00000E+00
    0.38390E-07         0.82991E-09         0.00000E+00
    0.38398E-07         0.75399E-09         0.00000E+00
    0.38406E-07         0.67517E-09         0.00000E+00
    0.38413E-07         0.59353E-09         0.00000E+00
    0.38419E-07         0.50916E-09         0.00000E+00
    0.38424E-07         0.42215E-09         0.00000E+00
    0.38428E-07         0.33257E-09         0.00000E+00
    0.38431E-07         0.24052E-09         0.00000E+00
    0.38434E-07         0.14607E-09         0.00000E+00
    0.38435E-07         0.49314E-10         0.00000E+00
    0.41475E-07         0.77164E-10         0.00000E+00
    0.41476E-07         0.22483E-09         0.00000E+00
    0.41479E-07         0.36275E-09         0.00000E+00
    0.41482E-07         0.49125E-09         0.00000E+00
    0.41487E-07         0.61065E-09         0.00000E+00
    0.41493E-07         0.72125E-09         0.00000E+00
    0.41500E-07         0.82334E-09         0.00000E+00
    0.41508E-07         0.91721E-09         0.00000E+00
    0.41518E-07         0.10031E-08         0.00000E+00
    0.41528E-07         0.10814E-08         0.00000E+00
    0.41539E-07         0.11522E-08         0.00000E+00
    0.41552E-07         0.12158E-08         0.00000E+00
    0.41565E-07         0.12724E-08         0.00000E+00
    0.41579E-07         0.13223E-08         0.00000E+00
    0.41594E-07         0.13657E-08         0.00000E+00
    0.41610E-07         0.14029E-08         0.00000E+00
    0.41627E-07         0.14339E-08         0.00000E+00
    0.41644E-07         0.14590E-08         0.00000E+00
    0.41662E-07         0.14784E-08         0.00000E+00
    0.41680E-07         0.14923E-08         0.00000E+00
    0.41699E-07         0.15008E-08         0.00000E+00
    0.41718E-07         0.15042E-08         0.00000E+00
    0.41738E-07         0.15025E-08         0.00000E+00
    0.41758E-07         0.14960E-08         0.00000E+00
    0.41778E-07         0.14848E-08         0.00000E+00
    0.41798E-07         0.14691E-08         0.00000E+00
    0.41818E-07         0.14489E-08         0.00000E+00
    0.41838E-07         0.14245E-08         0.00000E+00
    0.41858E-07         0.13959E-08         0.00000E+00
    0.41878E-07         0.13634E-08         0.00000E+00
    0.41898E-07         0.13269E-08         0.00000E+00
    0.41918E-07         0.12868E-08         0.00000E+00
    0.41937E-07         0.12430E-08         0.00000E+00
    0.41955E-07         0.11957E-08         0.00000E+00
    0.41973E-07         0.11450E-08         0.00000E+00
    0.41991E-07         0.10910E-08         0.00000E+00
    0.42008E-07         0.10339E-08         0.00000E+00
    0.42024E-07         0.97366E-09         0.00000E+00
    0.42039E-07         0.91047E-09         0.00000E+00
    0.42053E-07         0.84441E-09         0.00000E+00
    0.42067E-07         0.77558E-09         0.00000E+00
    0.42079E-07         0.70407E-09         0.00000E+00
    0.42091E-07         0.62997E-09         0.00000E+00
    0.42101E-07         0.55336E-09         0.00000E+00
    0.42110E-07         0.47434E-09         0.00000E+00
    0.42117E-07         0.39298E-09         0.00000E+00
    0.42124E-07         0.30937E-09         0.00000E+00
    0.42128E-07         0.22358E-09         0.00000E+00
    0.42132E-07         0.13569E-09         0.00000E+00
    0.42133E-07         0.45776E-10         0.00000E+00
    0.45321E-07         0.73067E-10         0.00000E+00
    0.45323E-07         0.21260E-09         0.00000E+00
    0.45328E-07         0.34249E-09         0.00000E+00
    0.45334E-07         0.46312E-09         0.00000E+00
    0.45342E-07         0.57483E-09         0.00000E+00
    0.45352E-07         0.67796E-09         0.00000E+00
    0.45363E-07         0.77282E-09         0.00000E+00
    0.45377E-07         0.85971E-09         0.00000E+00
    0.45392E-07         0.93895E-09         0.00000E+00
    0.45408E-07         0.10108E-08         0.00000E+00
    0.45426E-07         0.10755E-08         0.00000E+00
    0.45446E-07         0.11334E-08         0.00000E+00
    0.45466E-07         0.11847E-08         0.00000E+00
    0.45488E-07         0.12296E-08         0.00000E+00
    0.45511E-07         0.12684E-08         0.00000E+00
    0.45535E-07         0.13012E-08         0.00000E+00
    0.45560E-07         0.13284E-08         0.00000E+00
    0.45585E-07         0.13500E-08         0.00000E+00
    0.45612E-07         0.13664E-08         0.00000E+00
    0.45639E-07         0.13776E-08         0.00000E+00
    0.45666E-07         0.13838E-08         0.00000E+00
    0.45694E-07         0.13853E-08         0.00000E+00
    0.45723E-07         0.13822E-08         0.00000E+00
    0.45751E-07         0.13747E-08         0.00000E+00
    0.45780E-07         0.13628E-08         0.00000E+00
    0.45808E-07         0.13468E-08         0.00000E+00
    0.45837E-07         0.13269E-08         0.00000E+00
    0.45866E-07         0.13030E-08         0.00000E+00
    0.45894E-07         0.12755E-08         0.00000E+00
    0.45922E-07         0.12443E-08         0.00000E+00
    0.45949E-07         0.12098E-08         0.00000E+00
    0.45976E-07         0.11718E-08         0.00000E+00
    0.46003E-07         0.11307E-08         0.00000E+00
    0.46028E-07         0.10864E-08         0.00000E+00
    0.46053E-07         0.10392E-08         0.00000E+00
    0.46077E-07         0.98912E-09         0.00000E+00
    0.46100E-07         0.93626E-09         0.00000E+00
    0.46122E-07         0.88074E-09         0.00000E+00
    0.46143E-07         0.82266E-09         0.00000E+00
    0.46163E-07         0.76212E-09         0.00000E+00
    0.46181E-07         0.69921E-09         0.00000E+00
    0.46198E-07         0.63403E-09         0.00000E+00
    0.46213E-07         0.56667E-09         0.00000E+00
    0.46227E-07         0.49721E-09         0.00000E+00
    0.46239E-07         0.42574E-09         0.00000E+00
    0.46249E-07         0.35234E-09         0.00000E+00
    0.46258E-07         0.27708E-09         0.00000E+00
    0.46264E-07         0.20003E-09         0.00000E+00
    0.46268E-07         0.12127E-09         0.00000E+00
    0.46271E-07         0.40865E-10         0.00000E+00
    0.49624E-07         0.66498E-10         0.00000E+00
    0.49627E-07         0.19317E-09         0.00000E+00
    0.49633E-07         0.31065E-09         0.00000E+00
    0.49642E-07         0.41932E-09         0.00000E+00
    0.49654E-07         0.51957E-09         0.00000E+00
    0.49669E-07         0.61174E-09         0.00000E+00
    0.49686E-07         0.69618E-09         0.00000E+00
    0.49705E-07         0.77320E-09         0.00000E+00
    0.49726E-07         0.84311E-09         0.00000E+00
    0.49750E-07         0.90620E-09         0.00000E+00
    0.49775E-07         0.96276E-09         0.00000E+00
    0.49803E-07         0.10130E-08         0.00000E+00
    0.49831E-07         0.10573E-08         0.00000E+00
    0.49862E-07         0.10958E-08         0.00000E+00
    0.49894E-07         0.11287E-08         0.00000E+00
    0.49927E-07         0.11563E-08         0.00000E+00
    0.49961E-07         0.11788E-08         0.00000E+00
    0.49996E-07         0.11963E-08         0.00000E+00
    0.50032E-07         0.12091E-08         0.00000E+00
    0.50068E-07         0.12174E-08         0.00000E+00
    0.50105E-07         0.12212E-08         0.00000E+00
    0.50143E-07         0.12209E-08         0.00000E+00
    0.50180E-07         0.12165E-08         0.00000E+00
    0.50218E-07         0.12082E-08         0.00000E+00
    0.50256E-07         0.11961E-08         0.00000E+00
    0.50294E-07         0.11805E-08         0.00000E+00
    0.50332E-07         0.11614E-08         0.00000E+00
    0.50369E-07         0.11389E-08         0.00000E+00
    0.50406E-07         0.11133E-08         0.00000E+00
    0.50443E-07         0.10846E-08         0.00000E+00
    0.50479E-07         0.10529E-08         0.00000E+00
    0.50514E-07         0.10184E-08         0.00000E+00
    0.50548E-07         0.98118E-09         0.00000E+00
    0.50581E-07         0.94137E-09         0.00000E+00
    0.50613E-07         0.89907E-09         0.00000E+00
    0.50644E-07         0.85440E-09         0.00000E+00
    0.50674E-07         0.80746E-09         0.00000E+00
    0.50702E-07         0.75835E-09         0.00000E+00
    0.50729E-07         0.70718E-09         0.00000E+00
    0.50754E-07         0.65405E-09         0.00000E+00
    0.50777E-07         0.59906E-09         0.00000E+00
    0.50799E-07         0.54229E-09         0.00000E+00
    0.50818E-07         0.48383E-09         0.00000E+00
    0.50836E-07         0.42379E-09         0.00000E+00
    0.50851E-07         0.36223E-09         0.00000E+00
    0.50864E-07         0.29924E-09         0.00000E+00
    0.50875E-07         0.23490E-09         0.00000E+00
    0.50883E-07         0.16928E-09         0.00000E+00
    0.50889E-07         0.10244E-09         0.00000E+00
    0.50892E-07         0.34453E-10         0.00000E+00
    0.54438E-07         0.57072E-10         0.00000E+00
    0.54443E-07         0.16545E-09         0.00000E+00
    0.54451E-07         0.26548E-09         0.00000E+00
    0.54463E-07         0.35757E-09         0.00000E+00
    0.54479E-07         0.44211E-09         0.00000E+00
    0.54499E-07         0.51945E-09         0.00000E+00
    0.54522E-07         0.58994E-09         0.00000E+00
    0.54548E-07         0.65390E-09         0.00000E+00
    0.54576E-07         0.71164E-09         0.00000E+00
    0.54608E-07         0.76345E-09         0.00000E+00
    0.54641E-07         0.80959E-09         0.00000E+00
    0.54677E-07         0.85033E-09         0.00000E+00
    0.54715E-07         0.88590E-09         0.00000E+00
    0.54755E-07         0.91653E-09         0.00000E+00
    0.54796E-07         0.94245E-09         0.00000E+00
    0.54839E-07         0.96385E-09         0.00000E+00
    0.54883E-07         0.98093E-09         0.00000E+00
    0.54928E-07         0.99387E-09         0.00000E+00
    0.54974E-07         0.10028E-08         0.00000E+00
    0.55020E-07         0.10080E-08         0.00000E+00
    0.55068E-07         0.10095E-08         0.00000E+00
    0.55115E-07         0.10076E-08         0.00000E+00
    0.55163E-07         0.10023E-08         0.00000E+00
    0.55211E-07         0.99374E-09         0.00000E+00
    0.55258E-07         0.98214E-09         0.00000E+00
    0.55306E-07         0.96758E-09         0.00000E+00
    0.55353E-07         0.95020E-09         0.00000E+00
    0.55400E-07         0.93012E-09         0.00000E+00
    0.55445E-07         0.90745E-09         0.00000E+00
    0.55491E-07         0.88231E-09         0.00000E+00
    0.55535E-07         0.85482E-09         0.00000E+00
    0.55578E-07         0.82508E-09         0.00000E+00
    0.55620E-07         0.79321E-09         0.00000E+00
    0.55661E-07         0.75932E-09         0.00000E+00
    0.55700E-07         0.72352E-09         0.00000E+00
    0.55738E-07         0.68591E-09         0.00000E+00
    0.55774E-07         0.64660E-09         0.00000E+00
    0.55809E-07         0.60570E-09         0.00000E+00
    0.55841E-07         0.56331E-09         0.00000E+00
    0.55872E-07         0.51953E-09         0.00000E+00
    0.55900E-07         0.47447E-09         0.00000E+00
    0.55927E-07         0.42822E-09         0.00000E+00
    0.55950E-07         0.38089E-09         0.00000E+00
    0.55972E-07         0.33256E-09         0.00000E+00
    0.55990E-07         0.28332E-09         0.00000E+00
    0.56006E-07         0.23327E-09         0.00000E+00
    0.56019E-07         0.18248E-09         0.00000E+00
    0.56029E-07         0.13104E-09         0.00000E+00
    0.56036E-07         0.79015E-10         0.00000E+00
    0.56040E-07         0.26468E-10         0.00000E+00
    0.59822E-07         0.44420E-10         0.00000E+00
    0.59827E-07         0.12839E-09         0.00000E+00
    0.59838E-07         0.20538E-09         0.00000E+00
    0.59854E-07         0.27577E-09         0.00000E+00
    0.59875E-07         0.33995E-09         0.00000E+00
    0.59900E-07         0.39827E-09         0.00000E+00
    0.59930E-07         0.45106E-09         0.00000E+00
    0.59963E-07         0.49861E-09         0.00000E+00
    0.59999E-07         0.54122E-09         0.00000E+00
    0.60039E-07         0.57915E-09         0.00000E+00
    0.60081E-07         0.61265E-09         0.00000E+00
    0.60126E-07         0.64195E-09         0.00000E+00
    0.60174E-07         0.66726E-09         0.00000E+00
    0.60223E-07         0.68878E-09         0.00000E+00
    0.60275E-07         0.70670E-09         0.00000E+00
    0.60328E-07         0.72118E-09         0.00000E+00
    0.60382E-07         0.73239E-09         0.00000E+00
    0.60437E-07         0.74047E-09         0.00000E+00
    0.60493E-07         0.74557E-09         0.00000E+00
    0.60550E-07         0.74782E-09         0.00000E+00
    0.60608E-07         0.74735E-09         0.00000E+00
    0.60665E-07         0.74427E-09         0.00000E+00
    0.60723E-07         0.73869E-09         0.00000E+00
    0.60780E-07         0.73072E-09         0.00000E+00
    0.60838E-07         0.72046E-09         0.00000E+00
    0.60894E-07         0.70803E-09         0.00000E+00
    0.60951E-07         0.69351E-09         0.00000E+00
    0.61006E-07         0.67700E-09         0.00000E+00
    0.61060E-07         0.65860E-09         0.00000E+00
    0.61114E-07         0.63840E-09         0.00000E+00
    0.61166E-07         0.61651E-09         0.00000E+00
    0.61217E-07         0.59302E-09         0.00000E+00
    0.61266E-07         0.56802E-09         0.00000E+00
    0.61314E-07         0.54163E-09         0.00000E+00
    0.61360E-07         0.51395E-09         0.00000E+00
    0.61404E-07         0.48507E-09         0.00000E+00
    0.61447E-07         0.45510E-09         0.00000E+00
    0.61487E-07         0.42416E-09         0.00000E+00
    0.61525E-07         0.39235E-09         0.00000E+00
    0.61560E-07         0.35979E-09         0.00000E+00
    0.61593E-07         0.32659E-09         0.00000E+00
    0.61624E-07         0.29286E-09         0.00000E+00
    0.61651E-07         0.25871E-09         0.00000E+00
    0.61676E-07         0.22426E-09         0.00000E+00
    0.61698E-07         0.18961E-09         0.00000E+00
    0.61716E-07         0.15487E-09         0.00000E+00
    0.61732E-07         0.12013E-09         0.00000E+00
    0.61743E-07         0.85510E-10         0.00000E+00
    0.61751E-07         0.51082E-10         0.00000E+00
    0.61755E-07         0.16932E-10         0.00000E+00
    0.65835E-07         0.28212E-10         0.00000E+00
    0.65842E-07         0.81095E-10         0.00000E+00
    0.65856E-07         0.12896E-09         0.00000E+00
    0.65876E-07         0.17217E-09         0.00000E+00
    0.65901E-07         0.21107E-09         0.00000E+00
    0.65932E-07         0.24598E-09         0.00000E+00
    0.65968E-07         0.27719E-09         0.00000E+00
    0.66009E-07         0.30495E-09         0.00000E+00
    0.66053E-07         0.32952E-09         0.00000E+00
    0.66102E-07         0.35109E-09         0.00000E+00
    0.66153E-07         0.36988E-09         0.00000E+00
    0.66208E-07         0.38605E-09         0.00000E+00
    0.66265E-07         0.39978E-09         0.00000E+00
    0.66325E-07         0.41120E-09         0.00000E+00
    0.66386E-07         0.42044E-09         0.00000E+00
    0.66449E-07         0.42762E-09         0.00000E+00
    0.66513E-07         0.43284E-09         0.00000E+00
    0.66579E-07         0.43621E-09         0.00000E+00
    0.66645E-07         0.43780E-09         0.00000E+00
    0.66712E-07         0.43769E-09         0.00000E+00
    0.66779E-07         0.43596E-09         0.00000E+00
    0.66846E-07         0.43267E-09         0.00000E+00
    0.66913E-07         0.42788E-09         0.00000E+00
    0.66979E-07         0.42165E-09         0.00000E+00
    0.67045E-07         0.41403E-09         0.00000E+00
    0.67110E-07         0.40509E-09         0.00000E+00
    0.67174E-07         0.39489E-09         0.00000E+00
    0.67237E-07         0.38347E-09         0.00000E+00
    0.67299E-07         0.37090E-09         0.00000E+00
    0.67359E-07         0.35724E-09         0.00000E+00
    0.67418E-07         0.34257E-09         0.00000E+00
    0.67475E-07         0.32695E-09         0.00000E+00
    0.67531E-07         0.31047E-09         0.00000E+00
    0.67584E-07         0.29321E-09         0.00000E+00
    0.67635E-07         0.27527E-09         0.00000E+00
    0.67685E-07         0.25674E-09         0.00000E+00
    0.67731E-07         0.23772E-09         0.00000E+00
    0.67776E-07         0.21834E-09         0.00000E+00
    0.67818E-07         0.19872E-09         0.00000E+00
    0.67857E-07         0.17898E-09         0.00000E+00
    0.67894E-07         0.15926E-09         0.00000E+00
    0.67927E-07         0.13970E-09         0.00000E+00
    0.67958E-07         0.12043E-09         0.00000E+00
    0.67986E-07         0.10161E-09         0.00000E+00
    0.68010E-07         0.83375E-10         0.00000E+00
    0.68030E-07         0.65878E-10         0.00000E+00
    0.68047E-07         0.49260E-10         0.00000E+00
    0.68060E-07         0.33659E-10         0.00000E+00
    0.68069E-07         0.19205E-10         0.00000E+00
    0.68073E-07         0.60197E-11         0.00000E+00
    0.72537E-07         0.81861E-11         0.00000E+00
    0.72545E-07         0.22852E-10         0.00000E+00
    0.72562E-07         0.35201E-10         0.00000E+00
    0.72586E-07         0.45542E-10         0.00000E+00
    0.72617E-07         0.54152E-10         0.00000E+00
    0.72654E-07         0.61273E-10         0.00000E+00
    0.72697E-07         0.67119E-10         0.00000E+00
    0.72745E-07         0.71875E-10         0.00000E+00
    0.72798E-07         0.75701E-10         0.00000E+00
    0.72855E-07         0.78732E-10         0.00000E+00
    0.72916E-07         0.81082E-10         0.00000E+00
    0.72979E-07         0.82846E-10         0.00000E+00
    0.73046E-07         0.84099E-10         0.00000E+00
    0.73115E-07         0.84903E-10         0.00000E+00
    0.73186E-07         0.85301E-10         0.00000E+00
    0.73258E-07         0.85327E-10         0.00000E+00
    0.73332E-07         0.85002E-10         0.00000E+00
    0.73406E-07         0.84340E-10         0.00000E+00
    0.73482E-07         0.83343E-10         0.00000E+00
    0.73557E-07         0.82010E-10         0.00000E+00
    0.73632E-07         0.80333E-10         0.00000E+00
    0.73707E-07         0.78303E-10         0.00000E+00
    0.73782E-07         0.75906E-10         0.00000E+00
    0.73855E-07         0.73129E-10         0.00000E+00
    0.73928E-07         0.69960E-10         0.00000E+00
    0.73999E-07         0.66388E-10         0.00000E+00
    0.74069E-07         0.62407E-10         0.00000E+00
    0.74138E-07         0.58016E-10         0.00000E+00
    0.74205E-07         0.53219E-10         0.00000E+00
    0.74270E-07         0.48029E-10         0.00000E+00
    0.74333E-07         0.42468E-10         0.00000E+00
    0.74394E-07         0.36568E-10         0.00000E+00
    0.74453E-07         0.30376E-10         0.00000E+00
    0.74509E-07         0.23947E-10         0.00000E+00
    0.74563E-07         0.17354E-10         0.00000E+00
    0.74615E-07         0.10684E-10         0.00000E+00
    0.74664E-07         0.40411E-11         0.00000E+00
    0.74710E-07        -0.24562E-11         0.00000E+00
    0.74754E-07        -0.86716E-11         0.00000E+00
    0.74795E-07        -0.14453E-10         0.00000E+00
    0.74833E-07        -0.19632E-10         0.00000E+00
    0.74867E-07        -0.24026E-10         0.00000E+00
    0.74899E-07        -0.27438E-10         0.00000E+00
    0.74928E-07        -0.29663E-10         0.00000E+00
    0.74953E-07        -0.30486E-10         0.00000E+00
    0.74974E-07        -0.29687E-10         0.00000E+00
    0.74991E-07        -0.27045E-10         0.00000E+00
    0.75005E-07        -0.22336E-10         0.00000E+00
    0.75014E-07        -0.15340E-10         0.00000E+00
    0.75019E-07        -0.58495E-11         0.00000E+00
    0.79984E-07        -0.15809E-10         0.00000E+00
    0.79995E-07        -0.46694E-10         0.00000E+00
    0.80014E-07        -0.76317E-10         0.00000E+00
    0.80042E-07        -0.10448E-09         0.00000E+00
    0.80078E-07        -0.13102E-09         0.00000E+00
    0.80122E-07        -0.15581E-09         0.00000E+00
    0.80171E-07        -0.17877E-09         0.00000E+00
    0.80227E-07        -0.19982E-09         0.00000E+00
    0.80287E-07        -0.21894E-09         0.00000E+00
    0.80352E-07        -0.23610E-09         0.00000E+00
    0.80421E-07        -0.25133E-09         0.00000E+00
    0.80493E-07        -0.26464E-09         0.00000E+00
    0.80568E-07        -0.27610E-09         0.00000E+00
    0.80645E-07        -0.28574E-09         0.00000E+00
    0.80724E-07        -0.29367E-09         0.00000E+00
    0.80805E-07        -0.29994E-09         0.00000E+00
    0.80886E-07        -0.30467E-09         0.00000E+00
    0.80968E-07        -0.30795E-09         0.00000E+00
    0.81050E-07        -0.30988E-09         0.00000E+00
    0.81132E-07        -0.31059E-09         0.00000E+00
    0.81213E-07        -0.31018E-09         0.00000E+00
    0.81294E-07        -0.30876E-09         0.00000E+00
    0.81373E-07        -0.30646E-09         0.00000E+00
    0.81451E-07        -0.30338E-09         0.00000E+00
    0.81528E-07        -0.29964E-09         0.00000E+00
    0.81603E-07        -0.29532E-09         0.00000E+00
    0.81676E-07        -0.29054E-09         0.00000E+00
    0.81746E-07        -0.28538E-09         0.00000E+00
    0.81815E-07        -0.27992E-09         0.00000E+00
    0.81881E-07        -0.27423E-09         0.00000E+00
    0.81944E-07        -0.26835E-09         0.00000E+00
    0.82005E-07        -0.26232E-09         0.00000E+00
    0.82064E-07        -0.25616E-09         0.00000E+00
    0.82119E-07        -0.24987E-09         0.00000E+00
    0.82172E-07        -0.24341E-09         0.00000E+00
    0.82222E-07        -0.23674E-09         0.00000E+00
    0.82269E-07        -0.22978E-09         0.00000E+00
    0.82314E-07        -0.22240E-09         0.00000E+00
    0.82355E-07        -0.21448E-09         0.00000E+00
    0.82394E-07        -0.20582E-09         0.00000E+00
    0.82429E-07        -0.19622E-09         0.00000E+00
    0.82462E-07        -0.18543E-09         0.00000E+00
    0.82492E-07        -0.17318E-09         0.00000E+00
    0.82519E-07        -0.15915E-09         0.00000E+00
    0.82542E-07        -0.14302E-09         0.00000E+00
    0.82562E-07        -0.12441E-09         0.00000E+00
    0.82579E-07        -0.10297E-09         0.00000E+00
    0.82591E-07        -0.78314E-10         0.00000E+00
    0.82600E-07        -0.50081E-10         0.00000E+00
    0.82605E-07        -0.17897E-10         0.00000E+00
    0.88227E-07        -0.43749E-10         0.00000E+00
    0.88239E-07        -0.12736E-09         0.00000E+00
    0.88261E-07        -0.20511E-09         0.00000E+00
    0.88293E-07        -0.27699E-09         0.00000E+00
    0.88334E-07        -0.34301E-09         0.00000E+00
    0.88383E-07        -0.40323E-09         0.00000E+00
    0.88438E-07        -0.45774E-09         0.00000E+00
    0.88500E-07        -0.50666E-09         0.00000E+00
    0.88567E-07        -0.55014E-09         0.00000E+00
    0.88639E-07        -0.58834E-09         0.00000E+00
    0.88714E-07        -0.62145E-09         0.00000E+00
    0.88793E-07        -0.64966E-09         0.00000E+00
    0.88875E-07        -0.67320E-09         0.00000E+00
    0.88958E-07        -0.69228E-09         0.00000E+00
    0.89043E-07        -0.70714E-09         0.00000E+00
    0.89129E-07        -0.71802E-09         0.00000E+00
    0.89216E-07        -0.72516E-09         0.00000E+00
    0.89302E-07        -0.72882E-09         0.00000E+00
    0.89388E-07        -0.72923E-09         0.00000E+00
    0.89473E-07        -0.72665E-09         0.00000E+00
    0.89557E-07        -0.72132E-09         0.00000E+00
    0.89640E-07        -0.71349E-09         0.00000E+00
    0.89721E-07        -0.70339E-09         0.00000E+00
    0.89800E-07        -0.69128E-09         0.00000E+00
    0.89876E-07        -0.67736E-09         0.00000E+00
    0.89950E-07        -0.66188E-09         0.00000E+00
    0.90022E-07        -0.64504E-09         0.00000E+00
    0.90090E-07        -0.62704E-09         0.00000E+00
    0.90156E-07        -0.60809E-09         0.00000E+00
    0.90218E-07        -0.58835E-09         0.00000E+00
    0.90277E-07        -0.56799E-09         0.00000E+00
    0.90333E-07        -0.54716E-09         0.00000E+00
    0.90386E-07        -0.52597E-09         0.00000E+00
    0.90435E-07        -0.50452E-09         0.00000E+00
    0.90481E-07        -0.48288E-09         0.00000E+00
    0.90524E-07        -0.46108E-09         0.00000E+00
    0.90563E-07        -0.43911E-09         0.00000E+00
    0.90600E-07        -0.41692E-09         0.00000E+00
    0.90633E-07        -0.39441E-09         0.00000E+00
    0.90664E-07        -0.37142E-09         0.00000E+00
    0.90691E-07        -0.34770E-09         0.00000E+00
    0.90716E-07        -0.32296E-09         0.00000E+00
    0.90739E-07        -0.29681E-09         0.00000E+00
    0.90759E-07        -0.26880E-09         0.00000E+00
    0.90777E-07        -0.23841E-09         0.00000E+00
    0.90792E-07        -0.20507E-09         0.00000E+00
    0.90804E-07        -0.16814E-09         0.00000E+00
    0.90814E-07        -0.12689E-09         0.00000E+00
    0.90821E-07        -0.80600E-10         0.00000E+00
    0.90825E-07        -0.28589E-10         0.00000E+00
    0.97301E-07        -0.75317E-10         0.00000E+00
    0.97314E-07        -0.21810E-09         0.00000E+00
    0.97338E-07        -0.34928E-09         0.00000E+00
    0.97373E-07        -0.46911E-09         0.00000E+00
    0.97418E-07        -0.57789E-09         0.00000E+00
    0.97471E-07        -0.67595E-09         0.00000E+00
    0.97531E-07        -0.76365E-09         0.00000E+00
    0.97597E-07        -0.84136E-09         0.00000E+00
    0.97669E-07        -0.90948E-09         0.00000E+00
    0.97745E-07        -0.96842E-09         0.00000E+00
    0.97825E-07        -0.10186E-08         0.00000E+00
    0.97908E-07        -0.10605E-08         0.00000E+00
    0.97993E-07        -0.10945E-08         0.00000E+00
    0.98079E-07        -0.11210E-08         0.00000E+00
    0.98167E-07        -0.11405E-08         0.00000E+00
    0.98255E-07        -0.11534E-08         0.00000E+00
    0.98342E-07        -0.11601E-08         0.00000E+00
    0.98429E-07        -0.11611E-08         0.00000E+00
    0.98515E-07        -0.11567E-08         0.00000E+00
    0.98600E-07        -0.11475E-08         0.00000E+00
    0.98682E-07        -0.11337E-08         0.00000E+00
    0.98762E-07        -0.11158E-08         0.00000E+00
    0.98840E-07        -0.10942E-08         0.00000E+00
    0.98915E-07        -0.10691E-08         0.00000E+00
    0.98987E-07        -0.10411E-08         0.00000E+00
    0.99055E-07        -0.10105E-08         0.00000E+00
    0.99120E-07        -0.97752E-09         0.00000E+00
    0.99181E-07        -0.94262E-09         0.00000E+00
    0.99238E-07        -0.90610E-09         0.00000E+00
    0.99292E-07        -0.86827E-09         0.00000E+00
    0.99341E-07        -0.82945E-09         0.00000E+00
    0.99386E-07        -0.78993E-09         0.00000E+00
    0.99426E-07        -0.74997E-09         0.00000E+00
    0.99463E-07        -0.70984E-09         0.00000E+00
    0.99495E-07        -0.66976E-09         0.00000E+00
    0.99524E-07        -0.62994E-09         0.00000E+00
    0.99548E-07        -0.59053E-09         0.00000E+00
    0.99569E-07        -0.55165E-09         0.00000E+00
    0.99587E-07        -0.51333E-09         0.00000E+00
    0.99601E-07        -0.47559E-09         0.00000E+00
    0.99612E-07        -0.43834E-09         0.00000E+00
    0.99621E-07        -0.40140E-09         0.00000E+00
    0.99627E-07        -0.36444E-09         0.00000E+00
    0.99632E-07        -0.32695E-09         0.00000E+00
    0.99636E-07        -0.28818E-09         0.00000E+00
    0.99640E-07        -0.24714E-09         0.00000E+00
    0.99642E-07        -0.20265E-09         0.00000E+00
    0.99645E-07        -0.15348E-09         0.00000E+00
    0.99647E-07        -0.98226E-10         0.00000E+00
    0.99648E-07        -0.35287E-10         0.00000E+00
    0.10722E-06        -0.10974E-09         0.00000E+00
    0.10723E-06        -0.31650E-09         0.00000E+00
    0.10726E-06        -0.50469E-09         0.00000E+00
    0.10730E-06        -0.67496E-09         0.00000E+00
    0.10734E-06        -0.82802E-09         0.00000E+00
    0.10740E-06        -0.96459E-09         0.00000E+00
    0.10746E-06        -0.10854E-08         0.00000E+00
    0.10753E-06        -0.11912E-08         0.00000E+00
    0.10760E-06        -0.12826E-08         0.00000E+00
    0.10768E-06        -0.13606E-08         0.00000E+00
    0.10776E-06        -0.14257E-08         0.00000E+00
    0.10784E-06        -0.14787E-08         0.00000E+00
    0.10792E-06        -0.15204E-08         0.00000E+00
    0.10801E-06        -0.15513E-08         0.00000E+00
    0.10809E-06        -0.15722E-08         0.00000E+00
    0.10818E-06        -0.15838E-08         0.00000E+00
    0.10826E-06        -0.15866E-08         0.00000E+00
    0.10834E-06        -0.15813E-08         0.00000E+00
    0.10842E-06        -0.15686E-08         0.00000E+00
    0.10850E-06        -0.15488E-08         0.00000E+00
    0.10858E-06        -0.15228E-08         0.00000E+00
    0.10865E-06        -0.14908E-08         0.00000E+00
    0.10872E-06        -0.14536E-08         0.00000E+00
    0.10879E-06        -0.14116E-08         0.00000E+00
    0.10885E-06        -0.13653E-08         0.00000E+00
    0.10890E-06        -0.13153E-08         0.00000E+00
    0.10896E-06        -0.12619E-08         0.00000E+00
    0.10901E-06        -0.12056E-08         0.00000E+00
    0.10905E-06        -0.11470E-08         0.00000E+00
    0.10909E-06        -0.10865E-08         0.00000E+00
    0.10912E-06        -0.10245E-08         0.00000E+00
    0.10915E-06        -0.96145E-09         0.00000E+00
    0.10917E-06        -0.89789E-09         0.00000E+00
    0.10919E-06        -0.83420E-09         0.00000E+00
    0.10920E-06        -0.77083E-09         0.00000E+00
    0.10921E-06        -0.70819E-09         0.00000E+00
    0.10921E-06        -0.64675E-09         0.00000E+00
    0.10921E-06        -0.58693E-09         0.00000E+00
    0.10920E-06        -0.52913E-09         0.00000E+00
    0.10919E-06        -0.47366E-09         0.00000E+00
    0.10918E-06        -0.42073E-09         0.00000E+00
    0.10916E-06        -0.37044E-09         0.00000E+00
    0.10914E-06        -0.32293E-09         0.00000E+00
    0.10911E-06        -0.27830E-09         0.00000E+00
    0.10909E-06        -0.23652E-09         0.00000E+00
    0.10907E-06        -0.19734E-09         0.00000E+00
    0.10905E-06        -0.15984E-09         0.00000E+00
    0.10903E-06        -0.12170E-09         0.00000E+00
    0.10902E-06        -0.79710E-10         0.00000E+00
    0.10901E-06        -0.30108E-10         0.00000E+00
    0.11797E-06        -0.14553E-09         0.00000E+00
    0.11798E-06        -0.41811E-09         0.00000E+00
    0.11801E-06        -0.66393E-09         0.00000E+00
    0.11804E-06        -0.88427E-09         0.00000E+00
    0.11809E-06        -0.10804E-08         0.00000E+00
    0.11814E-06        -0.12535E-08         0.00000E+00
    0.11820E-06        -0.14048E-08         0.00000E+00
    0.11827E-06        -0.15357E-08         0.00000E+00
    0.11834E-06        -0.16472E-08         0.00000E+00
    0.11841E-06        -0.17406E-08         0.00000E+00
    0.11848E-06        -0.18169E-08         0.00000E+00
    0.11856E-06        -0.18772E-08         0.00000E+00
    0.11863E-06        -0.19226E-08         0.00000E+00
    0.11871E-06        -0.19540E-08         0.00000E+00
    0.11878E-06        -0.19724E-08         0.00000E+00
    0.11886E-06        -0.19788E-08         0.00000E+00
    0.11893E-06        -0.19739E-08         0.00000E+00
    0.11900E-06        -0.19587E-08         0.00000E+00
    0.11907E-06        -0.19338E-08         0.00000E+00
    0.11914E-06        -0.19000E-08         0.00000E+00
    0.11920E-06        -0.18581E-08         0.00000E+00
    0.11926E-06        -0.18087E-08         0.00000E+00
    0.11931E-06        -0.17524E-08         0.00000E+00
    0.11936E-06        -0.16900E-08         0.00000E+00
    0.11941E-06        -0.16219E-08         0.00000E+00
    0.11945E-06        -0.15488E-08         0.00000E+00
    0.11948E-06        -0.14713E-08         0.00000E+00
    0.11951E-06        -0.13899E-08         0.00000E+00
    0.11954E-06        -0.13052E-08         0.00000E+00
    0.11956E-06        -0.12178E-08         0.00000E+00
    0.11957E-06        -0.11283E-08         0.00000E+00
    0.11958E-06        -0.10371E-08         0.00000E+00
    0.11958E-06        -0.94495E-09         0.00000E+00
    0.11957E-06        -0.85247E-09         0.00000E+00
    0.11956E-06        -0.76033E-09         0.00000E+00
    0.11955E-06        -0.66917E-09         0.00000E+00
    0.11952E-06        -0.57961E-09         0.00000E+00
    0.11949E-06        -0.49224E-09         0.00000E+00
    0.11946E-06        -0.40781E-09         0.00000E+00
    0.11941E-06        -0.32729E-09         0.00000E+00
    0.11937E-06        -0.25177E-09         0.00000E+00
    0.11931E-06        -0.18249E-09         0.00000E+00
    0.11926E-06        -0.12014E-09         0.00000E+00
    0.11920E-06        -0.64969E-10         0.00000E+00
    0.11913E-06        -0.17490E-10         0.00000E+00
    0.11907E-06         0.21625E-10         0.00000E+00
    0.11900E-06         0.51399E-10         0.00000E+00
    0.11894E-06         0.67933E-10         0.00000E+00
    0.11889E-06         0.61770E-10         0.00000E+00
    0.11885E-06         0.23993E-10         0.00000E+00
    0.12947E-06        -0.18019E-09         0.00000E+00
    0.12949E-06        -0.51557E-09         0.00000E+00
    0.12951E-06        -0.81506E-09         0.00000E+00
    0.12954E-06        -0.10807E-08         0.00000E+00
    0.12958E-06        -0.13146E-08         0.00000E+00
    0.12963E-06        -0.15186E-08         0.00000E+00
    0.12968E-06        -0.16947E-08         0.00000E+00
    0.12974E-06        -0.18447E-08         0.00000E+00
    0.12979E-06        -0.19704E-08         0.00000E+00
    0.12985E-06        -0.20734E-08         0.00000E+00
    0.12991E-06        -0.21553E-08         0.00000E+00
    0.12997E-06        -0.22176E-08         0.00000E+00
    0.13003E-06        -0.22617E-08         0.00000E+00
    0.13009E-06        -0.22890E-08         0.00000E+00
    0.13015E-06        -0.23006E-08         0.00000E+00
    0.13020E-06        -0.22978E-08         0.00000E+00
    0.13026E-06        -0.22817E-08         0.00000E+00
    0.13031E-06        -0.22531E-08         0.00000E+00
    0.13035E-06        -0.22132E-08         0.00000E+00
    0.13040E-06        -0.21627E-08         0.00000E+00
    0.13044E-06        -0.21025E-08         0.00000E+00
    0.13047E-06        -0.20334E-08         0.00000E+00
    0.13050E-06        -0.19560E-08         0.00000E+00
    0.13053E-06        -0.18712E-08         0.00000E+00
    0.13055E-06        -0.17795E-08         0.00000E+00
    0.13057E-06        -0.16815E-08         0.00000E+00
    0.13058E-06        -0.15780E-08         0.00000E+00
    0.13059E-06        -0.14695E-08         0.00000E+00
    0.13059E-06        -0.13566E-08         0.00000E+00
    0.13059E-06        -0.12400E-08         0.00000E+00
    0.13058E-06        -0.11203E-08         0.00000E+00
    0.13056E-06        -0.99813E-09         0.00000E+00
    0.13054E-06        -0.87425E-09         0.00000E+00
    0.13051E-06        -0.74927E-09         0.00000E+00
    0.13047E-06        -0.62383E-09         0.00000E+00
    0.13042E-06        -0.49887E-09         0.00000E+00
    0.13037E-06        -0.37563E-09         0.00000E+00
    0.13031E-06        -0.25546E-09         0.00000E+00
    0.13025E-06        -0.13937E-09         0.00000E+00
    0.13018E-06        -0.27833E-10         0.00000E+00
    0.13010E-06         0.78412E-10         0.00000E+00
    0.13002E-06         0.17869E-09         0.00000E+00
    0.12992E-06         0.27030E-09         0.00000E+00
    0.12982E-06         0.34873E-09         0.00000E+00
    0.12972E-06         0.40426E-09         0.00000E+00
    0.12961E-06         0.42904E-09         0.00000E+00
    0.12952E-06         0.42135E-09         0.00000E+00
    0.12945E-06         0.37226E-09         0.00000E+00
    0.12940E-06         0.26836E-09         0.00000E+00
    0.12938E-06         0.98983E-10         0.00000E+00
    0.14161E-06        -0.20991E-09         0.00000E+00
    0.14162E-06        -0.59781E-09         0.00000E+00
    0.14164E-06        -0.94027E-09         0.00000E+00
    0.14167E-06        -0.12404E-08         0.00000E+00
    0.14169E-06        -0.15013E-08         0.00000E+00
    0.14173E-06        -0.17258E-08         0.00000E+00
    0.14176E-06        -0.19166E-08         0.00000E+00
    0.14180E-06        -0.20762E-08         0.00000E+00
    0.14183E-06        -0.22072E-08         0.00000E+00
    0.14187E-06        -0.23117E-08         0.00000E+00
    0.14190E-06        -0.23919E-08         0.00000E+00
    0.14194E-06        -0.24496E-08         0.00000E+00
    0.14197E-06        -0.24868E-08         0.00000E+00
    0.14200E-06        -0.25049E-08         0.00000E+00
    0.14203E-06        -0.25055E-08         0.00000E+00
    0.14205E-06        -0.24901E-08         0.00000E+00
    0.14207E-06        -0.24598E-08         0.00000E+00
    0.14209E-06        -0.24158E-08         0.00000E+00
    0.14211E-06        -0.23592E-08         0.00000E+00
    0.14212E-06        -0.22909E-08         0.00000E+00
    0.14212E-06        -0.22118E-08         0.00000E+00
    0.14213E-06        -0.21226E-08         0.00000E+00
    0.14213E-06        -0.20242E-08         0.00000E+00
    0.14212E-06        -0.19171E-08         0.00000E+00
    0.14212E-06        -0.18021E-08         0.00000E+00
    0.14210E-06        -0.16797E-08         0.00000E+00
    0.14208E-06        -0.15506E-08         0.00000E+00
    0.14206E-06        -0.14152E-08         0.00000E+00
    0.14203E-06        -0.12744E-08         0.00000E+00
    0.14200E-06        -0.11285E-08         0.00000E+00
    0.14196E-06        -0.97823E-09         0.00000E+00
    0.14191E-06        -0.82411E-09         0.00000E+00
    0.14186E-06        -0.66695E-09         0.00000E+00
    0.14180E-06        -0.50787E-09         0.00000E+00
    0.14173E-06        -0.34818E-09         0.00000E+00
    0.14166E-06        -0.18841E-09         0.00000E+00
    0.14158E-06        -0.28644E-10         0.00000E+00
    0.14149E-06         0.13087E-09         0.00000E+00
    0.14139E-06         0.28810E-09         0.00000E+00
    0.14129E-06         0.43847E-09         0.00000E+00
    0.14117E-06         0.57181E-09         0.00000E+00
    0.14106E-06         0.68252E-09         0.00000E+00
    0.14095E-06         0.76914E-09         0.00000E+00
    0.14086E-06         0.82460E-09         0.00000E+00
    0.14078E-06         0.83859E-09         0.00000E+00
    0.14072E-06         0.80434E-09         0.00000E+00
    0.14067E-06         0.72067E-09         0.00000E+00
    0.14064E-06         0.58427E-09         0.00000E+00
    0.14063E-06         0.39163E-09         0.00000E+00
    0.14062E-06         0.13964E-09         0.00000E+00
    0.15416E-06        -0.22930E-09         0.00000E+00
    0.15417E-06        -0.64935E-09         0.00000E+00
    0.15418E-06        -0.10151E-08         0.00000E+00
    0.15418E-06        -0.13310E-08         0.00000E+00
    0.15419E-06        -0.16013E-08         0.00000E+00
    0.15420E-06        -0.18300E-08         0.00000E+00
    0.15421E-06        -0.20206E-08         0.00000E+00
    0.15421E-06        -0.21767E-08         0.00000E+00
    0.15422E-06        -0.23013E-08         0.00000E+00
    0.15422E-06        -0.23972E-08         0.00000E+00
    0.15421E-06        -0.24670E-08         0.00000E+00
    0.15421E-06        -0.25131E-08         0.00000E+00
    0.15420E-06        -0.25374E-08         0.00000E+00
    0.15419E-06        -0.25420E-08         0.00000E+00
    0.15417E-06        -0.25285E-08         0.00000E+00
    0.15415E-06        -0.24984E-08         0.00000E+00
    0.15413E-06        -0.24529E-08         0.00000E+00
    0.15411E-06        -0.23932E-08         0.00000E+00
    0.15408E-06        -0.23205E-08         0.00000E+00
    0.15405E-06        -0.22355E-08         0.00000E+00
    0.15402E-06        -0.21390E-08         0.00000E+00
    0.15398E-06        -0.20318E-08         0.00000E+00
    0.15394E-06        -0.19145E-08         0.00000E+00
    0.15390E-06        -0.17877E-08         0.00000E+00
    0.15385E-06        -0.16518E-08         0.00000E+00
    0.15380E-06        -0.15073E-08         0.00000E+00
    0.15374E-06        -0.13547E-08         0.00000E+00
    0.15368E-06        -0.11944E-08         0.00000E+00
    0.15362E-06        -0.10267E-08         0.00000E+00
    0.15355E-06        -0.85226E-09         0.00000E+00
    0.15347E-06        -0.67177E-09         0.00000E+00
    0.15339E-06        -0.48625E-09         0.00000E+00
    0.15330E-06        -0.29604E-09         0.00000E+00
    0.15320E-06        -0.10074E-09         0.00000E+00
    0.15310E-06         0.10038E-09         0.00000E+00
    0.15298E-06         0.30453E-09         0.00000E+00
    0.15286E-06         0.50008E-09         0.00000E+00
    0.15273E-06         0.67980E-09         0.00000E+00
    0.15261E-06         0.84159E-09         0.00000E+00
    0.15250E-06         0.97824E-09         0.00000E+00
    0.15240E-06         0.10787E-08         0.00000E+00
    0.15233E-06         0.11371E-08         0.00000E+00
    0.15226E-06         0.11532E-08         0.00000E+00
    0.15222E-06         0.11263E-08         0.00000E+00
    0.15219E-06         0.10575E-08         0.00000E+00
    0.15218E-06         0.94757E-09         0.00000E+00
    0.15218E-06         0.79680E-09         0.00000E+00
    0.15219E-06         0.60753E-09         0.00000E+00
    0.15221E-06         0.38465E-09         0.00000E+00
    0.15222E-06         0.13278E-09         0.00000E+00
    0.16678E-06        -0.23128E-09         0.00000E+00
    0.16677E-06        -0.65019E-09         0.00000E+00
    0.16677E-06        -0.10084E-08         0.00000E+00
    0.16675E-06        -0.13119E-08         0.00000E+00
    0.16673E-06        -0.15665E-08         0.00000E+00
    0.16671E-06        -0.17772E-08         0.00000E+00
    0.16667E-06        -0.19487E-08         0.00000E+00
    0.16664E-06        -0.20850E-08         0.00000E+00
    0.16659E-06        -0.21898E-08         0.00000E+00
    0.16654E-06        -0.22665E-08         0.00000E+00
    0.16649E-06        -0.23178E-08         0.00000E+00
    0.16643E-06        -0.23463E-08         0.00000E+00
    0.16637E-06        -0.23541E-08         0.00000E+00
    0.16631E-06        -0.23432E-08         0.00000E+00
    0.16624E-06        -0.23150E-08         0.00000E+00
    0.16617E-06        -0.22711E-08         0.00000E+00
    0.16610E-06        -0.22125E-08         0.00000E+00
    0.16602E-06        -0.21402E-08         0.00000E+00
    0.16595E-06        -0.20549E-08         0.00000E+00
    0.16587E-06        -0.19574E-08         0.00000E+00
    0.16579E-06        -0.18482E-08         0.00000E+00
    0.16571E-06        -0.17276E-08         0.00000E+00
    0.16562E-06        -0.15962E-08         0.00000E+00
    0.16553E-06        -0.14540E-08         0.00000E+00
    0.16544E-06        -0.13014E-08         0.00000E+00
    0.16535E-06        -0.11385E-08         0.00000E+00
    0.16526E-06        -0.96537E-09         0.00000E+00
    0.16516E-06        -0.78233E-09         0.00000E+00
    0.16505E-06        -0.58990E-09         0.00000E+00
    0.16494E-06        -0.38804E-09         0.00000E+00
    0.16483E-06        -0.17579E-09         0.00000E+00
    0.16470E-06         0.48582E-10         0.00000E+00
    0.16457E-06         0.28080E-09         0.00000E+00
    0.16443E-06         0.50990E-09         0.00000E+00
    0.16428E-06         0.73207E-09         0.00000E+00
    0.16414E-06         0.94222E-09         0.00000E+00
    0.16402E-06         0.11252E-08         0.00000E+00
    0.16390E-06         0.12712E-08         0.00000E+00
    0.16380E-06         0.13767E-08         0.00000E+00
    0.16371E-06         0.14378E-08         0.00000E+00
    0.16364E-06         0.14527E-08         0.00000E+00
    0.16359E-06         0.14210E-08         0.00000E+00
    0.16355E-06         0.13429E-08         0.00000E+00
    0.16354E-06         0.12188E-08         0.00000E+00
    0.16355E-06         0.10517E-08         0.00000E+00
    0.16358E-06         0.85294E-09         0.00000E+00
    0.16363E-06         0.64468E-09         0.00000E+00
    0.16368E-06         0.44039E-09         0.00000E+00
    0.16373E-06         0.24721E-09         0.00000E+00
    0.16375E-06         0.77134E-10         0.00000E+00
    0.17895E-06        -0.20703E-09         0.00000E+00
    0.17893E-06        -0.57571E-09         0.00000E+00
    0.17890E-06        -0.88311E-09         0.00000E+00
    0.17886E-06        -0.11372E-08         0.00000E+00
    0.17880E-06        -0.13448E-08         0.00000E+00
    0.17873E-06        -0.15119E-08         0.00000E+00
    0.17864E-06        -0.16435E-08         0.00000E+00
    0.17855E-06        -0.17442E-08         0.00000E+00
    0.17845E-06        -0.18177E-08         0.00000E+00
    0.17835E-06        -0.18674E-08         0.00000E+00
    0.17824E-06        -0.18960E-08         0.00000E+00
    0.17812E-06        -0.19056E-08         0.00000E+00
    0.17800E-06        -0.18982E-08         0.00000E+00
    0.17788E-06        -0.18750E-08         0.00000E+00
    0.17776E-06        -0.18374E-08         0.00000E+00
    0.17764E-06        -0.17860E-08         0.00000E+00
    0.17752E-06        -0.17215E-08         0.00000E+00
    0.17739E-06        -0.16444E-08         0.00000E+00
    0.17727E-06        -0.15549E-08         0.00000E+00
    0.17715E-06        -0.14532E-08         0.00000E+00
    0.17702E-06        -0.13394E-08         0.00000E+00
    0.17690E-06        -0.12132E-08         0.00000E+00
    0.17678E-06        -0.10748E-08         0.00000E+00
    0.17666E-06        -0.92402E-09         0.00000E+00
    0.17653E-06        -0.76107E-09         0.00000E+00
    0.17641E-06        -0.58570E-09         0.00000E+00
    0.17628E-06        -0.39697E-09         0.00000E+00
    0.17615E-06        -0.19342E-09         0.00000E+00
    0.17601E-06         0.27019E-10         0.00000E+00
    0.17587E-06         0.25911E-09         0.00000E+00
    0.17572E-06         0.49577E-09         0.00000E+00
    0.17557E-06         0.73765E-09         0.00000E+00
    0.17543E-06         0.97782E-09         0.00000E+00
    0.17529E-06         0.12011E-08         0.00000E+00
    0.17516E-06         0.13986E-08         0.00000E+00
    0.17504E-06         0.15646E-08         0.00000E+00
    0.17493E-06         0.16934E-08         0.00000E+00
    0.17483E-06         0.17801E-08         0.00000E+00
    0.17475E-06         0.18190E-08         0.00000E+00
    0.17467E-06         0.18052E-08         0.00000E+00
    0.17461E-06         0.17345E-08         0.00000E+00
    0.17457E-06         0.16032E-08         0.00000E+00
    0.17456E-06         0.14085E-08         0.00000E+00
    0.17457E-06         0.11675E-08         0.00000E+00
    0.17460E-06         0.91093E-09         0.00000E+00
    0.17463E-06         0.66169E-09         0.00000E+00
    0.17466E-06         0.44160E-09         0.00000E+00
    0.17469E-06         0.26163E-09         0.00000E+00
    0.17470E-06         0.12400E-09         0.00000E+00
    0.17471E-06         0.31608E-10         0.00000E+00
    0.18994E-06        -0.14550E-09         0.00000E+00
    0.18991E-06        -0.40046E-09         0.00000E+00
    0.18985E-06        -0.60611E-09         0.00000E+00
    0.18977E-06        -0.76978E-09         0.00000E+00
    0.18967E-06        -0.89828E-09         0.00000E+00
    0.18955E-06        -0.99764E-09         0.00000E+00
    0.18941E-06        -0.10731E-08         0.00000E+00
    0.18927E-06        -0.11287E-08         0.00000E+00
    0.18911E-06        -0.11674E-08         0.00000E+00
    0.18895E-06        -0.11916E-08         0.00000E+00
    0.18879E-06        -0.12027E-08         0.00000E+00
    0.18863E-06        -0.12018E-08         0.00000E+00
    0.18846E-06        -0.11896E-08         0.00000E+00
    0.18830E-06        -0.11664E-08         0.00000E+00
    0.18814E-06        -0.11321E-08         0.00000E+00
    0.18798E-06        -0.10866E-08         0.00000E+00
    0.18782E-06        -0.10298E-08         0.00000E+00
    0.18767E-06        -0.96118E-09         0.00000E+00
    0.18752E-06        -0.88047E-09         0.00000E+00
    0.18738E-06        -0.78714E-09         0.00000E+00
    0.18723E-06        -0.68061E-09         0.00000E+00
    0.18709E-06        -0.56009E-09         0.00000E+00
    0.18696E-06        -0.42453E-09         0.00000E+00
    0.18682E-06        -0.27279E-09         0.00000E+00
    0.18668E-06        -0.10486E-09         0.00000E+00
    0.18654E-06         0.77523E-10         0.00000E+00
    0.18641E-06         0.27269E-09         0.00000E+00
    0.18627E-06         0.48101E-09         0.00000E+00
    0.18613E-06         0.70406E-09         0.00000E+00
    0.18601E-06         0.93443E-09         0.00000E+00
    0.18589E-06         0.11608E-08         0.00000E+00
    0.18578E-06         0.13781E-08         0.00000E+00
    0.18567E-06         0.15810E-08         0.00000E+00
    0.18557E-06         0.17639E-08         0.00000E+00
    0.18548E-06         0.19209E-08         0.00000E+00
    0.18540E-06         0.20456E-08         0.00000E+00
    0.18533E-06         0.21318E-08         0.00000E+00
    0.18526E-06         0.21729E-08         0.00000E+00
    0.18520E-06         0.21618E-08         0.00000E+00
    0.18515E-06         0.20907E-08         0.00000E+00
    0.18511E-06         0.19508E-08         0.00000E+00
    0.18508E-06         0.17328E-08         0.00000E+00
    0.18506E-06         0.14399E-08         0.00000E+00
    0.18505E-06         0.11239E-08         0.00000E+00
    0.18505E-06         0.83447E-09         0.00000E+00
    0.18505E-06         0.58167E-09         0.00000E+00
    0.18505E-06         0.37093E-09         0.00000E+00
    0.18505E-06         0.20533E-09         0.00000E+00
    0.18505E-06         0.87452E-10         0.00000E+00
    0.18505E-06         0.18611E-10         0.00000E+00
    0.19875E-06        -0.50922E-10         0.00000E+00
    0.19871E-06        -0.12600E-09         0.00000E+00
    0.19863E-06        -0.17414E-09         0.00000E+00
    0.19851E-06        -0.20719E-09         0.00000E+00
    0.19837E-06        -0.23328E-09         0.00000E+00
    0.19821E-06        -0.25670E-09         0.00000E+00
    0.19804E-06        -0.27842E-09         0.00000E+00
    0.19786E-06        -0.29847E-09         0.00000E+00
    0.19768E-06        -0.31664E-09         0.00000E+00
    0.19749E-06        -0.33319E-09         0.00000E+00
    0.19731E-06        -0.34783E-09         0.00000E+00
    0.19714E-06        -0.35856E-09         0.00000E+00
    0.19697E-06        -0.36340E-09         0.00000E+00
    0.19681E-06        -0.36056E-09         0.00000E+00
    0.19665E-06        -0.34858E-09         0.00000E+00
    0.19650E-06        -0.32622E-09         0.00000E+00
    0.19635E-06        -0.29246E-09         0.00000E+00
    0.19622E-06        -0.24643E-09         0.00000E+00
    0.19608E-06        -0.18733E-09         0.00000E+00
    0.19596E-06        -0.11445E-09         0.00000E+00
    0.19583E-06        -0.27077E-10         0.00000E+00
    0.19572E-06         0.75545E-10         0.00000E+00
    0.19560E-06         0.19425E-09         0.00000E+00
    0.19550E-06         0.32984E-09         0.00000E+00
    0.19539E-06         0.48212E-09         0.00000E+00
    0.19530E-06         0.64833E-09         0.00000E+00
    0.19521E-06         0.82419E-09         0.00000E+00
    0.19514E-06         0.10067E-08         0.00000E+00
    0.19507E-06         0.11934E-08         0.00000E+00
    0.19501E-06         0.13807E-08         0.00000E+00
    0.19496E-06         0.15643E-08         0.00000E+00
    0.19492E-06         0.17391E-08         0.00000E+00
    0.19489E-06         0.19007E-08         0.00000E+00
    0.19486E-06         0.20442E-08         0.00000E+00
    0.19485E-06         0.21647E-08         0.00000E+00
    0.19484E-06         0.22569E-08         0.00000E+00
    0.19483E-06         0.23151E-08         0.00000E+00
    0.19483E-06         0.23326E-08         0.00000E+00
    0.19483E-06         0.23021E-08         0.00000E+00
    0.19483E-06         0.22148E-08         0.00000E+00
    0.19483E-06         0.20609E-08         0.00000E+00
    0.19481E-06         0.18293E-08         0.00000E+00
    0.19479E-06         0.15295E-08         0.00000E+00
    0.19477E-06         0.12021E-08         0.00000E+00
    0.19475E-06         0.89082E-09         0.00000E+00
    0.19473E-06         0.61772E-09         0.00000E+00
    0.19472E-06         0.38707E-09         0.00000E+00
    0.19471E-06         0.20460E-09         0.00000E+00
    0.19471E-06         0.78467E-10         0.00000E+00
    0.19471E-06         0.13027E-10         0.00000E+00
    0.20411E-06         0.10591E-09         0.00000E+00
    0.20404E-06         0.27588E-09         0.00000E+00
    0.20393E-06         0.39358E-09         0.00000E+00
    0.20379E-06         0.46987E-09         0.00000E+00
    0.20365E-06         0.51297E-09         0.00000E+00
    0.20350E-06         0.52965E-09         0.00000E+00
    0.20336E-06         0.52193E-09         0.00000E+00
    0.20322E-06         0.49222E-09         0.00000E+00
    0.20309E-06         0.44696E-09         0.00000E+00
    0.20297E-06         0.39455E-09         0.00000E+00
    0.20287E-06         0.34311E-09         0.00000E+00
    0.20278E-06         0.29725E-09         0.00000E+00
    0.20269E-06         0.25943E-09         0.00000E+00
    0.20261E-06         0.23103E-09         0.00000E+00
    0.20254E-06         0.21319E-09         0.00000E+00
    0.20247E-06         0.20681E-09         0.00000E+00
    0.20241E-06         0.21252E-09         0.00000E+00
    0.20235E-06         0.23082E-09         0.00000E+00
    0.20230E-06         0.26209E-09         0.00000E+00
    0.20225E-06         0.30661E-09         0.00000E+00
    0.20221E-06         0.36450E-09         0.00000E+00
    0.20218E-06         0.43569E-09         0.00000E+00
    0.20215E-06         0.51983E-09         0.00000E+00
    0.20214E-06         0.61614E-09         0.00000E+00
    0.20213E-06         0.72369E-09         0.00000E+00
    0.20214E-06         0.84093E-09         0.00000E+00
    0.20216E-06         0.96546E-09         0.00000E+00
    0.20219E-06         0.10946E-08         0.00000E+00
    0.20224E-06         0.12260E-08         0.00000E+00
    0.20229E-06         0.13569E-08         0.00000E+00
    0.20236E-06         0.14847E-08         0.00000E+00
    0.20245E-06         0.16068E-08         0.00000E+00
    0.20254E-06         0.17202E-08         0.00000E+00
    0.20264E-06         0.18216E-08         0.00000E+00
    0.20276E-06         0.19074E-08         0.00000E+00
    0.20287E-06         0.19741E-08         0.00000E+00
    0.20299E-06         0.20173E-08         0.00000E+00
    0.20312E-06         0.20325E-08         0.00000E+00
    0.20323E-06         0.20145E-08         0.00000E+00
    0.20334E-06         0.19572E-08         0.00000E+00
    0.20344E-06         0.18538E-08         0.00000E+00
    0.20352E-06         0.16967E-08         0.00000E+00
    0.20358E-06         0.14827E-08         0.00000E+00
    0.20361E-06         0.12164E-08         0.00000E+00
    0.20362E-06         0.92610E-09         0.00000E+00
    0.20363E-06         0.63857E-09         0.00000E+00
    0.20363E-06         0.37854E-09         0.00000E+00
    0.20365E-06         0.17414E-09         0.00000E+00
    0.20366E-06         0.40358E-10         0.00000E+00
    0.20367E-06        -0.21287E-11         0.00000E+00
    0.20340E-06         0.10488E-09         0.00000E+00
    0.20347E-06         0.25955E-09         0.00000E+00
    0.20360E-06         0.35454E-09         0.00000E+00
    0.20375E-06         0.40973E-09         0.00000E+00
    0.20392E-06         0.43832E-09         0.00000E+00
    0.20410E-06         0.44839E-09         0.00000E+00
    0.20427E-06         0.44029E-09         0.00000E+00
    0.20445E-06         0.41463E-09         0.00000E+00
    0.20460E-06         0.37653E-09         0.00000E+00
    0.20475E-06         0.33399E-09         0.00000E+00
    0.20487E-06         0.29453E-09         0.00000E+00
    0.20498E-06         0.26064E-09         0.00000E+00
    0.20508E-06         0.23292E-09         0.00000E+00
    0.20517E-06         0.21118E-09         0.00000E+00
    0.20525E-06         0.19547E-09         0.00000E+00
    0.20533E-06         0.18583E-09         0.00000E+00
    0.20540E-06         0.18225E-09         0.00000E+00
    0.20547E-06         0.18471E-09         0.00000E+00
    0.20555E-06         0.19317E-09         0.00000E+00
    0.20563E-06         0.20758E-09         0.00000E+00
    0.20572E-06         0.22781E-09         0.00000E+00
    0.20581E-06         0.25362E-09         0.00000E+00
    0.20592E-06         0.28469E-09         0.00000E+00
    0.20604E-06         0.32059E-09         0.00000E+00
    0.20618E-06         0.36071E-09         0.00000E+00
    0.20633E-06         0.40434E-09         0.00000E+00
    0.20650E-06         0.45073E-09         0.00000E+00
    0.20669E-06         0.49905E-09         0.00000E+00
    0.20690E-06         0.54837E-09         0.00000E+00
    0.20713E-06         0.59774E-09         0.00000E+00
    0.20738E-06         0.64624E-09         0.00000E+00
    0.20765E-06         0.69283E-09         0.00000E+00
    0.20793E-06         0.73645E-09         0.00000E+00
    0.20824E-06         0.77594E-09         0.00000E+00
    0.20855E-06         0.81003E-09         0.00000E+00
    0.20888E-06         0.83733E-09         0.00000E+00
    0.20922E-06         0.85636E-09         0.00000E+00
    0.20957E-06         0.86550E-09         0.00000E+00
    0.20991E-06         0.86295E-09         0.00000E+00
    0.21025E-06         0.84660E-09         0.00000E+00
    0.21059E-06         0.81404E-09         0.00000E+00
    0.21090E-06         0.76245E-09         0.00000E+00
    0.21119E-06         0.68634E-09         0.00000E+00
    0.21144E-06         0.58348E-09         0.00000E+00
    0.21165E-06         0.45790E-09         0.00000E+00
    0.21181E-06         0.31320E-09         0.00000E+00
    0.21190E-06         0.17479E-09         0.00000E+00
    0.21195E-06         0.68339E-10         0.00000E+00
    0.21197E-06         0.14894E-11         0.00000E+00
    0.21197E-06        -0.76636E-11         0.00000E+00
POINT_DATA       5151
VECTORS vDarcyNodal double 
    0.75496E-09         0.00000E+00         0.00000E+00
    0.75467E-09         0.00000E+00         0.00000E+00
    0.75387E-09         0.00000E+00         0.00000E+00
    0.75266E-09         0.00000E+00         0.00000E+00
    0.75111E-09         0.00000E+00         0.00000E+00
    0.74929E-09         0.00000E+00         0.00000E+00
    0.74723E-09         0.00000E+00         0.00000E+00
    0.74497E-09         0.00000E+00         0.00000E+00
    0.74254E-09         0.00000E+00         0.00000E+00
    0.73997E-09         0.00000E+00         0.00000E+00
    0.73727E-09         0.00000E+00         0.00000E+00
    0.73447E-09         0.00000E+00         0.00000E+00
    0.73157E-09         0.00000E+00         0.00000E+00
    0.72860E-09        -0.18626E-20         0.00000E+00
    0.72555E-09         0.00000E+00         0.00000E+00
    0.72245E-09         0.18626E-20         0.00000E+00
    0.71930E-09         0.00000E+00         0.00000E+00
    0.71611E-09         0.00000E+00         0.00000E+00
    0.71289E-09         0.00000E+00         0.00000E+00
    0.70965E-09         0.00000E+00         0.00000E+00
    0.70638E-09         0.00000E+00         0.00000E+00
    0.70311E-09         0.00000E+00         0.00000E+00
    0.69982E-09         0.00000E+00         0.00000E+00
    0.69654E-09         0.00000E+00         0.00000E+00
    0.69327E-09         0.00000E+00         0.00000E+00
    0.69000E-09         0.00000E+00         0.00000E+00
    0.68676E-09         0.00000E+00         0.00000E+00
    0.68353E-09         0.00000E+00         0.00000E+00
    0.68034E-09         0.00000E+00         0.00000E+00
    0.67717E-09         0.00000E+00         0.00000E+00
    0.67405E-09         0.00000E+00         0.00000E+00
    0.67097E-09         0.00000E+00         0.00000E+00
    0.66795E-09         0.00000E+00         0.00000E+00
    0.66498E-09         0.00000E+00         0.00000E+00
    0.66208E-09         0.00000E+00         0.00000E+00
    0.65925E-09         0.00000E+00         0.00000E+00
    0.65649E-09         0.00000E+00         0.00000E+00
    0.65383E-09         0.00000E+00         0.00000E+00
    0.65126E-09         0.00000E+00         0.00000E+00
    0.64880E-09         0.00000E+00         0.00000E+00
    0.64645E-09         0.00000E+00         0.00000E+00
    0.64422E-09         0.00000E+00         0.00000E+00
    0.64214E-09         0.00000E+00         0.00000E+00
    0.64021E-09         0.00000E+00         0.00000E+00
    0.63844E-09         0.00000E+00         0.00000E+00
    0.63687E-09         0.00000E+00         0.00000E+00
    0.63550E-09         0.00000E+00         0.00000E+00
    0.63436E-09         0.00000E+00         0.00000E+00
    0.63350E-09         0.00000E+00         0.00000E+00
    0.63294E-09         0.18626E-20         0.00000E+00
    0.63273E-09         0.37253E-20         0.00000E+00
    0.71930E-09         0.14653E-11         0.00000E+00
    0.71914E-09         0.27304E-11         0.00000E+00
    0.71867E-09         0.50200E-11         0.00000E+00
    0.71793E-09         0.68855E-11         0.00000E+00
    0.71693E-09         0.84259E-11         0.00000E+00
    0.71570E-09         0.97120E-11         0.00000E+00
    0.71427E-09         0.10796E-10         0.00000E+00
    0.71267E-09         0.11716E-10         0.00000E+00
    0.71090E-09         0.12502E-10         0.00000E+00
    0.70899E-09         0.13175E-10         0.00000E+00
    0.70696E-09         0.13755E-10         0.00000E+00
    0.70481E-09         0.14253E-10         0.00000E+00
    0.70256E-09         0.14681E-10         0.00000E+00
    0.70023E-09         0.15048E-10         0.00000E+00
    0.69782E-09         0.15361E-10         0.00000E+00
    0.69534E-09         0.15625E-10         0.00000E+00
    0.69280E-09         0.15845E-10         0.00000E+00
    0.69022E-09         0.16025E-10         0.00000E+00
    0.68759E-09         0.16167E-10         0.00000E+00
    0.68493E-09         0.16275E-10         0.00000E+00
    0.68224E-09         0.16350E-10         0.00000E+00
    0.67953E-09         0.16394E-10         0.00000E+00
    0.67681E-09         0.16408E-10         0.00000E+00
    0.67408E-09         0.16393E-10         0.00000E+00
    0.67135E-09         0.16349E-10         0.00000E+00
    0.66862E-09         0.16278E-10         0.00000E+00
    0.66590E-09         0.16178E-10         0.00000E+00
    0.66320E-09         0.16051E-10         0.00000E+00
    0.66052E-09         0.15896E-10         0.00000E+00
    0.65787E-09         0.15712E-10         0.00000E+00
    0.65525E-09         0.15499E-10         0.00000E+00
    0.65268E-09         0.15256E-10         0.00000E+00
    0.65014E-09         0.14982E-10         0.00000E+00
    0.64767E-09         0.14675E-10         0.00000E+00
    0.64525E-09         0.14335E-10         0.00000E+00
    0.64289E-09         0.13958E-10         0.00000E+00
    0.64062E-09         0.13542E-10         0.00000E+00
    0.63842E-09         0.13086E-10         0.00000E+00
    0.63631E-09         0.12585E-10         0.00000E+00
    0.63430E-09         0.12035E-10         0.00000E+00
    0.63240E-09         0.11433E-10         0.00000E+00
    0.63061E-09         0.10771E-10         0.00000E+00
    0.62895E-09         0.10043E-10         0.00000E+00
    0.62743E-09         0.92404E-11         0.00000E+00
    0.62607E-09         0.83514E-11         0.00000E+00
    0.62486E-09         0.73618E-11         0.00000E+00
    0.62384E-09         0.62530E-11         0.00000E+00
    0.62302E-09         0.50002E-11         0.00000E+00
    0.62240E-09         0.35696E-11         0.00000E+00
    0.62202E-09         0.19144E-11         0.00000E+00
    0.62189E-09         0.10238E-11         0.00000E+00
    0.65604E-09         0.16187E-11         0.00000E+00
    0.65602E-09         0.31516E-11         0.00000E+00
    0.65594E-09         0.60808E-11         0.00000E+00
    0.65576E-09         0.87360E-11         0.00000E+00
    0.65548E-09         0.11124E-10         0.00000E+00
    0.65507E-09         0.13260E-10         0.00000E+00
    0.65455E-09         0.15167E-10         0.00000E+00
    0.65390E-09         0.16867E-10         0.00000E+00
    0.65314E-09         0.18379E-10         0.00000E+00
    0.65226E-09         0.19723E-10         0.00000E+00
    0.65128E-09         0.20916E-10         0.00000E+00
    0.65020E-09         0.21972E-10         0.00000E+00
    0.64902E-09         0.22905E-10         0.00000E+00
    0.64776E-09         0.23726E-10         0.00000E+00
    0.64642E-09         0.24445E-10         0.00000E+00
    0.64501E-09         0.25069E-10         0.00000E+00
    0.64353E-09         0.25605E-10         0.00000E+00
    0.64199E-09         0.26060E-10         0.00000E+00
    0.64041E-09         0.26439E-10         0.00000E+00
    0.63878E-09         0.26746E-10         0.00000E+00
    0.63711E-09         0.26984E-10         0.00000E+00
    0.63541E-09         0.27156E-10         0.00000E+00
    0.63368E-09         0.27264E-10         0.00000E+00
    0.63194E-09         0.27311E-10         0.00000E+00
    0.63018E-09         0.27298E-10         0.00000E+00
    0.62841E-09         0.27225E-10         0.00000E+00
    0.62665E-09         0.27094E-10         0.00000E+00
    0.62489E-09         0.26903E-10         0.00000E+00
    0.62313E-09         0.26653E-10         0.00000E+00
    0.62140E-09         0.26344E-10         0.00000E+00
    0.61969E-09         0.25975E-10         0.00000E+00
    0.61800E-09         0.25543E-10         0.00000E+00
    0.61635E-09         0.25048E-10         0.00000E+00
    0.61474E-09         0.24487E-10         0.00000E+00
    0.61318E-09         0.23858E-10         0.00000E+00
    0.61166E-09         0.23158E-10         0.00000E+00
    0.61021E-09         0.22383E-10         0.00000E+00
    0.60882E-09         0.21529E-10         0.00000E+00
    0.60750E-09         0.20591E-10         0.00000E+00
    0.60626E-09         0.19565E-10         0.00000E+00
    0.60511E-09         0.18443E-10         0.00000E+00
    0.60405E-09         0.17219E-10         0.00000E+00
    0.60308E-09         0.15884E-10         0.00000E+00
    0.60222E-09         0.14430E-10         0.00000E+00
    0.60146E-09         0.12845E-10         0.00000E+00
    0.60083E-09         0.11119E-10         0.00000E+00
    0.60031E-09         0.92386E-11         0.00000E+00
    0.59991E-09         0.71931E-11         0.00000E+00
    0.59963E-09         0.49716E-11         0.00000E+00
    0.59947E-09         0.25681E-11         0.00000E+00
    0.59942E-09         0.13206E-11         0.00000E+00
    0.60697E-09         0.16594E-11         0.00000E+00
    0.60697E-09         0.32482E-11         0.00000E+00
    0.60697E-09         0.63235E-11         0.00000E+00
    0.60695E-09         0.91967E-11         0.00000E+00
    0.60691E-09         0.11872E-10         0.00000E+00
    0.60682E-09         0.14354E-10         0.00000E+00
    0.60668E-09         0.16647E-10         0.00000E+00
    0.60649E-09         0.18759E-10         0.00000E+00
    0.60624E-09         0.20697E-10         0.00000E+00
    0.60592E-09         0.22469E-10         0.00000E+00
    0.60554E-09         0.24084E-10         0.00000E+00
    0.60510E-09         0.25550E-10         0.00000E+00
    0.60459E-09         0.26875E-10         0.00000E+00
    0.60402E-09         0.28067E-10         0.00000E+00
    0.60338E-09         0.29133E-10         0.00000E+00
    0.60269E-09         0.30079E-10         0.00000E+00
    0.60195E-09         0.30911E-10         0.00000E+00
    0.60116E-09         0.31634E-10         0.00000E+00
    0.60032E-09         0.32253E-10         0.00000E+00
    0.59944E-09         0.32772E-10         0.00000E+00
    0.59853E-09         0.33194E-10         0.00000E+00
    0.59758E-09         0.33522E-10         0.00000E+00
    0.59661E-09         0.33758E-10         0.00000E+00
    0.59561E-09         0.33905E-10         0.00000E+00
    0.59459E-09         0.33963E-10         0.00000E+00
    0.59356E-09         0.33934E-10         0.00000E+00
    0.59253E-09         0.33818E-10         0.00000E+00
    0.59149E-09         0.33616E-10         0.00000E+00
    0.59045E-09         0.33327E-10         0.00000E+00
    0.58942E-09         0.32952E-10         0.00000E+00
    0.58840E-09         0.32488E-10         0.00000E+00
    0.58739E-09         0.31934E-10         0.00000E+00
    0.58640E-09         0.31290E-10         0.00000E+00
    0.58544E-09         0.30552E-10         0.00000E+00
    0.58451E-09         0.29719E-10         0.00000E+00
    0.58362E-09         0.28787E-10         0.00000E+00
    0.58276E-09         0.27754E-10         0.00000E+00
    0.58195E-09         0.26615E-10         0.00000E+00
    0.58118E-09         0.25367E-10         0.00000E+00
    0.58047E-09         0.24005E-10         0.00000E+00
    0.57981E-09         0.22524E-10         0.00000E+00
    0.57921E-09         0.20919E-10         0.00000E+00
    0.57867E-09         0.19185E-10         0.00000E+00
    0.57820E-09         0.17316E-10         0.00000E+00
    0.57779E-09         0.15306E-10         0.00000E+00
    0.57744E-09         0.13149E-10         0.00000E+00
    0.57717E-09         0.10841E-10         0.00000E+00
    0.57696E-09         0.83749E-11         0.00000E+00
    0.57681E-09         0.57476E-11         0.00000E+00
    0.57672E-09         0.29533E-11         0.00000E+00
    0.57669E-09         0.15137E-11         0.00000E+00
    0.56919E-09         0.15977E-11         0.00000E+00
    0.56921E-09         0.31483E-11         0.00000E+00
    0.56925E-09         0.61768E-11         0.00000E+00
    0.56930E-09         0.90581E-11         0.00000E+00
    0.56935E-09         0.11790E-10         0.00000E+00
    0.56941E-09         0.14371E-10         0.00000E+00
    0.56945E-09         0.16802E-10         0.00000E+00
    0.56947E-09         0.19084E-10         0.00000E+00
    0.56947E-09         0.21217E-10         0.00000E+00
    0.56944E-09         0.23204E-10         0.00000E+00
    0.56938E-09         0.25048E-10         0.00000E+00
    0.56928E-09         0.26752E-10         0.00000E+00
    0.56915E-09         0.28318E-10         0.00000E+00
    0.56899E-09         0.29751E-10         0.00000E+00
    0.56878E-09         0.31053E-10         0.00000E+00
    0.56854E-09         0.32228E-10         0.00000E+00
    0.56826E-09         0.33279E-10         0.00000E+00
    0.56795E-09         0.34208E-10         0.00000E+00
    0.56760E-09         0.35020E-10         0.00000E+00
    0.56722E-09         0.35715E-10         0.00000E+00
    0.56681E-09         0.36296E-10         0.00000E+00
    0.56638E-09         0.36765E-10         0.00000E+00
    0.56592E-09         0.37124E-10         0.00000E+00
    0.56544E-09         0.37374E-10         0.00000E+00
    0.56495E-09         0.37516E-10         0.00000E+00
    0.56444E-09         0.37550E-10         0.00000E+00
    0.56391E-09         0.37477E-10         0.00000E+00
    0.56338E-09         0.37297E-10         0.00000E+00
    0.56285E-09         0.37010E-10         0.00000E+00
    0.56231E-09         0.36615E-10         0.00000E+00
    0.56178E-09         0.36112E-10         0.00000E+00
    0.56125E-09         0.35499E-10         0.00000E+00
    0.56074E-09         0.34775E-10         0.00000E+00
    0.56023E-09         0.33938E-10         0.00000E+00
    0.55974E-09         0.32986E-10         0.00000E+00
    0.55927E-09         0.31918E-10         0.00000E+00
    0.55881E-09         0.30731E-10         0.00000E+00
    0.55839E-09         0.29422E-10         0.00000E+00
    0.55799E-09         0.27989E-10         0.00000E+00
    0.55761E-09         0.26429E-10         0.00000E+00
    0.55727E-09         0.24738E-10         0.00000E+00
    0.55696E-09         0.22914E-10         0.00000E+00
    0.55669E-09         0.20953E-10         0.00000E+00
    0.55644E-09         0.18852E-10         0.00000E+00
    0.55624E-09         0.16608E-10         0.00000E+00
    0.55606E-09         0.14218E-10         0.00000E+00
    0.55593E-09         0.11679E-10         0.00000E+00
    0.55582E-09         0.89889E-11         0.00000E+00
    0.55575E-09         0.61445E-11         0.00000E+00
    0.55571E-09         0.31441E-11         0.00000E+00
    0.55569E-09         0.16047E-11         0.00000E+00
    0.54103E-09         0.15062E-11         0.00000E+00
    0.54105E-09         0.29790E-11         0.00000E+00
    0.54110E-09         0.58724E-11         0.00000E+00
    0.54118E-09         0.86589E-11         0.00000E+00
    0.54128E-09         0.11334E-10         0.00000E+00
    0.54139E-09         0.13892E-10         0.00000E+00
    0.54151E-09         0.16332E-10         0.00000E+00
    0.54163E-09         0.18650E-10         0.00000E+00
    0.54174E-09         0.20844E-10         0.00000E+00
    0.54185E-09         0.22913E-10         0.00000E+00
    0.54195E-09         0.24856E-10         0.00000E+00
    0.54204E-09         0.26673E-10         0.00000E+00
    0.54211E-09         0.28364E-10         0.00000E+00
    0.54216E-09         0.29929E-10         0.00000E+00
    0.54219E-09         0.31368E-10         0.00000E+00
    0.54220E-09         0.32682E-10         0.00000E+00
    0.54218E-09         0.33872E-10         0.00000E+00
    0.54215E-09         0.34938E-10         0.00000E+00
    0.54210E-09         0.35882E-10         0.00000E+00
    0.54202E-09         0.36703E-10         0.00000E+00
    0.54192E-09         0.37403E-10         0.00000E+00
    0.54181E-09         0.37982E-10         0.00000E+00
    0.54167E-09         0.38441E-10         0.00000E+00
    0.54152E-09         0.38780E-10         0.00000E+00
    0.54135E-09         0.38999E-10         0.00000E+00
    0.54117E-09         0.39098E-10         0.00000E+00
    0.54098E-09         0.39078E-10         0.00000E+00
    0.54078E-09         0.38937E-10         0.00000E+00
    0.54058E-09         0.38676E-10         0.00000E+00
    0.54036E-09         0.38294E-10         0.00000E+00
    0.54015E-09         0.37790E-10         0.00000E+00
    0.53993E-09         0.37164E-10         0.00000E+00
    0.53972E-09         0.36413E-10         0.00000E+00
    0.53950E-09         0.35538E-10         0.00000E+00
    0.53929E-09         0.34536E-10         0.00000E+00
    0.53909E-09         0.33406E-10         0.00000E+00
    0.53890E-09         0.32147E-10         0.00000E+00
    0.53872E-09         0.30756E-10         0.00000E+00
    0.53854E-09         0.29233E-10         0.00000E+00
    0.53838E-09         0.27576E-10         0.00000E+00
    0.53824E-09         0.25782E-10         0.00000E+00
    0.53811E-09         0.23850E-10         0.00000E+00
    0.53799E-09         0.21778E-10         0.00000E+00
    0.53789E-09         0.19564E-10         0.00000E+00
    0.53780E-09         0.17207E-10         0.00000E+00
    0.53773E-09         0.14706E-10         0.00000E+00
    0.53767E-09         0.12058E-10         0.00000E+00
    0.53763E-09         0.92632E-11         0.00000E+00
    0.53760E-09         0.63203E-11         0.00000E+00
    0.53759E-09         0.32286E-11         0.00000E+00
    0.53758E-09         0.16455E-11         0.00000E+00
    0.52123E-09         0.14083E-11         0.00000E+00
    0.52125E-09         0.27935E-11         0.00000E+00
    0.52130E-09         0.55265E-11         0.00000E+00
    0.52138E-09         0.81813E-11         0.00000E+00
    0.52149E-09         0.10752E-10         0.00000E+00
    0.52161E-09         0.13232E-10         0.00000E+00
    0.52175E-09         0.15618E-10         0.00000E+00
    0.52190E-09         0.17903E-10         0.00000E+00
    0.52206E-09         0.20086E-10         0.00000E+00
    0.52222E-09         0.22162E-10         0.00000E+00
    0.52239E-09         0.24128E-10         0.00000E+00
    0.52255E-09         0.25982E-10         0.00000E+00
    0.52270E-09         0.27722E-10         0.00000E+00
    0.52285E-09         0.29346E-10         0.00000E+00
    0.52299E-09         0.30852E-10         0.00000E+00
    0.52312E-09         0.32240E-10         0.00000E+00
    0.52324E-09         0.33507E-10         0.00000E+00
    0.52335E-09         0.34654E-10         0.00000E+00
    0.52345E-09         0.35679E-10         0.00000E+00
    0.52353E-09         0.36582E-10         0.00000E+00
    0.52360E-09         0.37362E-10         0.00000E+00
    0.52365E-09         0.38019E-10         0.00000E+00
    0.52370E-09         0.38551E-10         0.00000E+00
    0.52373E-09         0.38959E-10         0.00000E+00
    0.52375E-09         0.39242E-10         0.00000E+00
    0.52376E-09         0.39399E-10         0.00000E+00
    0.52376E-09         0.39430E-10         0.00000E+00
    0.52375E-09         0.39333E-10         0.00000E+00
    0.52373E-09         0.39109E-10         0.00000E+00
    0.52370E-09         0.38757E-10         0.00000E+00
    0.52367E-09         0.38275E-10         0.00000E+00
    0.52363E-09         0.37663E-10         0.00000E+00
    0.52359E-09         0.36919E-10         0.00000E+00
    0.52355E-09         0.36044E-10         0.00000E+00
    0.52351E-09         0.35036E-10         0.00000E+00
    0.52346E-09         0.33893E-10         0.00000E+00
    0.52342E-09         0.32615E-10         0.00000E+00
    0.52338E-09         0.31201E-10         0.00000E+00
    0.52334E-09         0.29649E-10         0.00000E+00
    0.52330E-09         0.27959E-10         0.00000E+00
    0.52326E-09         0.26129E-10         0.00000E+00
    0.52323E-09         0.24159E-10         0.00000E+00
    0.52321E-09         0.22048E-10         0.00000E+00
    0.52318E-09         0.19794E-10         0.00000E+00
    0.52316E-09         0.17397E-10         0.00000E+00
    0.52315E-09         0.14857E-10         0.00000E+00
    0.52314E-09         0.12172E-10         0.00000E+00
    0.52313E-09         0.93430E-11         0.00000E+00
    0.52312E-09         0.63692E-11         0.00000E+00
    0.52312E-09         0.32508E-11         0.00000E+00
    0.52312E-09         0.16555E-11         0.00000E+00
    0.50880E-09         0.13204E-11         0.00000E+00
    0.50881E-09         0.26244E-11         0.00000E+00
    0.50886E-09         0.52053E-11         0.00000E+00
    0.50893E-09         0.77281E-11         0.00000E+00
    0.50902E-09         0.10186E-10         0.00000E+00
    0.50913E-09         0.12572E-10         0.00000E+00
    0.50926E-09         0.14881E-10         0.00000E+00
    0.50941E-09         0.17107E-10         0.00000E+00
    0.50956E-09         0.19245E-10         0.00000E+00
    0.50972E-09         0.21292E-10         0.00000E+00
    0.50989E-09         0.23242E-10         0.00000E+00
    0.51006E-09         0.25092E-10         0.00000E+00
    0.51024E-09         0.26838E-10         0.00000E+00
    0.51041E-09         0.28479E-10         0.00000E+00
    0.51058E-09         0.30009E-10         0.00000E+00
    0.51075E-09         0.31429E-10         0.00000E+00
    0.51091E-09         0.32734E-10         0.00000E+00
    0.51107E-09         0.33923E-10         0.00000E+00
    0.51122E-09         0.34994E-10         0.00000E+00
    0.51136E-09         0.35946E-10         0.00000E+00
    0.51149E-09         0.36776E-10         0.00000E+00
    0.51162E-09         0.37484E-10         0.00000E+00
    0.51174E-09         0.38068E-10         0.00000E+00
    0.51185E-09         0.38526E-10         0.00000E+00
    0.51195E-09         0.38857E-10         0.00000E+00
    0.51204E-09         0.39061E-10         0.00000E+00
    0.51213E-09         0.39136E-10         0.00000E+00
    0.51220E-09         0.39081E-10         0.00000E+00
    0.51227E-09         0.38896E-10         0.00000E+00
    0.51234E-09         0.38578E-10         0.00000E+00
    0.51239E-09         0.38127E-10         0.00000E+00
    0.51244E-09         0.37543E-10         0.00000E+00
    0.51249E-09         0.36824E-10         0.00000E+00
    0.51253E-09         0.35968E-10         0.00000E+00
    0.51256E-09         0.34977E-10         0.00000E+00
    0.51259E-09         0.33848E-10         0.00000E+00
    0.51262E-09         0.32580E-10         0.00000E+00
    0.51264E-09         0.31174E-10         0.00000E+00
    0.51267E-09         0.29627E-10         0.00000E+00
    0.51269E-09         0.27940E-10         0.00000E+00
    0.51270E-09         0.26112E-10         0.00000E+00
    0.51272E-09         0.24142E-10         0.00000E+00
    0.51273E-09         0.22030E-10         0.00000E+00
    0.51275E-09         0.19775E-10         0.00000E+00
    0.51276E-09         0.17378E-10         0.00000E+00
    0.51277E-09         0.14837E-10         0.00000E+00
    0.51278E-09         0.12153E-10         0.00000E+00
    0.51278E-09         0.93257E-11         0.00000E+00
    0.51279E-09         0.63557E-11         0.00000E+00
    0.51279E-09         0.32430E-11         0.00000E+00
    0.51279E-09         0.16511E-11         0.00000E+00
    0.50291E-09         0.12507E-11         0.00000E+00
    0.50292E-09         0.24895E-11         0.00000E+00
    0.50295E-09         0.49463E-11         0.00000E+00
    0.50301E-09         0.73578E-11         0.00000E+00
    0.50308E-09         0.97171E-11         0.00000E+00
    0.50317E-09         0.12017E-10         0.00000E+00
    0.50327E-09         0.14252E-10         0.00000E+00
    0.50338E-09         0.16416E-10         0.00000E+00
    0.50351E-09         0.18504E-10         0.00000E+00
    0.50364E-09         0.20510E-10         0.00000E+00
    0.50378E-09         0.22430E-10         0.00000E+00
    0.50392E-09         0.24259E-10         0.00000E+00
    0.50407E-09         0.25993E-10         0.00000E+00
    0.50422E-09         0.27629E-10         0.00000E+00
    0.50437E-09         0.29162E-10         0.00000E+00
    0.50452E-09         0.30591E-10         0.00000E+00
    0.50467E-09         0.31911E-10         0.00000E+00
    0.50481E-09         0.33119E-10         0.00000E+00
    0.50496E-09         0.34214E-10         0.00000E+00
    0.50510E-09         0.35193E-10         0.00000E+00
    0.50523E-09         0.36054E-10         0.00000E+00
    0.50536E-09         0.36794E-10         0.00000E+00
    0.50548E-09         0.37411E-10         0.00000E+00
    0.50560E-09         0.37905E-10         0.00000E+00
    0.50571E-09         0.38272E-10         0.00000E+00
    0.50582E-09         0.38512E-10         0.00000E+00
    0.50592E-09         0.38622E-10         0.00000E+00
    0.50601E-09         0.38602E-10         0.00000E+00
    0.50610E-09         0.38450E-10         0.00000E+00
    0.50618E-09         0.38165E-10         0.00000E+00
    0.50626E-09         0.37746E-10         0.00000E+00
    0.50633E-09         0.37192E-10         0.00000E+00
    0.50639E-09         0.36501E-10         0.00000E+00
    0.50645E-09         0.35673E-10         0.00000E+00
    0.50650E-09         0.34706E-10         0.00000E+00
    0.50655E-09         0.33600E-10         0.00000E+00
    0.50660E-09         0.32355E-10         0.00000E+00
    0.50664E-09         0.30969E-10         0.00000E+00
    0.50668E-09         0.29441E-10         0.00000E+00
    0.50671E-09         0.27772E-10         0.00000E+00
    0.50674E-09         0.25961E-10         0.00000E+00
    0.50676E-09         0.24007E-10         0.00000E+00
    0.50679E-09         0.21910E-10         0.00000E+00
    0.50681E-09         0.19670E-10         0.00000E+00
    0.50682E-09         0.17287E-10         0.00000E+00
    0.50684E-09         0.14761E-10         0.00000E+00
    0.50685E-09         0.12092E-10         0.00000E+00
    0.50686E-09         0.92792E-11         0.00000E+00
    0.50687E-09         0.63242E-11         0.00000E+00
    0.50687E-09         0.32270E-11         0.00000E+00
    0.50687E-09         0.16430E-11         0.00000E+00
    0.50291E-09         0.12038E-11         0.00000E+00
    0.50291E-09         0.23979E-11         0.00000E+00
    0.50293E-09         0.47688E-11         0.00000E+00
    0.50297E-09         0.71018E-11         0.00000E+00
    0.50301E-09         0.93897E-11         0.00000E+00
    0.50307E-09         0.11626E-10         0.00000E+00
    0.50313E-09         0.13805E-10         0.00000E+00
    0.50320E-09         0.15920E-10         0.00000E+00
    0.50328E-09         0.17965E-10         0.00000E+00
    0.50337E-09         0.19936E-10         0.00000E+00
    0.50346E-09         0.21828E-10         0.00000E+00
    0.50355E-09         0.23635E-10         0.00000E+00
    0.50365E-09         0.25353E-10         0.00000E+00
    0.50375E-09         0.26979E-10         0.00000E+00
    0.50385E-09         0.28508E-10         0.00000E+00
    0.50395E-09         0.29936E-10         0.00000E+00
    0.50405E-09         0.31261E-10         0.00000E+00
    0.50414E-09         0.32478E-10         0.00000E+00
    0.50424E-09         0.33585E-10         0.00000E+00
    0.50434E-09         0.34580E-10         0.00000E+00
    0.50443E-09         0.35458E-10         0.00000E+00
    0.50452E-09         0.36219E-10         0.00000E+00
    0.50460E-09         0.36858E-10         0.00000E+00
    0.50468E-09         0.37375E-10         0.00000E+00
    0.50476E-09         0.37768E-10         0.00000E+00
    0.50483E-09         0.38033E-10         0.00000E+00
    0.50490E-09         0.38170E-10         0.00000E+00
    0.50497E-09         0.38177E-10         0.00000E+00
    0.50503E-09         0.38052E-10         0.00000E+00
    0.50508E-09         0.37794E-10         0.00000E+00
    0.50513E-09         0.37401E-10         0.00000E+00
    0.50518E-09         0.36872E-10         0.00000E+00
    0.50522E-09         0.36206E-10         0.00000E+00
    0.50526E-09         0.35402E-10         0.00000E+00
    0.50529E-09         0.34459E-10         0.00000E+00
    0.50532E-09         0.33376E-10         0.00000E+00
    0.50535E-09         0.32151E-10         0.00000E+00
    0.50537E-09         0.30786E-10         0.00000E+00
    0.50539E-09         0.29278E-10         0.00000E+00
    0.50541E-09         0.27627E-10         0.00000E+00
    0.50542E-09         0.25834E-10         0.00000E+00
    0.50543E-09         0.23896E-10         0.00000E+00
    0.50544E-09         0.21815E-10         0.00000E+00
    0.50545E-09         0.19590E-10         0.00000E+00
    0.50546E-09         0.17221E-10         0.00000E+00
    0.50546E-09         0.14707E-10         0.00000E+00
    0.50546E-09         0.12050E-10         0.00000E+00
    0.50546E-09         0.92493E-11         0.00000E+00
    0.50547E-09         0.63051E-11         0.00000E+00
    0.50547E-09         0.32178E-11         0.00000E+00
    0.50547E-09         0.16386E-11         0.00000E+00
    0.50824E-09         0.11809E-11         0.00000E+00
    0.50824E-09         0.23528E-11         0.00000E+00
    0.50824E-09         0.46807E-11         0.00000E+00
    0.50826E-09         0.69731E-11         0.00000E+00
    0.50827E-09         0.92236E-11         0.00000E+00
    0.50829E-09         0.11426E-10         0.00000E+00
    0.50831E-09         0.13574E-10         0.00000E+00
    0.50834E-09         0.15661E-10         0.00000E+00
    0.50836E-09         0.17683E-10         0.00000E+00
    0.50839E-09         0.19634E-10         0.00000E+00
    0.50842E-09         0.21509E-10         0.00000E+00
    0.50846E-09         0.23304E-10         0.00000E+00
    0.50849E-09         0.25013E-10         0.00000E+00
    0.50852E-09         0.26633E-10         0.00000E+00
    0.50856E-09         0.28159E-10         0.00000E+00
    0.50859E-09         0.29588E-10         0.00000E+00
    0.50862E-09         0.30916E-10         0.00000E+00
    0.50866E-09         0.32139E-10         0.00000E+00
    0.50868E-09         0.33254E-10         0.00000E+00
    0.50871E-09         0.34259E-10         0.00000E+00
    0.50874E-09         0.35149E-10         0.00000E+00
    0.50876E-09         0.35923E-10         0.00000E+00
    0.50878E-09         0.36578E-10         0.00000E+00
    0.50880E-09         0.37111E-10         0.00000E+00
    0.50882E-09         0.37521E-10         0.00000E+00
    0.50883E-09         0.37804E-10         0.00000E+00
    0.50884E-09         0.37959E-10         0.00000E+00
    0.50884E-09         0.37984E-10         0.00000E+00
    0.50885E-09         0.37878E-10         0.00000E+00
    0.50885E-09         0.37638E-10         0.00000E+00
    0.50884E-09         0.37263E-10         0.00000E+00
    0.50884E-09         0.36752E-10         0.00000E+00
    0.50883E-09         0.36103E-10         0.00000E+00
    0.50882E-09         0.35315E-10         0.00000E+00
    0.50881E-09         0.34387E-10         0.00000E+00
    0.50880E-09         0.33318E-10         0.00000E+00
    0.50878E-09         0.32108E-10         0.00000E+00
    0.50877E-09         0.30754E-10         0.00000E+00
    0.50875E-09         0.29258E-10         0.00000E+00
    0.50873E-09         0.27617E-10         0.00000E+00
    0.50871E-09         0.25832E-10         0.00000E+00
    0.50870E-09         0.23902E-10         0.00000E+00
    0.50868E-09         0.21826E-10         0.00000E+00
    0.50866E-09         0.19605E-10         0.00000E+00
    0.50864E-09         0.17239E-10         0.00000E+00
    0.50863E-09         0.14727E-10         0.00000E+00
    0.50861E-09         0.12069E-10         0.00000E+00
    0.50860E-09         0.92664E-11         0.00000E+00
    0.50859E-09         0.63183E-11         0.00000E+00
    0.50859E-09         0.32253E-11         0.00000E+00
    0.50859E-09         0.16427E-11         0.00000E+00
    0.51845E-09         0.11818E-11         0.00000E+00
    0.51844E-09         0.23541E-11         0.00000E+00
    0.51844E-09         0.46822E-11         0.00000E+00
    0.51843E-09         0.69739E-11         0.00000E+00
    0.51841E-09         0.92231E-11         0.00000E+00
    0.51839E-09         0.11424E-10         0.00000E+00
    0.51837E-09         0.13570E-10         0.00000E+00
    0.51835E-09         0.15657E-10         0.00000E+00
    0.51833E-09         0.17679E-10         0.00000E+00
    0.51830E-09         0.19630E-10         0.00000E+00
    0.51827E-09         0.21507E-10         0.00000E+00
    0.51823E-09         0.23303E-10         0.00000E+00
    0.51820E-09         0.25016E-10         0.00000E+00
    0.51816E-09         0.26640E-10         0.00000E+00
    0.51812E-09         0.28172E-10         0.00000E+00
    0.51808E-09         0.29608E-10         0.00000E+00
    0.51804E-09         0.30943E-10         0.00000E+00
    0.51799E-09         0.32174E-10         0.00000E+00
    0.51794E-09         0.33299E-10         0.00000E+00
    0.51789E-09         0.34313E-10         0.00000E+00
    0.51784E-09         0.35215E-10         0.00000E+00
    0.51778E-09         0.36000E-10         0.00000E+00
    0.51772E-09         0.36666E-10         0.00000E+00
    0.51766E-09         0.37210E-10         0.00000E+00
    0.51760E-09         0.37631E-10         0.00000E+00
    0.51754E-09         0.37926E-10         0.00000E+00
    0.51747E-09         0.38092E-10         0.00000E+00
    0.51741E-09         0.38128E-10         0.00000E+00
    0.51734E-09         0.38032E-10         0.00000E+00
    0.51727E-09         0.37801E-10         0.00000E+00
    0.51720E-09         0.37435E-10         0.00000E+00
    0.51713E-09         0.36931E-10         0.00000E+00
    0.51706E-09         0.36289E-10         0.00000E+00
    0.51699E-09         0.35506E-10         0.00000E+00
    0.51691E-09         0.34583E-10         0.00000E+00
    0.51684E-09         0.33517E-10         0.00000E+00
    0.51677E-09         0.32307E-10         0.00000E+00
    0.51671E-09         0.30953E-10         0.00000E+00
    0.51664E-09         0.29454E-10         0.00000E+00
    0.51658E-09         0.27809E-10         0.00000E+00
    0.51652E-09         0.26018E-10         0.00000E+00
    0.51646E-09         0.24080E-10         0.00000E+00
    0.51640E-09         0.21994E-10         0.00000E+00
    0.51635E-09         0.19761E-10         0.00000E+00
    0.51631E-09         0.17380E-10         0.00000E+00
    0.51627E-09         0.14851E-10         0.00000E+00
    0.51623E-09         0.12174E-10         0.00000E+00
    0.51621E-09         0.93490E-11         0.00000E+00
    0.51619E-09         0.63761E-11         0.00000E+00
    0.51617E-09         0.32555E-11         0.00000E+00
    0.51617E-09         0.16584E-11         0.00000E+00
    0.53317E-09         0.12052E-11         0.00000E+00
    0.53316E-09         0.23995E-11         0.00000E+00
    0.53315E-09         0.47694E-11         0.00000E+00
    0.53311E-09         0.70991E-11         0.00000E+00
    0.53307E-09         0.93829E-11         0.00000E+00
    0.53302E-09         0.11615E-10         0.00000E+00
    0.53296E-09         0.13791E-10         0.00000E+00
    0.53289E-09         0.15905E-10         0.00000E+00
    0.53281E-09         0.17951E-10         0.00000E+00
    0.53273E-09         0.19926E-10         0.00000E+00
    0.53264E-09         0.21824E-10         0.00000E+00
    0.53254E-09         0.23642E-10         0.00000E+00
    0.53244E-09         0.25374E-10         0.00000E+00
    0.53233E-09         0.27016E-10         0.00000E+00
    0.53221E-09         0.28565E-10         0.00000E+00
    0.53209E-09         0.30017E-10         0.00000E+00
    0.53197E-09         0.31368E-10         0.00000E+00
    0.53184E-09         0.32614E-10         0.00000E+00
    0.53171E-09         0.33753E-10         0.00000E+00
    0.53158E-09         0.34780E-10         0.00000E+00
    0.53144E-09         0.35693E-10         0.00000E+00
    0.53131E-09         0.36489E-10         0.00000E+00
    0.53116E-09         0.37165E-10         0.00000E+00
    0.53102E-09         0.37719E-10         0.00000E+00
    0.53088E-09         0.38148E-10         0.00000E+00
    0.53073E-09         0.38449E-10         0.00000E+00
    0.53058E-09         0.38621E-10         0.00000E+00
    0.53044E-09         0.38660E-10         0.00000E+00
    0.53029E-09         0.38566E-10         0.00000E+00
    0.53014E-09         0.38337E-10         0.00000E+00
    0.53000E-09         0.37969E-10         0.00000E+00
    0.52985E-09         0.37463E-10         0.00000E+00
    0.52971E-09         0.36816E-10         0.00000E+00
    0.52957E-09         0.36027E-10         0.00000E+00
    0.52943E-09         0.35095E-10         0.00000E+00
    0.52930E-09         0.34018E-10         0.00000E+00
    0.52916E-09         0.32795E-10         0.00000E+00
    0.52904E-09         0.31425E-10         0.00000E+00
    0.52892E-09         0.29908E-10         0.00000E+00
    0.52880E-09         0.28242E-10         0.00000E+00
    0.52869E-09         0.26427E-10         0.00000E+00
    0.52859E-09         0.24463E-10         0.00000E+00
    0.52850E-09         0.22348E-10         0.00000E+00
    0.52841E-09         0.20082E-10         0.00000E+00
    0.52833E-09         0.17665E-10         0.00000E+00
    0.52827E-09         0.15097E-10         0.00000E+00
    0.52821E-09         0.12378E-10         0.00000E+00
    0.52816E-09         0.95074E-11         0.00000E+00
    0.52813E-09         0.64853E-11         0.00000E+00
    0.52811E-09         0.33119E-11         0.00000E+00
    0.52810E-09         0.16874E-11         0.00000E+00
    0.55212E-09         0.12492E-11         0.00000E+00
    0.55211E-09         0.24852E-11         0.00000E+00
    0.55208E-09         0.49355E-11         0.00000E+00
    0.55203E-09         0.73397E-11         0.00000E+00
    0.55196E-09         0.96924E-11         0.00000E+00
    0.55188E-09         0.11989E-10         0.00000E+00
    0.55178E-09         0.14223E-10         0.00000E+00
    0.55167E-09         0.16391E-10         0.00000E+00
    0.55154E-09         0.18489E-10         0.00000E+00
    0.55140E-09         0.20510E-10         0.00000E+00
    0.55125E-09         0.22452E-10         0.00000E+00
    0.55109E-09         0.24309E-10         0.00000E+00
    0.55092E-09         0.26078E-10         0.00000E+00
    0.55075E-09         0.27754E-10         0.00000E+00
    0.55056E-09         0.29334E-10         0.00000E+00
    0.55037E-09         0.30814E-10         0.00000E+00
    0.55017E-09         0.32190E-10         0.00000E+00
    0.54996E-09         0.33460E-10         0.00000E+00
    0.54975E-09         0.34618E-10         0.00000E+00
    0.54954E-09         0.35664E-10         0.00000E+00
    0.54932E-09         0.36593E-10         0.00000E+00
    0.54909E-09         0.37402E-10         0.00000E+00
    0.54887E-09         0.38089E-10         0.00000E+00
    0.54864E-09         0.38651E-10         0.00000E+00
    0.54841E-09         0.39085E-10         0.00000E+00
    0.54818E-09         0.39390E-10         0.00000E+00
    0.54795E-09         0.39562E-10         0.00000E+00
    0.54772E-09         0.39600E-10         0.00000E+00
    0.54750E-09         0.39502E-10         0.00000E+00
    0.54727E-09         0.39265E-10         0.00000E+00
    0.54705E-09         0.38888E-10         0.00000E+00
    0.54683E-09         0.38369E-10         0.00000E+00
    0.54661E-09         0.37706E-10         0.00000E+00
    0.54640E-09         0.36898E-10         0.00000E+00
    0.54619E-09         0.35944E-10         0.00000E+00
    0.54599E-09         0.34841E-10         0.00000E+00
    0.54580E-09         0.33590E-10         0.00000E+00
    0.54561E-09         0.32189E-10         0.00000E+00
    0.54543E-09         0.30636E-10         0.00000E+00
    0.54526E-09         0.28932E-10         0.00000E+00
    0.54510E-09         0.27074E-10         0.00000E+00
    0.54496E-09         0.25063E-10         0.00000E+00
    0.54482E-09         0.22898E-10         0.00000E+00
    0.54470E-09         0.20579E-10         0.00000E+00
    0.54459E-09         0.18104E-10         0.00000E+00
    0.54449E-09         0.15474E-10         0.00000E+00
    0.54441E-09         0.12688E-10         0.00000E+00
    0.54434E-09         0.97464E-11         0.00000E+00
    0.54430E-09         0.66491E-11         0.00000E+00
    0.54427E-09         0.33959E-11         0.00000E+00
    0.54426E-09         0.17304E-11         0.00000E+00
    0.57506E-09         0.13116E-11         0.00000E+00
    0.57505E-09         0.26074E-11         0.00000E+00
    0.57501E-09         0.51732E-11         0.00000E+00
    0.57494E-09         0.76851E-11         0.00000E+00
    0.57485E-09         0.10138E-10         0.00000E+00
    0.57474E-09         0.12528E-10         0.00000E+00
    0.57461E-09         0.14850E-10         0.00000E+00
    0.57445E-09         0.17099E-10         0.00000E+00
    0.57428E-09         0.19272E-10         0.00000E+00
    0.57410E-09         0.21363E-10         0.00000E+00
    0.57389E-09         0.23369E-10         0.00000E+00
    0.57368E-09         0.25285E-10         0.00000E+00
    0.57345E-09         0.27109E-10         0.00000E+00
    0.57320E-09         0.28835E-10         0.00000E+00
    0.57295E-09         0.30460E-10         0.00000E+00
    0.57269E-09         0.31981E-10         0.00000E+00
    0.57241E-09         0.33394E-10         0.00000E+00
    0.57213E-09         0.34695E-10         0.00000E+00
    0.57185E-09         0.35883E-10         0.00000E+00
    0.57155E-09         0.36952E-10         0.00000E+00
    0.57125E-09         0.37902E-10         0.00000E+00
    0.57095E-09         0.38728E-10         0.00000E+00
    0.57065E-09         0.39427E-10         0.00000E+00
    0.57034E-09         0.39998E-10         0.00000E+00
    0.57003E-09         0.40438E-10         0.00000E+00
    0.56972E-09         0.40744E-10         0.00000E+00
    0.56941E-09         0.40914E-10         0.00000E+00
    0.56910E-09         0.40945E-10         0.00000E+00
    0.56879E-09         0.40836E-10         0.00000E+00
    0.56849E-09         0.40585E-10         0.00000E+00
    0.56819E-09         0.40190E-10         0.00000E+00
    0.56789E-09         0.39648E-10         0.00000E+00
    0.56760E-09         0.38959E-10         0.00000E+00
    0.56732E-09         0.38121E-10         0.00000E+00
    0.56704E-09         0.37132E-10         0.00000E+00
    0.56678E-09         0.35991E-10         0.00000E+00
    0.56652E-09         0.34696E-10         0.00000E+00
    0.56627E-09         0.33247E-10         0.00000E+00
    0.56604E-09         0.31642E-10         0.00000E+00
    0.56582E-09         0.29881E-10         0.00000E+00
    0.56561E-09         0.27962E-10         0.00000E+00
    0.56542E-09         0.25885E-10         0.00000E+00
    0.56524E-09         0.23649E-10         0.00000E+00
    0.56508E-09         0.21253E-10         0.00000E+00
    0.56493E-09         0.18698E-10         0.00000E+00
    0.56481E-09         0.15982E-10         0.00000E+00
    0.56470E-09         0.13105E-10         0.00000E+00
    0.56462E-09         0.10067E-10         0.00000E+00
    0.56456E-09         0.68680E-11         0.00000E+00
    0.56452E-09         0.35079E-11         0.00000E+00
    0.56451E-09         0.17875E-11         0.00000E+00
    0.60184E-09         0.13905E-11         0.00000E+00
    0.60182E-09         0.27619E-11         0.00000E+00
    0.60177E-09         0.54745E-11         0.00000E+00
    0.60169E-09         0.81244E-11         0.00000E+00
    0.60158E-09         0.10707E-10         0.00000E+00
    0.60144E-09         0.13218E-10         0.00000E+00
    0.60127E-09         0.15653E-10         0.00000E+00
    0.60109E-09         0.18008E-10         0.00000E+00
    0.60088E-09         0.20279E-10         0.00000E+00
    0.60064E-09         0.22462E-10         0.00000E+00
    0.60039E-09         0.24552E-10         0.00000E+00
    0.60012E-09         0.26547E-10         0.00000E+00
    0.59983E-09         0.28442E-10         0.00000E+00
    0.59953E-09         0.30233E-10         0.00000E+00
    0.59922E-09         0.31918E-10         0.00000E+00
    0.59889E-09         0.33493E-10         0.00000E+00
    0.59855E-09         0.34954E-10         0.00000E+00
    0.59820E-09         0.36298E-10         0.00000E+00
    0.59784E-09         0.37522E-10         0.00000E+00
    0.59747E-09         0.38624E-10         0.00000E+00
    0.59710E-09         0.39599E-10         0.00000E+00
    0.59672E-09         0.40446E-10         0.00000E+00
    0.59634E-09         0.41161E-10         0.00000E+00
    0.59595E-09         0.41743E-10         0.00000E+00
    0.59557E-09         0.42188E-10         0.00000E+00
    0.59518E-09         0.42494E-10         0.00000E+00
    0.59479E-09         0.42659E-10         0.00000E+00
    0.59441E-09         0.42680E-10         0.00000E+00
    0.59402E-09         0.42556E-10         0.00000E+00
    0.59364E-09         0.42285E-10         0.00000E+00
    0.59327E-09         0.41864E-10         0.00000E+00
    0.59290E-09         0.41291E-10         0.00000E+00
    0.59254E-09         0.40566E-10         0.00000E+00
    0.59219E-09         0.39687E-10         0.00000E+00
    0.59185E-09         0.38651E-10         0.00000E+00
    0.59152E-09         0.37457E-10         0.00000E+00
    0.59121E-09         0.36105E-10         0.00000E+00
    0.59090E-09         0.34593E-10         0.00000E+00
    0.59061E-09         0.32920E-10         0.00000E+00
    0.59034E-09         0.31084E-10         0.00000E+00
    0.59008E-09         0.29086E-10         0.00000E+00
    0.58984E-09         0.26923E-10         0.00000E+00
    0.58962E-09         0.24596E-10         0.00000E+00
    0.58943E-09         0.22103E-10         0.00000E+00
    0.58925E-09         0.19444E-10         0.00000E+00
    0.58910E-09         0.16619E-10         0.00000E+00
    0.58897E-09         0.13627E-10         0.00000E+00
    0.58887E-09         0.10468E-10         0.00000E+00
    0.58879E-09         0.71412E-11         0.00000E+00
    0.58875E-09         0.36474E-11         0.00000E+00
    0.58873E-09         0.18586E-11         0.00000E+00
    0.63232E-09         0.14838E-11         0.00000E+00
    0.63230E-09         0.29451E-11         0.00000E+00
    0.63224E-09         0.58325E-11         0.00000E+00
    0.63215E-09         0.86472E-11         0.00000E+00
    0.63202E-09         0.11385E-10         0.00000E+00
    0.63186E-09         0.14042E-10         0.00000E+00
    0.63167E-09         0.16615E-10         0.00000E+00
    0.63144E-09         0.19098E-10         0.00000E+00
    0.63120E-09         0.21489E-10         0.00000E+00
    0.63092E-09         0.23783E-10         0.00000E+00
    0.63063E-09         0.25978E-10         0.00000E+00
    0.63031E-09         0.28068E-10         0.00000E+00
    0.62997E-09         0.30052E-10         0.00000E+00
    0.62962E-09         0.31924E-10         0.00000E+00
    0.62924E-09         0.33682E-10         0.00000E+00
    0.62885E-09         0.35324E-10         0.00000E+00
    0.62845E-09         0.36844E-10         0.00000E+00
    0.62804E-09         0.38241E-10         0.00000E+00
    0.62761E-09         0.39511E-10         0.00000E+00
    0.62718E-09         0.40651E-10         0.00000E+00
    0.62674E-09         0.41659E-10         0.00000E+00
    0.62629E-09         0.42532E-10         0.00000E+00
    0.62583E-09         0.43266E-10         0.00000E+00
    0.62538E-09         0.43861E-10         0.00000E+00
    0.62492E-09         0.44312E-10         0.00000E+00
    0.62446E-09         0.44618E-10         0.00000E+00
    0.62400E-09         0.44776E-10         0.00000E+00
    0.62354E-09         0.44785E-10         0.00000E+00
    0.62309E-09         0.44642E-10         0.00000E+00
    0.62264E-09         0.44345E-10         0.00000E+00
    0.62219E-09         0.43892E-10         0.00000E+00
    0.62176E-09         0.43281E-10         0.00000E+00
    0.62133E-09         0.42511E-10         0.00000E+00
    0.62092E-09         0.41580E-10         0.00000E+00
    0.62051E-09         0.40486E-10         0.00000E+00
    0.62012E-09         0.39229E-10         0.00000E+00
    0.61975E-09         0.37806E-10         0.00000E+00
    0.61939E-09         0.36217E-10         0.00000E+00
    0.61904E-09         0.34459E-10         0.00000E+00
    0.61872E-09         0.32533E-10         0.00000E+00
    0.61842E-09         0.30437E-10         0.00000E+00
    0.61814E-09         0.28170E-10         0.00000E+00
    0.61788E-09         0.25732E-10         0.00000E+00
    0.61765E-09         0.23122E-10         0.00000E+00
    0.61744E-09         0.20338E-10         0.00000E+00
    0.61726E-09         0.17381E-10         0.00000E+00
    0.61711E-09         0.14251E-10         0.00000E+00
    0.61699E-09         0.10946E-10         0.00000E+00
    0.61690E-09         0.74671E-11         0.00000E+00
    0.61685E-09         0.38136E-11         0.00000E+00
    0.61683E-09         0.19432E-11         0.00000E+00
    0.66645E-09         0.15899E-11         0.00000E+00
    0.66643E-09         0.31537E-11         0.00000E+00
    0.66636E-09         0.62408E-11         0.00000E+00
    0.66625E-09         0.92446E-11         0.00000E+00
    0.66611E-09         0.12161E-10         0.00000E+00
    0.66593E-09         0.14987E-10         0.00000E+00
    0.66571E-09         0.17718E-10         0.00000E+00
    0.66546E-09         0.20351E-10         0.00000E+00
    0.66518E-09         0.22882E-10         0.00000E+00
    0.66487E-09         0.25307E-10         0.00000E+00
    0.66453E-09         0.27623E-10         0.00000E+00
    0.66417E-09         0.29826E-10         0.00000E+00
    0.66379E-09         0.31913E-10         0.00000E+00
    0.66338E-09         0.33881E-10         0.00000E+00
    0.66295E-09         0.35727E-10         0.00000E+00
    0.66251E-09         0.37447E-10         0.00000E+00
    0.66205E-09         0.39038E-10         0.00000E+00
    0.66158E-09         0.40497E-10         0.00000E+00
    0.66109E-09         0.41821E-10         0.00000E+00
    0.66059E-09         0.43008E-10         0.00000E+00
    0.66009E-09         0.44055E-10         0.00000E+00
    0.65957E-09         0.44959E-10         0.00000E+00
    0.65905E-09         0.45717E-10         0.00000E+00
    0.65853E-09         0.46326E-10         0.00000E+00
    0.65800E-09         0.46786E-10         0.00000E+00
    0.65747E-09         0.47092E-10         0.00000E+00
    0.65695E-09         0.47243E-10         0.00000E+00
    0.65642E-09         0.47237E-10         0.00000E+00
    0.65590E-09         0.47071E-10         0.00000E+00
    0.65538E-09         0.46744E-10         0.00000E+00
    0.65488E-09         0.46254E-10         0.00000E+00
    0.65438E-09         0.45598E-10         0.00000E+00
    0.65389E-09         0.44775E-10         0.00000E+00
    0.65341E-09         0.43784E-10         0.00000E+00
    0.65295E-09         0.42623E-10         0.00000E+00
    0.65250E-09         0.41290E-10         0.00000E+00
    0.65207E-09         0.39784E-10         0.00000E+00
    0.65165E-09         0.38104E-10         0.00000E+00
    0.65126E-09         0.36248E-10         0.00000E+00
    0.65089E-09         0.34216E-10         0.00000E+00
    0.65054E-09         0.32006E-10         0.00000E+00
    0.65022E-09         0.29618E-10         0.00000E+00
    0.64993E-09         0.27050E-10         0.00000E+00
    0.64966E-09         0.24302E-10         0.00000E+00
    0.64942E-09         0.21374E-10         0.00000E+00
    0.64922E-09         0.18264E-10         0.00000E+00
    0.64905E-09         0.14973E-10         0.00000E+00
    0.64891E-09         0.11499E-10         0.00000E+00
    0.64881E-09         0.78437E-11         0.00000E+00
    0.64875E-09         0.40055E-11         0.00000E+00
    0.64873E-09         0.20408E-11         0.00000E+00
    0.70419E-09         0.17075E-11         0.00000E+00
    0.70417E-09         0.33851E-11         0.00000E+00
    0.70409E-09         0.66941E-11         0.00000E+00
    0.70398E-09         0.99088E-11         0.00000E+00
    0.70382E-09         0.13026E-10         0.00000E+00
    0.70361E-09         0.16041E-10         0.00000E+00
    0.70337E-09         0.18951E-10         0.00000E+00
    0.70310E-09         0.21752E-10         0.00000E+00
    0.70279E-09         0.24441E-10         0.00000E+00
    0.70244E-09         0.27014E-10         0.00000E+00
    0.70207E-09         0.29468E-10         0.00000E+00
    0.70167E-09         0.31800E-10         0.00000E+00
    0.70124E-09         0.34006E-10         0.00000E+00
    0.70079E-09         0.36083E-10         0.00000E+00
    0.70032E-09         0.38029E-10         0.00000E+00
    0.69982E-09         0.39839E-10         0.00000E+00
    0.69931E-09         0.41512E-10         0.00000E+00
    0.69878E-09         0.43043E-10         0.00000E+00
    0.69824E-09         0.44431E-10         0.00000E+00
    0.69768E-09         0.45672E-10         0.00000E+00
    0.69711E-09         0.46763E-10         0.00000E+00
    0.69654E-09         0.47703E-10         0.00000E+00
    0.69596E-09         0.48489E-10         0.00000E+00
    0.69537E-09         0.49117E-10         0.00000E+00
    0.69478E-09         0.49586E-10         0.00000E+00
    0.69419E-09         0.49894E-10         0.00000E+00
    0.69360E-09         0.50037E-10         0.00000E+00
    0.69301E-09         0.50015E-10         0.00000E+00
    0.69242E-09         0.49824E-10         0.00000E+00
    0.69185E-09         0.49463E-10         0.00000E+00
    0.69128E-09         0.48931E-10         0.00000E+00
    0.69072E-09         0.48224E-10         0.00000E+00
    0.69017E-09         0.47342E-10         0.00000E+00
    0.68963E-09         0.46282E-10         0.00000E+00
    0.68911E-09         0.45044E-10         0.00000E+00
    0.68861E-09         0.43626E-10         0.00000E+00
    0.68812E-09         0.42025E-10         0.00000E+00
    0.68766E-09         0.40242E-10         0.00000E+00
    0.68722E-09         0.38275E-10         0.00000E+00
    0.68681E-09         0.36122E-10         0.00000E+00
    0.68642E-09         0.33783E-10         0.00000E+00
    0.68606E-09         0.31256E-10         0.00000E+00
    0.68572E-09         0.28542E-10         0.00000E+00
    0.68543E-09         0.25638E-10         0.00000E+00
    0.68516E-09         0.22545E-10         0.00000E+00
    0.68493E-09         0.19262E-10         0.00000E+00
    0.68474E-09         0.15789E-10         0.00000E+00
    0.68459E-09         0.12125E-10         0.00000E+00
    0.68447E-09         0.82691E-11         0.00000E+00
    0.68441E-09         0.42222E-11         0.00000E+00
    0.68438E-09         0.21510E-11         0.00000E+00
    0.74556E-09         0.18354E-11         0.00000E+00
    0.74553E-09         0.36371E-11         0.00000E+00
    0.74546E-09         0.71884E-11         0.00000E+00
    0.74533E-09         0.10634E-10         0.00000E+00
    0.74515E-09         0.13970E-10         0.00000E+00
    0.74494E-09         0.17193E-10         0.00000E+00
    0.74467E-09         0.20301E-10         0.00000E+00
    0.74437E-09         0.23288E-10         0.00000E+00
    0.74404E-09         0.26152E-10         0.00000E+00
    0.74366E-09         0.28890E-10         0.00000E+00
    0.74325E-09         0.31498E-10         0.00000E+00
    0.74281E-09         0.33973E-10         0.00000E+00
    0.74235E-09         0.36312E-10         0.00000E+00
    0.74185E-09         0.38512E-10         0.00000E+00
    0.74133E-09         0.40569E-10         0.00000E+00
    0.74079E-09         0.42481E-10         0.00000E+00
    0.74023E-09         0.44246E-10         0.00000E+00
    0.73965E-09         0.45859E-10         0.00000E+00
    0.73905E-09         0.47318E-10         0.00000E+00
    0.73844E-09         0.48620E-10         0.00000E+00
    0.73782E-09         0.49764E-10         0.00000E+00
    0.73719E-09         0.50745E-10         0.00000E+00
    0.73655E-09         0.51563E-10         0.00000E+00
    0.73590E-09         0.52213E-10         0.00000E+00
    0.73525E-09         0.52694E-10         0.00000E+00
    0.73460E-09         0.53004E-10         0.00000E+00
    0.73395E-09         0.53140E-10         0.00000E+00
    0.73330E-09         0.53101E-10         0.00000E+00
    0.73265E-09         0.52883E-10         0.00000E+00
    0.73202E-09         0.52486E-10         0.00000E+00
    0.73139E-09         0.51906E-10         0.00000E+00
    0.73077E-09         0.51144E-10         0.00000E+00
    0.73016E-09         0.50195E-10         0.00000E+00
    0.72957E-09         0.49060E-10         0.00000E+00
    0.72900E-09         0.47737E-10         0.00000E+00
    0.72844E-09         0.46223E-10         0.00000E+00
    0.72791E-09         0.44518E-10         0.00000E+00
    0.72740E-09         0.42620E-10         0.00000E+00
    0.72691E-09         0.40528E-10         0.00000E+00
    0.72645E-09         0.38241E-10         0.00000E+00
    0.72602E-09         0.35758E-10         0.00000E+00
    0.72562E-09         0.33078E-10         0.00000E+00
    0.72526E-09         0.30200E-10         0.00000E+00
    0.72493E-09         0.27123E-10         0.00000E+00
    0.72464E-09         0.23847E-10         0.00000E+00
    0.72438E-09         0.20372E-10         0.00000E+00
    0.72417E-09         0.16696E-10         0.00000E+00
    0.72400E-09         0.12819E-10         0.00000E+00
    0.72388E-09         0.87414E-11         0.00000E+00
    0.72380E-09         0.44629E-11         0.00000E+00
    0.72378E-09         0.22733E-11         0.00000E+00
    0.79061E-09         0.19729E-11         0.00000E+00
    0.79058E-09         0.39081E-11         0.00000E+00
    0.79049E-09         0.77206E-11         0.00000E+00
    0.79036E-09         0.11415E-10         0.00000E+00
    0.79017E-09         0.14989E-10         0.00000E+00
    0.78994E-09         0.18438E-10         0.00000E+00
    0.78966E-09         0.21760E-10         0.00000E+00
    0.78933E-09         0.24950E-10         0.00000E+00
    0.78897E-09         0.28005E-10         0.00000E+00
    0.78856E-09         0.30923E-10         0.00000E+00
    0.78812E-09         0.33700E-10         0.00000E+00
    0.78765E-09         0.36332E-10         0.00000E+00
    0.78714E-09         0.38817E-10         0.00000E+00
    0.78661E-09         0.41152E-10         0.00000E+00
    0.78605E-09         0.43334E-10         0.00000E+00
    0.78546E-09         0.45359E-10         0.00000E+00
    0.78485E-09         0.47224E-10         0.00000E+00
    0.78422E-09         0.48928E-10         0.00000E+00
    0.78358E-09         0.50467E-10         0.00000E+00
    0.78291E-09         0.51839E-10         0.00000E+00
    0.78224E-09         0.53040E-10         0.00000E+00
    0.78155E-09         0.54069E-10         0.00000E+00
    0.78085E-09         0.54922E-10         0.00000E+00
    0.78015E-09         0.55598E-10         0.00000E+00
    0.77944E-09         0.56094E-10         0.00000E+00
    0.77873E-09         0.56408E-10         0.00000E+00
    0.77802E-09         0.56537E-10         0.00000E+00
    0.77732E-09         0.56479E-10         0.00000E+00
    0.77662E-09         0.56233E-10         0.00000E+00
    0.77592E-09         0.55797E-10         0.00000E+00
    0.77524E-09         0.55167E-10         0.00000E+00
    0.77456E-09         0.54344E-10         0.00000E+00
    0.77390E-09         0.53324E-10         0.00000E+00
    0.77326E-09         0.52106E-10         0.00000E+00
    0.77263E-09         0.50689E-10         0.00000E+00
    0.77203E-09         0.49072E-10         0.00000E+00
    0.77144E-09         0.47252E-10         0.00000E+00
    0.77089E-09         0.45228E-10         0.00000E+00
    0.77036E-09         0.43000E-10         0.00000E+00
    0.76985E-09         0.40566E-10         0.00000E+00
    0.76939E-09         0.37925E-10         0.00000E+00
    0.76895E-09         0.35077E-10         0.00000E+00
    0.76855E-09         0.32019E-10         0.00000E+00
    0.76819E-09         0.28753E-10         0.00000E+00
    0.76787E-09         0.25276E-10         0.00000E+00
    0.76759E-09         0.21589E-10         0.00000E+00
    0.76736E-09         0.17690E-10         0.00000E+00
    0.76718E-09         0.13581E-10         0.00000E+00
    0.76705E-09         0.92595E-11         0.00000E+00
    0.76696E-09         0.47268E-11         0.00000E+00
    0.76694E-09         0.24075E-11         0.00000E+00
    0.83941E-09         0.21195E-11         0.00000E+00
    0.83938E-09         0.41972E-11         0.00000E+00
    0.83929E-09         0.82887E-11         0.00000E+00
    0.83914E-09         0.12250E-10         0.00000E+00
    0.83895E-09         0.16079E-10         0.00000E+00
    0.83869E-09         0.19771E-10         0.00000E+00
    0.83840E-09         0.23323E-10         0.00000E+00
    0.83805E-09         0.26732E-10         0.00000E+00
    0.83766E-09         0.29994E-10         0.00000E+00
    0.83723E-09         0.33106E-10         0.00000E+00
    0.83676E-09         0.36066E-10         0.00000E+00
    0.83625E-09         0.38869E-10         0.00000E+00
    0.83571E-09         0.41513E-10         0.00000E+00
    0.83513E-09         0.43995E-10         0.00000E+00
    0.83453E-09         0.46312E-10         0.00000E+00
    0.83390E-09         0.48460E-10         0.00000E+00
    0.83325E-09         0.50437E-10         0.00000E+00
    0.83257E-09         0.52241E-10         0.00000E+00
    0.83187E-09         0.53868E-10         0.00000E+00
    0.83116E-09         0.55316E-10         0.00000E+00
    0.83043E-09         0.56581E-10         0.00000E+00
    0.82969E-09         0.57662E-10         0.00000E+00
    0.82894E-09         0.58557E-10         0.00000E+00
    0.82819E-09         0.59262E-10         0.00000E+00
    0.82742E-09         0.59775E-10         0.00000E+00
    0.82666E-09         0.60094E-10         0.00000E+00
    0.82589E-09         0.60217E-10         0.00000E+00
    0.82513E-09         0.60141E-10         0.00000E+00
    0.82437E-09         0.59865E-10         0.00000E+00
    0.82362E-09         0.59387E-10         0.00000E+00
    0.82288E-09         0.58704E-10         0.00000E+00
    0.82216E-09         0.57815E-10         0.00000E+00
    0.82144E-09         0.56718E-10         0.00000E+00
    0.82075E-09         0.55412E-10         0.00000E+00
    0.82007E-09         0.53894E-10         0.00000E+00
    0.81941E-09         0.52164E-10         0.00000E+00
    0.81878E-09         0.50220E-10         0.00000E+00
    0.81818E-09         0.48061E-10         0.00000E+00
    0.81761E-09         0.45685E-10         0.00000E+00
    0.81706E-09         0.43092E-10         0.00000E+00
    0.81656E-09         0.40280E-10         0.00000E+00
    0.81609E-09         0.37248E-10         0.00000E+00
    0.81565E-09         0.33996E-10         0.00000E+00
    0.81526E-09         0.30523E-10         0.00000E+00
    0.81492E-09         0.26828E-10         0.00000E+00
    0.81462E-09         0.22911E-10         0.00000E+00
    0.81437E-09         0.18771E-10         0.00000E+00
    0.81417E-09         0.14408E-10         0.00000E+00
    0.81402E-09         0.98225E-11         0.00000E+00
    0.81394E-09         0.50135E-11         0.00000E+00
    0.81391E-09         0.25532E-11         0.00000E+00
    0.89208E-09         0.22749E-11         0.00000E+00
    0.89205E-09         0.45038E-11         0.00000E+00
    0.89196E-09         0.88915E-11         0.00000E+00
    0.89180E-09         0.13137E-10         0.00000E+00
    0.89159E-09         0.17237E-10         0.00000E+00
    0.89132E-09         0.21188E-10         0.00000E+00
    0.89101E-09         0.24987E-10         0.00000E+00
    0.89064E-09         0.28630E-10         0.00000E+00
    0.89022E-09         0.32113E-10         0.00000E+00
    0.88977E-09         0.35435E-10         0.00000E+00
    0.88926E-09         0.38591E-10         0.00000E+00
    0.88872E-09         0.41578E-10         0.00000E+00
    0.88815E-09         0.44394E-10         0.00000E+00
    0.88754E-09         0.47034E-10         0.00000E+00
    0.88689E-09         0.49497E-10         0.00000E+00
    0.88622E-09         0.51779E-10         0.00000E+00
    0.88552E-09         0.53878E-10         0.00000E+00
    0.88480E-09         0.55790E-10         0.00000E+00
    0.88405E-09         0.57513E-10         0.00000E+00
    0.88329E-09         0.59044E-10         0.00000E+00
    0.88251E-09         0.60380E-10         0.00000E+00
    0.88172E-09         0.61519E-10         0.00000E+00
    0.88092E-09         0.62459E-10         0.00000E+00
    0.88011E-09         0.63197E-10         0.00000E+00
    0.87929E-09         0.63730E-10         0.00000E+00
    0.87847E-09         0.64056E-10         0.00000E+00
    0.87765E-09         0.64173E-10         0.00000E+00
    0.87683E-09         0.64079E-10         0.00000E+00
    0.87602E-09         0.63772E-10         0.00000E+00
    0.87522E-09         0.63250E-10         0.00000E+00
    0.87442E-09         0.62511E-10         0.00000E+00
    0.87364E-09         0.61553E-10         0.00000E+00
    0.87287E-09         0.60374E-10         0.00000E+00
    0.87213E-09         0.58973E-10         0.00000E+00
    0.87140E-09         0.57348E-10         0.00000E+00
    0.87069E-09         0.55497E-10         0.00000E+00
    0.87002E-09         0.53420E-10         0.00000E+00
    0.86937E-09         0.51114E-10         0.00000E+00
    0.86875E-09         0.48580E-10         0.00000E+00
    0.86817E-09         0.45815E-10         0.00000E+00
    0.86762E-09         0.42818E-10         0.00000E+00
    0.86712E-09         0.39590E-10         0.00000E+00
    0.86665E-09         0.36128E-10         0.00000E+00
    0.86623E-09         0.32432E-10         0.00000E+00
    0.86586E-09         0.28502E-10         0.00000E+00
    0.86554E-09         0.24337E-10         0.00000E+00
    0.86527E-09         0.19937E-10         0.00000E+00
    0.86506E-09         0.15301E-10         0.00000E+00
    0.86490E-09         0.10430E-10         0.00000E+00
    0.86480E-09         0.53229E-11         0.00000E+00
    0.86477E-09         0.27105E-11         0.00000E+00
    0.94877E-09         0.24390E-11         0.00000E+00
    0.94873E-09         0.48278E-11         0.00000E+00
    0.94863E-09         0.95289E-11         0.00000E+00
    0.94847E-09         0.14075E-10         0.00000E+00
    0.94825E-09         0.18463E-10         0.00000E+00
    0.94797E-09         0.22689E-10         0.00000E+00
    0.94763E-09         0.26750E-10         0.00000E+00
    0.94724E-09         0.30642E-10         0.00000E+00
    0.94680E-09         0.34362E-10         0.00000E+00
    0.94632E-09         0.37907E-10         0.00000E+00
    0.94578E-09         0.41273E-10         0.00000E+00
    0.94521E-09         0.44458E-10         0.00000E+00
    0.94460E-09         0.47457E-10         0.00000E+00
    0.94395E-09         0.50268E-10         0.00000E+00
    0.94326E-09         0.52889E-10         0.00000E+00
    0.94255E-09         0.55315E-10         0.00000E+00
    0.94181E-09         0.57544E-10         0.00000E+00
    0.94104E-09         0.59573E-10         0.00000E+00
    0.94025E-09         0.61400E-10         0.00000E+00
    0.93944E-09         0.63021E-10         0.00000E+00
    0.93861E-09         0.64435E-10         0.00000E+00
    0.93776E-09         0.65637E-10         0.00000E+00
    0.93691E-09         0.66627E-10         0.00000E+00
    0.93604E-09         0.67401E-10         0.00000E+00
    0.93517E-09         0.67956E-10         0.00000E+00
    0.93430E-09         0.68292E-10         0.00000E+00
    0.93342E-09         0.68404E-10         0.00000E+00
    0.93255E-09         0.68292E-10         0.00000E+00
    0.93168E-09         0.67953E-10         0.00000E+00
    0.93082E-09         0.67385E-10         0.00000E+00
    0.92997E-09         0.66586E-10         0.00000E+00
    0.92914E-09         0.65555E-10         0.00000E+00
    0.92832E-09         0.64289E-10         0.00000E+00
    0.92752E-09         0.62787E-10         0.00000E+00
    0.92674E-09         0.61047E-10         0.00000E+00
    0.92599E-09         0.59069E-10         0.00000E+00
    0.92526E-09         0.56849E-10         0.00000E+00
    0.92457E-09         0.54388E-10         0.00000E+00
    0.92391E-09         0.51683E-10         0.00000E+00
    0.92329E-09         0.48735E-10         0.00000E+00
    0.92270E-09         0.45541E-10         0.00000E+00
    0.92216E-09         0.42101E-10         0.00000E+00
    0.92166E-09         0.38415E-10         0.00000E+00
    0.92121E-09         0.34481E-10         0.00000E+00
    0.92082E-09         0.30298E-10         0.00000E+00
    0.92047E-09         0.25868E-10         0.00000E+00
    0.92018E-09         0.21188E-10         0.00000E+00
    0.91995E-09         0.16259E-10         0.00000E+00
    0.91979E-09         0.11082E-10         0.00000E+00
    0.91968E-09         0.56550E-11         0.00000E+00
    0.91965E-09         0.28793E-11         0.00000E+00
    0.10096E-08         0.26119E-11         0.00000E+00
    0.10096E-08         0.51693E-11         0.00000E+00
    0.10095E-08         0.10201E-10         0.00000E+00
    0.10093E-08         0.15065E-10         0.00000E+00
    0.10091E-08         0.19758E-10         0.00000E+00
    0.10088E-08         0.24275E-10         0.00000E+00
    0.10084E-08         0.28614E-10         0.00000E+00
    0.10080E-08         0.32771E-10         0.00000E+00
    0.10076E-08         0.36742E-10         0.00000E+00
    0.10070E-08         0.40524E-10         0.00000E+00
    0.10065E-08         0.44114E-10         0.00000E+00
    0.10059E-08         0.47509E-10         0.00000E+00
    0.10052E-08         0.50704E-10         0.00000E+00
    0.10045E-08         0.53698E-10         0.00000E+00
    0.10038E-08         0.56487E-10         0.00000E+00
    0.10031E-08         0.59067E-10         0.00000E+00
    0.10023E-08         0.61437E-10         0.00000E+00
    0.10015E-08         0.63592E-10         0.00000E+00
    0.10006E-08         0.65531E-10         0.00000E+00
    0.99975E-09         0.67250E-10         0.00000E+00
    0.99887E-09         0.68746E-10         0.00000E+00
    0.99798E-09         0.70018E-10         0.00000E+00
    0.99707E-09         0.71062E-10         0.00000E+00
    0.99615E-09         0.71875E-10         0.00000E+00
    0.99522E-09         0.72456E-10         0.00000E+00
    0.99429E-09         0.72803E-10         0.00000E+00
    0.99336E-09         0.72912E-10         0.00000E+00
    0.99243E-09         0.72781E-10         0.00000E+00
    0.99151E-09         0.72409E-10         0.00000E+00
    0.99059E-09         0.71793E-10         0.00000E+00
    0.98969E-09         0.70932E-10         0.00000E+00
    0.98880E-09         0.69824E-10         0.00000E+00
    0.98793E-09         0.68466E-10         0.00000E+00
    0.98708E-09         0.66857E-10         0.00000E+00
    0.98625E-09         0.64996E-10         0.00000E+00
    0.98545E-09         0.62881E-10         0.00000E+00
    0.98467E-09         0.60510E-10         0.00000E+00
    0.98393E-09         0.57883E-10         0.00000E+00
    0.98323E-09         0.54998E-10         0.00000E+00
    0.98257E-09         0.51854E-10         0.00000E+00
    0.98194E-09         0.48450E-10         0.00000E+00
    0.98136E-09         0.44785E-10         0.00000E+00
    0.98083E-09         0.40858E-10         0.00000E+00
    0.98035E-09         0.36670E-10         0.00000E+00
    0.97993E-09         0.32218E-10         0.00000E+00
    0.97956E-09         0.27504E-10         0.00000E+00
    0.97925E-09         0.22525E-10         0.00000E+00
    0.97901E-09         0.17284E-10         0.00000E+00
    0.97883E-09         0.11779E-10         0.00000E+00
    0.97872E-09         0.60100E-11         0.00000E+00
    0.97868E-09         0.30598E-11         0.00000E+00
    0.10749E-08         0.27939E-11         0.00000E+00
    0.10748E-08         0.55290E-11         0.00000E+00
    0.10747E-08         0.10910E-10         0.00000E+00
    0.10746E-08         0.16109E-10         0.00000E+00
    0.10743E-08         0.21123E-10         0.00000E+00
    0.10740E-08         0.25948E-10         0.00000E+00
    0.10736E-08         0.30581E-10         0.00000E+00
    0.10732E-08         0.35018E-10         0.00000E+00
    0.10727E-08         0.39256E-10         0.00000E+00
    0.10722E-08         0.43290E-10         0.00000E+00
    0.10716E-08         0.47118E-10         0.00000E+00
    0.10709E-08         0.50735E-10         0.00000E+00
    0.10702E-08         0.54140E-10         0.00000E+00
    0.10695E-08         0.57328E-10         0.00000E+00
    0.10687E-08         0.60296E-10         0.00000E+00
    0.10679E-08         0.63041E-10         0.00000E+00
    0.10671E-08         0.65561E-10         0.00000E+00
    0.10662E-08         0.67851E-10         0.00000E+00
    0.10653E-08         0.69910E-10         0.00000E+00
    0.10644E-08         0.71734E-10         0.00000E+00
    0.10635E-08         0.73320E-10         0.00000E+00
    0.10626E-08         0.74666E-10         0.00000E+00
    0.10616E-08         0.75769E-10         0.00000E+00
    0.10606E-08         0.76626E-10         0.00000E+00
    0.10596E-08         0.77235E-10         0.00000E+00
    0.10586E-08         0.77594E-10         0.00000E+00
    0.10577E-08         0.77701E-10         0.00000E+00
    0.10567E-08         0.77552E-10         0.00000E+00
    0.10557E-08         0.77146E-10         0.00000E+00
    0.10547E-08         0.76480E-10         0.00000E+00
    0.10538E-08         0.75554E-10         0.00000E+00
    0.10528E-08         0.74364E-10         0.00000E+00
    0.10519E-08         0.72909E-10         0.00000E+00
    0.10510E-08         0.71188E-10         0.00000E+00
    0.10501E-08         0.69198E-10         0.00000E+00
    0.10492E-08         0.66938E-10         0.00000E+00
    0.10484E-08         0.64408E-10         0.00000E+00
    0.10476E-08         0.61604E-10         0.00000E+00
    0.10469E-08         0.58527E-10         0.00000E+00
    0.10462E-08         0.55175E-10         0.00000E+00
    0.10455E-08         0.51548E-10         0.00000E+00
    0.10449E-08         0.47643E-10         0.00000E+00
    0.10443E-08         0.43462E-10         0.00000E+00
    0.10438E-08         0.39002E-10         0.00000E+00
    0.10434E-08         0.34264E-10         0.00000E+00
    0.10430E-08         0.29247E-10         0.00000E+00
    0.10427E-08         0.23951E-10         0.00000E+00
    0.10424E-08         0.18376E-10         0.00000E+00
    0.10422E-08         0.12522E-10         0.00000E+00
    0.10421E-08         0.63885E-11         0.00000E+00
    0.10421E-08         0.32522E-11         0.00000E+00
    0.11447E-08         0.29855E-11         0.00000E+00
    0.11447E-08         0.59076E-11         0.00000E+00
    0.11446E-08         0.11655E-10         0.00000E+00
    0.11444E-08         0.17208E-10         0.00000E+00
    0.11441E-08         0.22562E-10         0.00000E+00
    0.11438E-08         0.27712E-10         0.00000E+00
    0.11434E-08         0.32656E-10         0.00000E+00
    0.11429E-08         0.37389E-10         0.00000E+00
    0.11424E-08         0.41908E-10         0.00000E+00
    0.11419E-08         0.46210E-10         0.00000E+00
    0.11412E-08         0.50289E-10         0.00000E+00
    0.11405E-08         0.54144E-10         0.00000E+00
    0.11398E-08         0.57770E-10         0.00000E+00
    0.11391E-08         0.61165E-10         0.00000E+00
    0.11382E-08         0.64324E-10         0.00000E+00
    0.11374E-08         0.67245E-10         0.00000E+00
    0.11365E-08         0.69924E-10         0.00000E+00
    0.11356E-08         0.72358E-10         0.00000E+00
    0.11347E-08         0.74545E-10         0.00000E+00
    0.11337E-08         0.76481E-10         0.00000E+00
    0.11327E-08         0.78164E-10         0.00000E+00
    0.11317E-08         0.79589E-10         0.00000E+00
    0.11307E-08         0.80756E-10         0.00000E+00
    0.11296E-08         0.81661E-10         0.00000E+00
    0.11286E-08         0.82302E-10         0.00000E+00
    0.11276E-08         0.82675E-10         0.00000E+00
    0.11265E-08         0.82780E-10         0.00000E+00
    0.11255E-08         0.82612E-10         0.00000E+00
    0.11244E-08         0.82171E-10         0.00000E+00
    0.11234E-08         0.81454E-10         0.00000E+00
    0.11224E-08         0.80459E-10         0.00000E+00
    0.11214E-08         0.79184E-10         0.00000E+00
    0.11204E-08         0.77627E-10         0.00000E+00
    0.11194E-08         0.75787E-10         0.00000E+00
    0.11185E-08         0.73661E-10         0.00000E+00
    0.11176E-08         0.71249E-10         0.00000E+00
    0.11167E-08         0.68548E-10         0.00000E+00
    0.11159E-08         0.65558E-10         0.00000E+00
    0.11151E-08         0.62278E-10         0.00000E+00
    0.11143E-08         0.58706E-10         0.00000E+00
    0.11136E-08         0.54841E-10         0.00000E+00
    0.11130E-08         0.50682E-10         0.00000E+00
    0.11124E-08         0.46230E-10         0.00000E+00
    0.11118E-08         0.41482E-10         0.00000E+00
    0.11114E-08         0.36439E-10         0.00000E+00
    0.11109E-08         0.31101E-10         0.00000E+00
    0.11106E-08         0.25467E-10         0.00000E+00
    0.11103E-08         0.19537E-10         0.00000E+00
    0.11101E-08         0.13312E-10         0.00000E+00
    0.11100E-08         0.67912E-11         0.00000E+00
    0.11100E-08         0.34570E-11         0.00000E+00
    0.12194E-08         0.31871E-11         0.00000E+00
    0.12194E-08         0.63062E-11         0.00000E+00
    0.12193E-08         0.12441E-10         0.00000E+00
    0.12191E-08         0.18366E-10         0.00000E+00
    0.12188E-08         0.24077E-10         0.00000E+00
    0.12185E-08         0.29571E-10         0.00000E+00
    0.12180E-08         0.34843E-10         0.00000E+00
    0.12176E-08         0.39890E-10         0.00000E+00
    0.12170E-08         0.44707E-10         0.00000E+00
    0.12164E-08         0.49290E-10         0.00000E+00
    0.12157E-08         0.53637E-10         0.00000E+00
    0.12150E-08         0.57743E-10         0.00000E+00
    0.12143E-08         0.61604E-10         0.00000E+00
    0.12134E-08         0.65218E-10         0.00000E+00
    0.12126E-08         0.68580E-10         0.00000E+00
    0.12117E-08         0.71687E-10         0.00000E+00
    0.12108E-08         0.74537E-10         0.00000E+00
    0.12098E-08         0.77124E-10         0.00000E+00
    0.12088E-08         0.79448E-10         0.00000E+00
    0.12078E-08         0.81504E-10         0.00000E+00
    0.12067E-08         0.83289E-10         0.00000E+00
    0.12057E-08         0.84801E-10         0.00000E+00
    0.12046E-08         0.86036E-10         0.00000E+00
    0.12035E-08         0.86992E-10         0.00000E+00
    0.12024E-08         0.87667E-10         0.00000E+00
    0.12013E-08         0.88057E-10         0.00000E+00
    0.12002E-08         0.88160E-10         0.00000E+00
    0.11991E-08         0.87974E-10         0.00000E+00
    0.11980E-08         0.87497E-10         0.00000E+00
    0.11969E-08         0.86726E-10         0.00000E+00
    0.11958E-08         0.85659E-10         0.00000E+00
    0.11947E-08         0.84294E-10         0.00000E+00
    0.11937E-08         0.82630E-10         0.00000E+00
    0.11927E-08         0.80664E-10         0.00000E+00
    0.11917E-08         0.78395E-10         0.00000E+00
    0.11907E-08         0.75821E-10         0.00000E+00
    0.11898E-08         0.72941E-10         0.00000E+00
    0.11889E-08         0.69754E-10         0.00000E+00
    0.11881E-08         0.66258E-10         0.00000E+00
    0.11873E-08         0.62453E-10         0.00000E+00
    0.11865E-08         0.58336E-10         0.00000E+00
    0.11858E-08         0.53908E-10         0.00000E+00
    0.11852E-08         0.49168E-10         0.00000E+00
    0.11846E-08         0.44116E-10         0.00000E+00
    0.11841E-08         0.38750E-10         0.00000E+00
    0.11837E-08         0.33070E-10         0.00000E+00
    0.11833E-08         0.27077E-10         0.00000E+00
    0.11830E-08         0.20771E-10         0.00000E+00
    0.11828E-08         0.14151E-10         0.00000E+00
    0.11827E-08         0.72189E-11         0.00000E+00
    0.11826E-08         0.36745E-11         0.00000E+00
    0.12993E-08         0.33994E-11         0.00000E+00
    0.12992E-08         0.67259E-11         0.00000E+00
    0.12991E-08         0.13268E-10         0.00000E+00
    0.12989E-08         0.19586E-10         0.00000E+00
    0.12986E-08         0.25675E-10         0.00000E+00
    0.12982E-08         0.31531E-10         0.00000E+00
    0.12978E-08         0.37149E-10         0.00000E+00
    0.12973E-08         0.42527E-10         0.00000E+00
    0.12967E-08         0.47659E-10         0.00000E+00
    0.12961E-08         0.52541E-10         0.00000E+00
    0.12954E-08         0.57170E-10         0.00000E+00
    0.12946E-08         0.61542E-10         0.00000E+00
    0.12938E-08         0.65652E-10         0.00000E+00
    0.12930E-08         0.69498E-10         0.00000E+00
    0.12921E-08         0.73076E-10         0.00000E+00
    0.12911E-08         0.76381E-10         0.00000E+00
    0.12901E-08         0.79411E-10         0.00000E+00
    0.12891E-08         0.82162E-10         0.00000E+00
    0.12880E-08         0.84631E-10         0.00000E+00
    0.12870E-08         0.86814E-10         0.00000E+00
    0.12859E-08         0.88709E-10         0.00000E+00
    0.12847E-08         0.90313E-10         0.00000E+00
    0.12836E-08         0.91622E-10         0.00000E+00
    0.12824E-08         0.92633E-10         0.00000E+00
    0.12813E-08         0.93344E-10         0.00000E+00
    0.12801E-08         0.93753E-10         0.00000E+00
    0.12789E-08         0.93856E-10         0.00000E+00
    0.12778E-08         0.93651E-10         0.00000E+00
    0.12766E-08         0.93136E-10         0.00000E+00
    0.12754E-08         0.92309E-10         0.00000E+00
    0.12743E-08         0.91167E-10         0.00000E+00
    0.12732E-08         0.89708E-10         0.00000E+00
    0.12721E-08         0.87930E-10         0.00000E+00
    0.12710E-08         0.85832E-10         0.00000E+00
    0.12699E-08         0.83412E-10         0.00000E+00
    0.12689E-08         0.80668E-10         0.00000E+00
    0.12679E-08         0.77598E-10         0.00000E+00
    0.12670E-08         0.74202E-10         0.00000E+00
    0.12661E-08         0.70478E-10         0.00000E+00
    0.12653E-08         0.66425E-10         0.00000E+00
    0.12645E-08         0.62043E-10         0.00000E+00
    0.12637E-08         0.57330E-10         0.00000E+00
    0.12631E-08         0.52285E-10         0.00000E+00
    0.12625E-08         0.46909E-10         0.00000E+00
    0.12619E-08         0.41200E-10         0.00000E+00
    0.12614E-08         0.35159E-10         0.00000E+00
    0.12611E-08         0.28786E-10         0.00000E+00
    0.12607E-08         0.22080E-10         0.00000E+00
    0.12605E-08         0.15042E-10         0.00000E+00
    0.12604E-08         0.76728E-11         0.00000E+00
    0.12603E-08         0.39053E-11         0.00000E+00
    0.13845E-08         0.36231E-11         0.00000E+00
    0.13845E-08         0.71682E-11         0.00000E+00
    0.13844E-08         0.14140E-10         0.00000E+00
    0.13841E-08         0.20871E-10         0.00000E+00
    0.13838E-08         0.27359E-10         0.00000E+00
    0.13834E-08         0.33597E-10         0.00000E+00
    0.13830E-08         0.39582E-10         0.00000E+00
    0.13824E-08         0.45309E-10         0.00000E+00
    0.13818E-08         0.50774E-10         0.00000E+00
    0.13812E-08         0.55972E-10         0.00000E+00
    0.13804E-08         0.60900E-10         0.00000E+00
    0.13796E-08         0.65553E-10         0.00000E+00
    0.13788E-08         0.69927E-10         0.00000E+00
    0.13779E-08         0.74019E-10         0.00000E+00
    0.13769E-08         0.77825E-10         0.00000E+00
    0.13759E-08         0.81340E-10         0.00000E+00
    0.13749E-08         0.84562E-10         0.00000E+00
    0.13738E-08         0.87486E-10         0.00000E+00
    0.13727E-08         0.90109E-10         0.00000E+00
    0.13715E-08         0.92429E-10         0.00000E+00
    0.13704E-08         0.94441E-10         0.00000E+00
    0.13692E-08         0.96142E-10         0.00000E+00
    0.13680E-08         0.97529E-10         0.00000E+00
    0.13668E-08         0.98600E-10         0.00000E+00
    0.13655E-08         0.99351E-10         0.00000E+00
    0.13643E-08         0.99780E-10         0.00000E+00
    0.13630E-08         0.99884E-10         0.00000E+00
    0.13618E-08         0.99660E-10         0.00000E+00
    0.13606E-08         0.99106E-10         0.00000E+00
    0.13593E-08         0.98219E-10         0.00000E+00
    0.13581E-08         0.96998E-10         0.00000E+00
    0.13569E-08         0.95440E-10         0.00000E+00
    0.13558E-08         0.93543E-10         0.00000E+00
    0.13546E-08         0.91306E-10         0.00000E+00
    0.13535E-08         0.88726E-10         0.00000E+00
    0.13524E-08         0.85801E-10         0.00000E+00
    0.13514E-08         0.82531E-10         0.00000E+00
    0.13504E-08         0.78915E-10         0.00000E+00
    0.13495E-08         0.74950E-10         0.00000E+00
    0.13486E-08         0.70636E-10         0.00000E+00
    0.13477E-08         0.65971E-10         0.00000E+00
    0.13470E-08         0.60956E-10         0.00000E+00
    0.13462E-08         0.55589E-10         0.00000E+00
    0.13456E-08         0.49869E-10         0.00000E+00
    0.13450E-08         0.43798E-10         0.00000E+00
    0.13445E-08         0.37374E-10         0.00000E+00
    0.13441E-08         0.30597E-10         0.00000E+00
    0.13438E-08         0.23468E-10         0.00000E+00
    0.13435E-08         0.15987E-10         0.00000E+00
    0.13434E-08         0.81541E-11         0.00000E+00
    0.13433E-08         0.41500E-11         0.00000E+00
    0.14756E-08         0.38588E-11         0.00000E+00
    0.14755E-08         0.76345E-11         0.00000E+00
    0.14754E-08         0.15059E-10         0.00000E+00
    0.14751E-08         0.22228E-10         0.00000E+00
    0.14748E-08         0.29135E-10         0.00000E+00
    0.14744E-08         0.35777E-10         0.00000E+00
    0.14739E-08         0.42149E-10         0.00000E+00
    0.14734E-08         0.48245E-10         0.00000E+00
    0.14727E-08         0.54062E-10         0.00000E+00
    0.14720E-08         0.59594E-10         0.00000E+00
    0.14712E-08         0.64838E-10         0.00000E+00
    0.14704E-08         0.69789E-10         0.00000E+00
    0.14695E-08         0.74443E-10         0.00000E+00
    0.14685E-08         0.78795E-10         0.00000E+00
    0.14675E-08         0.82842E-10         0.00000E+00
    0.14665E-08         0.86580E-10         0.00000E+00
    0.14654E-08         0.90005E-10         0.00000E+00
    0.14642E-08         0.93113E-10         0.00000E+00
    0.14630E-08         0.95901E-10         0.00000E+00
    0.14618E-08         0.98365E-10         0.00000E+00
    0.14606E-08         0.10050E-09         0.00000E+00
    0.14593E-08         0.10231E-09         0.00000E+00
    0.14581E-08         0.10378E-09         0.00000E+00
    0.14568E-08         0.10491E-09         0.00000E+00
    0.14555E-08         0.10571E-09         0.00000E+00
    0.14542E-08         0.10616E-09         0.00000E+00
    0.14528E-08         0.10626E-09         0.00000E+00
    0.14515E-08         0.10602E-09         0.00000E+00
    0.14502E-08         0.10542E-09         0.00000E+00
    0.14489E-08         0.10448E-09         0.00000E+00
    0.14477E-08         0.10317E-09         0.00000E+00
    0.14464E-08         0.10151E-09         0.00000E+00
    0.14452E-08         0.99486E-10         0.00000E+00
    0.14439E-08         0.97101E-10         0.00000E+00
    0.14428E-08         0.94352E-10         0.00000E+00
    0.14416E-08         0.91238E-10         0.00000E+00
    0.14405E-08         0.87756E-10         0.00000E+00
    0.14395E-08         0.83906E-10         0.00000E+00
    0.14385E-08         0.79686E-10         0.00000E+00
    0.14375E-08         0.75095E-10         0.00000E+00
    0.14366E-08         0.70132E-10         0.00000E+00
    0.14358E-08         0.64797E-10         0.00000E+00
    0.14351E-08         0.59089E-10         0.00000E+00
    0.14344E-08         0.53006E-10         0.00000E+00
    0.14338E-08         0.46550E-10         0.00000E+00
    0.14332E-08         0.39720E-10         0.00000E+00
    0.14328E-08         0.32516E-10         0.00000E+00
    0.14324E-08         0.24938E-10         0.00000E+00
    0.14322E-08         0.16988E-10         0.00000E+00
    0.14320E-08         0.86642E-11         0.00000E+00
    0.14320E-08         0.44094E-11         0.00000E+00
    0.15727E-08         0.41076E-11         0.00000E+00
    0.15727E-08         0.81264E-11         0.00000E+00
    0.15725E-08         0.16029E-10         0.00000E+00
    0.15723E-08         0.23659E-10         0.00000E+00
    0.15719E-08         0.31010E-10         0.00000E+00
    0.15715E-08         0.38079E-10         0.00000E+00
    0.15710E-08         0.44859E-10         0.00000E+00
    0.15704E-08         0.51345E-10         0.00000E+00
    0.15697E-08         0.57534E-10         0.00000E+00
    0.15690E-08         0.63420E-10         0.00000E+00
    0.15681E-08         0.68998E-10         0.00000E+00
    0.15672E-08         0.74264E-10         0.00000E+00
    0.15663E-08         0.79213E-10         0.00000E+00
    0.15653E-08         0.83842E-10         0.00000E+00
    0.15642E-08         0.88145E-10         0.00000E+00
    0.15631E-08         0.92119E-10         0.00000E+00
    0.15619E-08         0.95760E-10         0.00000E+00
    0.15607E-08         0.99063E-10         0.00000E+00
    0.15595E-08         0.10203E-09         0.00000E+00
    0.15582E-08         0.10464E-09         0.00000E+00
    0.15569E-08         0.10691E-09         0.00000E+00
    0.15556E-08         0.10883E-09         0.00000E+00
    0.15542E-08         0.11039E-09         0.00000E+00
    0.15528E-08         0.11159E-09         0.00000E+00
    0.15515E-08         0.11243E-09         0.00000E+00
    0.15501E-08         0.11290E-09         0.00000E+00
    0.15487E-08         0.11301E-09         0.00000E+00
    0.15473E-08         0.11275E-09         0.00000E+00
    0.15459E-08         0.11211E-09         0.00000E+00
    0.15445E-08         0.11110E-09         0.00000E+00
    0.15432E-08         0.10971E-09         0.00000E+00
    0.15419E-08         0.10793E-09         0.00000E+00
    0.15405E-08         0.10578E-09         0.00000E+00
    0.15393E-08         0.10324E-09         0.00000E+00
    0.15380E-08         0.10031E-09         0.00000E+00
    0.15368E-08         0.96994E-10         0.00000E+00
    0.15357E-08         0.93289E-10         0.00000E+00
    0.15345E-08         0.89192E-10         0.00000E+00
    0.15335E-08         0.84702E-10         0.00000E+00
    0.15325E-08         0.79818E-10         0.00000E+00
    0.15315E-08         0.74540E-10         0.00000E+00
    0.15307E-08         0.68866E-10         0.00000E+00
    0.15299E-08         0.62796E-10         0.00000E+00
    0.15291E-08         0.56329E-10         0.00000E+00
    0.15285E-08         0.49466E-10         0.00000E+00
    0.15279E-08         0.42206E-10         0.00000E+00
    0.15275E-08         0.34549E-10         0.00000E+00
    0.15271E-08         0.26496E-10         0.00000E+00
    0.15268E-08         0.18048E-10         0.00000E+00
    0.15267E-08         0.92046E-11         0.00000E+00
    0.15266E-08         0.46843E-11         0.00000E+00
    0.16764E-08         0.43702E-11         0.00000E+00
    0.16763E-08         0.86459E-11         0.00000E+00
    0.16761E-08         0.17053E-10         0.00000E+00
    0.16759E-08         0.25170E-10         0.00000E+00
    0.16755E-08         0.32991E-10         0.00000E+00
    0.16751E-08         0.40510E-10         0.00000E+00
    0.16745E-08         0.47722E-10         0.00000E+00
    0.16739E-08         0.54621E-10         0.00000E+00
    0.16732E-08         0.61203E-10         0.00000E+00
    0.16724E-08         0.67463E-10         0.00000E+00
    0.16715E-08         0.73394E-10         0.00000E+00
    0.16706E-08         0.78994E-10         0.00000E+00
    0.16696E-08         0.84257E-10         0.00000E+00
    0.16685E-08         0.89177E-10         0.00000E+00
    0.16674E-08         0.93752E-10         0.00000E+00
    0.16662E-08         0.97976E-10         0.00000E+00
    0.16650E-08         0.10185E-09         0.00000E+00
    0.16637E-08         0.10536E-09         0.00000E+00
    0.16624E-08         0.10850E-09         0.00000E+00
    0.16610E-08         0.11128E-09         0.00000E+00
    0.16596E-08         0.11369E-09         0.00000E+00
    0.16582E-08         0.11572E-09         0.00000E+00
    0.16568E-08         0.11738E-09         0.00000E+00
    0.16553E-08         0.11865E-09         0.00000E+00
    0.16539E-08         0.11954E-09         0.00000E+00
    0.16524E-08         0.12004E-09         0.00000E+00
    0.16509E-08         0.12015E-09         0.00000E+00
    0.16495E-08         0.11987E-09         0.00000E+00
    0.16480E-08         0.11919E-09         0.00000E+00
    0.16466E-08         0.11811E-09         0.00000E+00
    0.16451E-08         0.11662E-09         0.00000E+00
    0.16437E-08         0.11473E-09         0.00000E+00
    0.16423E-08         0.11244E-09         0.00000E+00
    0.16410E-08         0.10973E-09         0.00000E+00
    0.16397E-08         0.10662E-09         0.00000E+00
    0.16384E-08         0.10309E-09         0.00000E+00
    0.16371E-08         0.99147E-10         0.00000E+00
    0.16360E-08         0.94789E-10         0.00000E+00
    0.16348E-08         0.90013E-10         0.00000E+00
    0.16338E-08         0.84820E-10         0.00000E+00
    0.16328E-08         0.79207E-10         0.00000E+00
    0.16319E-08         0.73175E-10         0.00000E+00
    0.16310E-08         0.66722E-10         0.00000E+00
    0.16302E-08         0.59849E-10         0.00000E+00
    0.16296E-08         0.52554E-10         0.00000E+00
    0.16290E-08         0.44839E-10         0.00000E+00
    0.16285E-08         0.36703E-10         0.00000E+00
    0.16281E-08         0.28147E-10         0.00000E+00
    0.16278E-08         0.19171E-10         0.00000E+00
    0.16276E-08         0.97770E-11         0.00000E+00
    0.16276E-08         0.49754E-11         0.00000E+00
    0.17869E-08         0.46476E-11         0.00000E+00
    0.17869E-08         0.91947E-11         0.00000E+00
    0.17867E-08         0.18136E-10         0.00000E+00
    0.17864E-08         0.26767E-10         0.00000E+00
    0.17860E-08         0.35084E-10         0.00000E+00
    0.17856E-08         0.43079E-10         0.00000E+00
    0.17850E-08         0.50747E-10         0.00000E+00
    0.17843E-08         0.58084E-10         0.00000E+00
    0.17835E-08         0.65082E-10         0.00000E+00
    0.17827E-08         0.71737E-10         0.00000E+00
    0.17818E-08         0.78043E-10         0.00000E+00
    0.17808E-08         0.83996E-10         0.00000E+00
    0.17797E-08         0.89590E-10         0.00000E+00
    0.17786E-08         0.94820E-10         0.00000E+00
    0.17774E-08         0.99682E-10         0.00000E+00
    0.17762E-08         0.10417E-09         0.00000E+00
    0.17749E-08         0.10828E-09         0.00000E+00
    0.17735E-08         0.11201E-09         0.00000E+00
    0.17721E-08         0.11535E-09         0.00000E+00
    0.17707E-08         0.11831E-09         0.00000E+00
    0.17692E-08         0.12086E-09         0.00000E+00
    0.17677E-08         0.12302E-09         0.00000E+00
    0.17662E-08         0.12478E-09         0.00000E+00
    0.17647E-08         0.12613E-09         0.00000E+00
    0.17631E-08         0.12707E-09         0.00000E+00
    0.17616E-08         0.12760E-09         0.00000E+00
    0.17600E-08         0.12771E-09         0.00000E+00
    0.17585E-08         0.12741E-09         0.00000E+00
    0.17569E-08         0.12668E-09         0.00000E+00
    0.17554E-08         0.12553E-09         0.00000E+00
    0.17539E-08         0.12394E-09         0.00000E+00
    0.17524E-08         0.12193E-09         0.00000E+00
    0.17509E-08         0.11949E-09         0.00000E+00
    0.17495E-08         0.11661E-09         0.00000E+00
    0.17481E-08         0.11330E-09         0.00000E+00
    0.17467E-08         0.10954E-09         0.00000E+00
    0.17454E-08         0.10535E-09         0.00000E+00
    0.17442E-08         0.10072E-09         0.00000E+00
    0.17430E-08         0.95638E-10         0.00000E+00
    0.17419E-08         0.90117E-10         0.00000E+00
    0.17408E-08         0.84150E-10         0.00000E+00
    0.17398E-08         0.77738E-10         0.00000E+00
    0.17389E-08         0.70880E-10         0.00000E+00
    0.17381E-08         0.63576E-10         0.00000E+00
    0.17374E-08         0.55825E-10         0.00000E+00
    0.17368E-08         0.47627E-10         0.00000E+00
    0.17362E-08         0.38984E-10         0.00000E+00
    0.17358E-08         0.29895E-10         0.00000E+00
    0.17355E-08         0.20361E-10         0.00000E+00
    0.17353E-08         0.10383E-10         0.00000E+00
    0.17353E-08         0.52837E-11         0.00000E+00
    0.19048E-08         0.49409E-11         0.00000E+00
    0.19048E-08         0.97748E-11         0.00000E+00
    0.19046E-08         0.19280E-10         0.00000E+00
    0.19043E-08         0.28456E-10         0.00000E+00
    0.19039E-08         0.37297E-10         0.00000E+00
    0.19034E-08         0.45796E-10         0.00000E+00
    0.19028E-08         0.53948E-10         0.00000E+00
    0.19021E-08         0.61746E-10         0.00000E+00
    0.19013E-08         0.69184E-10         0.00000E+00
    0.19004E-08         0.76258E-10         0.00000E+00
    0.18994E-08         0.82961E-10         0.00000E+00
    0.18984E-08         0.89287E-10         0.00000E+00
    0.18972E-08         0.95232E-10         0.00000E+00
    0.18960E-08         0.10079E-09         0.00000E+00
    0.18948E-08         0.10596E-09         0.00000E+00
    0.18934E-08         0.11073E-09         0.00000E+00
    0.18921E-08         0.11509E-09         0.00000E+00
    0.18906E-08         0.11906E-09         0.00000E+00
    0.18892E-08         0.12261E-09         0.00000E+00
    0.18877E-08         0.12574E-09         0.00000E+00
    0.18861E-08         0.12846E-09         0.00000E+00
    0.18845E-08         0.13075E-09         0.00000E+00
    0.18829E-08         0.13261E-09         0.00000E+00
    0.18813E-08         0.13405E-09         0.00000E+00
    0.18797E-08         0.13504E-09         0.00000E+00
    0.18780E-08         0.13560E-09         0.00000E+00
    0.18764E-08         0.13572E-09         0.00000E+00
    0.18747E-08         0.13539E-09         0.00000E+00
    0.18731E-08         0.13461E-09         0.00000E+00
    0.18715E-08         0.13338E-09         0.00000E+00
    0.18698E-08         0.13170E-09         0.00000E+00
    0.18683E-08         0.12956E-09         0.00000E+00
    0.18667E-08         0.12696E-09         0.00000E+00
    0.18652E-08         0.12390E-09         0.00000E+00
    0.18637E-08         0.12037E-09         0.00000E+00
    0.18623E-08         0.11638E-09         0.00000E+00
    0.18609E-08         0.11192E-09         0.00000E+00
    0.18596E-08         0.10699E-09         0.00000E+00
    0.18583E-08         0.10160E-09         0.00000E+00
    0.18571E-08         0.95727E-10         0.00000E+00
    0.18560E-08         0.89386E-10         0.00000E+00
    0.18550E-08         0.82572E-10         0.00000E+00
    0.18540E-08         0.75285E-10         0.00000E+00
    0.18531E-08         0.67524E-10         0.00000E+00
    0.18524E-08         0.59289E-10         0.00000E+00
    0.18517E-08         0.50581E-10         0.00000E+00
    0.18512E-08         0.41400E-10         0.00000E+00
    0.18507E-08         0.31746E-10         0.00000E+00
    0.18504E-08         0.21621E-10         0.00000E+00
    0.18502E-08         0.11025E-10         0.00000E+00
    0.18501E-08         0.56102E-11         0.00000E+00
    0.20306E-08         0.52510E-11         0.00000E+00
    0.20305E-08         0.10388E-10         0.00000E+00
    0.20303E-08         0.20490E-10         0.00000E+00
    0.20300E-08         0.30242E-10         0.00000E+00
    0.20296E-08         0.39638E-10         0.00000E+00
    0.20290E-08         0.48670E-10         0.00000E+00
    0.20284E-08         0.57333E-10         0.00000E+00
    0.20276E-08         0.65620E-10         0.00000E+00
    0.20268E-08         0.73525E-10         0.00000E+00
    0.20259E-08         0.81042E-10         0.00000E+00
    0.20248E-08         0.88165E-10         0.00000E+00
    0.20237E-08         0.94887E-10         0.00000E+00
    0.20225E-08         0.10120E-09         0.00000E+00
    0.20213E-08         0.10711E-09         0.00000E+00
    0.20199E-08         0.11260E-09         0.00000E+00
    0.20185E-08         0.11767E-09         0.00000E+00
    0.20171E-08         0.12231E-09         0.00000E+00
    0.20155E-08         0.12651E-09         0.00000E+00
    0.20140E-08         0.13028E-09         0.00000E+00
    0.20124E-08         0.13361E-09         0.00000E+00
    0.20107E-08         0.13650E-09         0.00000E+00
    0.20091E-08         0.13893E-09         0.00000E+00
    0.20074E-08         0.14091E-09         0.00000E+00
    0.20057E-08         0.14243E-09         0.00000E+00
    0.20039E-08         0.14348E-09         0.00000E+00
    0.20022E-08         0.14408E-09         0.00000E+00
    0.20004E-08         0.14420E-09         0.00000E+00
    0.19987E-08         0.14384E-09         0.00000E+00
    0.19970E-08         0.14301E-09         0.00000E+00
    0.19952E-08         0.14170E-09         0.00000E+00
    0.19935E-08         0.13991E-09         0.00000E+00
    0.19918E-08         0.13763E-09         0.00000E+00
    0.19902E-08         0.13487E-09         0.00000E+00
    0.19886E-08         0.13161E-09         0.00000E+00
    0.19870E-08         0.12786E-09         0.00000E+00
    0.19855E-08         0.12362E-09         0.00000E+00
    0.19840E-08         0.11888E-09         0.00000E+00
    0.19826E-08         0.11364E-09         0.00000E+00
    0.19813E-08         0.10790E-09         0.00000E+00
    0.19800E-08         0.10167E-09         0.00000E+00
    0.19789E-08         0.94931E-10         0.00000E+00
    0.19778E-08         0.87691E-10         0.00000E+00
    0.19767E-08         0.79949E-10         0.00000E+00
    0.19758E-08         0.71705E-10         0.00000E+00
    0.19750E-08         0.62958E-10         0.00000E+00
    0.19743E-08         0.53709E-10         0.00000E+00
    0.19737E-08         0.43958E-10         0.00000E+00
    0.19733E-08         0.33707E-10         0.00000E+00
    0.19729E-08         0.22955E-10         0.00000E+00
    0.19727E-08         0.11705E-10         0.00000E+00
    0.19727E-08         0.59561E-11         0.00000E+00
    0.21646E-08         0.55793E-11         0.00000E+00
    0.21646E-08         0.11038E-10         0.00000E+00
    0.21644E-08         0.21771E-10         0.00000E+00
    0.21640E-08         0.32133E-10         0.00000E+00
    0.21636E-08         0.42116E-10         0.00000E+00
    0.21630E-08         0.51713E-10         0.00000E+00
    0.21623E-08         0.60917E-10         0.00000E+00
    0.21615E-08         0.69723E-10         0.00000E+00
    0.21606E-08         0.78121E-10         0.00000E+00
    0.21597E-08         0.86108E-10         0.00000E+00
    0.21586E-08         0.93675E-10         0.00000E+00
    0.21574E-08         0.10082E-09         0.00000E+00
    0.21561E-08         0.10753E-09         0.00000E+00
    0.21548E-08         0.11380E-09         0.00000E+00
    0.21534E-08         0.11963E-09         0.00000E+00
    0.21519E-08         0.12501E-09         0.00000E+00
    0.21503E-08         0.12994E-09         0.00000E+00
    0.21487E-08         0.13441E-09         0.00000E+00
    0.21471E-08         0.13842E-09         0.00000E+00
    0.21454E-08         0.14195E-09         0.00000E+00
    0.21436E-08         0.14501E-09         0.00000E+00
    0.21419E-08         0.14760E-09         0.00000E+00
    0.21401E-08         0.14969E-09         0.00000E+00
    0.21383E-08         0.15131E-09         0.00000E+00
    0.21364E-08         0.15243E-09         0.00000E+00
    0.21346E-08         0.15305E-09         0.00000E+00
    0.21327E-08         0.15317E-09         0.00000E+00
    0.21309E-08         0.15280E-09         0.00000E+00
    0.21290E-08         0.15191E-09         0.00000E+00
    0.21272E-08         0.15052E-09         0.00000E+00
    0.21254E-08         0.14861E-09         0.00000E+00
    0.21236E-08         0.14619E-09         0.00000E+00
    0.21219E-08         0.14324E-09         0.00000E+00
    0.21202E-08         0.13978E-09         0.00000E+00
    0.21185E-08         0.13580E-09         0.00000E+00
    0.21169E-08         0.13129E-09         0.00000E+00
    0.21154E-08         0.12625E-09         0.00000E+00
    0.21139E-08         0.12068E-09         0.00000E+00
    0.21125E-08         0.11459E-09         0.00000E+00
    0.21111E-08         0.10796E-09         0.00000E+00
    0.21099E-08         0.10080E-09         0.00000E+00
    0.21087E-08         0.93114E-10         0.00000E+00
    0.21076E-08         0.84891E-10         0.00000E+00
    0.21067E-08         0.76134E-10         0.00000E+00
    0.21058E-08         0.66845E-10         0.00000E+00
    0.21051E-08         0.57023E-10         0.00000E+00
    0.21044E-08         0.46669E-10         0.00000E+00
    0.21039E-08         0.35784E-10         0.00000E+00
    0.21036E-08         0.24369E-10         0.00000E+00
    0.21034E-08         0.12426E-10         0.00000E+00
    0.21033E-08         0.63224E-11         0.00000E+00
    0.23076E-08         0.59268E-11         0.00000E+00
    0.23075E-08         0.11725E-10         0.00000E+00
    0.23073E-08         0.23127E-10         0.00000E+00
    0.23070E-08         0.34135E-10         0.00000E+00
    0.23065E-08         0.44740E-10         0.00000E+00
    0.23059E-08         0.54935E-10         0.00000E+00
    0.23051E-08         0.64713E-10         0.00000E+00
    0.23043E-08         0.74067E-10         0.00000E+00
    0.23034E-08         0.82989E-10         0.00000E+00
    0.23023E-08         0.91473E-10         0.00000E+00
    0.23011E-08         0.99512E-10         0.00000E+00
    0.22999E-08         0.10710E-09         0.00000E+00
    0.22986E-08         0.11423E-09         0.00000E+00
    0.22971E-08         0.12089E-09         0.00000E+00
    0.22956E-08         0.12708E-09         0.00000E+00
    0.22941E-08         0.13280E-09         0.00000E+00
    0.22924E-08         0.13803E-09         0.00000E+00
    0.22907E-08         0.14278E-09         0.00000E+00
    0.22890E-08         0.14703E-09         0.00000E+00
    0.22872E-08         0.15079E-09         0.00000E+00
    0.22853E-08         0.15404E-09         0.00000E+00
    0.22835E-08         0.15678E-09         0.00000E+00
    0.22816E-08         0.15900E-09         0.00000E+00
    0.22796E-08         0.16071E-09         0.00000E+00
    0.22777E-08         0.16190E-09         0.00000E+00
    0.22757E-08         0.16256E-09         0.00000E+00
    0.22738E-08         0.16269E-09         0.00000E+00
    0.22718E-08         0.16228E-09         0.00000E+00
    0.22699E-08         0.16134E-09         0.00000E+00
    0.22679E-08         0.15986E-09         0.00000E+00
    0.22660E-08         0.15783E-09         0.00000E+00
    0.22641E-08         0.15525E-09         0.00000E+00
    0.22623E-08         0.15212E-09         0.00000E+00
    0.22605E-08         0.14844E-09         0.00000E+00
    0.22587E-08         0.14421E-09         0.00000E+00
    0.22570E-08         0.13941E-09         0.00000E+00
    0.22554E-08         0.13406E-09         0.00000E+00
    0.22538E-08         0.12815E-09         0.00000E+00
    0.22523E-08         0.12167E-09         0.00000E+00
    0.22509E-08         0.11463E-09         0.00000E+00
    0.22495E-08         0.10703E-09         0.00000E+00
    0.22483E-08         0.98860E-10         0.00000E+00
    0.22472E-08         0.90126E-10         0.00000E+00
    0.22461E-08         0.80827E-10         0.00000E+00
    0.22452E-08         0.70962E-10         0.00000E+00
    0.22445E-08         0.60533E-10         0.00000E+00
    0.22438E-08         0.49540E-10         0.00000E+00
    0.22433E-08         0.37984E-10         0.00000E+00
    0.22429E-08         0.25866E-10         0.00000E+00
    0.22427E-08         0.13189E-10         0.00000E+00
    0.22426E-08         0.67104E-11         0.00000E+00
    0.24600E-08         0.62949E-11         0.00000E+00
    0.24599E-08         0.12454E-10         0.00000E+00
    0.24597E-08         0.24564E-10         0.00000E+00
    0.24593E-08         0.36256E-10         0.00000E+00
    0.24588E-08         0.47520E-10         0.00000E+00
    0.24582E-08         0.58349E-10         0.00000E+00
    0.24574E-08         0.68736E-10         0.00000E+00
    0.24565E-08         0.78671E-10         0.00000E+00
    0.24555E-08         0.88148E-10         0.00000E+00
    0.24544E-08         0.97159E-10         0.00000E+00
    0.24532E-08         0.10570E-09         0.00000E+00
    0.24518E-08         0.11376E-09         0.00000E+00
    0.24504E-08         0.12133E-09         0.00000E+00
    0.24489E-08         0.12840E-09         0.00000E+00
    0.24473E-08         0.13498E-09         0.00000E+00
    0.24457E-08         0.14105E-09         0.00000E+00
    0.24439E-08         0.14661E-09         0.00000E+00
    0.24421E-08         0.15165E-09         0.00000E+00
    0.24403E-08         0.15617E-09         0.00000E+00
    0.24384E-08         0.16015E-09         0.00000E+00
    0.24364E-08         0.16360E-09         0.00000E+00
    0.24344E-08         0.16651E-09         0.00000E+00
    0.24324E-08         0.16887E-09         0.00000E+00
    0.24304E-08         0.17069E-09         0.00000E+00
    0.24283E-08         0.17194E-09         0.00000E+00
    0.24262E-08         0.17264E-09         0.00000E+00
    0.24241E-08         0.17278E-09         0.00000E+00
    0.24221E-08         0.17234E-09         0.00000E+00
    0.24200E-08         0.17134E-09         0.00000E+00
    0.24179E-08         0.16976E-09         0.00000E+00
    0.24159E-08         0.16760E-09         0.00000E+00
    0.24139E-08         0.16486E-09         0.00000E+00
    0.24120E-08         0.16153E-09         0.00000E+00
    0.24100E-08         0.15762E-09         0.00000E+00
    0.24082E-08         0.15312E-09         0.00000E+00
    0.24064E-08         0.14803E-09         0.00000E+00
    0.24046E-08         0.14234E-09         0.00000E+00
    0.24030E-08         0.13606E-09         0.00000E+00
    0.24014E-08         0.12918E-09         0.00000E+00
    0.23999E-08         0.12170E-09         0.00000E+00
    0.23985E-08         0.11362E-09         0.00000E+00
    0.23971E-08         0.10495E-09         0.00000E+00
    0.23959E-08         0.95674E-10         0.00000E+00
    0.23949E-08         0.85799E-10         0.00000E+00
    0.23939E-08         0.75325E-10         0.00000E+00
    0.23931E-08         0.64252E-10         0.00000E+00
    0.23924E-08         0.52582E-10         0.00000E+00
    0.23918E-08         0.40314E-10         0.00000E+00
    0.23914E-08         0.27452E-10         0.00000E+00
    0.23912E-08         0.13997E-10         0.00000E+00
    0.23911E-08         0.71214E-11         0.00000E+00
    0.26225E-08         0.66852E-11         0.00000E+00
    0.26224E-08         0.13226E-10         0.00000E+00
    0.26221E-08         0.26087E-10         0.00000E+00
    0.26218E-08         0.38504E-10         0.00000E+00
    0.26212E-08         0.50468E-10         0.00000E+00
    0.26205E-08         0.61969E-10         0.00000E+00
    0.26197E-08         0.73000E-10         0.00000E+00
    0.26188E-08         0.83552E-10         0.00000E+00
    0.26177E-08         0.93618E-10         0.00000E+00
    0.26165E-08         0.10319E-09         0.00000E+00
    0.26152E-08         0.11226E-09         0.00000E+00
    0.26138E-08         0.12081E-09         0.00000E+00
    0.26123E-08         0.12886E-09         0.00000E+00
    0.26107E-08         0.13637E-09         0.00000E+00
    0.26090E-08         0.14336E-09         0.00000E+00
    0.26073E-08         0.14980E-09         0.00000E+00
    0.26054E-08         0.15571E-09         0.00000E+00
    0.26035E-08         0.16106E-09         0.00000E+00
    0.26016E-08         0.16585E-09         0.00000E+00
    0.25995E-08         0.17008E-09         0.00000E+00
    0.25975E-08         0.17374E-09         0.00000E+00
    0.25953E-08         0.17683E-09         0.00000E+00
    0.25932E-08         0.17934E-09         0.00000E+00
    0.25910E-08         0.18126E-09         0.00000E+00
    0.25888E-08         0.18259E-09         0.00000E+00
    0.25866E-08         0.18333E-09         0.00000E+00
    0.25844E-08         0.18347E-09         0.00000E+00
    0.25822E-08         0.18301E-09         0.00000E+00
    0.25800E-08         0.18194E-09         0.00000E+00
    0.25779E-08         0.18025E-09         0.00000E+00
    0.25757E-08         0.17796E-09         0.00000E+00
    0.25736E-08         0.17505E-09         0.00000E+00
    0.25715E-08         0.17151E-09         0.00000E+00
    0.25695E-08         0.16735E-09         0.00000E+00
    0.25675E-08         0.16257E-09         0.00000E+00
    0.25656E-08         0.15716E-09         0.00000E+00
    0.25637E-08         0.15112E-09         0.00000E+00
    0.25620E-08         0.14444E-09         0.00000E+00
    0.25603E-08         0.13713E-09         0.00000E+00
    0.25587E-08         0.12919E-09         0.00000E+00
    0.25572E-08         0.12062E-09         0.00000E+00
    0.25558E-08         0.11140E-09         0.00000E+00
    0.25545E-08         0.10155E-09         0.00000E+00
    0.25534E-08         0.91069E-10         0.00000E+00
    0.25524E-08         0.79949E-10         0.00000E+00
    0.25515E-08         0.68194E-10         0.00000E+00
    0.25507E-08         0.55805E-10         0.00000E+00
    0.25502E-08         0.42784E-10         0.00000E+00
    0.25497E-08         0.29133E-10         0.00000E+00
    0.25495E-08         0.14853E-10         0.00000E+00
    0.25494E-08         0.75568E-11         0.00000E+00
    0.27957E-08         0.70990E-11         0.00000E+00
    0.27956E-08         0.14045E-10         0.00000E+00
    0.27953E-08         0.27703E-10         0.00000E+00
    0.27949E-08         0.40889E-10         0.00000E+00
    0.27944E-08         0.53594E-10         0.00000E+00
    0.27936E-08         0.65809E-10         0.00000E+00
    0.27928E-08         0.77524E-10         0.00000E+00
    0.27918E-08         0.88730E-10         0.00000E+00
    0.27906E-08         0.99420E-10         0.00000E+00
    0.27894E-08         0.10958E-09         0.00000E+00
    0.27880E-08         0.11921E-09         0.00000E+00
    0.27865E-08         0.12830E-09         0.00000E+00
    0.27849E-08         0.13684E-09         0.00000E+00
    0.27832E-08         0.14482E-09         0.00000E+00
    0.27814E-08         0.15224E-09         0.00000E+00
    0.27795E-08         0.15909E-09         0.00000E+00
    0.27776E-08         0.16535E-09         0.00000E+00
    0.27756E-08         0.17104E-09         0.00000E+00
    0.27735E-08         0.17613E-09         0.00000E+00
    0.27713E-08         0.18062E-09         0.00000E+00
    0.27691E-08         0.18450E-09         0.00000E+00
    0.27669E-08         0.18778E-09         0.00000E+00
    0.27646E-08         0.19044E-09         0.00000E+00
    0.27623E-08         0.19248E-09         0.00000E+00
    0.27600E-08         0.19389E-09         0.00000E+00
    0.27577E-08         0.19467E-09         0.00000E+00
    0.27553E-08         0.19482E-09         0.00000E+00
    0.27530E-08         0.19432E-09         0.00000E+00
    0.27507E-08         0.19318E-09         0.00000E+00
    0.27483E-08         0.19139E-09         0.00000E+00
    0.27461E-08         0.18895E-09         0.00000E+00
    0.27438E-08         0.18585E-09         0.00000E+00
    0.27416E-08         0.18209E-09         0.00000E+00
    0.27395E-08         0.17767E-09         0.00000E+00
    0.27374E-08         0.17259E-09         0.00000E+00
    0.27353E-08         0.16684E-09         0.00000E+00
    0.27334E-08         0.16042E-09         0.00000E+00
    0.27315E-08         0.15333E-09         0.00000E+00
    0.27297E-08         0.14557E-09         0.00000E+00
    0.27280E-08         0.13714E-09         0.00000E+00
    0.27264E-08         0.12803E-09         0.00000E+00
    0.27250E-08         0.11824E-09         0.00000E+00
    0.27236E-08         0.10779E-09         0.00000E+00
    0.27224E-08         0.96655E-10         0.00000E+00
    0.27213E-08         0.84850E-10         0.00000E+00
    0.27204E-08         0.72371E-10         0.00000E+00
    0.27196E-08         0.59221E-10         0.00000E+00
    0.27190E-08         0.45402E-10         0.00000E+00
    0.27185E-08         0.30914E-10         0.00000E+00
    0.27182E-08         0.15761E-10         0.00000E+00
    0.27181E-08         0.80182E-11         0.00000E+00
    0.29803E-08         0.75382E-11         0.00000E+00
    0.29802E-08         0.14914E-10         0.00000E+00
    0.29800E-08         0.29417E-10         0.00000E+00
    0.29795E-08         0.43420E-10         0.00000E+00
    0.29789E-08         0.56913E-10         0.00000E+00
    0.29781E-08         0.69884E-10         0.00000E+00
    0.29772E-08         0.82326E-10         0.00000E+00
    0.29762E-08         0.94227E-10         0.00000E+00
    0.29750E-08         0.10558E-09         0.00000E+00
    0.29736E-08         0.11637E-09         0.00000E+00
    0.29722E-08         0.12660E-09         0.00000E+00
    0.29706E-08         0.13625E-09         0.00000E+00
    0.29689E-08         0.14532E-09         0.00000E+00
    0.29671E-08         0.15380E-09         0.00000E+00
    0.29652E-08         0.16168E-09         0.00000E+00
    0.29632E-08         0.16894E-09         0.00000E+00
    0.29611E-08         0.17560E-09         0.00000E+00
    0.29590E-08         0.18163E-09         0.00000E+00
    0.29567E-08         0.18703E-09         0.00000E+00
    0.29545E-08         0.19180E-09         0.00000E+00
    0.29521E-08         0.19593E-09         0.00000E+00
    0.29498E-08         0.19940E-09         0.00000E+00
    0.29473E-08         0.20223E-09         0.00000E+00
    0.29449E-08         0.20439E-09         0.00000E+00
    0.29424E-08         0.20588E-09         0.00000E+00
    0.29399E-08         0.20671E-09         0.00000E+00
    0.29375E-08         0.20686E-09         0.00000E+00
    0.29350E-08         0.20633E-09         0.00000E+00
    0.29325E-08         0.20511E-09         0.00000E+00
    0.29301E-08         0.20321E-09         0.00000E+00
    0.29276E-08         0.20061E-09         0.00000E+00
    0.29253E-08         0.19732E-09         0.00000E+00
    0.29229E-08         0.19332E-09         0.00000E+00
    0.29206E-08         0.18863E-09         0.00000E+00
    0.29184E-08         0.18322E-09         0.00000E+00
    0.29162E-08         0.17711E-09         0.00000E+00
    0.29142E-08         0.17029E-09         0.00000E+00
    0.29122E-08         0.16276E-09         0.00000E+00
    0.29103E-08         0.15452E-09         0.00000E+00
    0.29085E-08         0.14556E-09         0.00000E+00
    0.29068E-08         0.13589E-09         0.00000E+00
    0.29052E-08         0.12550E-09         0.00000E+00
    0.29038E-08         0.11440E-09         0.00000E+00
    0.29025E-08         0.10258E-09         0.00000E+00
    0.29014E-08         0.90046E-10         0.00000E+00
    0.29004E-08         0.76800E-10         0.00000E+00
    0.28995E-08         0.62843E-10         0.00000E+00
    0.28989E-08         0.48176E-10         0.00000E+00
    0.28984E-08         0.32802E-10         0.00000E+00
    0.28981E-08         0.16723E-10         0.00000E+00
    0.28980E-08         0.85071E-11         0.00000E+00
    0.31771E-08         0.80047E-11         0.00000E+00
    0.31770E-08         0.15837E-10         0.00000E+00
    0.31768E-08         0.31239E-10         0.00000E+00
    0.31763E-08         0.46109E-10         0.00000E+00
    0.31757E-08         0.60438E-10         0.00000E+00
    0.31748E-08         0.74214E-10         0.00000E+00
    0.31739E-08         0.87427E-10         0.00000E+00
    0.31727E-08         0.10007E-09         0.00000E+00
    0.31715E-08         0.11212E-09         0.00000E+00
    0.31700E-08         0.12359E-09         0.00000E+00
    0.31685E-08         0.13445E-09         0.00000E+00
    0.31668E-08         0.14470E-09         0.00000E+00
    0.31650E-08         0.15433E-09         0.00000E+00
    0.31631E-08         0.16333E-09         0.00000E+00
    0.31611E-08         0.17170E-09         0.00000E+00
    0.31589E-08         0.17941E-09         0.00000E+00
    0.31567E-08         0.18648E-09         0.00000E+00
    0.31545E-08         0.19288E-09         0.00000E+00
    0.31521E-08         0.19862E-09         0.00000E+00
    0.31497E-08         0.20368E-09         0.00000E+00
    0.31472E-08         0.20806E-09         0.00000E+00
    0.31447E-08         0.21175E-09         0.00000E+00
    0.31421E-08         0.21474E-09         0.00000E+00
    0.31395E-08         0.21703E-09         0.00000E+00
    0.31369E-08         0.21862E-09         0.00000E+00
    0.31342E-08         0.21949E-09         0.00000E+00
    0.31316E-08         0.21965E-09         0.00000E+00
    0.31290E-08         0.21908E-09         0.00000E+00
    0.31263E-08         0.21778E-09         0.00000E+00
    0.31237E-08         0.21576E-09         0.00000E+00
    0.31212E-08         0.21299E-09         0.00000E+00
    0.31186E-08         0.20949E-09         0.00000E+00
    0.31162E-08         0.20524E-09         0.00000E+00
    0.31137E-08         0.20025E-09         0.00000E+00
    0.31114E-08         0.19451E-09         0.00000E+00
    0.31091E-08         0.18802E-09         0.00000E+00
    0.31069E-08         0.18077E-09         0.00000E+00
    0.31047E-08         0.17277E-09         0.00000E+00
    0.31027E-08         0.16402E-09         0.00000E+00
    0.31008E-08         0.15450E-09         0.00000E+00
    0.30990E-08         0.14423E-09         0.00000E+00
    0.30974E-08         0.13320E-09         0.00000E+00
    0.30959E-08         0.12141E-09         0.00000E+00
    0.30945E-08         0.10886E-09         0.00000E+00
    0.30933E-08         0.95557E-10         0.00000E+00
    0.30922E-08         0.81497E-10         0.00000E+00
    0.30913E-08         0.66684E-10         0.00000E+00
    0.30906E-08         0.51118E-10         0.00000E+00
    0.30901E-08         0.34803E-10         0.00000E+00
    0.30898E-08         0.17742E-10         0.00000E+00
    0.30897E-08         0.90255E-11         0.00000E+00
    0.33870E-08         0.85007E-11         0.00000E+00
    0.33869E-08         0.16818E-10         0.00000E+00
    0.33865E-08         0.33175E-10         0.00000E+00
    0.33861E-08         0.48968E-10         0.00000E+00
    0.33854E-08         0.64186E-10         0.00000E+00
    0.33845E-08         0.78817E-10         0.00000E+00
    0.33835E-08         0.92850E-10         0.00000E+00
    0.33823E-08         0.10628E-09         0.00000E+00
    0.33809E-08         0.11908E-09         0.00000E+00
    0.33794E-08         0.13126E-09         0.00000E+00
    0.33777E-08         0.14279E-09         0.00000E+00
    0.33759E-08         0.15368E-09         0.00000E+00
    0.33740E-08         0.16391E-09         0.00000E+00
    0.33720E-08         0.17347E-09         0.00000E+00
    0.33698E-08         0.18235E-09         0.00000E+00
    0.33676E-08         0.19055E-09         0.00000E+00
    0.33653E-08         0.19805E-09         0.00000E+00
    0.33628E-08         0.20485E-09         0.00000E+00
    0.33603E-08         0.21094E-09         0.00000E+00
    0.33577E-08         0.21631E-09         0.00000E+00
    0.33551E-08         0.22096E-09         0.00000E+00
    0.33524E-08         0.22487E-09         0.00000E+00
    0.33497E-08         0.22805E-09         0.00000E+00
    0.33469E-08         0.23048E-09         0.00000E+00
    0.33441E-08         0.23216E-09         0.00000E+00
    0.33413E-08         0.23308E-09         0.00000E+00
    0.33385E-08         0.23324E-09         0.00000E+00
    0.33357E-08         0.23263E-09         0.00000E+00
    0.33329E-08         0.23124E-09         0.00000E+00
    0.33302E-08         0.22909E-09         0.00000E+00
    0.33274E-08         0.22614E-09         0.00000E+00
    0.33247E-08         0.22242E-09         0.00000E+00
    0.33221E-08         0.21790E-09         0.00000E+00
    0.33195E-08         0.21260E-09         0.00000E+00
    0.33170E-08         0.20650E-09         0.00000E+00
    0.33146E-08         0.19960E-09         0.00000E+00
    0.33122E-08         0.19190E-09         0.00000E+00
    0.33100E-08         0.18340E-09         0.00000E+00
    0.33079E-08         0.17410E-09         0.00000E+00
    0.33058E-08         0.16399E-09         0.00000E+00
    0.33039E-08         0.15308E-09         0.00000E+00
    0.33022E-08         0.14137E-09         0.00000E+00
    0.33006E-08         0.12885E-09         0.00000E+00
    0.32991E-08         0.11553E-09         0.00000E+00
    0.32978E-08         0.10140E-09         0.00000E+00
    0.32967E-08         0.86480E-10         0.00000E+00
    0.32958E-08         0.70757E-10         0.00000E+00
    0.32950E-08         0.54238E-10         0.00000E+00
    0.32945E-08         0.36926E-10         0.00000E+00
    0.32941E-08         0.18823E-10         0.00000E+00
    0.32940E-08         0.95750E-11         0.00000E+00
    0.36106E-08         0.90284E-11         0.00000E+00
    0.36105E-08         0.17863E-10         0.00000E+00
    0.36102E-08         0.35236E-10         0.00000E+00
    0.36096E-08         0.52011E-10         0.00000E+00
    0.36089E-08         0.68175E-10         0.00000E+00
    0.36080E-08         0.83716E-10         0.00000E+00
    0.36069E-08         0.98623E-10         0.00000E+00
    0.36056E-08         0.11288E-09         0.00000E+00
    0.36042E-08         0.12649E-09         0.00000E+00
    0.36026E-08         0.13942E-09         0.00000E+00
    0.36008E-08         0.15167E-09         0.00000E+00
    0.35989E-08         0.16324E-09         0.00000E+00
    0.35968E-08         0.17410E-09         0.00000E+00
    0.35947E-08         0.18425E-09         0.00000E+00
    0.35924E-08         0.19369E-09         0.00000E+00
    0.35900E-08         0.20239E-09         0.00000E+00
    0.35875E-08         0.21036E-09         0.00000E+00
    0.35849E-08         0.21758E-09         0.00000E+00
    0.35822E-08         0.22404E-09         0.00000E+00
    0.35795E-08         0.22975E-09         0.00000E+00
    0.35767E-08         0.23468E-09         0.00000E+00
    0.35738E-08         0.23883E-09         0.00000E+00
    0.35709E-08         0.24220E-09         0.00000E+00
    0.35680E-08         0.24477E-09         0.00000E+00
    0.35650E-08         0.24655E-09         0.00000E+00
    0.35620E-08         0.24752E-09         0.00000E+00
    0.35591E-08         0.24769E-09         0.00000E+00
    0.35561E-08         0.24703E-09         0.00000E+00
    0.35531E-08         0.24556E-09         0.00000E+00
    0.35502E-08         0.24326E-09         0.00000E+00
    0.35473E-08         0.24013E-09         0.00000E+00
    0.35444E-08         0.23616E-09         0.00000E+00
    0.35416E-08         0.23136E-09         0.00000E+00
    0.35388E-08         0.22572E-09         0.00000E+00
    0.35362E-08         0.21923E-09         0.00000E+00
    0.35336E-08         0.21190E-09         0.00000E+00
    0.35311E-08         0.20372E-09         0.00000E+00
    0.35287E-08         0.19469E-09         0.00000E+00
    0.35264E-08         0.18480E-09         0.00000E+00
    0.35243E-08         0.17407E-09         0.00000E+00
    0.35223E-08         0.16248E-09         0.00000E+00
    0.35204E-08         0.15004E-09         0.00000E+00
    0.35187E-08         0.13675E-09         0.00000E+00
    0.35172E-08         0.12260E-09         0.00000E+00
    0.35158E-08         0.10761E-09         0.00000E+00
    0.35146E-08         0.91768E-10         0.00000E+00
    0.35136E-08         0.75080E-10         0.00000E+00
    0.35128E-08         0.57549E-10         0.00000E+00
    0.35122E-08         0.39177E-10         0.00000E+00
    0.35119E-08         0.19970E-10         0.00000E+00
    0.35118E-08         0.10158E-10         0.00000E+00
    0.38490E-08         0.95908E-11         0.00000E+00
    0.38489E-08         0.18976E-10         0.00000E+00
    0.38485E-08         0.37432E-10         0.00000E+00
    0.38480E-08         0.55253E-10         0.00000E+00
    0.38472E-08         0.72425E-10         0.00000E+00
    0.38462E-08         0.88937E-10         0.00000E+00
    0.38451E-08         0.10477E-09         0.00000E+00
    0.38437E-08         0.11992E-09         0.00000E+00
    0.38421E-08         0.13438E-09         0.00000E+00
    0.38404E-08         0.14812E-09         0.00000E+00
    0.38385E-08         0.16113E-09         0.00000E+00
    0.38365E-08         0.17342E-09         0.00000E+00
    0.38343E-08         0.18496E-09         0.00000E+00
    0.38320E-08         0.19574E-09         0.00000E+00
    0.38296E-08         0.20577E-09         0.00000E+00
    0.38270E-08         0.21501E-09         0.00000E+00
    0.38244E-08         0.22347E-09         0.00000E+00
    0.38216E-08         0.23114E-09         0.00000E+00
    0.38188E-08         0.23800E-09         0.00000E+00
    0.38158E-08         0.24405E-09         0.00000E+00
    0.38129E-08         0.24929E-09         0.00000E+00
    0.38098E-08         0.25369E-09         0.00000E+00
    0.38067E-08         0.25726E-09         0.00000E+00
    0.38036E-08         0.25999E-09         0.00000E+00
    0.38004E-08         0.26187E-09         0.00000E+00
    0.37973E-08         0.26290E-09         0.00000E+00
    0.37941E-08         0.26306E-09         0.00000E+00
    0.37909E-08         0.26236E-09         0.00000E+00
    0.37877E-08         0.26079E-09         0.00000E+00
    0.37846E-08         0.25833E-09         0.00000E+00
    0.37815E-08         0.25500E-09         0.00000E+00
    0.37785E-08         0.25078E-09         0.00000E+00
    0.37755E-08         0.24567E-09         0.00000E+00
    0.37726E-08         0.23967E-09         0.00000E+00
    0.37697E-08         0.23277E-09         0.00000E+00
    0.37670E-08         0.22498E-09         0.00000E+00
    0.37643E-08         0.21628E-09         0.00000E+00
    0.37618E-08         0.20669E-09         0.00000E+00
    0.37594E-08         0.19618E-09         0.00000E+00
    0.37571E-08         0.18478E-09         0.00000E+00
    0.37550E-08         0.17247E-09         0.00000E+00
    0.37530E-08         0.15926E-09         0.00000E+00
    0.37511E-08         0.14514E-09         0.00000E+00
    0.37495E-08         0.13012E-09         0.00000E+00
    0.37480E-08         0.11420E-09         0.00000E+00
    0.37468E-08         0.97383E-10         0.00000E+00
    0.37457E-08         0.79669E-10         0.00000E+00
    0.37449E-08         0.61063E-10         0.00000E+00
    0.37443E-08         0.41567E-10         0.00000E+00
    0.37439E-08         0.21187E-10         0.00000E+00
    0.37438E-08         0.10776E-10         0.00000E+00
    0.41031E-08         0.10191E-10         0.00000E+00
    0.41030E-08         0.20163E-10         0.00000E+00
    0.41026E-08         0.39775E-10         0.00000E+00
    0.41020E-08         0.58712E-10         0.00000E+00
    0.41012E-08         0.76961E-10         0.00000E+00
    0.41002E-08         0.94507E-10         0.00000E+00
    0.40989E-08         0.11134E-09         0.00000E+00
    0.40975E-08         0.12744E-09         0.00000E+00
    0.40958E-08         0.14279E-09         0.00000E+00
    0.40940E-08         0.15739E-09         0.00000E+00
    0.40920E-08         0.17123E-09         0.00000E+00
    0.40898E-08         0.18428E-09         0.00000E+00
    0.40875E-08         0.19654E-09         0.00000E+00
    0.40850E-08         0.20800E-09         0.00000E+00
    0.40824E-08         0.21865E-09         0.00000E+00
    0.40797E-08         0.22847E-09         0.00000E+00
    0.40768E-08         0.23745E-09         0.00000E+00
    0.40739E-08         0.24559E-09         0.00000E+00
    0.40709E-08         0.25288E-09         0.00000E+00
    0.40677E-08         0.25931E-09         0.00000E+00
    0.40646E-08         0.26486E-09         0.00000E+00
    0.40613E-08         0.26954E-09         0.00000E+00
    0.40580E-08         0.27332E-09         0.00000E+00
    0.40547E-08         0.27621E-09         0.00000E+00
    0.40513E-08         0.27820E-09         0.00000E+00
    0.40479E-08         0.27928E-09         0.00000E+00
    0.40445E-08         0.27945E-09         0.00000E+00
    0.40411E-08         0.27869E-09         0.00000E+00
    0.40378E-08         0.27701E-09         0.00000E+00
    0.40344E-08         0.27439E-09         0.00000E+00
    0.40311E-08         0.27084E-09         0.00000E+00
    0.40279E-08         0.26635E-09         0.00000E+00
    0.40247E-08         0.26091E-09         0.00000E+00
    0.40216E-08         0.25452E-09         0.00000E+00
    0.40186E-08         0.24719E-09         0.00000E+00
    0.40157E-08         0.23890E-09         0.00000E+00
    0.40128E-08         0.22965E-09         0.00000E+00
    0.40101E-08         0.21945E-09         0.00000E+00
    0.40076E-08         0.20829E-09         0.00000E+00
    0.40051E-08         0.19617E-09         0.00000E+00
    0.40029E-08         0.18309E-09         0.00000E+00
    0.40008E-08         0.16905E-09         0.00000E+00
    0.39988E-08         0.15406E-09         0.00000E+00
    0.39971E-08         0.13811E-09         0.00000E+00
    0.39955E-08         0.12120E-09         0.00000E+00
    0.39942E-08         0.10335E-09         0.00000E+00
    0.39931E-08         0.84543E-10         0.00000E+00
    0.39922E-08         0.64794E-10         0.00000E+00
    0.39915E-08         0.44104E-10         0.00000E+00
    0.39911E-08         0.22479E-10         0.00000E+00
    0.39910E-08         0.11433E-10         0.00000E+00
    0.43740E-08         0.10832E-10         0.00000E+00
    0.43739E-08         0.21432E-10         0.00000E+00
    0.43735E-08         0.42279E-10         0.00000E+00
    0.43729E-08         0.62409E-10         0.00000E+00
    0.43720E-08         0.81807E-10         0.00000E+00
    0.43709E-08         0.10046E-09         0.00000E+00
    0.43695E-08         0.11835E-09         0.00000E+00
    0.43680E-08         0.13546E-09         0.00000E+00
    0.43662E-08         0.15179E-09         0.00000E+00
    0.43642E-08         0.16731E-09         0.00000E+00
    0.43621E-08         0.18201E-09         0.00000E+00
    0.43598E-08         0.19588E-09         0.00000E+00
    0.43573E-08         0.20891E-09         0.00000E+00
    0.43546E-08         0.22109E-09         0.00000E+00
    0.43519E-08         0.23240E-09         0.00000E+00
    0.43489E-08         0.24284E-09         0.00000E+00
    0.43459E-08         0.25238E-09         0.00000E+00
    0.43428E-08         0.26103E-09         0.00000E+00
    0.43395E-08         0.26877E-09         0.00000E+00
    0.43362E-08         0.27559E-09         0.00000E+00
    0.43328E-08         0.28148E-09         0.00000E+00
    0.43293E-08         0.28644E-09         0.00000E+00
    0.43258E-08         0.29045E-09         0.00000E+00
    0.43222E-08         0.29352E-09         0.00000E+00
    0.43186E-08         0.29562E-09         0.00000E+00
    0.43150E-08         0.29675E-09         0.00000E+00
    0.43114E-08         0.29692E-09         0.00000E+00
    0.43078E-08         0.29610E-09         0.00000E+00
    0.43042E-08         0.29430E-09         0.00000E+00
    0.43007E-08         0.29150E-09         0.00000E+00
    0.42971E-08         0.28772E-09         0.00000E+00
    0.42937E-08         0.28293E-09         0.00000E+00
    0.42903E-08         0.27714E-09         0.00000E+00
    0.42870E-08         0.27034E-09         0.00000E+00
    0.42838E-08         0.26253E-09         0.00000E+00
    0.42806E-08         0.25371E-09         0.00000E+00
    0.42776E-08         0.24388E-09         0.00000E+00
    0.42748E-08         0.23303E-09         0.00000E+00
    0.42720E-08         0.22117E-09         0.00000E+00
    0.42694E-08         0.20828E-09         0.00000E+00
    0.42670E-08         0.19438E-09         0.00000E+00
    0.42648E-08         0.17947E-09         0.00000E+00
    0.42627E-08         0.16354E-09         0.00000E+00
    0.42609E-08         0.14660E-09         0.00000E+00
    0.42592E-08         0.12865E-09         0.00000E+00
    0.42578E-08         0.10969E-09         0.00000E+00
    0.42566E-08         0.89722E-10         0.00000E+00
    0.42556E-08         0.68758E-10         0.00000E+00
    0.42550E-08         0.46799E-10         0.00000E+00
    0.42545E-08         0.23851E-10         0.00000E+00
    0.42544E-08         0.12130E-10         0.00000E+00
    0.46628E-08         0.11519E-10         0.00000E+00
    0.46627E-08         0.22791E-10         0.00000E+00
    0.46622E-08         0.44960E-10         0.00000E+00
    0.46616E-08         0.66367E-10         0.00000E+00
    0.46606E-08         0.86996E-10         0.00000E+00
    0.46594E-08         0.10683E-09         0.00000E+00
    0.46580E-08         0.12586E-09         0.00000E+00
    0.46563E-08         0.14405E-09         0.00000E+00
    0.46544E-08         0.16141E-09         0.00000E+00
    0.46523E-08         0.17791E-09         0.00000E+00
    0.46500E-08         0.19355E-09         0.00000E+00
    0.46475E-08         0.20830E-09         0.00000E+00
    0.46449E-08         0.22215E-09         0.00000E+00
    0.46420E-08         0.23509E-09         0.00000E+00
    0.46391E-08         0.24711E-09         0.00000E+00
    0.46359E-08         0.25820E-09         0.00000E+00
    0.46327E-08         0.26834E-09         0.00000E+00
    0.46293E-08         0.27753E-09         0.00000E+00
    0.46259E-08         0.28575E-09         0.00000E+00
    0.46223E-08         0.29299E-09         0.00000E+00
    0.46187E-08         0.29924E-09         0.00000E+00
    0.46149E-08         0.30450E-09         0.00000E+00
    0.46112E-08         0.30876E-09         0.00000E+00
    0.46074E-08         0.31200E-09         0.00000E+00
    0.46035E-08         0.31422E-09         0.00000E+00
    0.45997E-08         0.31541E-09         0.00000E+00
    0.45958E-08         0.31556E-09         0.00000E+00
    0.45920E-08         0.31468E-09         0.00000E+00
    0.45881E-08         0.31275E-09         0.00000E+00
    0.45843E-08         0.30976E-09         0.00000E+00
    0.45806E-08         0.30572E-09         0.00000E+00
    0.45769E-08         0.30061E-09         0.00000E+00
    0.45733E-08         0.29444E-09         0.00000E+00
    0.45697E-08         0.28720E-09         0.00000E+00
    0.45663E-08         0.27889E-09         0.00000E+00
    0.45630E-08         0.26950E-09         0.00000E+00
    0.45598E-08         0.25904E-09         0.00000E+00
    0.45567E-08         0.24750E-09         0.00000E+00
    0.45538E-08         0.23488E-09         0.00000E+00
    0.45510E-08         0.22119E-09         0.00000E+00
    0.45484E-08         0.20641E-09         0.00000E+00
    0.45461E-08         0.19056E-09         0.00000E+00
    0.45439E-08         0.17363E-09         0.00000E+00
    0.45419E-08         0.15563E-09         0.00000E+00
    0.45401E-08         0.13656E-09         0.00000E+00
    0.45386E-08         0.11643E-09         0.00000E+00
    0.45374E-08         0.95228E-10         0.00000E+00
    0.45363E-08         0.72972E-10         0.00000E+00
    0.45356E-08         0.49663E-10         0.00000E+00
    0.45352E-08         0.25308E-10         0.00000E+00
    0.45350E-08         0.12870E-10         0.00000E+00
    0.49707E-08         0.12256E-10         0.00000E+00
    0.49705E-08         0.24249E-10         0.00000E+00
    0.49700E-08         0.47836E-10         0.00000E+00
    0.49693E-08         0.70613E-10         0.00000E+00
    0.49683E-08         0.92562E-10         0.00000E+00
    0.49670E-08         0.11366E-09         0.00000E+00
    0.49655E-08         0.13391E-09         0.00000E+00
    0.49637E-08         0.15327E-09         0.00000E+00
    0.49616E-08         0.17173E-09         0.00000E+00
    0.49594E-08         0.18929E-09         0.00000E+00
    0.49569E-08         0.20591E-09         0.00000E+00
    0.49542E-08         0.22160E-09         0.00000E+00
    0.49514E-08         0.23633E-09         0.00000E+00
    0.49484E-08         0.25009E-09         0.00000E+00
    0.49452E-08         0.26287E-09         0.00000E+00
    0.49418E-08         0.27466E-09         0.00000E+00
    0.49384E-08         0.28544E-09         0.00000E+00
    0.49347E-08         0.29520E-09         0.00000E+00
    0.49310E-08         0.30392E-09         0.00000E+00
    0.49272E-08         0.31161E-09         0.00000E+00
    0.49233E-08         0.31825E-09         0.00000E+00
    0.49193E-08         0.32383E-09         0.00000E+00
    0.49153E-08         0.32833E-09         0.00000E+00
    0.49112E-08         0.33176E-09         0.00000E+00
    0.49071E-08         0.33410E-09         0.00000E+00
    0.49030E-08         0.33535E-09         0.00000E+00
    0.48989E-08         0.33550E-09         0.00000E+00
    0.48947E-08         0.33454E-09         0.00000E+00
    0.48906E-08         0.33246E-09         0.00000E+00
    0.48866E-08         0.32927E-09         0.00000E+00
    0.48826E-08         0.32495E-09         0.00000E+00
    0.48786E-08         0.31950E-09         0.00000E+00
    0.48748E-08         0.31292E-09         0.00000E+00
    0.48710E-08         0.30520E-09         0.00000E+00
    0.48673E-08         0.29635E-09         0.00000E+00
    0.48638E-08         0.28635E-09         0.00000E+00
    0.48603E-08         0.27521E-09         0.00000E+00
    0.48571E-08         0.26293E-09         0.00000E+00
    0.48540E-08         0.24951E-09         0.00000E+00
    0.48510E-08         0.23494E-09         0.00000E+00
    0.48483E-08         0.21923E-09         0.00000E+00
    0.48457E-08         0.20237E-09         0.00000E+00
    0.48434E-08         0.18438E-09         0.00000E+00
    0.48413E-08         0.16525E-09         0.00000E+00
    0.48394E-08         0.14499E-09         0.00000E+00
    0.48378E-08         0.12360E-09         0.00000E+00
    0.48365E-08         0.10109E-09         0.00000E+00
    0.48354E-08         0.77454E-10         0.00000E+00
    0.48346E-08         0.52709E-10         0.00000E+00
    0.48341E-08         0.26858E-10         0.00000E+00
    0.48340E-08         0.13657E-10         0.00000E+00
    0.52989E-08         0.13048E-10         0.00000E+00
    0.52987E-08         0.25817E-10         0.00000E+00
    0.52982E-08         0.50928E-10         0.00000E+00
    0.52974E-08         0.75177E-10         0.00000E+00
    0.52963E-08         0.98544E-10         0.00000E+00
    0.52949E-08         0.12101E-09         0.00000E+00
    0.52933E-08         0.14256E-09         0.00000E+00
    0.52913E-08         0.16316E-09         0.00000E+00
    0.52891E-08         0.18282E-09         0.00000E+00
    0.52867E-08         0.20150E-09         0.00000E+00
    0.52841E-08         0.21919E-09         0.00000E+00
    0.52812E-08         0.23588E-09         0.00000E+00
    0.52781E-08         0.25156E-09         0.00000E+00
    0.52749E-08         0.26619E-09         0.00000E+00
    0.52715E-08         0.27978E-09         0.00000E+00
    0.52679E-08         0.29231E-09         0.00000E+00
    0.52641E-08         0.30377E-09         0.00000E+00
    0.52603E-08         0.31414E-09         0.00000E+00
    0.52563E-08         0.32341E-09         0.00000E+00
    0.52522E-08         0.33158E-09         0.00000E+00
    0.52480E-08         0.33862E-09         0.00000E+00
    0.52437E-08         0.34453E-09         0.00000E+00
    0.52394E-08         0.34931E-09         0.00000E+00
    0.52350E-08         0.35293E-09         0.00000E+00
    0.52306E-08         0.35540E-09         0.00000E+00
    0.52262E-08         0.35670E-09         0.00000E+00
    0.52218E-08         0.35683E-09         0.00000E+00
    0.52174E-08         0.35578E-09         0.00000E+00
    0.52130E-08         0.35355E-09         0.00000E+00
    0.52086E-08         0.35012E-09         0.00000E+00
    0.52043E-08         0.34550E-09         0.00000E+00
    0.52001E-08         0.33968E-09         0.00000E+00
    0.51960E-08         0.33266E-09         0.00000E+00
    0.51920E-08         0.32443E-09         0.00000E+00
    0.51880E-08         0.31499E-09         0.00000E+00
    0.51842E-08         0.30434E-09         0.00000E+00
    0.51806E-08         0.29248E-09         0.00000E+00
    0.51771E-08         0.27940E-09         0.00000E+00
    0.51738E-08         0.26511E-09         0.00000E+00
    0.51706E-08         0.24960E-09         0.00000E+00
    0.51677E-08         0.23289E-09         0.00000E+00
    0.51650E-08         0.21497E-09         0.00000E+00
    0.51625E-08         0.19583E-09         0.00000E+00
    0.51603E-08         0.17550E-09         0.00000E+00
    0.51583E-08         0.15397E-09         0.00000E+00
    0.51566E-08         0.13124E-09         0.00000E+00
    0.51551E-08         0.10732E-09         0.00000E+00
    0.51540E-08         0.82224E-10         0.00000E+00
    0.51531E-08         0.55949E-10         0.00000E+00
    0.51526E-08         0.28506E-10         0.00000E+00
    0.51525E-08         0.14494E-10         0.00000E+00
    0.56488E-08         0.13902E-10         0.00000E+00
    0.56486E-08         0.27507E-10         0.00000E+00
    0.56481E-08         0.54261E-10         0.00000E+00
    0.56472E-08         0.80095E-10         0.00000E+00
    0.56460E-08         0.10499E-09         0.00000E+00
    0.56445E-08         0.12892E-09         0.00000E+00
    0.56427E-08         0.15187E-09         0.00000E+00
    0.56407E-08         0.17382E-09         0.00000E+00
    0.56383E-08         0.19475E-09         0.00000E+00
    0.56357E-08         0.21464E-09         0.00000E+00
    0.56328E-08         0.23348E-09         0.00000E+00
    0.56298E-08         0.25125E-09         0.00000E+00
    0.56265E-08         0.26793E-09         0.00000E+00
    0.56230E-08         0.28351E-09         0.00000E+00
    0.56193E-08         0.29796E-09         0.00000E+00
    0.56154E-08         0.31129E-09         0.00000E+00
    0.56114E-08         0.32347E-09         0.00000E+00
    0.56072E-08         0.33449E-09         0.00000E+00
    0.56029E-08         0.34434E-09         0.00000E+00
    0.55985E-08         0.35301E-09         0.00000E+00
    0.55940E-08         0.36048E-09         0.00000E+00
    0.55895E-08         0.36675E-09         0.00000E+00
    0.55848E-08         0.37181E-09         0.00000E+00
    0.55801E-08         0.37564E-09         0.00000E+00
    0.55754E-08         0.37823E-09         0.00000E+00
    0.55707E-08         0.37959E-09         0.00000E+00
    0.55659E-08         0.37969E-09         0.00000E+00
    0.55612E-08         0.37855E-09         0.00000E+00
    0.55565E-08         0.37614E-09         0.00000E+00
    0.55518E-08         0.37246E-09         0.00000E+00
    0.55472E-08         0.36751E-09         0.00000E+00
    0.55427E-08         0.36129E-09         0.00000E+00
    0.55383E-08         0.35378E-09         0.00000E+00
    0.55339E-08         0.34500E-09         0.00000E+00
    0.55298E-08         0.33492E-09         0.00000E+00
    0.55257E-08         0.32357E-09         0.00000E+00
    0.55218E-08         0.31092E-09         0.00000E+00
    0.55181E-08         0.29699E-09         0.00000E+00
    0.55145E-08         0.28177E-09         0.00000E+00
    0.55112E-08         0.26526E-09         0.00000E+00
    0.55080E-08         0.24747E-09         0.00000E+00
    0.55051E-08         0.22840E-09         0.00000E+00
    0.55025E-08         0.20805E-09         0.00000E+00
    0.55001E-08         0.18643E-09         0.00000E+00
    0.54980E-08         0.16354E-09         0.00000E+00
    0.54961E-08         0.13938E-09         0.00000E+00
    0.54946E-08         0.11397E-09         0.00000E+00
    0.54934E-08         0.87303E-10         0.00000E+00
    0.54925E-08         0.59398E-10         0.00000E+00
    0.54920E-08         0.30260E-10         0.00000E+00
    0.54918E-08         0.15384E-10         0.00000E+00
    0.60219E-08         0.14825E-10         0.00000E+00
    0.60217E-08         0.29332E-10         0.00000E+00
    0.60212E-08         0.57861E-10         0.00000E+00
    0.60202E-08         0.85407E-10         0.00000E+00
    0.60190E-08         0.11195E-09         0.00000E+00
    0.60173E-08         0.13746E-09         0.00000E+00
    0.60154E-08         0.16192E-09         0.00000E+00
    0.60131E-08         0.18532E-09         0.00000E+00
    0.60106E-08         0.20762E-09         0.00000E+00
    0.60078E-08         0.22882E-09         0.00000E+00
    0.60047E-08         0.24889E-09         0.00000E+00
    0.60014E-08         0.26781E-09         0.00000E+00
    0.59978E-08         0.28557E-09         0.00000E+00
    0.59940E-08         0.30216E-09         0.00000E+00
    0.59901E-08         0.31754E-09         0.00000E+00
    0.59859E-08         0.33172E-09         0.00000E+00
    0.59816E-08         0.34468E-09         0.00000E+00
    0.59771E-08         0.35640E-09         0.00000E+00
    0.59725E-08         0.36686E-09         0.00000E+00
    0.59677E-08         0.37606E-09         0.00000E+00
    0.59629E-08         0.38399E-09         0.00000E+00
    0.59580E-08         0.39064E-09         0.00000E+00
    0.59530E-08         0.39598E-09         0.00000E+00
    0.59479E-08         0.40002E-09         0.00000E+00
    0.59428E-08         0.40275E-09         0.00000E+00
    0.59377E-08         0.40415E-09         0.00000E+00
    0.59327E-08         0.40423E-09         0.00000E+00
    0.59276E-08         0.40297E-09         0.00000E+00
    0.59225E-08         0.40036E-09         0.00000E+00
    0.59175E-08         0.39640E-09         0.00000E+00
    0.59126E-08         0.39110E-09         0.00000E+00
    0.59077E-08         0.38443E-09         0.00000E+00
    0.59030E-08         0.37640E-09         0.00000E+00
    0.58984E-08         0.36701E-09         0.00000E+00
    0.58939E-08         0.35626E-09         0.00000E+00
    0.58895E-08         0.34414E-09         0.00000E+00
    0.58854E-08         0.33065E-09         0.00000E+00
    0.58814E-08         0.31580E-09         0.00000E+00
    0.58776E-08         0.29958E-09         0.00000E+00
    0.58740E-08         0.28199E-09         0.00000E+00
    0.58706E-08         0.26305E-09         0.00000E+00
    0.58675E-08         0.24275E-09         0.00000E+00
    0.58647E-08         0.22109E-09         0.00000E+00
    0.58621E-08         0.19809E-09         0.00000E+00
    0.58599E-08         0.17374E-09         0.00000E+00
    0.58579E-08         0.14806E-09         0.00000E+00
    0.58563E-08         0.12105E-09         0.00000E+00
    0.58550E-08         0.92715E-10         0.00000E+00
    0.58541E-08         0.63072E-10         0.00000E+00
    0.58535E-08         0.32128E-10         0.00000E+00
    0.58533E-08         0.16332E-10         0.00000E+00
    0.64199E-08         0.15825E-10         0.00000E+00
    0.64197E-08         0.31310E-10         0.00000E+00
    0.64191E-08         0.61760E-10         0.00000E+00
    0.64180E-08         0.91158E-10         0.00000E+00
    0.64167E-08         0.11948E-09         0.00000E+00
    0.64149E-08         0.14670E-09         0.00000E+00
    0.64128E-08         0.17280E-09         0.00000E+00
    0.64104E-08         0.19775E-09         0.00000E+00
    0.64076E-08         0.22154E-09         0.00000E+00
    0.64046E-08         0.24414E-09         0.00000E+00
    0.64012E-08         0.26553E-09         0.00000E+00
    0.63976E-08         0.28570E-09         0.00000E+00
    0.63938E-08         0.30463E-09         0.00000E+00
    0.63897E-08         0.32229E-09         0.00000E+00
    0.63854E-08         0.33867E-09         0.00000E+00
    0.63809E-08         0.35376E-09         0.00000E+00
    0.63762E-08         0.36754E-09         0.00000E+00
    0.63714E-08         0.38000E-09         0.00000E+00
    0.63664E-08         0.39112E-09         0.00000E+00
    0.63613E-08         0.40090E-09         0.00000E+00
    0.63561E-08         0.40931E-09         0.00000E+00
    0.63508E-08         0.41634E-09         0.00000E+00
    0.63454E-08         0.42200E-09         0.00000E+00
    0.63400E-08         0.42626E-09         0.00000E+00
    0.63345E-08         0.42912E-09         0.00000E+00
    0.63290E-08         0.43056E-09         0.00000E+00
    0.63235E-08         0.43059E-09         0.00000E+00
    0.63181E-08         0.42920E-09         0.00000E+00
    0.63127E-08         0.42637E-09         0.00000E+00
    0.63073E-08         0.42211E-09         0.00000E+00
    0.63020E-08         0.41640E-09         0.00000E+00
    0.62968E-08         0.40925E-09         0.00000E+00
    0.62917E-08         0.40066E-09         0.00000E+00
    0.62867E-08         0.39061E-09         0.00000E+00
    0.62819E-08         0.37912E-09         0.00000E+00
    0.62773E-08         0.36617E-09         0.00000E+00
    0.62728E-08         0.35177E-09         0.00000E+00
    0.62685E-08         0.33592E-09         0.00000E+00
    0.62644E-08         0.31863E-09         0.00000E+00
    0.62606E-08         0.29989E-09         0.00000E+00
    0.62570E-08         0.27970E-09         0.00000E+00
    0.62537E-08         0.25808E-09         0.00000E+00
    0.62507E-08         0.23502E-09         0.00000E+00
    0.62480E-08         0.21054E-09         0.00000E+00
    0.62455E-08         0.18463E-09         0.00000E+00
    0.62435E-08         0.15732E-09         0.00000E+00
    0.62417E-08         0.12860E-09         0.00000E+00
    0.62403E-08         0.98485E-10         0.00000E+00
    0.62393E-08         0.66987E-10         0.00000E+00
    0.62387E-08         0.34118E-10         0.00000E+00
    0.62385E-08         0.17341E-10         0.00000E+00
    0.68444E-08         0.16911E-10         0.00000E+00
    0.68442E-08         0.33457E-10         0.00000E+00
    0.68435E-08         0.65992E-10         0.00000E+00
    0.68424E-08         0.97399E-10         0.00000E+00
    0.68409E-08         0.12765E-09         0.00000E+00
    0.68390E-08         0.15672E-09         0.00000E+00
    0.68367E-08         0.18459E-09         0.00000E+00
    0.68341E-08         0.21123E-09         0.00000E+00
    0.68311E-08         0.23662E-09         0.00000E+00
    0.68278E-08         0.26073E-09         0.00000E+00
    0.68242E-08         0.28355E-09         0.00000E+00
    0.68203E-08         0.30506E-09         0.00000E+00
    0.68161E-08         0.32524E-09         0.00000E+00
    0.68117E-08         0.34406E-09         0.00000E+00
    0.68070E-08         0.36151E-09         0.00000E+00
    0.68022E-08         0.37758E-09         0.00000E+00
    0.67971E-08         0.39224E-09         0.00000E+00
    0.67919E-08         0.40549E-09         0.00000E+00
    0.67865E-08         0.41731E-09         0.00000E+00
    0.67810E-08         0.42769E-09         0.00000E+00
    0.67753E-08         0.43661E-09         0.00000E+00
    0.67696E-08         0.44406E-09         0.00000E+00
    0.67638E-08         0.45003E-09         0.00000E+00
    0.67580E-08         0.45452E-09         0.00000E+00
    0.67521E-08         0.45751E-09         0.00000E+00
    0.67462E-08         0.45899E-09         0.00000E+00
    0.67403E-08         0.45896E-09         0.00000E+00
    0.67344E-08         0.45741E-09         0.00000E+00
    0.67285E-08         0.45433E-09         0.00000E+00
    0.67228E-08         0.44973E-09         0.00000E+00
    0.67171E-08         0.44359E-09         0.00000E+00
    0.67115E-08         0.43591E-09         0.00000E+00
    0.67060E-08         0.42669E-09         0.00000E+00
    0.67007E-08         0.41593E-09         0.00000E+00
    0.66955E-08         0.40363E-09         0.00000E+00
    0.66905E-08         0.38979E-09         0.00000E+00
    0.66857E-08         0.37441E-09         0.00000E+00
    0.66811E-08         0.35748E-09         0.00000E+00
    0.66768E-08         0.33902E-09         0.00000E+00
    0.66727E-08         0.31903E-09         0.00000E+00
    0.66689E-08         0.29751E-09         0.00000E+00
    0.66653E-08         0.27447E-09         0.00000E+00
    0.66621E-08         0.24991E-09         0.00000E+00
    0.66592E-08         0.22384E-09         0.00000E+00
    0.66566E-08         0.19627E-09         0.00000E+00
    0.66543E-08         0.16720E-09         0.00000E+00
    0.66525E-08         0.13666E-09         0.00000E+00
    0.66510E-08         0.10464E-09         0.00000E+00
    0.66499E-08         0.71161E-10         0.00000E+00
    0.66493E-08         0.36238E-10         0.00000E+00
    0.66491E-08         0.18416E-10         0.00000E+00
    0.72973E-08         0.18094E-10         0.00000E+00
    0.72971E-08         0.35795E-10         0.00000E+00
    0.72963E-08         0.70599E-10         0.00000E+00
    0.72952E-08         0.10419E-09         0.00000E+00
    0.72935E-08         0.13654E-09         0.00000E+00
    0.72914E-08         0.16762E-09         0.00000E+00
    0.72890E-08         0.19740E-09         0.00000E+00
    0.72861E-08         0.22587E-09         0.00000E+00
    0.72828E-08         0.25299E-09         0.00000E+00
    0.72793E-08         0.27874E-09         0.00000E+00
    0.72753E-08         0.30310E-09         0.00000E+00
    0.72711E-08         0.32605E-09         0.00000E+00
    0.72666E-08         0.34757E-09         0.00000E+00
    0.72618E-08         0.36764E-09         0.00000E+00
    0.72567E-08         0.38624E-09         0.00000E+00
    0.72515E-08         0.40335E-09         0.00000E+00
    0.72460E-08         0.41896E-09         0.00000E+00
    0.72403E-08         0.43306E-09         0.00000E+00
    0.72345E-08         0.44562E-09         0.00000E+00
    0.72285E-08         0.45663E-09         0.00000E+00
    0.72225E-08         0.46609E-09         0.00000E+00
    0.72163E-08         0.47398E-09         0.00000E+00
    0.72100E-08         0.48028E-09         0.00000E+00
    0.72037E-08         0.48500E-09         0.00000E+00
    0.71973E-08         0.48811E-09         0.00000E+00
    0.71910E-08         0.48962E-09         0.00000E+00
    0.71846E-08         0.48951E-09         0.00000E+00
    0.71783E-08         0.48778E-09         0.00000E+00
    0.71720E-08         0.48442E-09         0.00000E+00
    0.71658E-08         0.47943E-09         0.00000E+00
    0.71596E-08         0.47281E-09         0.00000E+00
    0.71536E-08         0.46455E-09         0.00000E+00
    0.71478E-08         0.45466E-09         0.00000E+00
    0.71420E-08         0.44312E-09         0.00000E+00
    0.71365E-08         0.42994E-09         0.00000E+00
    0.71311E-08         0.41513E-09         0.00000E+00
    0.71260E-08         0.39867E-09         0.00000E+00
    0.71211E-08         0.38059E-09         0.00000E+00
    0.71164E-08         0.36087E-09         0.00000E+00
    0.71120E-08         0.33953E-09         0.00000E+00
    0.71079E-08         0.31658E-09         0.00000E+00
    0.71041E-08         0.29200E-09         0.00000E+00
    0.71006E-08         0.26583E-09         0.00000E+00
    0.70975E-08         0.23805E-09         0.00000E+00
    0.70948E-08         0.20869E-09         0.00000E+00
    0.70924E-08         0.17776E-09         0.00000E+00
    0.70904E-08         0.14526E-09         0.00000E+00
    0.70888E-08         0.11120E-09         0.00000E+00
    0.70877E-08         0.75612E-10         0.00000E+00
    0.70870E-08         0.38498E-10         0.00000E+00
    0.70867E-08         0.19562E-10         0.00000E+00
    0.77808E-08         0.19385E-10         0.00000E+00
    0.77805E-08         0.38346E-10         0.00000E+00
    0.77797E-08         0.75623E-10         0.00000E+00
    0.77784E-08         0.11159E-09         0.00000E+00
    0.77766E-08         0.14622E-09         0.00000E+00
    0.77743E-08         0.17948E-09         0.00000E+00
    0.77716E-08         0.21135E-09         0.00000E+00
    0.77685E-08         0.24179E-09         0.00000E+00
    0.77650E-08         0.27079E-09         0.00000E+00
    0.77611E-08         0.29831E-09         0.00000E+00
    0.77568E-08         0.32434E-09         0.00000E+00
    0.77522E-08         0.34884E-09         0.00000E+00
    0.77473E-08         0.37181E-09         0.00000E+00
    0.77421E-08         0.39322E-09         0.00000E+00
    0.77366E-08         0.41305E-09         0.00000E+00
    0.77309E-08         0.43129E-09         0.00000E+00
    0.77250E-08         0.44791E-09         0.00000E+00
    0.77188E-08         0.46290E-09         0.00000E+00
    0.77125E-08         0.47625E-09         0.00000E+00
    0.77061E-08         0.48795E-09         0.00000E+00
    0.76995E-08         0.49797E-09         0.00000E+00
    0.76928E-08         0.50631E-09         0.00000E+00
    0.76860E-08         0.51296E-09         0.00000E+00
    0.76792E-08         0.51790E-09         0.00000E+00
    0.76723E-08         0.52114E-09         0.00000E+00
    0.76655E-08         0.52265E-09         0.00000E+00
    0.76586E-08         0.52244E-09         0.00000E+00
    0.76518E-08         0.52050E-09         0.00000E+00
    0.76450E-08         0.51683E-09         0.00000E+00
    0.76383E-08         0.51141E-09         0.00000E+00
    0.76317E-08         0.50426E-09         0.00000E+00
    0.76252E-08         0.49536E-09         0.00000E+00
    0.76189E-08         0.48471E-09         0.00000E+00
    0.76128E-08         0.47232E-09         0.00000E+00
    0.76068E-08         0.45819E-09         0.00000E+00
    0.76010E-08         0.44232E-09         0.00000E+00
    0.75955E-08         0.42471E-09         0.00000E+00
    0.75903E-08         0.40537E-09         0.00000E+00
    0.75853E-08         0.38429E-09         0.00000E+00
    0.75805E-08         0.36150E-09         0.00000E+00
    0.75762E-08         0.33699E-09         0.00000E+00
    0.75721E-08         0.31077E-09         0.00000E+00
    0.75684E-08         0.28285E-09         0.00000E+00
    0.75650E-08         0.25325E-09         0.00000E+00
    0.75621E-08         0.22197E-09         0.00000E+00
    0.75596E-08         0.18903E-09         0.00000E+00
    0.75574E-08         0.15444E-09         0.00000E+00
    0.75558E-08         0.11821E-09         0.00000E+00
    0.75545E-08         0.80359E-10         0.00000E+00
    0.75538E-08         0.40907E-10         0.00000E+00
    0.75535E-08         0.20782E-10         0.00000E+00
    0.82970E-08         0.20796E-10         0.00000E+00
    0.82967E-08         0.41135E-10         0.00000E+00
    0.82958E-08         0.81113E-10         0.00000E+00
    0.82944E-08         0.11968E-09         0.00000E+00
    0.82924E-08         0.15679E-09         0.00000E+00
    0.82899E-08         0.19243E-09         0.00000E+00
    0.82870E-08         0.22656E-09         0.00000E+00
    0.82836E-08         0.25915E-09         0.00000E+00
    0.82797E-08         0.29018E-09         0.00000E+00
    0.82755E-08         0.31962E-09         0.00000E+00
    0.82708E-08         0.34744E-09         0.00000E+00
    0.82658E-08         0.37363E-09         0.00000E+00
    0.82605E-08         0.39816E-09         0.00000E+00
    0.82548E-08         0.42101E-09         0.00000E+00
    0.82489E-08         0.44217E-09         0.00000E+00
    0.82427E-08         0.46160E-09         0.00000E+00
    0.82362E-08         0.47930E-09         0.00000E+00
    0.82296E-08         0.49526E-09         0.00000E+00
    0.82227E-08         0.50944E-09         0.00000E+00
    0.82157E-08         0.52185E-09         0.00000E+00
    0.82086E-08         0.53246E-09         0.00000E+00
    0.82014E-08         0.54128E-09         0.00000E+00
    0.81941E-08         0.54828E-09         0.00000E+00
    0.81867E-08         0.55345E-09         0.00000E+00
    0.81793E-08         0.55680E-09         0.00000E+00
    0.81718E-08         0.55831E-09         0.00000E+00
    0.81644E-08         0.55797E-09         0.00000E+00
    0.81571E-08         0.55579E-09         0.00000E+00
    0.81498E-08         0.55175E-09         0.00000E+00
    0.81426E-08         0.54586E-09         0.00000E+00
    0.81355E-08         0.53811E-09         0.00000E+00
    0.81285E-08         0.52850E-09         0.00000E+00
    0.81217E-08         0.51703E-09         0.00000E+00
    0.81151E-08         0.50371E-09         0.00000E+00
    0.81087E-08         0.48854E-09         0.00000E+00
    0.81025E-08         0.47151E-09         0.00000E+00
    0.80966E-08         0.45265E-09         0.00000E+00
    0.80909E-08         0.43194E-09         0.00000E+00
    0.80856E-08         0.40939E-09         0.00000E+00
    0.80805E-08         0.38503E-09         0.00000E+00
    0.80758E-08         0.35884E-09         0.00000E+00
    0.80715E-08         0.33085E-09         0.00000E+00
    0.80675E-08         0.30107E-09         0.00000E+00
    0.80639E-08         0.26950E-09         0.00000E+00
    0.80608E-08         0.23616E-09         0.00000E+00
    0.80581E-08         0.20107E-09         0.00000E+00
    0.80558E-08         0.16424E-09         0.00000E+00
    0.80540E-08         0.12568E-09         0.00000E+00
    0.80527E-08         0.85420E-10         0.00000E+00
    0.80519E-08         0.43474E-10         0.00000E+00
    0.80516E-08         0.22082E-10         0.00000E+00
    0.88484E-08         0.22343E-10         0.00000E+00
    0.88481E-08         0.44189E-10         0.00000E+00
    0.88471E-08         0.87122E-10         0.00000E+00
    0.88456E-08         0.12852E-09         0.00000E+00
    0.88434E-08         0.16835E-09         0.00000E+00
    0.88407E-08         0.20657E-09         0.00000E+00
    0.88375E-08         0.24316E-09         0.00000E+00
    0.88338E-08         0.27809E-09         0.00000E+00
    0.88296E-08         0.31132E-09         0.00000E+00
    0.88249E-08         0.34284E-09         0.00000E+00
    0.88199E-08         0.37261E-09         0.00000E+00
    0.88144E-08         0.40061E-09         0.00000E+00
    0.88086E-08         0.42683E-09         0.00000E+00
    0.88025E-08         0.45123E-09         0.00000E+00
    0.87960E-08         0.47380E-09         0.00000E+00
    0.87892E-08         0.49452E-09         0.00000E+00
    0.87823E-08         0.51337E-09         0.00000E+00
    0.87750E-08         0.53034E-09         0.00000E+00
    0.87676E-08         0.54541E-09         0.00000E+00
    0.87600E-08         0.55857E-09         0.00000E+00
    0.87523E-08         0.56981E-09         0.00000E+00
    0.87445E-08         0.57911E-09         0.00000E+00
    0.87366E-08         0.58647E-09         0.00000E+00
    0.87286E-08         0.59187E-09         0.00000E+00
    0.87206E-08         0.59532E-09         0.00000E+00
    0.87126E-08         0.59680E-09         0.00000E+00
    0.87046E-08         0.59630E-09         0.00000E+00
    0.86966E-08         0.59383E-09         0.00000E+00
    0.86888E-08         0.58938E-09         0.00000E+00
    0.86810E-08         0.58295E-09         0.00000E+00
    0.86734E-08         0.57454E-09         0.00000E+00
    0.86659E-08         0.56415E-09         0.00000E+00
    0.86586E-08         0.55179E-09         0.00000E+00
    0.86514E-08         0.53745E-09         0.00000E+00
    0.86446E-08         0.52113E-09         0.00000E+00
    0.86379E-08         0.50285E-09         0.00000E+00
    0.86316E-08         0.48262E-09         0.00000E+00
    0.86255E-08         0.46043E-09         0.00000E+00
    0.86198E-08         0.43629E-09         0.00000E+00
    0.86144E-08         0.41023E-09         0.00000E+00
    0.86093E-08         0.38224E-09         0.00000E+00
    0.86047E-08         0.35234E-09         0.00000E+00
    0.86004E-08         0.32054E-09         0.00000E+00
    0.85966E-08         0.28686E-09         0.00000E+00
    0.85933E-08         0.25132E-09         0.00000E+00
    0.85904E-08         0.21392E-09         0.00000E+00
    0.85879E-08         0.17469E-09         0.00000E+00
    0.85860E-08         0.13365E-09         0.00000E+00
    0.85847E-08         0.90814E-10         0.00000E+00
    0.85838E-08         0.46209E-10         0.00000E+00
    0.85835E-08         0.23467E-10         0.00000E+00
    0.94379E-08         0.24040E-10         0.00000E+00
    0.94375E-08         0.47537E-10         0.00000E+00
    0.94365E-08         0.93706E-10         0.00000E+00
    0.94348E-08         0.13820E-09         0.00000E+00
    0.94324E-08         0.18099E-09         0.00000E+00
    0.94295E-08         0.22203E-09         0.00000E+00
    0.94259E-08         0.26130E-09         0.00000E+00
    0.94219E-08         0.29876E-09         0.00000E+00
    0.94173E-08         0.33439E-09         0.00000E+00
    0.94122E-08         0.36816E-09         0.00000E+00
    0.94067E-08         0.40003E-09         0.00000E+00
    0.94008E-08         0.43000E-09         0.00000E+00
    0.93944E-08         0.45802E-09         0.00000E+00
    0.93877E-08         0.48409E-09         0.00000E+00
    0.93807E-08         0.50818E-09         0.00000E+00
    0.93734E-08         0.53027E-09         0.00000E+00
    0.93658E-08         0.55035E-09         0.00000E+00
    0.93580E-08         0.56840E-09         0.00000E+00
    0.93499E-08         0.58441E-09         0.00000E+00
    0.93417E-08         0.59836E-09         0.00000E+00
    0.93334E-08         0.61025E-09         0.00000E+00
    0.93249E-08         0.62005E-09         0.00000E+00
    0.93163E-08         0.62777E-09         0.00000E+00
    0.93077E-08         0.63340E-09         0.00000E+00
    0.92990E-08         0.63692E-09         0.00000E+00
    0.92904E-08         0.63834E-09         0.00000E+00
    0.92818E-08         0.63765E-09         0.00000E+00
    0.92732E-08         0.63484E-09         0.00000E+00
    0.92647E-08         0.62993E-09         0.00000E+00
    0.92564E-08         0.62289E-09         0.00000E+00
    0.92482E-08         0.61375E-09         0.00000E+00
    0.92401E-08         0.60250E-09         0.00000E+00
    0.92322E-08         0.58914E-09         0.00000E+00
    0.92246E-08         0.57368E-09         0.00000E+00
    0.92172E-08         0.55612E-09         0.00000E+00
    0.92101E-08         0.53648E-09         0.00000E+00
    0.92033E-08         0.51475E-09         0.00000E+00
    0.91968E-08         0.49096E-09         0.00000E+00
    0.91906E-08         0.46510E-09         0.00000E+00
    0.91849E-08         0.43720E-09         0.00000E+00
    0.91795E-08         0.40727E-09         0.00000E+00
    0.91745E-08         0.37531E-09         0.00000E+00
    0.91700E-08         0.34135E-09         0.00000E+00
    0.91659E-08         0.30541E-09         0.00000E+00
    0.91623E-08         0.26749E-09         0.00000E+00
    0.91592E-08         0.22763E-09         0.00000E+00
    0.91567E-08         0.18584E-09         0.00000E+00
    0.91546E-08         0.14214E-09         0.00000E+00
    0.91532E-08         0.96558E-10         0.00000E+00
    0.91523E-08         0.49120E-10         0.00000E+00
    0.91520E-08         0.24939E-10         0.00000E+00
    0.10068E-07         0.25902E-10         0.00000E+00
    0.10068E-07         0.51210E-10         0.00000E+00
    0.10067E-07         0.10092E-09         0.00000E+00
    0.10065E-07         0.14881E-09         0.00000E+00
    0.10062E-07         0.19483E-09         0.00000E+00
    0.10059E-07         0.23895E-09         0.00000E+00
    0.10055E-07         0.28113E-09         0.00000E+00
    0.10051E-07         0.32135E-09         0.00000E+00
    0.10046E-07         0.35957E-09         0.00000E+00
    0.10040E-07         0.39577E-09         0.00000E+00
    0.10034E-07         0.42992E-09         0.00000E+00
    0.10028E-07         0.46199E-09         0.00000E+00
    0.10021E-07         0.49197E-09         0.00000E+00
    0.10014E-07         0.51982E-09         0.00000E+00
    0.10006E-07         0.54554E-09         0.00000E+00
    0.99982E-08         0.56909E-09         0.00000E+00
    0.99899E-08         0.59048E-09         0.00000E+00
    0.99815E-08         0.60968E-09         0.00000E+00
    0.99727E-08         0.62667E-09         0.00000E+00
    0.99639E-08         0.64145E-09         0.00000E+00
    0.99548E-08         0.65400E-09         0.00000E+00
    0.99456E-08         0.66433E-09         0.00000E+00
    0.99364E-08         0.67241E-09         0.00000E+00
    0.99271E-08         0.67824E-09         0.00000E+00
    0.99178E-08         0.68182E-09         0.00000E+00
    0.99084E-08         0.68314E-09         0.00000E+00
    0.98991E-08         0.68221E-09         0.00000E+00
    0.98899E-08         0.67902E-09         0.00000E+00
    0.98808E-08         0.67357E-09         0.00000E+00
    0.98718E-08         0.66586E-09         0.00000E+00
    0.98630E-08         0.65590E-09         0.00000E+00
    0.98543E-08         0.64369E-09         0.00000E+00
    0.98459E-08         0.62924E-09         0.00000E+00
    0.98377E-08         0.61256E-09         0.00000E+00
    0.98298E-08         0.59364E-09         0.00000E+00
    0.98222E-08         0.57251E-09         0.00000E+00
    0.98149E-08         0.54917E-09         0.00000E+00
    0.98079E-08         0.52364E-09         0.00000E+00
    0.98014E-08         0.49592E-09         0.00000E+00
    0.97952E-08         0.46604E-09         0.00000E+00
    0.97894E-08         0.43401E-09         0.00000E+00
    0.97841E-08         0.39984E-09         0.00000E+00
    0.97793E-08         0.36356E-09         0.00000E+00
    0.97750E-08         0.32518E-09         0.00000E+00
    0.97711E-08         0.28473E-09         0.00000E+00
    0.97679E-08         0.24223E-09         0.00000E+00
    0.97651E-08         0.19770E-09         0.00000E+00
    0.97630E-08         0.15117E-09         0.00000E+00
    0.97614E-08         0.10266E-09         0.00000E+00
    0.97604E-08         0.52212E-10         0.00000E+00
    0.97601E-08         0.26503E-10         0.00000E+00
    0.10744E-07         0.27945E-10         0.00000E+00
    0.10743E-07         0.55238E-10         0.00000E+00
    0.10742E-07         0.10883E-09         0.00000E+00
    0.10740E-07         0.16042E-09         0.00000E+00
    0.10737E-07         0.20997E-09         0.00000E+00
    0.10733E-07         0.25744E-09         0.00000E+00
    0.10729E-07         0.30279E-09         0.00000E+00
    0.10724E-07         0.34600E-09         0.00000E+00
    0.10719E-07         0.38704E-09         0.00000E+00
    0.10713E-07         0.42586E-09         0.00000E+00
    0.10706E-07         0.46246E-09         0.00000E+00
    0.10699E-07         0.49681E-09         0.00000E+00
    0.10692E-07         0.52887E-09         0.00000E+00
    0.10684E-07         0.55864E-09         0.00000E+00
    0.10676E-07         0.58609E-09         0.00000E+00
    0.10667E-07         0.61121E-09         0.00000E+00
    0.10658E-07         0.63397E-09         0.00000E+00
    0.10649E-07         0.65438E-09         0.00000E+00
    0.10640E-07         0.67241E-09         0.00000E+00
    0.10630E-07         0.68805E-09         0.00000E+00
    0.10620E-07         0.70130E-09         0.00000E+00
    0.10610E-07         0.71214E-09         0.00000E+00
    0.10600E-07         0.72058E-09         0.00000E+00
    0.10590E-07         0.72660E-09         0.00000E+00
    0.10580E-07         0.73021E-09         0.00000E+00
    0.10570E-07         0.73140E-09         0.00000E+00
    0.10560E-07         0.73017E-09         0.00000E+00
    0.10550E-07         0.72653E-09         0.00000E+00
    0.10541E-07         0.72047E-09         0.00000E+00
    0.10531E-07         0.71201E-09         0.00000E+00
    0.10521E-07         0.70114E-09         0.00000E+00
    0.10512E-07         0.68788E-09         0.00000E+00
    0.10503E-07         0.67223E-09         0.00000E+00
    0.10494E-07         0.65420E-09         0.00000E+00
    0.10486E-07         0.63381E-09         0.00000E+00
    0.10478E-07         0.61106E-09         0.00000E+00
    0.10470E-07         0.58597E-09         0.00000E+00
    0.10463E-07         0.55855E-09         0.00000E+00
    0.10455E-07         0.52883E-09         0.00000E+00
    0.10449E-07         0.49681E-09         0.00000E+00
    0.10443E-07         0.46252E-09         0.00000E+00
    0.10437E-07         0.42598E-09         0.00000E+00
    0.10432E-07         0.38721E-09         0.00000E+00
    0.10427E-07         0.34623E-09         0.00000E+00
    0.10423E-07         0.30307E-09         0.00000E+00
    0.10420E-07         0.25775E-09         0.00000E+00
    0.10417E-07         0.21031E-09         0.00000E+00
    0.10415E-07         0.16076E-09         0.00000E+00
    0.10413E-07         0.10915E-09         0.00000E+00
    0.10412E-07         0.55493E-10         0.00000E+00
    0.10412E-07         0.28161E-10         0.00000E+00
    0.11467E-07         0.30185E-10         0.00000E+00
    0.11467E-07         0.59652E-10         0.00000E+00
    0.11465E-07         0.11749E-09         0.00000E+00
    0.11463E-07         0.17313E-09         0.00000E+00
    0.11460E-07         0.22652E-09         0.00000E+00
    0.11456E-07         0.27763E-09         0.00000E+00
    0.11452E-07         0.32643E-09         0.00000E+00
    0.11446E-07         0.37288E-09         0.00000E+00
    0.11440E-07         0.41695E-09         0.00000E+00
    0.11434E-07         0.45861E-09         0.00000E+00
    0.11427E-07         0.49785E-09         0.00000E+00
    0.11419E-07         0.53463E-09         0.00000E+00
    0.11411E-07         0.56893E-09         0.00000E+00
    0.11402E-07         0.60074E-09         0.00000E+00
    0.11393E-07         0.63004E-09         0.00000E+00
    0.11384E-07         0.65681E-09         0.00000E+00
    0.11374E-07         0.68104E-09         0.00000E+00
    0.11364E-07         0.70271E-09         0.00000E+00
    0.11354E-07         0.72181E-09         0.00000E+00
    0.11344E-07         0.73835E-09         0.00000E+00
    0.11333E-07         0.75230E-09         0.00000E+00
    0.11323E-07         0.76367E-09         0.00000E+00
    0.11312E-07         0.77245E-09         0.00000E+00
    0.11301E-07         0.77864E-09         0.00000E+00
    0.11290E-07         0.78224E-09         0.00000E+00
    0.11280E-07         0.78325E-09         0.00000E+00
    0.11269E-07         0.78167E-09         0.00000E+00
    0.11258E-07         0.77751E-09         0.00000E+00
    0.11248E-07         0.77077E-09         0.00000E+00
    0.11238E-07         0.76146E-09         0.00000E+00
    0.11227E-07         0.74959E-09         0.00000E+00
    0.11218E-07         0.73517E-09         0.00000E+00
    0.11208E-07         0.71820E-09         0.00000E+00
    0.11199E-07         0.69871E-09         0.00000E+00
    0.11190E-07         0.67670E-09         0.00000E+00
    0.11181E-07         0.65220E-09         0.00000E+00
    0.11173E-07         0.62521E-09         0.00000E+00
    0.11165E-07         0.59577E-09         0.00000E+00
    0.11157E-07         0.56388E-09         0.00000E+00
    0.11150E-07         0.52956E-09         0.00000E+00
    0.11144E-07         0.49285E-09         0.00000E+00
    0.11138E-07         0.45377E-09         0.00000E+00
    0.11132E-07         0.41233E-09         0.00000E+00
    0.11127E-07         0.36858E-09         0.00000E+00
    0.11123E-07         0.32252E-09         0.00000E+00
    0.11119E-07         0.27421E-09         0.00000E+00
    0.11116E-07         0.22366E-09         0.00000E+00
    0.11114E-07         0.17092E-09         0.00000E+00
    0.11112E-07         0.11600E-09         0.00000E+00
    0.11111E-07         0.58962E-10         0.00000E+00
    0.11111E-07         0.29913E-10         0.00000E+00
    0.12244E-07         0.32637E-10         0.00000E+00
    0.12243E-07         0.64480E-10         0.00000E+00
    0.12242E-07         0.12696E-09         0.00000E+00
    0.12239E-07         0.18700E-09         0.00000E+00
    0.12236E-07         0.24458E-09         0.00000E+00
    0.12232E-07         0.29964E-09         0.00000E+00
    0.12227E-07         0.35216E-09         0.00000E+00
    0.12221E-07         0.40211E-09         0.00000E+00
    0.12214E-07         0.44945E-09         0.00000E+00
    0.12207E-07         0.49417E-09         0.00000E+00
    0.12200E-07         0.53623E-09         0.00000E+00
    0.12191E-07         0.57562E-09         0.00000E+00
    0.12183E-07         0.61231E-09         0.00000E+00
    0.12173E-07         0.64629E-09         0.00000E+00
    0.12164E-07         0.67754E-09         0.00000E+00
    0.12154E-07         0.70606E-09         0.00000E+00
    0.12143E-07         0.73181E-09         0.00000E+00
    0.12132E-07         0.75481E-09         0.00000E+00
    0.12122E-07         0.77504E-09         0.00000E+00
    0.12110E-07         0.79249E-09         0.00000E+00
    0.12099E-07         0.80716E-09         0.00000E+00
    0.12088E-07         0.81905E-09         0.00000E+00
    0.12076E-07         0.82816E-09         0.00000E+00
    0.12065E-07         0.83448E-09         0.00000E+00
    0.12053E-07         0.83803E-09         0.00000E+00
    0.12042E-07         0.83880E-09         0.00000E+00
    0.12030E-07         0.83680E-09         0.00000E+00
    0.12019E-07         0.83204E-09         0.00000E+00
    0.12008E-07         0.82453E-09         0.00000E+00
    0.11997E-07         0.81428E-09         0.00000E+00
    0.11986E-07         0.80129E-09         0.00000E+00
    0.11975E-07         0.78559E-09         0.00000E+00
    0.11965E-07         0.76719E-09         0.00000E+00
    0.11955E-07         0.74610E-09         0.00000E+00
    0.11945E-07         0.72235E-09         0.00000E+00
    0.11936E-07         0.69595E-09         0.00000E+00
    0.11927E-07         0.66692E-09         0.00000E+00
    0.11919E-07         0.63528E-09         0.00000E+00
    0.11911E-07         0.60107E-09         0.00000E+00
    0.11904E-07         0.56430E-09         0.00000E+00
    0.11897E-07         0.52500E-09         0.00000E+00
    0.11891E-07         0.48320E-09         0.00000E+00
    0.11885E-07         0.43892E-09         0.00000E+00
    0.11880E-07         0.39221E-09         0.00000E+00
    0.11875E-07         0.34309E-09         0.00000E+00
    0.11871E-07         0.29159E-09         0.00000E+00
    0.11868E-07         0.23776E-09         0.00000E+00
    0.11865E-07         0.18163E-09         0.00000E+00
    0.11864E-07         0.12323E-09         0.00000E+00
    0.11862E-07         0.62617E-10         0.00000E+00
    0.11862E-07         0.31759E-10         0.00000E+00
    0.13078E-07         0.35313E-10         0.00000E+00
    0.13077E-07         0.69744E-10         0.00000E+00
    0.13076E-07         0.13727E-09         0.00000E+00
    0.13073E-07         0.20210E-09         0.00000E+00
    0.13069E-07         0.26421E-09         0.00000E+00
    0.13065E-07         0.32354E-09         0.00000E+00
    0.13059E-07         0.38008E-09         0.00000E+00
    0.13053E-07         0.43380E-09         0.00000E+00
    0.13046E-07         0.48466E-09         0.00000E+00
    0.13039E-07         0.53264E-09         0.00000E+00
    0.13030E-07         0.57772E-09         0.00000E+00
    0.13021E-07         0.61988E-09         0.00000E+00
    0.13012E-07         0.65911E-09         0.00000E+00
    0.13002E-07         0.69539E-09         0.00000E+00
    0.12992E-07         0.72870E-09         0.00000E+00
    0.12981E-07         0.75904E-09         0.00000E+00
    0.12970E-07         0.78640E-09         0.00000E+00
    0.12958E-07         0.81077E-09         0.00000E+00
    0.12946E-07         0.83215E-09         0.00000E+00
    0.12935E-07         0.85054E-09         0.00000E+00
    0.12922E-07         0.86592E-09         0.00000E+00
    0.12910E-07         0.87832E-09         0.00000E+00
    0.12898E-07         0.88773E-09         0.00000E+00
    0.12886E-07         0.89415E-09         0.00000E+00
    0.12873E-07         0.89759E-09         0.00000E+00
    0.12861E-07         0.89805E-09         0.00000E+00
    0.12849E-07         0.89556E-09         0.00000E+00
    0.12837E-07         0.89012E-09         0.00000E+00
    0.12825E-07         0.88174E-09         0.00000E+00
    0.12813E-07         0.87044E-09         0.00000E+00
    0.12802E-07         0.85623E-09         0.00000E+00
    0.12791E-07         0.83913E-09         0.00000E+00
    0.12780E-07         0.81917E-09         0.00000E+00
    0.12769E-07         0.79635E-09         0.00000E+00
    0.12759E-07         0.77071E-09         0.00000E+00
    0.12750E-07         0.74226E-09         0.00000E+00
    0.12740E-07         0.71104E-09         0.00000E+00
    0.12731E-07         0.67706E-09         0.00000E+00
    0.12723E-07         0.64036E-09         0.00000E+00
    0.12715E-07         0.60097E-09         0.00000E+00
    0.12708E-07         0.55891E-09         0.00000E+00
    0.12701E-07         0.51422E-09         0.00000E+00
    0.12695E-07         0.46694E-09         0.00000E+00
    0.12690E-07         0.41709E-09         0.00000E+00
    0.12685E-07         0.36473E-09         0.00000E+00
    0.12681E-07         0.30987E-09         0.00000E+00
    0.12678E-07         0.25258E-09         0.00000E+00
    0.12675E-07         0.19288E-09         0.00000E+00
    0.12673E-07         0.13082E-09         0.00000E+00
    0.12672E-07         0.66450E-10         0.00000E+00
    0.12672E-07         0.33693E-10         0.00000E+00
    0.13976E-07         0.38221E-10         0.00000E+00
    0.13975E-07         0.75463E-10         0.00000E+00
    0.13973E-07         0.14846E-09         0.00000E+00
    0.13971E-07         0.21847E-09         0.00000E+00
    0.13967E-07         0.28547E-09         0.00000E+00
    0.13962E-07         0.34940E-09         0.00000E+00
    0.13956E-07         0.41026E-09         0.00000E+00
    0.13949E-07         0.46800E-09         0.00000E+00
    0.13942E-07         0.52261E-09         0.00000E+00
    0.13933E-07         0.57407E-09         0.00000E+00
    0.13925E-07         0.62236E-09         0.00000E+00
    0.13915E-07         0.66746E-09         0.00000E+00
    0.13905E-07         0.70936E-09         0.00000E+00
    0.13894E-07         0.74805E-09         0.00000E+00
    0.13883E-07         0.78352E-09         0.00000E+00
    0.13872E-07         0.81577E-09         0.00000E+00
    0.13860E-07         0.84478E-09         0.00000E+00
    0.13848E-07         0.87057E-09         0.00000E+00
    0.13835E-07         0.89312E-09         0.00000E+00
    0.13822E-07         0.91244E-09         0.00000E+00
    0.13810E-07         0.92854E-09         0.00000E+00
    0.13797E-07         0.94142E-09         0.00000E+00
    0.13784E-07         0.95109E-09         0.00000E+00
    0.13771E-07         0.95755E-09         0.00000E+00
    0.13758E-07         0.96083E-09         0.00000E+00
    0.13745E-07         0.96092E-09         0.00000E+00
    0.13732E-07         0.95785E-09         0.00000E+00
    0.13719E-07         0.95163E-09         0.00000E+00
    0.13706E-07         0.94228E-09         0.00000E+00
    0.13694E-07         0.92982E-09         0.00000E+00
    0.13682E-07         0.91427E-09         0.00000E+00
    0.13670E-07         0.89566E-09         0.00000E+00
    0.13659E-07         0.87399E-09         0.00000E+00
    0.13648E-07         0.84931E-09         0.00000E+00
    0.13637E-07         0.82164E-09         0.00000E+00
    0.13627E-07         0.79101E-09         0.00000E+00
    0.13617E-07         0.75744E-09         0.00000E+00
    0.13608E-07         0.72096E-09         0.00000E+00
    0.13599E-07         0.68162E-09         0.00000E+00
    0.13591E-07         0.63945E-09         0.00000E+00
    0.13584E-07         0.59447E-09         0.00000E+00
    0.13577E-07         0.54673E-09         0.00000E+00
    0.13570E-07         0.49627E-09         0.00000E+00
    0.13565E-07         0.44313E-09         0.00000E+00
    0.13560E-07         0.38735E-09         0.00000E+00
    0.13556E-07         0.32897E-09         0.00000E+00
    0.13552E-07         0.26805E-09         0.00000E+00
    0.13549E-07         0.20462E-09         0.00000E+00
    0.13547E-07         0.13873E-09         0.00000E+00
    0.13546E-07         0.70446E-10         0.00000E+00
    0.13546E-07         0.35708E-10         0.00000E+00
    0.14944E-07         0.41367E-10         0.00000E+00
    0.14943E-07         0.81642E-10         0.00000E+00
    0.14941E-07         0.16054E-09         0.00000E+00
    0.14938E-07         0.23612E-09         0.00000E+00
    0.14934E-07         0.30836E-09         0.00000E+00
    0.14929E-07         0.37722E-09         0.00000E+00
    0.14923E-07         0.44267E-09         0.00000E+00
    0.14915E-07         0.50471E-09         0.00000E+00
    0.14907E-07         0.56330E-09         0.00000E+00
    0.14899E-07         0.61844E-09         0.00000E+00
    0.14889E-07         0.67011E-09         0.00000E+00
    0.14879E-07         0.71829E-09         0.00000E+00
    0.14868E-07         0.76299E-09         0.00000E+00
    0.14857E-07         0.80420E-09         0.00000E+00
    0.14845E-07         0.84191E-09         0.00000E+00
    0.14833E-07         0.87612E-09         0.00000E+00
    0.14820E-07         0.90683E-09         0.00000E+00
    0.14807E-07         0.93405E-09         0.00000E+00
    0.14794E-07         0.95779E-09         0.00000E+00
    0.14781E-07         0.97804E-09         0.00000E+00
    0.14767E-07         0.99483E-09         0.00000E+00
    0.14754E-07         0.10082E-08         0.00000E+00
    0.14740E-07         0.10180E-08         0.00000E+00
    0.14726E-07         0.10245E-08         0.00000E+00
    0.14713E-07         0.10275E-08         0.00000E+00
    0.14699E-07         0.10272E-08         0.00000E+00
    0.14686E-07         0.10234E-08         0.00000E+00
    0.14672E-07         0.10163E-08         0.00000E+00
    0.14659E-07         0.10059E-08         0.00000E+00
    0.14646E-07         0.99217E-09         0.00000E+00
    0.14634E-07         0.97516E-09         0.00000E+00
    0.14621E-07         0.95490E-09         0.00000E+00
    0.14610E-07         0.93141E-09         0.00000E+00
    0.14598E-07         0.90473E-09         0.00000E+00
    0.14587E-07         0.87489E-09         0.00000E+00
    0.14576E-07         0.84193E-09         0.00000E+00
    0.14566E-07         0.80587E-09         0.00000E+00
    0.14557E-07         0.76676E-09         0.00000E+00
    0.14548E-07         0.72463E-09         0.00000E+00
    0.14539E-07         0.67952E-09         0.00000E+00
    0.14531E-07         0.63148E-09         0.00000E+00
    0.14524E-07         0.58054E-09         0.00000E+00
    0.14518E-07         0.52676E-09         0.00000E+00
    0.14512E-07         0.47017E-09         0.00000E+00
    0.14507E-07         0.41083E-09         0.00000E+00
    0.14502E-07         0.34878E-09         0.00000E+00
    0.14499E-07         0.28408E-09         0.00000E+00
    0.14496E-07         0.21678E-09         0.00000E+00
    0.14494E-07         0.14692E-09         0.00000E+00
    0.14492E-07         0.74579E-10         0.00000E+00
    0.14492E-07         0.37791E-10         0.00000E+00
    0.15990E-07         0.44745E-10         0.00000E+00
    0.15989E-07         0.88273E-10         0.00000E+00
    0.15987E-07         0.17349E-09         0.00000E+00
    0.15984E-07         0.25502E-09         0.00000E+00
    0.15980E-07         0.33284E-09         0.00000E+00
    0.15974E-07         0.40692E-09         0.00000E+00
    0.15967E-07         0.47725E-09         0.00000E+00
    0.15960E-07         0.54381E-09         0.00000E+00
    0.15951E-07         0.60659E-09         0.00000E+00
    0.15942E-07         0.66559E-09         0.00000E+00
    0.15932E-07         0.72079E-09         0.00000E+00
    0.15921E-07         0.77219E-09         0.00000E+00
    0.15910E-07         0.81978E-09         0.00000E+00
    0.15898E-07         0.86358E-09         0.00000E+00
    0.15885E-07         0.90359E-09         0.00000E+00
    0.15873E-07         0.93980E-09         0.00000E+00
    0.15859E-07         0.97224E-09         0.00000E+00
    0.15846E-07         0.10009E-08         0.00000E+00
    0.15832E-07         0.10258E-08         0.00000E+00
    0.15818E-07         0.10470E-08         0.00000E+00
    0.15804E-07         0.10644E-08         0.00000E+00
    0.15790E-07         0.10781E-08         0.00000E+00
    0.15776E-07         0.10882E-08         0.00000E+00
    0.15761E-07         0.10945E-08         0.00000E+00
    0.15747E-07         0.10972E-08         0.00000E+00
    0.15733E-07         0.10963E-08         0.00000E+00
    0.15719E-07         0.10918E-08         0.00000E+00
    0.15705E-07         0.10838E-08         0.00000E+00
    0.15691E-07         0.10722E-08         0.00000E+00
    0.15678E-07         0.10570E-08         0.00000E+00
    0.15665E-07         0.10385E-08         0.00000E+00
    0.15653E-07         0.10164E-08         0.00000E+00
    0.15640E-07         0.99099E-09         0.00000E+00
    0.15628E-07         0.96219E-09         0.00000E+00
    0.15617E-07         0.93005E-09         0.00000E+00
    0.15606E-07         0.89463E-09         0.00000E+00
    0.15596E-07         0.85596E-09         0.00000E+00
    0.15586E-07         0.81407E-09         0.00000E+00
    0.15577E-07         0.76903E-09         0.00000E+00
    0.15568E-07         0.72086E-09         0.00000E+00
    0.15560E-07         0.66963E-09         0.00000E+00
    0.15552E-07         0.61537E-09         0.00000E+00
    0.15546E-07         0.55814E-09         0.00000E+00
    0.15540E-07         0.49798E-09         0.00000E+00
    0.15535E-07         0.43496E-09         0.00000E+00
    0.15530E-07         0.36913E-09         0.00000E+00
    0.15526E-07         0.30053E-09         0.00000E+00
    0.15523E-07         0.22924E-09         0.00000E+00
    0.15521E-07         0.15532E-09         0.00000E+00
    0.15520E-07         0.78811E-10         0.00000E+00
    0.15520E-07         0.39924E-10         0.00000E+00
    0.17123E-07         0.48343E-10         0.00000E+00
    0.17122E-07         0.95328E-10         0.00000E+00
    0.17120E-07         0.18725E-09         0.00000E+00
    0.17116E-07         0.27508E-09         0.00000E+00
    0.17112E-07         0.35878E-09         0.00000E+00
    0.17106E-07         0.43836E-09         0.00000E+00
    0.17099E-07         0.51380E-09         0.00000E+00
    0.17091E-07         0.58509E-09         0.00000E+00
    0.17082E-07         0.65223E-09         0.00000E+00
    0.17072E-07         0.71522E-09         0.00000E+00
    0.17062E-07         0.77407E-09         0.00000E+00
    0.17051E-07         0.82877E-09         0.00000E+00
    0.17039E-07         0.87934E-09         0.00000E+00
    0.17026E-07         0.92578E-09         0.00000E+00
    0.17013E-07         0.96811E-09         0.00000E+00
    0.17000E-07         0.10063E-08         0.00000E+00
    0.16986E-07         0.10405E-08         0.00000E+00
    0.16972E-07         0.10706E-08         0.00000E+00
    0.16958E-07         0.10966E-08         0.00000E+00
    0.16944E-07         0.11186E-08         0.00000E+00
    0.16929E-07         0.11367E-08         0.00000E+00
    0.16914E-07         0.11507E-08         0.00000E+00
    0.16900E-07         0.11608E-08         0.00000E+00
    0.16885E-07         0.11670E-08         0.00000E+00
    0.16870E-07         0.11693E-08         0.00000E+00
    0.16856E-07         0.11678E-08         0.00000E+00
    0.16841E-07         0.11624E-08         0.00000E+00
    0.16827E-07         0.11533E-08         0.00000E+00
    0.16813E-07         0.11404E-08         0.00000E+00
    0.16800E-07         0.11238E-08         0.00000E+00
    0.16787E-07         0.11035E-08         0.00000E+00
    0.16774E-07         0.10796E-08         0.00000E+00
    0.16761E-07         0.10521E-08         0.00000E+00
    0.16749E-07         0.10211E-08         0.00000E+00
    0.16738E-07         0.98652E-09         0.00000E+00
    0.16726E-07         0.94853E-09         0.00000E+00
    0.16716E-07         0.90713E-09         0.00000E+00
    0.16706E-07         0.86238E-09         0.00000E+00
    0.16697E-07         0.81432E-09         0.00000E+00
    0.16688E-07         0.76300E-09         0.00000E+00
    0.16680E-07         0.70847E-09         0.00000E+00
    0.16672E-07         0.65080E-09         0.00000E+00
    0.16665E-07         0.59003E-09         0.00000E+00
    0.16659E-07         0.52623E-09         0.00000E+00
    0.16654E-07         0.45945E-09         0.00000E+00
    0.16650E-07         0.38976E-09         0.00000E+00
    0.16646E-07         0.31721E-09         0.00000E+00
    0.16643E-07         0.24187E-09         0.00000E+00
    0.16641E-07         0.16381E-09         0.00000E+00
    0.16640E-07         0.83092E-10         0.00000E+00
    0.16639E-07         0.42079E-10         0.00000E+00
    0.18352E-07         0.52135E-10         0.00000E+00
    0.18352E-07         0.10275E-09         0.00000E+00
    0.18349E-07         0.20172E-09         0.00000E+00
    0.18346E-07         0.29613E-09         0.00000E+00
    0.18341E-07         0.38598E-09         0.00000E+00
    0.18335E-07         0.47126E-09         0.00000E+00
    0.18327E-07         0.55199E-09         0.00000E+00
    0.18319E-07         0.62816E-09         0.00000E+00
    0.18310E-07         0.69978E-09         0.00000E+00
    0.18300E-07         0.76687E-09         0.00000E+00
    0.18289E-07         0.82943E-09         0.00000E+00
    0.18278E-07         0.88748E-09         0.00000E+00
    0.18265E-07         0.94104E-09         0.00000E+00
    0.18253E-07         0.99013E-09         0.00000E+00
    0.18239E-07         0.10348E-08         0.00000E+00
    0.18226E-07         0.10750E-08         0.00000E+00
    0.18212E-07         0.11108E-08         0.00000E+00
    0.18197E-07         0.11423E-08         0.00000E+00
    0.18183E-07         0.11694E-08         0.00000E+00
    0.18168E-07         0.11922E-08         0.00000E+00
    0.18153E-07         0.12107E-08         0.00000E+00
    0.18138E-07         0.12250E-08         0.00000E+00
    0.18124E-07         0.12351E-08         0.00000E+00
    0.18109E-07         0.12410E-08         0.00000E+00
    0.18094E-07         0.12428E-08         0.00000E+00
    0.18079E-07         0.12405E-08         0.00000E+00
    0.18065E-07         0.12342E-08         0.00000E+00
    0.18050E-07         0.12239E-08         0.00000E+00
    0.18037E-07         0.12096E-08         0.00000E+00
    0.18023E-07         0.11914E-08         0.00000E+00
    0.18010E-07         0.11693E-08         0.00000E+00
    0.17997E-07         0.11435E-08         0.00000E+00
    0.17984E-07         0.11138E-08         0.00000E+00
    0.17972E-07         0.10805E-08         0.00000E+00
    0.17960E-07         0.10435E-08         0.00000E+00
    0.17949E-07         0.10028E-08         0.00000E+00
    0.17939E-07         0.95863E-09         0.00000E+00
    0.17929E-07         0.91094E-09         0.00000E+00
    0.17920E-07         0.85980E-09         0.00000E+00
    0.17911E-07         0.80527E-09         0.00000E+00
    0.17903E-07         0.74741E-09         0.00000E+00
    0.17895E-07         0.68629E-09         0.00000E+00
    0.17889E-07         0.62195E-09         0.00000E+00
    0.17883E-07         0.55447E-09         0.00000E+00
    0.17878E-07         0.48392E-09         0.00000E+00
    0.17873E-07         0.41035E-09         0.00000E+00
    0.17869E-07         0.33384E-09         0.00000E+00
    0.17867E-07         0.25445E-09         0.00000E+00
    0.17864E-07         0.17227E-09         0.00000E+00
    0.17863E-07         0.87352E-10         0.00000E+00
    0.17863E-07         0.44222E-10         0.00000E+00
    0.19691E-07         0.56077E-10         0.00000E+00
    0.19690E-07         0.11047E-09         0.00000E+00
    0.19688E-07         0.21672E-09         0.00000E+00
    0.19684E-07         0.31793E-09         0.00000E+00
    0.19679E-07         0.41409E-09         0.00000E+00
    0.19673E-07         0.50522E-09         0.00000E+00
    0.19665E-07         0.59133E-09         0.00000E+00
    0.19657E-07         0.67246E-09         0.00000E+00
    0.19647E-07         0.74861E-09         0.00000E+00
    0.19637E-07         0.81981E-09         0.00000E+00
    0.19626E-07         0.88608E-09         0.00000E+00
    0.19614E-07         0.94746E-09         0.00000E+00
    0.19602E-07         0.10040E-08         0.00000E+00
    0.19589E-07         0.10557E-08         0.00000E+00
    0.19576E-07         0.11026E-08         0.00000E+00
    0.19562E-07         0.11447E-08         0.00000E+00
    0.19548E-07         0.11821E-08         0.00000E+00
    0.19534E-07         0.12148E-08         0.00000E+00
    0.19519E-07         0.12429E-08         0.00000E+00
    0.19505E-07         0.12664E-08         0.00000E+00
    0.19490E-07         0.12853E-08         0.00000E+00
    0.19475E-07         0.12998E-08         0.00000E+00
    0.19460E-07         0.13097E-08         0.00000E+00
    0.19445E-07         0.13153E-08         0.00000E+00
    0.19431E-07         0.13165E-08         0.00000E+00
    0.19416E-07         0.13133E-08         0.00000E+00
    0.19402E-07         0.13059E-08         0.00000E+00
    0.19388E-07         0.12943E-08         0.00000E+00
    0.19374E-07         0.12786E-08         0.00000E+00
    0.19361E-07         0.12587E-08         0.00000E+00
    0.19348E-07         0.12348E-08         0.00000E+00
    0.19335E-07         0.12069E-08         0.00000E+00
    0.19323E-07         0.11750E-08         0.00000E+00
    0.19311E-07         0.11393E-08         0.00000E+00
    0.19299E-07         0.10998E-08         0.00000E+00
    0.19289E-07         0.10564E-08         0.00000E+00
    0.19278E-07         0.10094E-08         0.00000E+00
    0.19269E-07         0.95879E-09         0.00000E+00
    0.19260E-07         0.90456E-09         0.00000E+00
    0.19251E-07         0.84683E-09         0.00000E+00
    0.19243E-07         0.78565E-09         0.00000E+00
    0.19236E-07         0.72110E-09         0.00000E+00
    0.19230E-07         0.65323E-09         0.00000E+00
    0.19224E-07         0.58213E-09         0.00000E+00
    0.19219E-07         0.50785E-09         0.00000E+00
    0.19215E-07         0.43047E-09         0.00000E+00
    0.19211E-07         0.35007E-09         0.00000E+00
    0.19208E-07         0.26673E-09         0.00000E+00
    0.19206E-07         0.18051E-09         0.00000E+00
    0.19205E-07         0.91499E-10         0.00000E+00
    0.19205E-07         0.46307E-10         0.00000E+00
    0.21152E-07         0.60109E-10         0.00000E+00
    0.21151E-07         0.11835E-09         0.00000E+00
    0.21148E-07         0.23202E-09         0.00000E+00
    0.21145E-07         0.34011E-09         0.00000E+00
    0.21140E-07         0.44264E-09         0.00000E+00
    0.21133E-07         0.53964E-09         0.00000E+00
    0.21126E-07         0.63114E-09         0.00000E+00
    0.21117E-07         0.71719E-09         0.00000E+00
    0.21108E-07         0.79781E-09         0.00000E+00
    0.21098E-07         0.87306E-09         0.00000E+00
    0.21087E-07         0.94296E-09         0.00000E+00
    0.21075E-07         0.10076E-08         0.00000E+00
    0.21063E-07         0.10669E-08         0.00000E+00
    0.21051E-07         0.11211E-08         0.00000E+00
    0.21037E-07         0.11701E-08         0.00000E+00
    0.21024E-07         0.12140E-08         0.00000E+00
    0.21010E-07         0.12529E-08         0.00000E+00
    0.20996E-07         0.12867E-08         0.00000E+00
    0.20982E-07         0.13157E-08         0.00000E+00
    0.20968E-07         0.13397E-08         0.00000E+00
    0.20953E-07         0.13589E-08         0.00000E+00
    0.20939E-07         0.13733E-08         0.00000E+00
    0.20924E-07         0.13830E-08         0.00000E+00
    0.20910E-07         0.13881E-08         0.00000E+00
    0.20896E-07         0.13886E-08         0.00000E+00
    0.20882E-07         0.13845E-08         0.00000E+00
    0.20868E-07         0.13759E-08         0.00000E+00
    0.20855E-07         0.13630E-08         0.00000E+00
    0.20842E-07         0.13457E-08         0.00000E+00
    0.20829E-07         0.13241E-08         0.00000E+00
    0.20816E-07         0.12982E-08         0.00000E+00
    0.20804E-07         0.12683E-08         0.00000E+00
    0.20793E-07         0.12342E-08         0.00000E+00
    0.20781E-07         0.11961E-08         0.00000E+00
    0.20771E-07         0.11540E-08         0.00000E+00
    0.20760E-07         0.11080E-08         0.00000E+00
    0.20751E-07         0.10582E-08         0.00000E+00
    0.20742E-07         0.10047E-08         0.00000E+00
    0.20733E-07         0.94745E-09         0.00000E+00
    0.20725E-07         0.88659E-09         0.00000E+00
    0.20718E-07         0.82219E-09         0.00000E+00
    0.20711E-07         0.75431E-09         0.00000E+00
    0.20705E-07         0.68304E-09         0.00000E+00
    0.20700E-07         0.60844E-09         0.00000E+00
    0.20695E-07         0.53059E-09         0.00000E+00
    0.20691E-07         0.44958E-09         0.00000E+00
    0.20688E-07         0.36547E-09         0.00000E+00
    0.20685E-07         0.27835E-09         0.00000E+00
    0.20683E-07         0.18831E-09         0.00000E+00
    0.20682E-07         0.95420E-10         0.00000E+00
    0.20682E-07         0.48277E-10         0.00000E+00
    0.22751E-07         0.64145E-10         0.00000E+00
    0.22750E-07         0.12622E-09         0.00000E+00
    0.22748E-07         0.24728E-09         0.00000E+00
    0.22744E-07         0.36218E-09         0.00000E+00
    0.22739E-07         0.47098E-09         0.00000E+00
    0.22733E-07         0.57373E-09         0.00000E+00
    0.22725E-07         0.67048E-09         0.00000E+00
    0.22717E-07         0.76129E-09         0.00000E+00
    0.22708E-07         0.84621E-09         0.00000E+00
    0.22698E-07         0.92531E-09         0.00000E+00
    0.22688E-07         0.99865E-09         0.00000E+00
    0.22677E-07         0.10663E-08         0.00000E+00
    0.22665E-07         0.11283E-08         0.00000E+00
    0.22653E-07         0.11847E-08         0.00000E+00
    0.22640E-07         0.12356E-08         0.00000E+00
    0.22628E-07         0.12811E-08         0.00000E+00
    0.22614E-07         0.13212E-08         0.00000E+00
    0.22601E-07         0.13560E-08         0.00000E+00
    0.22588E-07         0.13856E-08         0.00000E+00
    0.22574E-07         0.14100E-08         0.00000E+00
    0.22561E-07         0.14293E-08         0.00000E+00
    0.22547E-07         0.14436E-08         0.00000E+00
    0.22534E-07         0.14529E-08         0.00000E+00
    0.22521E-07         0.14573E-08         0.00000E+00
    0.22507E-07         0.14569E-08         0.00000E+00
    0.22495E-07         0.14518E-08         0.00000E+00
    0.22482E-07         0.14420E-08         0.00000E+00
    0.22469E-07         0.14277E-08         0.00000E+00
    0.22457E-07         0.14088E-08         0.00000E+00
    0.22445E-07         0.13854E-08         0.00000E+00
    0.22434E-07         0.13577E-08         0.00000E+00
    0.22423E-07         0.13256E-08         0.00000E+00
    0.22412E-07         0.12893E-08         0.00000E+00
    0.22402E-07         0.12489E-08         0.00000E+00
    0.22392E-07         0.12044E-08         0.00000E+00
    0.22383E-07         0.11559E-08         0.00000E+00
    0.22374E-07         0.11034E-08         0.00000E+00
    0.22366E-07         0.10471E-08         0.00000E+00
    0.22359E-07         0.98699E-09         0.00000E+00
    0.22351E-07         0.92319E-09         0.00000E+00
    0.22345E-07         0.85576E-09         0.00000E+00
    0.22339E-07         0.78478E-09         0.00000E+00
    0.22334E-07         0.71033E-09         0.00000E+00
    0.22329E-07         0.63250E-09         0.00000E+00
    0.22325E-07         0.55135E-09         0.00000E+00
    0.22321E-07         0.46698E-09         0.00000E+00
    0.22318E-07         0.37948E-09         0.00000E+00
    0.22316E-07         0.28891E-09         0.00000E+00
    0.22314E-07         0.19538E-09         0.00000E+00
    0.22313E-07         0.98972E-10         0.00000E+00
    0.22313E-07         0.50059E-10         0.00000E+00
    0.24506E-07         0.68070E-10         0.00000E+00
    0.24506E-07         0.13386E-09         0.00000E+00
    0.24503E-07         0.26205E-09         0.00000E+00
    0.24500E-07         0.38350E-09         0.00000E+00
    0.24495E-07         0.49828E-09         0.00000E+00
    0.24489E-07         0.60646E-09         0.00000E+00
    0.24483E-07         0.70814E-09         0.00000E+00
    0.24475E-07         0.80338E-09         0.00000E+00
    0.24467E-07         0.89227E-09         0.00000E+00
    0.24457E-07         0.97489E-09         0.00000E+00
    0.24448E-07         0.10513E-08         0.00000E+00
    0.24437E-07         0.11217E-08         0.00000E+00
    0.24427E-07         0.11860E-08         0.00000E+00
    0.24416E-07         0.12443E-08         0.00000E+00
    0.24404E-07         0.12969E-08         0.00000E+00
    0.24392E-07         0.13436E-08         0.00000E+00
    0.24381E-07         0.13847E-08         0.00000E+00
    0.24369E-07         0.14202E-08         0.00000E+00
    0.24357E-07         0.14502E-08         0.00000E+00
    0.24344E-07         0.14747E-08         0.00000E+00
    0.24332E-07         0.14939E-08         0.00000E+00
    0.24320E-07         0.15078E-08         0.00000E+00
    0.24309E-07         0.15166E-08         0.00000E+00
    0.24297E-07         0.15203E-08         0.00000E+00
    0.24285E-07         0.15190E-08         0.00000E+00
    0.24274E-07         0.15127E-08         0.00000E+00
    0.24263E-07         0.15016E-08         0.00000E+00
    0.24252E-07         0.14858E-08         0.00000E+00
    0.24241E-07         0.14653E-08         0.00000E+00
    0.24231E-07         0.14402E-08         0.00000E+00
    0.24221E-07         0.14106E-08         0.00000E+00
    0.24212E-07         0.13766E-08         0.00000E+00
    0.24203E-07         0.13382E-08         0.00000E+00
    0.24194E-07         0.12956E-08         0.00000E+00
    0.24186E-07         0.12488E-08         0.00000E+00
    0.24178E-07         0.11979E-08         0.00000E+00
    0.24171E-07         0.11430E-08         0.00000E+00
    0.24164E-07         0.10841E-08         0.00000E+00
    0.24158E-07         0.10214E-08         0.00000E+00
    0.24152E-07         0.95497E-09         0.00000E+00
    0.24146E-07         0.88483E-09         0.00000E+00
    0.24141E-07         0.81110E-09         0.00000E+00
    0.24137E-07         0.73385E-09         0.00000E+00
    0.24133E-07         0.65317E-09         0.00000E+00
    0.24130E-07         0.56915E-09         0.00000E+00
    0.24127E-07         0.48187E-09         0.00000E+00
    0.24124E-07         0.39142E-09         0.00000E+00
    0.24122E-07         0.29790E-09         0.00000E+00
    0.24121E-07         0.20139E-09         0.00000E+00
    0.24120E-07         0.10198E-09         0.00000E+00
    0.24120E-07         0.51567E-10         0.00000E+00
    0.26440E-07         0.71741E-10         0.00000E+00
    0.26439E-07         0.14099E-09         0.00000E+00
    0.26437E-07         0.27579E-09         0.00000E+00
    0.26434E-07         0.40324E-09         0.00000E+00
    0.26430E-07         0.52346E-09         0.00000E+00
    0.26425E-07         0.63655E-09         0.00000E+00
    0.26419E-07         0.74261E-09         0.00000E+00
    0.26412E-07         0.84175E-09         0.00000E+00
    0.26404E-07         0.93409E-09         0.00000E+00
    0.26396E-07         0.10197E-08         0.00000E+00
    0.26388E-07         0.10988E-08         0.00000E+00
    0.26379E-07         0.11713E-08         0.00000E+00
    0.26370E-07         0.12375E-08         0.00000E+00
    0.26360E-07         0.12974E-08         0.00000E+00
    0.26351E-07         0.13511E-08         0.00000E+00
    0.26341E-07         0.13987E-08         0.00000E+00
    0.26331E-07         0.14404E-08         0.00000E+00
    0.26321E-07         0.14762E-08         0.00000E+00
    0.26311E-07         0.15063E-08         0.00000E+00
    0.26301E-07         0.15307E-08         0.00000E+00
    0.26291E-07         0.15496E-08         0.00000E+00
    0.26281E-07         0.15630E-08         0.00000E+00
    0.26271E-07         0.15710E-08         0.00000E+00
    0.26262E-07         0.15738E-08         0.00000E+00
    0.26253E-07         0.15714E-08         0.00000E+00
    0.26243E-07         0.15640E-08         0.00000E+00
    0.26235E-07         0.15516E-08         0.00000E+00
    0.26226E-07         0.15343E-08         0.00000E+00
    0.26218E-07         0.15122E-08         0.00000E+00
    0.26210E-07         0.14855E-08         0.00000E+00
    0.26202E-07         0.14541E-08         0.00000E+00
    0.26195E-07         0.14182E-08         0.00000E+00
    0.26188E-07         0.13780E-08         0.00000E+00
    0.26182E-07         0.13334E-08         0.00000E+00
    0.26176E-07         0.12845E-08         0.00000E+00
    0.26170E-07         0.12316E-08         0.00000E+00
    0.26164E-07         0.11745E-08         0.00000E+00
    0.26159E-07         0.11135E-08         0.00000E+00
    0.26155E-07         0.10486E-08         0.00000E+00
    0.26150E-07         0.97996E-09         0.00000E+00
    0.26146E-07         0.90759E-09         0.00000E+00
    0.26143E-07         0.83159E-09         0.00000E+00
    0.26140E-07         0.75207E-09         0.00000E+00
    0.26137E-07         0.66912E-09         0.00000E+00
    0.26135E-07         0.58281E-09         0.00000E+00
    0.26133E-07         0.49325E-09         0.00000E+00
    0.26131E-07         0.40052E-09         0.00000E+00
    0.26130E-07         0.30471E-09         0.00000E+00
    0.26129E-07         0.20592E-09         0.00000E+00
    0.26128E-07         0.10425E-09         0.00000E+00
    0.26128E-07         0.52697E-10         0.00000E+00
    0.28576E-07         0.74977E-10         0.00000E+00
    0.28575E-07         0.14725E-09         0.00000E+00
    0.28573E-07         0.28780E-09         0.00000E+00
    0.28571E-07         0.42041E-09         0.00000E+00
    0.28567E-07         0.54522E-09         0.00000E+00
    0.28563E-07         0.66239E-09         0.00000E+00
    0.28558E-07         0.77204E-09         0.00000E+00
    0.28553E-07         0.87431E-09         0.00000E+00
    0.28547E-07         0.96934E-09         0.00000E+00
    0.28540E-07         0.10573E-08         0.00000E+00
    0.28534E-07         0.11382E-08         0.00000E+00
    0.28527E-07         0.12123E-08         0.00000E+00
    0.28520E-07         0.12797E-08         0.00000E+00
    0.28512E-07         0.13406E-08         0.00000E+00
    0.28505E-07         0.13949E-08         0.00000E+00
    0.28498E-07         0.14430E-08         0.00000E+00
    0.28490E-07         0.14848E-08         0.00000E+00
    0.28483E-07         0.15206E-08         0.00000E+00
    0.28476E-07         0.15504E-08         0.00000E+00
    0.28469E-07         0.15743E-08         0.00000E+00
    0.28462E-07         0.15926E-08         0.00000E+00
    0.28455E-07         0.16052E-08         0.00000E+00
    0.28448E-07         0.16123E-08         0.00000E+00
    0.28442E-07         0.16141E-08         0.00000E+00
    0.28436E-07         0.16105E-08         0.00000E+00
    0.28430E-07         0.16019E-08         0.00000E+00
    0.28424E-07         0.15881E-08         0.00000E+00
    0.28419E-07         0.15694E-08         0.00000E+00
    0.28414E-07         0.15459E-08         0.00000E+00
    0.28409E-07         0.15176E-08         0.00000E+00
    0.28404E-07         0.14847E-08         0.00000E+00
    0.28400E-07         0.14473E-08         0.00000E+00
    0.28396E-07         0.14054E-08         0.00000E+00
    0.28392E-07         0.13591E-08         0.00000E+00
    0.28389E-07         0.13087E-08         0.00000E+00
    0.28385E-07         0.12540E-08         0.00000E+00
    0.28383E-07         0.11953E-08         0.00000E+00
    0.28380E-07         0.11327E-08         0.00000E+00
    0.28378E-07         0.10662E-08         0.00000E+00
    0.28375E-07         0.99588E-09         0.00000E+00
    0.28373E-07         0.92190E-09         0.00000E+00
    0.28372E-07         0.84434E-09         0.00000E+00
    0.28370E-07         0.76327E-09         0.00000E+00
    0.28369E-07         0.67879E-09         0.00000E+00
    0.28368E-07         0.59100E-09         0.00000E+00
    0.28367E-07         0.49998E-09         0.00000E+00
    0.28367E-07         0.40583E-09         0.00000E+00
    0.28366E-07         0.30864E-09         0.00000E+00
    0.28366E-07         0.20851E-09         0.00000E+00
    0.28366E-07         0.10552E-09         0.00000E+00
    0.28366E-07         0.53326E-10         0.00000E+00
    0.30941E-07         0.77561E-10         0.00000E+00
    0.30941E-07         0.15222E-09         0.00000E+00
    0.30939E-07         0.29724E-09         0.00000E+00
    0.30938E-07         0.43377E-09         0.00000E+00
    0.30935E-07         0.56200E-09         0.00000E+00
    0.30932E-07         0.68209E-09         0.00000E+00
    0.30929E-07         0.79422E-09         0.00000E+00
    0.30925E-07         0.89856E-09         0.00000E+00
    0.30921E-07         0.99528E-09         0.00000E+00
    0.30917E-07         0.10845E-08         0.00000E+00
    0.30913E-07         0.11665E-08         0.00000E+00
    0.30909E-07         0.12413E-08         0.00000E+00
    0.30905E-07         0.13092E-08         0.00000E+00
    0.30901E-07         0.13702E-08         0.00000E+00
    0.30897E-07         0.14245E-08         0.00000E+00
    0.30893E-07         0.14724E-08         0.00000E+00
    0.30889E-07         0.15138E-08         0.00000E+00
    0.30885E-07         0.15490E-08         0.00000E+00
    0.30881E-07         0.15781E-08         0.00000E+00
    0.30878E-07         0.16012E-08         0.00000E+00
    0.30875E-07         0.16185E-08         0.00000E+00
    0.30872E-07         0.16301E-08         0.00000E+00
    0.30869E-07         0.16362E-08         0.00000E+00
    0.30867E-07         0.16367E-08         0.00000E+00
    0.30865E-07         0.16320E-08         0.00000E+00
    0.30863E-07         0.16221E-08         0.00000E+00
    0.30861E-07         0.16071E-08         0.00000E+00
    0.30860E-07         0.15871E-08         0.00000E+00
    0.30859E-07         0.15623E-08         0.00000E+00
    0.30858E-07         0.15327E-08         0.00000E+00
    0.30857E-07         0.14985E-08         0.00000E+00
    0.30856E-07         0.14598E-08         0.00000E+00
    0.30856E-07         0.14167E-08         0.00000E+00
    0.30856E-07         0.13693E-08         0.00000E+00
    0.30856E-07         0.13177E-08         0.00000E+00
    0.30856E-07         0.12620E-08         0.00000E+00
    0.30856E-07         0.12023E-08         0.00000E+00
    0.30857E-07         0.11387E-08         0.00000E+00
    0.30857E-07         0.10713E-08         0.00000E+00
    0.30858E-07         0.10001E-08         0.00000E+00
    0.30858E-07         0.92538E-09         0.00000E+00
    0.30859E-07         0.84712E-09         0.00000E+00
    0.30860E-07         0.76544E-09         0.00000E+00
    0.30860E-07         0.68042E-09         0.00000E+00
    0.30861E-07         0.59217E-09         0.00000E+00
    0.30862E-07         0.50077E-09         0.00000E+00
    0.30862E-07         0.40631E-09         0.00000E+00
    0.30863E-07         0.30889E-09         0.00000E+00
    0.30863E-07         0.20860E-09         0.00000E+00
    0.30863E-07         0.10553E-09         0.00000E+00
    0.30863E-07         0.53318E-10         0.00000E+00
    0.33568E-07         0.79236E-10         0.00000E+00
    0.33568E-07         0.15539E-09         0.00000E+00
    0.33567E-07         0.30315E-09         0.00000E+00
    0.33567E-07         0.44193E-09         0.00000E+00
    0.33565E-07         0.57196E-09         0.00000E+00
    0.33564E-07         0.69344E-09         0.00000E+00
    0.33563E-07         0.80660E-09         0.00000E+00
    0.33562E-07         0.91162E-09         0.00000E+00
    0.33561E-07         0.10087E-08         0.00000E+00
    0.33560E-07         0.10981E-08         0.00000E+00
    0.33559E-07         0.11799E-08         0.00000E+00
    0.33558E-07         0.12544E-08         0.00000E+00
    0.33558E-07         0.13217E-08         0.00000E+00
    0.33557E-07         0.13820E-08         0.00000E+00
    0.33557E-07         0.14355E-08         0.00000E+00
    0.33558E-07         0.14824E-08         0.00000E+00
    0.33558E-07         0.15227E-08         0.00000E+00
    0.33559E-07         0.15568E-08         0.00000E+00
    0.33560E-07         0.15847E-08         0.00000E+00
    0.33562E-07         0.16066E-08         0.00000E+00
    0.33564E-07         0.16226E-08         0.00000E+00
    0.33566E-07         0.16329E-08         0.00000E+00
    0.33568E-07         0.16376E-08         0.00000E+00
    0.33571E-07         0.16370E-08         0.00000E+00
    0.33573E-07         0.16310E-08         0.00000E+00
    0.33577E-07         0.16198E-08         0.00000E+00
    0.33580E-07         0.16037E-08         0.00000E+00
    0.33583E-07         0.15826E-08         0.00000E+00
    0.33587E-07         0.15568E-08         0.00000E+00
    0.33591E-07         0.15263E-08         0.00000E+00
    0.33595E-07         0.14912E-08         0.00000E+00
    0.33599E-07         0.14517E-08         0.00000E+00
    0.33603E-07         0.14080E-08         0.00000E+00
    0.33607E-07         0.13600E-08         0.00000E+00
    0.33612E-07         0.13079E-08         0.00000E+00
    0.33616E-07         0.12519E-08         0.00000E+00
    0.33620E-07         0.11919E-08         0.00000E+00
    0.33624E-07         0.11282E-08         0.00000E+00
    0.33628E-07         0.10608E-08         0.00000E+00
    0.33632E-07         0.98984E-09         0.00000E+00
    0.33636E-07         0.91538E-09         0.00000E+00
    0.33639E-07         0.83754E-09         0.00000E+00
    0.33643E-07         0.75640E-09         0.00000E+00
    0.33646E-07         0.67207E-09         0.00000E+00
    0.33648E-07         0.58463E-09         0.00000E+00
    0.33651E-07         0.49417E-09         0.00000E+00
    0.33653E-07         0.40078E-09         0.00000E+00
    0.33655E-07         0.30457E-09         0.00000E+00
    0.33656E-07         0.20560E-09         0.00000E+00
    0.33656E-07         0.10398E-09         0.00000E+00
    0.33657E-07         0.52517E-10         0.00000E+00
    0.36493E-07         0.79707E-10         0.00000E+00
    0.36493E-07         0.15618E-09         0.00000E+00
    0.36493E-07         0.30440E-09         0.00000E+00
    0.36493E-07         0.44325E-09         0.00000E+00
    0.36494E-07         0.57302E-09         0.00000E+00
    0.36495E-07         0.69394E-09         0.00000E+00
    0.36497E-07         0.80627E-09         0.00000E+00
    0.36498E-07         0.91025E-09         0.00000E+00
    0.36501E-07         0.10061E-08         0.00000E+00
    0.36503E-07         0.10941E-08         0.00000E+00
    0.36507E-07         0.11744E-08         0.00000E+00
    0.36510E-07         0.12472E-08         0.00000E+00
    0.36515E-07         0.13128E-08         0.00000E+00
    0.36519E-07         0.13713E-08         0.00000E+00
    0.36524E-07         0.14230E-08         0.00000E+00
    0.36530E-07         0.14680E-08         0.00000E+00
    0.36536E-07         0.15066E-08         0.00000E+00
    0.36543E-07         0.15388E-08         0.00000E+00
    0.36549E-07         0.15649E-08         0.00000E+00
    0.36557E-07         0.15851E-08         0.00000E+00
    0.36565E-07         0.15995E-08         0.00000E+00
    0.36573E-07         0.16082E-08         0.00000E+00
    0.36581E-07         0.16115E-08         0.00000E+00
    0.36590E-07         0.16095E-08         0.00000E+00
    0.36599E-07         0.16023E-08         0.00000E+00
    0.36608E-07         0.15900E-08         0.00000E+00
    0.36617E-07         0.15729E-08         0.00000E+00
    0.36627E-07         0.15510E-08         0.00000E+00
    0.36636E-07         0.15245E-08         0.00000E+00
    0.36646E-07         0.14935E-08         0.00000E+00
    0.36656E-07         0.14581E-08         0.00000E+00
    0.36665E-07         0.14185E-08         0.00000E+00
    0.36675E-07         0.13747E-08         0.00000E+00
    0.36684E-07         0.13269E-08         0.00000E+00
    0.36694E-07         0.12752E-08         0.00000E+00
    0.36703E-07         0.12197E-08         0.00000E+00
    0.36712E-07         0.11606E-08         0.00000E+00
    0.36720E-07         0.10978E-08         0.00000E+00
    0.36729E-07         0.10316E-08         0.00000E+00
    0.36736E-07         0.96198E-09         0.00000E+00
    0.36744E-07         0.88909E-09         0.00000E+00
    0.36751E-07         0.81300E-09         0.00000E+00
    0.36757E-07         0.73383E-09         0.00000E+00
    0.36763E-07         0.65165E-09         0.00000E+00
    0.36768E-07         0.56656E-09         0.00000E+00
    0.36773E-07         0.47865E-09         0.00000E+00
    0.36776E-07         0.38801E-09         0.00000E+00
    0.36779E-07         0.29472E-09         0.00000E+00
    0.36782E-07         0.19886E-09         0.00000E+00
    0.36783E-07         0.10053E-09         0.00000E+00
    0.36783E-07         0.50758E-10         0.00000E+00
    0.39754E-07         0.78643E-10         0.00000E+00
    0.39755E-07         0.15397E-09         0.00000E+00
    0.39756E-07         0.29974E-09         0.00000E+00
    0.39758E-07         0.43594E-09         0.00000E+00
    0.39761E-07         0.56287E-09         0.00000E+00
    0.39765E-07         0.68081E-09         0.00000E+00
    0.39769E-07         0.79005E-09         0.00000E+00
    0.39775E-07         0.89087E-09         0.00000E+00
    0.39782E-07         0.98352E-09         0.00000E+00
    0.39789E-07         0.10683E-08         0.00000E+00
    0.39797E-07         0.11453E-08         0.00000E+00
    0.39806E-07         0.12150E-08         0.00000E+00
    0.39816E-07         0.12775E-08         0.00000E+00
    0.39827E-07         0.13330E-08         0.00000E+00
    0.39838E-07         0.13817E-08         0.00000E+00
    0.39850E-07         0.14239E-08         0.00000E+00
    0.39863E-07         0.14598E-08         0.00000E+00
    0.39876E-07         0.14895E-08         0.00000E+00
    0.39890E-07         0.15133E-08         0.00000E+00
    0.39904E-07         0.15312E-08         0.00000E+00
    0.39919E-07         0.15436E-08         0.00000E+00
    0.39934E-07         0.15506E-08         0.00000E+00
    0.39950E-07         0.15523E-08         0.00000E+00
    0.39965E-07         0.15489E-08         0.00000E+00
    0.39982E-07         0.15405E-08         0.00000E+00
    0.39998E-07         0.15273E-08         0.00000E+00
    0.40014E-07         0.15095E-08         0.00000E+00
    0.40031E-07         0.14872E-08         0.00000E+00
    0.40047E-07         0.14605E-08         0.00000E+00
    0.40064E-07         0.14295E-08         0.00000E+00
    0.40080E-07         0.13945E-08         0.00000E+00
    0.40096E-07         0.13554E-08         0.00000E+00
    0.40112E-07         0.13125E-08         0.00000E+00
    0.40128E-07         0.12659E-08         0.00000E+00
    0.40143E-07         0.12156E-08         0.00000E+00
    0.40158E-07         0.11618E-08         0.00000E+00
    0.40172E-07         0.11046E-08         0.00000E+00
    0.40186E-07         0.10440E-08         0.00000E+00
    0.40199E-07         0.98030E-09         0.00000E+00
    0.40211E-07         0.91347E-09         0.00000E+00
    0.40223E-07         0.84364E-09         0.00000E+00
    0.40234E-07         0.77090E-09         0.00000E+00
    0.40244E-07         0.69534E-09         0.00000E+00
    0.40253E-07         0.61705E-09         0.00000E+00
    0.40261E-07         0.53613E-09         0.00000E+00
    0.40268E-07         0.45265E-09         0.00000E+00
    0.40274E-07         0.36671E-09         0.00000E+00
    0.40278E-07         0.27837E-09         0.00000E+00
    0.40282E-07         0.18773E-09         0.00000E+00
    0.40284E-07         0.94854E-10         0.00000E+00
    0.40284E-07         0.47869E-10         0.00000E+00
    0.43398E-07         0.75684E-10         0.00000E+00
    0.43399E-07         0.14803E-09         0.00000E+00
    0.43401E-07         0.28784E-09         0.00000E+00
    0.43405E-07         0.41806E-09         0.00000E+00
    0.43411E-07         0.53903E-09         0.00000E+00
    0.43418E-07         0.65109E-09         0.00000E+00
    0.43427E-07         0.75454E-09         0.00000E+00
    0.43437E-07         0.84969E-09         0.00000E+00
    0.43448E-07         0.93683E-09         0.00000E+00
    0.43461E-07         0.10162E-08         0.00000E+00
    0.43475E-07         0.10882E-08         0.00000E+00
    0.43490E-07         0.11529E-08         0.00000E+00
    0.43507E-07         0.12107E-08         0.00000E+00
    0.43524E-07         0.12618E-08         0.00000E+00
    0.43543E-07         0.13064E-08         0.00000E+00
    0.43562E-07         0.13447E-08         0.00000E+00
    0.43583E-07         0.13769E-08         0.00000E+00
    0.43604E-07         0.14034E-08         0.00000E+00
    0.43626E-07         0.14241E-08         0.00000E+00
    0.43648E-07         0.14395E-08         0.00000E+00
    0.43671E-07         0.14495E-08         0.00000E+00
    0.43694E-07         0.14544E-08         0.00000E+00
    0.43718E-07         0.14545E-08         0.00000E+00
    0.43742E-07         0.14497E-08         0.00000E+00
    0.43767E-07         0.14404E-08         0.00000E+00
    0.43791E-07         0.14266E-08         0.00000E+00
    0.43815E-07         0.14085E-08         0.00000E+00
    0.43840E-07         0.13862E-08         0.00000E+00
    0.43864E-07         0.13599E-08         0.00000E+00
    0.43888E-07         0.13297E-08         0.00000E+00
    0.43912E-07         0.12958E-08         0.00000E+00
    0.43935E-07         0.12583E-08         0.00000E+00
    0.43958E-07         0.12172E-08         0.00000E+00
    0.43981E-07         0.11728E-08         0.00000E+00
    0.44003E-07         0.11251E-08         0.00000E+00
    0.44024E-07         0.10742E-08         0.00000E+00
    0.44044E-07         0.10203E-08         0.00000E+00
    0.44064E-07         0.96350E-09         0.00000E+00
    0.44082E-07         0.90382E-09         0.00000E+00
    0.44100E-07         0.84141E-09         0.00000E+00
    0.44116E-07         0.77635E-09         0.00000E+00
    0.44132E-07         0.70875E-09         0.00000E+00
    0.44146E-07         0.63870E-09         0.00000E+00
    0.44158E-07         0.56627E-09         0.00000E+00
    0.44170E-07         0.49157E-09         0.00000E+00
    0.44179E-07         0.41467E-09         0.00000E+00
    0.44187E-07         0.33564E-09         0.00000E+00
    0.44194E-07         0.25458E-09         0.00000E+00
    0.44199E-07         0.17154E-09         0.00000E+00
    0.44201E-07         0.86613E-10         0.00000E+00
    0.44202E-07         0.43682E-10         0.00000E+00
    0.47472E-07         0.70449E-10         0.00000E+00
    0.47473E-07         0.13763E-09         0.00000E+00
    0.47477E-07         0.26725E-09         0.00000E+00
    0.47484E-07         0.38756E-09         0.00000E+00
    0.47492E-07         0.49893E-09         0.00000E+00
    0.47504E-07         0.60170E-09         0.00000E+00
    0.47517E-07         0.69623E-09         0.00000E+00
    0.47532E-07         0.78284E-09         0.00000E+00
    0.47549E-07         0.86183E-09         0.00000E+00
    0.47569E-07         0.93351E-09         0.00000E+00
    0.47589E-07         0.99815E-09         0.00000E+00
    0.47612E-07         0.10560E-08         0.00000E+00
    0.47636E-07         0.11074E-08         0.00000E+00
    0.47662E-07         0.11525E-08         0.00000E+00
    0.47688E-07         0.11916E-08         0.00000E+00
    0.47716E-07         0.12250E-08         0.00000E+00
    0.47745E-07         0.12527E-08         0.00000E+00
    0.47775E-07         0.12751E-08         0.00000E+00
    0.47806E-07         0.12923E-08         0.00000E+00
    0.47837E-07         0.13045E-08         0.00000E+00
    0.47869E-07         0.13119E-08         0.00000E+00
    0.47902E-07         0.13147E-08         0.00000E+00
    0.47935E-07         0.13131E-08         0.00000E+00
    0.47968E-07         0.13072E-08         0.00000E+00
    0.48001E-07         0.12971E-08         0.00000E+00
    0.48035E-07         0.12831E-08         0.00000E+00
    0.48068E-07         0.12653E-08         0.00000E+00
    0.48101E-07         0.12437E-08         0.00000E+00
    0.48134E-07         0.12186E-08         0.00000E+00
    0.48166E-07         0.11901E-08         0.00000E+00
    0.48198E-07         0.11583E-08         0.00000E+00
    0.48230E-07         0.11233E-08         0.00000E+00
    0.48260E-07         0.10853E-08         0.00000E+00
    0.48290E-07         0.10443E-08         0.00000E+00
    0.48319E-07         0.10006E-08         0.00000E+00
    0.48347E-07         0.95409E-09         0.00000E+00
    0.48374E-07         0.90504E-09         0.00000E+00
    0.48400E-07         0.85350E-09         0.00000E+00
    0.48424E-07         0.79957E-09         0.00000E+00
    0.48448E-07         0.74337E-09         0.00000E+00
    0.48469E-07         0.68498E-09         0.00000E+00
    0.48489E-07         0.62449E-09         0.00000E+00
    0.48508E-07         0.56201E-09         0.00000E+00
    0.48524E-07         0.49761E-09         0.00000E+00
    0.48539E-07         0.43139E-09         0.00000E+00
    0.48551E-07         0.36341E-09         0.00000E+00
    0.48562E-07         0.29377E-09         0.00000E+00
    0.48571E-07         0.22253E-09         0.00000E+00
    0.48577E-07         0.14976E-09         0.00000E+00
    0.48580E-07         0.75522E-10         0.00000E+00
    0.48582E-07         0.38048E-10         0.00000E+00
    0.52030E-07         0.62547E-10         0.00000E+00
    0.52032E-07         0.12203E-09         0.00000E+00
    0.52038E-07         0.23656E-09         0.00000E+00
    0.52047E-07         0.34241E-09         0.00000E+00
    0.52059E-07         0.43997E-09         0.00000E+00
    0.52075E-07         0.52961E-09         0.00000E+00
    0.52093E-07         0.61168E-09         0.00000E+00
    0.52114E-07         0.68653E-09         0.00000E+00
    0.52138E-07         0.75447E-09         0.00000E+00
    0.52164E-07         0.81580E-09         0.00000E+00
    0.52193E-07         0.87080E-09         0.00000E+00
    0.52224E-07         0.91976E-09         0.00000E+00
    0.52256E-07         0.96292E-09         0.00000E+00
    0.52290E-07         0.10005E-08         0.00000E+00
    0.52326E-07         0.10328E-08         0.00000E+00
    0.52364E-07         0.10600E-08         0.00000E+00
    0.52402E-07         0.10824E-08         0.00000E+00
    0.52442E-07         0.11000E-08         0.00000E+00
    0.52482E-07         0.11131E-08         0.00000E+00
    0.52523E-07         0.11220E-08         0.00000E+00
    0.52565E-07         0.11266E-08         0.00000E+00
    0.52608E-07         0.11274E-08         0.00000E+00
    0.52650E-07         0.11243E-08         0.00000E+00
    0.52693E-07         0.11175E-08         0.00000E+00
    0.52736E-07         0.11072E-08         0.00000E+00
    0.52779E-07         0.10935E-08         0.00000E+00
    0.52821E-07         0.10766E-08         0.00000E+00
    0.52864E-07         0.10566E-08         0.00000E+00
    0.52905E-07         0.10336E-08         0.00000E+00
    0.52946E-07         0.10078E-08         0.00000E+00
    0.52987E-07         0.97919E-09         0.00000E+00
    0.53027E-07         0.94799E-09         0.00000E+00
    0.53065E-07         0.91430E-09         0.00000E+00
    0.53103E-07         0.87823E-09         0.00000E+00
    0.53139E-07         0.83988E-09         0.00000E+00
    0.53174E-07         0.79938E-09         0.00000E+00
    0.53208E-07         0.75682E-09         0.00000E+00
    0.53240E-07         0.71231E-09         0.00000E+00
    0.53271E-07         0.66596E-09         0.00000E+00
    0.53299E-07         0.61787E-09         0.00000E+00
    0.53326E-07         0.56813E-09         0.00000E+00
    0.53351E-07         0.51685E-09         0.00000E+00
    0.53374E-07         0.46411E-09         0.00000E+00
    0.53395E-07         0.41001E-09         0.00000E+00
    0.53413E-07         0.35463E-09         0.00000E+00
    0.53429E-07         0.29806E-09         0.00000E+00
    0.53442E-07         0.24038E-09         0.00000E+00
    0.53452E-07         0.18166E-09         0.00000E+00
    0.53460E-07         0.12197E-09         0.00000E+00
    0.53465E-07         0.61374E-10         0.00000E+00
    0.53466E-07         0.30858E-10         0.00000E+00
    0.57129E-07         0.51597E-10         0.00000E+00
    0.57131E-07         0.10049E-09         0.00000E+00
    0.57139E-07         0.19437E-09         0.00000E+00
    0.57151E-07         0.28064E-09         0.00000E+00
    0.57167E-07         0.35971E-09         0.00000E+00
    0.57188E-07         0.43195E-09         0.00000E+00
    0.57212E-07         0.49771E-09         0.00000E+00
    0.57240E-07         0.55731E-09         0.00000E+00
    0.57271E-07         0.61108E-09         0.00000E+00
    0.57305E-07         0.65930E-09         0.00000E+00
    0.57342E-07         0.70224E-09         0.00000E+00
    0.57381E-07         0.74016E-09         0.00000E+00
    0.57423E-07         0.77330E-09         0.00000E+00
    0.57466E-07         0.80190E-09         0.00000E+00
    0.57512E-07         0.82615E-09         0.00000E+00
    0.57559E-07         0.84626E-09         0.00000E+00
    0.57608E-07         0.86242E-09         0.00000E+00
    0.57657E-07         0.87480E-09         0.00000E+00
    0.57708E-07         0.88358E-09         0.00000E+00
    0.57759E-07         0.88890E-09         0.00000E+00
    0.57811E-07         0.89091E-09         0.00000E+00
    0.57864E-07         0.88977E-09         0.00000E+00
    0.57917E-07         0.88559E-09         0.00000E+00
    0.57969E-07         0.87853E-09         0.00000E+00
    0.58022E-07         0.86869E-09         0.00000E+00
    0.58074E-07         0.85619E-09         0.00000E+00
    0.58126E-07         0.84116E-09         0.00000E+00
    0.58177E-07         0.82372E-09         0.00000E+00
    0.58228E-07         0.80396E-09         0.00000E+00
    0.58278E-07         0.78200E-09         0.00000E+00
    0.58327E-07         0.75795E-09         0.00000E+00
    0.58374E-07         0.73191E-09         0.00000E+00
    0.58421E-07         0.70400E-09         0.00000E+00
    0.58466E-07         0.67431E-09         0.00000E+00
    0.58509E-07         0.64296E-09         0.00000E+00
    0.58551E-07         0.61006E-09         0.00000E+00
    0.58591E-07         0.57570E-09         0.00000E+00
    0.58630E-07         0.53999E-09         0.00000E+00
    0.58666E-07         0.50305E-09         0.00000E+00
    0.58700E-07         0.46497E-09         0.00000E+00
    0.58732E-07         0.42587E-09         0.00000E+00
    0.58762E-07         0.38585E-09         0.00000E+00
    0.58789E-07         0.34500E-09         0.00000E+00
    0.58813E-07         0.30343E-09         0.00000E+00
    0.58835E-07         0.26124E-09         0.00000E+00
    0.58854E-07         0.21853E-09         0.00000E+00
    0.58869E-07         0.17537E-09         0.00000E+00
    0.58882E-07         0.13187E-09         0.00000E+00
    0.58891E-07         0.88088E-10         0.00000E+00
    0.58896E-07         0.44108E-10         0.00000E+00
    0.58898E-07         0.22077E-10         0.00000E+00
    0.62827E-07         0.37243E-10         0.00000E+00
    0.62830E-07         0.72326E-10         0.00000E+00
    0.62839E-07         0.13941E-09         0.00000E+00
    0.62855E-07         0.20051E-09         0.00000E+00
    0.62875E-07         0.25601E-09         0.00000E+00
    0.62901E-07         0.30628E-09         0.00000E+00
    0.62932E-07         0.35162E-09         0.00000E+00
    0.62966E-07         0.39235E-09         0.00000E+00
    0.63005E-07         0.42875E-09         0.00000E+00
    0.63047E-07         0.46108E-09         0.00000E+00
    0.63093E-07         0.48957E-09         0.00000E+00
    0.63142E-07         0.51445E-09         0.00000E+00
    0.63193E-07         0.53591E-09         0.00000E+00
    0.63246E-07         0.55415E-09         0.00000E+00
    0.63302E-07         0.56933E-09         0.00000E+00
    0.63359E-07         0.58161E-09         0.00000E+00
    0.63418E-07         0.59114E-09         0.00000E+00
    0.63478E-07         0.59805E-09         0.00000E+00
    0.63538E-07         0.60247E-09         0.00000E+00
    0.63600E-07         0.60450E-09         0.00000E+00
    0.63662E-07         0.60426E-09         0.00000E+00
    0.63724E-07         0.60185E-09         0.00000E+00
    0.63787E-07         0.59736E-09         0.00000E+00
    0.63849E-07         0.59088E-09         0.00000E+00
    0.63911E-07         0.58250E-09         0.00000E+00
    0.63972E-07         0.57230E-09         0.00000E+00
    0.64033E-07         0.56037E-09         0.00000E+00
    0.64092E-07         0.54679E-09         0.00000E+00
    0.64151E-07         0.53164E-09         0.00000E+00
    0.64208E-07         0.51500E-09         0.00000E+00
    0.64265E-07         0.49696E-09         0.00000E+00
    0.64320E-07         0.47762E-09         0.00000E+00
    0.64373E-07         0.45705E-09         0.00000E+00
    0.64424E-07         0.43535E-09         0.00000E+00
    0.64474E-07         0.41262E-09         0.00000E+00
    0.64522E-07         0.38896E-09         0.00000E+00
    0.64567E-07         0.36447E-09         0.00000E+00
    0.64611E-07         0.33927E-09         0.00000E+00
    0.64652E-07         0.31347E-09         0.00000E+00
    0.64691E-07         0.28717E-09         0.00000E+00
    0.64727E-07         0.26051E-09         0.00000E+00
    0.64760E-07         0.23360E-09         0.00000E+00
    0.64791E-07         0.20657E-09         0.00000E+00
    0.64819E-07         0.17954E-09         0.00000E+00
    0.64843E-07         0.15262E-09         0.00000E+00
    0.64864E-07         0.12594E-09         0.00000E+00
    0.64882E-07         0.99626E-10         0.00000E+00
    0.64896E-07         0.73777E-10         0.00000E+00
    0.64907E-07         0.48504E-10         0.00000E+00
    0.64913E-07         0.23905E-10         0.00000E+00
    0.64915E-07         0.11787E-10         0.00000E+00
    0.69184E-07         0.19181E-10         0.00000E+00
    0.69188E-07         0.36981E-10         0.00000E+00
    0.69199E-07         0.70645E-10         0.00000E+00
    0.69218E-07         0.10061E-09         0.00000E+00
    0.69243E-07         0.12722E-09         0.00000E+00
    0.69275E-07         0.15078E-09         0.00000E+00
    0.69312E-07         0.17155E-09         0.00000E+00
    0.69354E-07         0.18979E-09         0.00000E+00
    0.69400E-07         0.20572E-09         0.00000E+00
    0.69451E-07         0.21953E-09         0.00000E+00
    0.69506E-07         0.23140E-09         0.00000E+00
    0.69563E-07         0.24148E-09         0.00000E+00
    0.69624E-07         0.24992E-09         0.00000E+00
    0.69687E-07         0.25682E-09         0.00000E+00
    0.69752E-07         0.26230E-09         0.00000E+00
    0.69819E-07         0.26644E-09         0.00000E+00
    0.69888E-07         0.26932E-09         0.00000E+00
    0.69957E-07         0.27100E-09         0.00000E+00
    0.70028E-07         0.27154E-09         0.00000E+00
    0.70099E-07         0.27099E-09         0.00000E+00
    0.70170E-07         0.26939E-09         0.00000E+00
    0.70241E-07         0.26678E-09         0.00000E+00
    0.70312E-07         0.26319E-09         0.00000E+00
    0.70382E-07         0.25864E-09         0.00000E+00
    0.70452E-07         0.25318E-09         0.00000E+00
    0.70521E-07         0.24683E-09         0.00000E+00
    0.70589E-07         0.23961E-09         0.00000E+00
    0.70655E-07         0.23157E-09         0.00000E+00
    0.70720E-07         0.22273E-09         0.00000E+00
    0.70784E-07         0.21314E-09         0.00000E+00
    0.70845E-07         0.20285E-09         0.00000E+00
    0.70906E-07         0.19191E-09         0.00000E+00
    0.70964E-07         0.18038E-09         0.00000E+00
    0.71020E-07         0.16834E-09         0.00000E+00
    0.71073E-07         0.15587E-09         0.00000E+00
    0.71125E-07         0.14305E-09         0.00000E+00
    0.71174E-07         0.12999E-09         0.00000E+00
    0.71221E-07         0.11680E-09         0.00000E+00
    0.71265E-07         0.10360E-09         0.00000E+00
    0.71307E-07         0.90533E-10         0.00000E+00
    0.71345E-07         0.77734E-10         0.00000E+00
    0.71381E-07         0.65356E-10         0.00000E+00
    0.71414E-07         0.53557E-10         0.00000E+00
    0.71443E-07         0.42503E-10         0.00000E+00
    0.71470E-07         0.32363E-10         0.00000E+00
    0.71492E-07         0.23308E-10         0.00000E+00
    0.71512E-07         0.15511E-10         0.00000E+00
    0.71527E-07         0.91417E-11         0.00000E+00
    0.71538E-07         0.43603E-11         0.00000E+00
    0.71545E-07         0.13193E-11         0.00000E+00
    0.71547E-07         0.25224E-12         0.00000E+00
    0.76258E-07        -0.28087E-11         0.00000E+00
    0.76263E-07        -0.59428E-11         0.00000E+00
    0.76277E-07        -0.12593E-10         0.00000E+00
    0.76299E-07        -0.19872E-10         0.00000E+00
    0.76329E-07        -0.27531E-10         0.00000E+00
    0.76366E-07        -0.35354E-10         0.00000E+00
    0.76410E-07        -0.43160E-10         0.00000E+00
    0.76459E-07        -0.50797E-10         0.00000E+00
    0.76513E-07        -0.58142E-10         0.00000E+00
    0.76572E-07        -0.65097E-10         0.00000E+00
    0.76635E-07        -0.71586E-10         0.00000E+00
    0.76702E-07        -0.77557E-10         0.00000E+00
    0.76771E-07        -0.82975E-10         0.00000E+00
    0.76843E-07        -0.87823E-10         0.00000E+00
    0.76917E-07        -0.92098E-10         0.00000E+00
    0.76993E-07        -0.95812E-10         0.00000E+00
    0.77070E-07        -0.98987E-10         0.00000E+00
    0.77148E-07        -0.10166E-09         0.00000E+00
    0.77226E-07        -0.10386E-09         0.00000E+00
    0.77305E-07        -0.10564E-09         0.00000E+00
    0.77384E-07        -0.10705E-09         0.00000E+00
    0.77462E-07        -0.10814E-09         0.00000E+00
    0.77539E-07        -0.10898E-09         0.00000E+00
    0.77616E-07        -0.10961E-09         0.00000E+00
    0.77691E-07        -0.11009E-09         0.00000E+00
    0.77765E-07        -0.11048E-09         0.00000E+00
    0.77837E-07        -0.11082E-09         0.00000E+00
    0.77908E-07        -0.11114E-09         0.00000E+00
    0.77976E-07        -0.11149E-09         0.00000E+00
    0.78043E-07        -0.11189E-09         0.00000E+00
    0.78108E-07        -0.11235E-09         0.00000E+00
    0.78170E-07        -0.11287E-09         0.00000E+00
    0.78229E-07        -0.11344E-09         0.00000E+00
    0.78287E-07        -0.11402E-09         0.00000E+00
    0.78342E-07        -0.11456E-09         0.00000E+00
    0.78394E-07        -0.11501E-09         0.00000E+00
    0.78443E-07        -0.11526E-09         0.00000E+00
    0.78490E-07        -0.11521E-09         0.00000E+00
    0.78534E-07        -0.11473E-09         0.00000E+00
    0.78575E-07        -0.11366E-09         0.00000E+00
    0.78613E-07        -0.11182E-09         0.00000E+00
    0.78649E-07        -0.10901E-09         0.00000E+00
    0.78681E-07        -0.10502E-09         0.00000E+00
    0.78710E-07        -0.99605E-10         0.00000E+00
    0.78736E-07        -0.92511E-10         0.00000E+00
    0.78759E-07        -0.83481E-10         0.00000E+00
    0.78777E-07        -0.72243E-10         0.00000E+00
    0.78793E-07        -0.58523E-10         0.00000E+00
    0.78804E-07        -0.42036E-10         0.00000E+00
    0.78811E-07        -0.22509E-10         0.00000E+00
    0.78813E-07        -0.11951E-10         0.00000E+00
    0.84103E-07        -0.28810E-10         0.00000E+00
    0.84109E-07        -0.56561E-10         0.00000E+00
    0.84125E-07        -0.11042E-09         0.00000E+00
    0.84151E-07        -0.16092E-09         0.00000E+00
    0.84185E-07        -0.20797E-09         0.00000E+00
    0.84227E-07        -0.25148E-09         0.00000E+00
    0.84277E-07        -0.29142E-09         0.00000E+00
    0.84333E-07        -0.32779E-09         0.00000E+00
    0.84394E-07        -0.36061E-09         0.00000E+00
    0.84460E-07        -0.38994E-09         0.00000E+00
    0.84531E-07        -0.41584E-09         0.00000E+00
    0.84605E-07        -0.43841E-09         0.00000E+00
    0.84682E-07        -0.45776E-09         0.00000E+00
    0.84761E-07        -0.47402E-09         0.00000E+00
    0.84843E-07        -0.48731E-09         0.00000E+00
    0.84925E-07        -0.49779E-09         0.00000E+00
    0.85009E-07        -0.50562E-09         0.00000E+00
    0.85093E-07        -0.51096E-09         0.00000E+00
    0.85177E-07        -0.51397E-09         0.00000E+00
    0.85261E-07        -0.51484E-09         0.00000E+00
    0.85344E-07        -0.51372E-09         0.00000E+00
    0.85426E-07        -0.51080E-09         0.00000E+00
    0.85507E-07        -0.50625E-09         0.00000E+00
    0.85587E-07        -0.50024E-09         0.00000E+00
    0.85664E-07        -0.49293E-09         0.00000E+00
    0.85740E-07        -0.48448E-09         0.00000E+00
    0.85813E-07        -0.47505E-09         0.00000E+00
    0.85884E-07        -0.46479E-09         0.00000E+00
    0.85952E-07        -0.45381E-09         0.00000E+00
    0.86018E-07        -0.44226E-09         0.00000E+00
    0.86081E-07        -0.43022E-09         0.00000E+00
    0.86141E-07        -0.41779E-09         0.00000E+00
    0.86198E-07        -0.40504E-09         0.00000E+00
    0.86252E-07        -0.39201E-09         0.00000E+00
    0.86303E-07        -0.37871E-09         0.00000E+00
    0.86351E-07        -0.36515E-09         0.00000E+00
    0.86395E-07        -0.35126E-09         0.00000E+00
    0.86437E-07        -0.33697E-09         0.00000E+00
    0.86476E-07        -0.32215E-09         0.00000E+00
    0.86512E-07        -0.30663E-09         0.00000E+00
    0.86545E-07        -0.29021E-09         0.00000E+00
    0.86576E-07        -0.27263E-09         0.00000E+00
    0.86603E-07        -0.25359E-09         0.00000E+00
    0.86628E-07        -0.23273E-09         0.00000E+00
    0.86650E-07        -0.20966E-09         0.00000E+00
    0.86669E-07        -0.18395E-09         0.00000E+00
    0.86685E-07        -0.15514E-09         0.00000E+00
    0.86698E-07        -0.12276E-09         0.00000E+00
    0.86708E-07        -0.86358E-10         0.00000E+00
    0.86714E-07        -0.45469E-10         0.00000E+00
    0.86716E-07        -0.23842E-10         0.00000E+00
    0.92761E-07        -0.58688E-10         0.00000E+00
    0.92767E-07        -0.11455E-09         0.00000E+00
    0.92785E-07        -0.22205E-09         0.00000E+00
    0.92814E-07        -0.32118E-09         0.00000E+00
    0.92853E-07        -0.41203E-09         0.00000E+00
    0.92900E-07        -0.49476E-09         0.00000E+00
    0.92954E-07        -0.56955E-09         0.00000E+00
    0.93015E-07        -0.63661E-09         0.00000E+00
    0.93082E-07        -0.69619E-09         0.00000E+00
    0.93154E-07        -0.74854E-09         0.00000E+00
    0.93230E-07        -0.79394E-09         0.00000E+00
    0.93309E-07        -0.83269E-09         0.00000E+00
    0.93392E-07        -0.86509E-09         0.00000E+00
    0.93476E-07        -0.89146E-09         0.00000E+00
    0.93562E-07        -0.91211E-09         0.00000E+00
    0.93648E-07        -0.92736E-09         0.00000E+00
    0.93735E-07        -0.93756E-09         0.00000E+00
    0.93822E-07        -0.94302E-09         0.00000E+00
    0.93909E-07        -0.94407E-09         0.00000E+00
    0.93994E-07        -0.94104E-09         0.00000E+00
    0.94079E-07        -0.93424E-09         0.00000E+00
    0.94161E-07        -0.92400E-09         0.00000E+00
    0.94241E-07        -0.91063E-09         0.00000E+00
    0.94320E-07        -0.89443E-09         0.00000E+00
    0.94395E-07        -0.87571E-09         0.00000E+00
    0.94468E-07        -0.85476E-09         0.00000E+00
    0.94538E-07        -0.83187E-09         0.00000E+00
    0.94604E-07        -0.80730E-09         0.00000E+00
    0.94667E-07        -0.78132E-09         0.00000E+00
    0.94727E-07        -0.75418E-09         0.00000E+00
    0.94783E-07        -0.72612E-09         0.00000E+00
    0.94835E-07        -0.69735E-09         0.00000E+00
    0.94884E-07        -0.66808E-09         0.00000E+00
    0.94928E-07        -0.63848E-09         0.00000E+00
    0.94970E-07        -0.60868E-09         0.00000E+00
    0.95007E-07        -0.57881E-09         0.00000E+00
    0.95041E-07        -0.54893E-09         0.00000E+00
    0.95071E-07        -0.51906E-09         0.00000E+00
    0.95098E-07        -0.48918E-09         0.00000E+00
    0.95122E-07        -0.45919E-09         0.00000E+00
    0.95143E-07        -0.42890E-09         0.00000E+00
    0.95161E-07        -0.39803E-09         0.00000E+00
    0.95176E-07        -0.36618E-09         0.00000E+00
    0.95190E-07        -0.33289E-09         0.00000E+00
    0.95202E-07        -0.29755E-09         0.00000E+00
    0.95211E-07        -0.25954E-09         0.00000E+00
    0.95220E-07        -0.21807E-09         0.00000E+00
    0.95227E-07        -0.17227E-09         0.00000E+00
    0.95232E-07        -0.12113E-09         0.00000E+00
    0.95236E-07        -0.63720E-10         0.00000E+00
    0.95237E-07        -0.33336E-10         0.00000E+00
    0.10226E-06        -0.91947E-10         0.00000E+00
    0.10226E-06        -0.17887E-09         0.00000E+00
    0.10228E-06        -0.34532E-09         0.00000E+00
    0.10231E-06        -0.49721E-09         0.00000E+00
    0.10236E-06        -0.63497E-09         0.00000E+00
    0.10241E-06        -0.75909E-09         0.00000E+00
    0.10246E-06        -0.87006E-09         0.00000E+00
    0.10253E-06        -0.96840E-09         0.00000E+00
    0.10260E-06        -0.10547E-08         0.00000E+00
    0.10267E-06        -0.11294E-08         0.00000E+00
    0.10275E-06        -0.11931E-08         0.00000E+00
    0.10283E-06        -0.12464E-08         0.00000E+00
    0.10292E-06        -0.12898E-08         0.00000E+00
    0.10300E-06        -0.13240E-08         0.00000E+00
    0.10309E-06        -0.13493E-08         0.00000E+00
    0.10317E-06        -0.13665E-08         0.00000E+00
    0.10326E-06        -0.13759E-08         0.00000E+00
    0.10334E-06        -0.13782E-08         0.00000E+00
    0.10343E-06        -0.13738E-08         0.00000E+00
    0.10351E-06        -0.13632E-08         0.00000E+00
    0.10359E-06        -0.13470E-08         0.00000E+00
    0.10367E-06        -0.13255E-08         0.00000E+00
    0.10374E-06        -0.12993E-08         0.00000E+00
    0.10382E-06        -0.12689E-08         0.00000E+00
    0.10388E-06        -0.12345E-08         0.00000E+00
    0.10395E-06        -0.11968E-08         0.00000E+00
    0.10401E-06        -0.11561E-08         0.00000E+00
    0.10407E-06        -0.11128E-08         0.00000E+00
    0.10412E-06        -0.10674E-08         0.00000E+00
    0.10417E-06        -0.10202E-08         0.00000E+00
    0.10421E-06        -0.97161E-09         0.00000E+00
    0.10425E-06        -0.92203E-09         0.00000E+00
    0.10429E-06        -0.87182E-09         0.00000E+00
    0.10431E-06        -0.82133E-09         0.00000E+00
    0.10434E-06        -0.77091E-09         0.00000E+00
    0.10436E-06        -0.72088E-09         0.00000E+00
    0.10438E-06        -0.67154E-09         0.00000E+00
    0.10439E-06        -0.62311E-09         0.00000E+00
    0.10439E-06        -0.57580E-09         0.00000E+00
    0.10440E-06        -0.52973E-09         0.00000E+00
    0.10440E-06        -0.48502E-09         0.00000E+00
    0.10439E-06        -0.44171E-09         0.00000E+00
    0.10439E-06        -0.39965E-09         0.00000E+00
    0.10438E-06        -0.35850E-09         0.00000E+00
    0.10437E-06        -0.31757E-09         0.00000E+00
    0.10436E-06        -0.27578E-09         0.00000E+00
    0.10435E-06        -0.23171E-09         0.00000E+00
    0.10434E-06        -0.18386E-09         0.00000E+00
    0.10433E-06        -0.13057E-09         0.00000E+00
    0.10433E-06        -0.69793E-10         0.00000E+00
    0.10433E-06        -0.37238E-10         0.00000E+00
    0.11259E-06        -0.12753E-09         0.00000E+00
    0.11260E-06        -0.24737E-09         0.00000E+00
    0.11262E-06        -0.47587E-09         0.00000E+00
    0.11265E-06        -0.68244E-09         0.00000E+00
    0.11269E-06        -0.86801E-09         0.00000E+00
    0.11274E-06        -0.10335E-08         0.00000E+00
    0.11280E-06        -0.11799E-08         0.00000E+00
    0.11286E-06        -0.13081E-08         0.00000E+00
    0.11293E-06        -0.14191E-08         0.00000E+00
    0.11300E-06        -0.15139E-08         0.00000E+00
    0.11308E-06        -0.15932E-08         0.00000E+00
    0.11316E-06        -0.16580E-08         0.00000E+00
    0.11324E-06        -0.17092E-08         0.00000E+00
    0.11332E-06        -0.17477E-08         0.00000E+00
    0.11340E-06        -0.17742E-08         0.00000E+00
    0.11348E-06        -0.17896E-08         0.00000E+00
    0.11356E-06        -0.17945E-08         0.00000E+00
    0.11364E-06        -0.17898E-08         0.00000E+00
    0.11371E-06        -0.17761E-08         0.00000E+00
    0.11378E-06        -0.17542E-08         0.00000E+00
    0.11385E-06        -0.17246E-08         0.00000E+00
    0.11392E-06        -0.16881E-08         0.00000E+00
    0.11399E-06        -0.16451E-08         0.00000E+00
    0.11404E-06        -0.15964E-08         0.00000E+00
    0.11410E-06        -0.15424E-08         0.00000E+00
    0.11415E-06        -0.14838E-08         0.00000E+00
    0.11420E-06        -0.14210E-08         0.00000E+00
    0.11424E-06        -0.13547E-08         0.00000E+00
    0.11428E-06        -0.12852E-08         0.00000E+00
    0.11431E-06        -0.12133E-08         0.00000E+00
    0.11434E-06        -0.11393E-08         0.00000E+00
    0.11436E-06        -0.10639E-08         0.00000E+00
    0.11437E-06        -0.98752E-09         0.00000E+00
    0.11438E-06        -0.91076E-09         0.00000E+00
    0.11438E-06        -0.83412E-09         0.00000E+00
    0.11438E-06        -0.75813E-09         0.00000E+00
    0.11437E-06        -0.68340E-09         0.00000E+00
    0.11436E-06        -0.61057E-09         0.00000E+00
    0.11434E-06        -0.54027E-09         0.00000E+00
    0.11432E-06        -0.47306E-09         0.00000E+00
    0.11429E-06        -0.40937E-09         0.00000E+00
    0.11425E-06        -0.34947E-09         0.00000E+00
    0.11422E-06        -0.29372E-09         0.00000E+00
    0.11418E-06        -0.24272E-09         0.00000E+00
    0.11413E-06        -0.19725E-09         0.00000E+00
    0.11409E-06        -0.15808E-09         0.00000E+00
    0.11405E-06        -0.12546E-09         0.00000E+00
    0.11400E-06        -0.97687E-10         0.00000E+00
    0.11397E-06        -0.70840E-10         0.00000E+00
    0.11394E-06        -0.40026E-10         0.00000E+00
    0.11393E-06        -0.22978E-10         0.00000E+00
    0.12372E-06        -0.16352E-09         0.00000E+00
    0.12372E-06        -0.31626E-09         0.00000E+00
    0.12374E-06        -0.60618E-09         0.00000E+00
    0.12377E-06        -0.86576E-09         0.00000E+00
    0.12381E-06        -0.10966E-08         0.00000E+00
    0.12386E-06        -0.13003E-08         0.00000E+00
    0.12391E-06        -0.14784E-08         0.00000E+00
    0.12397E-06        -0.16324E-08         0.00000E+00
    0.12403E-06        -0.17638E-08         0.00000E+00
    0.12410E-06        -0.18739E-08         0.00000E+00
    0.12416E-06        -0.19642E-08         0.00000E+00
    0.12423E-06        -0.20360E-08         0.00000E+00
    0.12430E-06        -0.20905E-08         0.00000E+00
    0.12437E-06        -0.21288E-08         0.00000E+00
    0.12443E-06        -0.21522E-08         0.00000E+00
    0.12450E-06        -0.21617E-08         0.00000E+00
    0.12456E-06        -0.21582E-08         0.00000E+00
    0.12463E-06        -0.21428E-08         0.00000E+00
    0.12468E-06        -0.21163E-08         0.00000E+00
    0.12474E-06        -0.20796E-08         0.00000E+00
    0.12479E-06        -0.20335E-08         0.00000E+00
    0.12484E-06        -0.19787E-08         0.00000E+00
    0.12489E-06        -0.19160E-08         0.00000E+00
    0.12493E-06        -0.18460E-08         0.00000E+00
    0.12496E-06        -0.17695E-08         0.00000E+00
    0.12499E-06        -0.16870E-08         0.00000E+00
    0.12502E-06        -0.15991E-08         0.00000E+00
    0.12504E-06        -0.15066E-08         0.00000E+00
    0.12506E-06        -0.14099E-08         0.00000E+00
    0.12507E-06        -0.13098E-08         0.00000E+00
    0.12507E-06        -0.12068E-08         0.00000E+00
    0.12507E-06        -0.11015E-08         0.00000E+00
    0.12506E-06        -0.99453E-09         0.00000E+00
    0.12505E-06        -0.88667E-09         0.00000E+00
    0.12503E-06        -0.77868E-09         0.00000E+00
    0.12500E-06        -0.67136E-09         0.00000E+00
    0.12497E-06        -0.56537E-09         0.00000E+00
    0.12493E-06        -0.46127E-09         0.00000E+00
    0.12488E-06        -0.35978E-09         0.00000E+00
    0.12483E-06        -0.26205E-09         0.00000E+00
    0.12477E-06        -0.16970E-09         0.00000E+00
    0.12470E-06        -0.84791E-10         0.00000E+00
    0.12463E-06        -0.89096E-11         0.00000E+00
    0.12455E-06         0.57613E-10         0.00000E+00
    0.12447E-06         0.11479E-09         0.00000E+00
    0.12438E-06         0.16222E-09         0.00000E+00
    0.12430E-06         0.19849E-09         0.00000E+00
    0.12423E-06         0.21702E-09         0.00000E+00
    0.12417E-06         0.20054E-09         0.00000E+00
    0.12412E-06         0.12579E-09         0.00000E+00
    0.12411E-06         0.70964E-10         0.00000E+00
    0.13554E-06        -0.19685E-09         0.00000E+00
    0.13555E-06        -0.37950E-09         0.00000E+00
    0.13556E-06        -0.72445E-09         0.00000E+00
    0.13559E-06        -0.10300E-08         0.00000E+00
    0.13562E-06        -0.12987E-08         0.00000E+00
    0.13566E-06        -0.15329E-08         0.00000E+00
    0.13570E-06        -0.17349E-08         0.00000E+00
    0.13574E-06        -0.19070E-08         0.00000E+00
    0.13579E-06        -0.20513E-08         0.00000E+00
    0.13584E-06        -0.21698E-08         0.00000E+00
    0.13589E-06        -0.22644E-08         0.00000E+00
    0.13593E-06        -0.23369E-08         0.00000E+00
    0.13598E-06        -0.23888E-08         0.00000E+00
    0.13602E-06        -0.24219E-08         0.00000E+00
    0.13607E-06        -0.24374E-08         0.00000E+00
    0.13611E-06        -0.24368E-08         0.00000E+00
    0.13615E-06        -0.24213E-08         0.00000E+00
    0.13618E-06        -0.23920E-08         0.00000E+00
    0.13621E-06        -0.23500E-08         0.00000E+00
    0.13624E-06        -0.22963E-08         0.00000E+00
    0.13627E-06        -0.22318E-08         0.00000E+00
    0.13629E-06        -0.21572E-08         0.00000E+00
    0.13631E-06        -0.20735E-08         0.00000E+00
    0.13632E-06        -0.19812E-08         0.00000E+00
    0.13633E-06        -0.18812E-08         0.00000E+00
    0.13634E-06        -0.17741E-08         0.00000E+00
    0.13634E-06        -0.16604E-08         0.00000E+00
    0.13633E-06        -0.15410E-08         0.00000E+00
    0.13632E-06        -0.14162E-08         0.00000E+00
    0.13630E-06        -0.12868E-08         0.00000E+00
    0.13628E-06        -0.11535E-08         0.00000E+00
    0.13625E-06        -0.10169E-08         0.00000E+00
    0.13622E-06        -0.87785E-09         0.00000E+00
    0.13618E-06        -0.73685E-09         0.00000E+00
    0.13613E-06        -0.59441E-09         0.00000E+00
    0.13607E-06        -0.45134E-09         0.00000E+00
    0.13601E-06        -0.30913E-09         0.00000E+00
    0.13594E-06        -0.16981E-09         0.00000E+00
    0.13586E-06        -0.35052E-10         0.00000E+00
    0.13578E-06         0.94842E-10         0.00000E+00
    0.13569E-06         0.22028E-09         0.00000E+00
    0.13559E-06         0.34189E-09         0.00000E+00
    0.13549E-06         0.45790E-09         0.00000E+00
    0.13539E-06         0.56142E-09         0.00000E+00
    0.13529E-06         0.63820E-09         0.00000E+00
    0.13520E-06         0.67108E-09         0.00000E+00
    0.13513E-06         0.65190E-09         0.00000E+00
    0.13507E-06         0.57659E-09         0.00000E+00
    0.13503E-06         0.44008E-09         0.00000E+00
    0.13500E-06         0.24155E-09         0.00000E+00
    0.13499E-06         0.12700E-09         0.00000E+00
    0.14789E-06        -0.22298E-09         0.00000E+00
    0.14789E-06        -0.42823E-09         0.00000E+00
    0.14790E-06        -0.81363E-09         0.00000E+00
    0.14792E-06        -0.11507E-08         0.00000E+00
    0.14793E-06        -0.14430E-08         0.00000E+00
    0.14795E-06        -0.16942E-08         0.00000E+00
    0.14797E-06        -0.19074E-08         0.00000E+00
    0.14800E-06        -0.20858E-08         0.00000E+00
    0.14802E-06        -0.22321E-08         0.00000E+00
    0.14803E-06        -0.23491E-08         0.00000E+00
    0.14805E-06        -0.24392E-08         0.00000E+00
    0.14807E-06        -0.25047E-08         0.00000E+00
    0.14808E-06        -0.25476E-08         0.00000E+00
    0.14809E-06        -0.25698E-08         0.00000E+00
    0.14810E-06        -0.25730E-08         0.00000E+00
    0.14810E-06        -0.25588E-08         0.00000E+00
    0.14810E-06        -0.25286E-08         0.00000E+00
    0.14810E-06        -0.24836E-08         0.00000E+00
    0.14810E-06        -0.24250E-08         0.00000E+00
    0.14809E-06        -0.23538E-08         0.00000E+00
    0.14808E-06        -0.22710E-08         0.00000E+00
    0.14806E-06        -0.21772E-08         0.00000E+00
    0.14805E-06        -0.20734E-08         0.00000E+00
    0.14802E-06        -0.19601E-08         0.00000E+00
    0.14800E-06        -0.18380E-08         0.00000E+00
    0.14797E-06        -0.17077E-08         0.00000E+00
    0.14793E-06        -0.15698E-08         0.00000E+00
    0.14789E-06        -0.14248E-08         0.00000E+00
    0.14785E-06        -0.12734E-08         0.00000E+00
    0.14780E-06        -0.11160E-08         0.00000E+00
    0.14775E-06        -0.95325E-09         0.00000E+00
    0.14768E-06        -0.78542E-09         0.00000E+00
    0.14762E-06        -0.61321E-09         0.00000E+00
    0.14754E-06        -0.43797E-09         0.00000E+00
    0.14746E-06        -0.26164E-09         0.00000E+00
    0.14737E-06        -0.85257E-10         0.00000E+00
    0.14727E-06         0.92072E-10         0.00000E+00
    0.14717E-06         0.27204E-09         0.00000E+00
    0.14706E-06         0.45402E-09         0.00000E+00
    0.14695E-06         0.63172E-09         0.00000E+00
    0.14684E-06         0.79000E-09         0.00000E+00
    0.14674E-06         0.91244E-09         0.00000E+00
    0.14665E-06         0.99376E-09         0.00000E+00
    0.14657E-06         0.10323E-08         0.00000E+00
    0.14651E-06         0.10250E-08         0.00000E+00
    0.14647E-06         0.97185E-09         0.00000E+00
    0.14644E-06         0.87311E-09         0.00000E+00
    0.14642E-06         0.72835E-09         0.00000E+00
    0.14642E-06         0.53582E-09         0.00000E+00
    0.14642E-06         0.28972E-09         0.00000E+00
    0.14642E-06         0.15227E-09         0.00000E+00
    0.16047E-06        -0.23562E-09         0.00000E+00
    0.16047E-06        -0.45041E-09         0.00000E+00
    0.16047E-06        -0.85081E-09         0.00000E+00
    0.16047E-06        -0.11954E-08         0.00000E+00
    0.16047E-06        -0.14893E-08         0.00000E+00
    0.16046E-06        -0.17371E-08         0.00000E+00
    0.16045E-06        -0.19432E-08         0.00000E+00
    0.16043E-06        -0.21116E-08         0.00000E+00
    0.16042E-06        -0.22459E-08         0.00000E+00
    0.16039E-06        -0.23493E-08         0.00000E+00
    0.16037E-06        -0.24250E-08         0.00000E+00
    0.16034E-06        -0.24754E-08         0.00000E+00
    0.16030E-06        -0.25029E-08         0.00000E+00
    0.16027E-06        -0.25097E-08         0.00000E+00
    0.16023E-06        -0.24976E-08         0.00000E+00
    0.16018E-06        -0.24681E-08         0.00000E+00
    0.16014E-06        -0.24226E-08         0.00000E+00
    0.16009E-06        -0.23625E-08         0.00000E+00
    0.16004E-06        -0.22887E-08         0.00000E+00
    0.15999E-06        -0.22021E-08         0.00000E+00
    0.15993E-06        -0.21035E-08         0.00000E+00
    0.15987E-06        -0.19936E-08         0.00000E+00
    0.15981E-06        -0.18730E-08         0.00000E+00
    0.15975E-06        -0.17422E-08         0.00000E+00
    0.15968E-06        -0.16015E-08         0.00000E+00
    0.15961E-06        -0.14514E-08         0.00000E+00
    0.15954E-06        -0.12922E-08         0.00000E+00
    0.15946E-06        -0.11242E-08         0.00000E+00
    0.15938E-06        -0.94768E-09         0.00000E+00
    0.15929E-06        -0.76293E-09         0.00000E+00
    0.15920E-06        -0.57078E-09         0.00000E+00
    0.15910E-06        -0.37260E-09         0.00000E+00
    0.15899E-06        -0.16908E-09         0.00000E+00
    0.15888E-06         0.41198E-10         0.00000E+00
    0.15875E-06         0.26128E-09         0.00000E+00
    0.15863E-06         0.49017E-09         0.00000E+00
    0.15850E-06         0.71254E-09         0.00000E+00
    0.15838E-06         0.90784E-09         0.00000E+00
    0.15826E-06         0.10674E-08         0.00000E+00
    0.15815E-06         0.11881E-08         0.00000E+00
    0.15806E-06         0.12669E-08         0.00000E+00
    0.15798E-06         0.13033E-08         0.00000E+00
    0.15793E-06         0.12965E-08         0.00000E+00
    0.15789E-06         0.12471E-08         0.00000E+00
    0.15787E-06         0.11588E-08         0.00000E+00
    0.15787E-06         0.10332E-08         0.00000E+00
    0.15789E-06         0.87126E-09         0.00000E+00
    0.15792E-06         0.67597E-09         0.00000E+00
    0.15795E-06         0.45635E-09         0.00000E+00
    0.15798E-06         0.22772E-09         0.00000E+00
    0.15799E-06         0.11329E-09         0.00000E+00
    0.17287E-06        -0.22695E-09         0.00000E+00
    0.17286E-06        -0.43106E-09         0.00000E+00
    0.17285E-06        -0.80776E-09         0.00000E+00
    0.17282E-06        -0.11249E-08         0.00000E+00
    0.17279E-06        -0.13892E-08         0.00000E+00
    0.17274E-06        -0.16066E-08         0.00000E+00
    0.17269E-06        -0.17827E-08         0.00000E+00
    0.17263E-06        -0.19220E-08         0.00000E+00
    0.17256E-06        -0.20289E-08         0.00000E+00
    0.17249E-06        -0.21069E-08         0.00000E+00
    0.17241E-06        -0.21593E-08         0.00000E+00
    0.17232E-06        -0.21887E-08         0.00000E+00
    0.17223E-06        -0.21974E-08         0.00000E+00
    0.17214E-06        -0.21875E-08         0.00000E+00
    0.17205E-06        -0.21606E-08         0.00000E+00
    0.17195E-06        -0.21181E-08         0.00000E+00
    0.17186E-06        -0.20610E-08         0.00000E+00
    0.17176E-06        -0.19902E-08         0.00000E+00
    0.17166E-06        -0.19064E-08         0.00000E+00
    0.17156E-06        -0.18103E-08         0.00000E+00
    0.17146E-06        -0.17021E-08         0.00000E+00
    0.17136E-06        -0.15822E-08         0.00000E+00
    0.17125E-06        -0.14508E-08         0.00000E+00
    0.17115E-06        -0.13081E-08         0.00000E+00
    0.17104E-06        -0.11540E-08         0.00000E+00
    0.17093E-06        -0.98854E-09         0.00000E+00
    0.17082E-06        -0.81167E-09         0.00000E+00
    0.17071E-06        -0.62348E-09         0.00000E+00
    0.17059E-06        -0.42455E-09         0.00000E+00
    0.17047E-06        -0.21501E-09         0.00000E+00
    0.17034E-06         0.69422E-11         0.00000E+00
    0.17021E-06         0.24539E-09         0.00000E+00
    0.17007E-06         0.49846E-09         0.00000E+00
    0.16993E-06         0.74950E-09         0.00000E+00
    0.16979E-06         0.98069E-09         0.00000E+00
    0.16966E-06         0.11841E-08         0.00000E+00
    0.16953E-06         0.13549E-08         0.00000E+00
    0.16942E-06         0.14886E-08         0.00000E+00
    0.16932E-06         0.15805E-08         0.00000E+00
    0.16923E-06         0.16264E-08         0.00000E+00
    0.16915E-06         0.16235E-08         0.00000E+00
    0.16910E-06         0.15703E-08         0.00000E+00
    0.16906E-06         0.14673E-08         0.00000E+00
    0.16905E-06         0.13146E-08         0.00000E+00
    0.16906E-06         0.11118E-08         0.00000E+00
    0.16909E-06         0.87145E-09         0.00000E+00
    0.16913E-06         0.62636E-09         0.00000E+00
    0.16917E-06         0.40910E-09         0.00000E+00
    0.16920E-06         0.23125E-09         0.00000E+00
    0.16923E-06         0.96631E-10         0.00000E+00
    0.16924E-06         0.40978E-10         0.00000E+00
    0.18445E-06        -0.18710E-09         0.00000E+00
    0.18444E-06        -0.35168E-09         0.00000E+00
    0.18441E-06        -0.65106E-09         0.00000E+00
    0.18435E-06        -0.89540E-09         0.00000E+00
    0.18428E-06        -0.10928E-08         0.00000E+00
    0.18419E-06        -0.12500E-08         0.00000E+00
    0.18408E-06        -0.13727E-08         0.00000E+00
    0.18397E-06        -0.14656E-08         0.00000E+00
    0.18385E-06        -0.15330E-08         0.00000E+00
    0.18372E-06        -0.15782E-08         0.00000E+00
    0.18358E-06        -0.16041E-08         0.00000E+00
    0.18344E-06        -0.16129E-08         0.00000E+00
    0.18330E-06        -0.16064E-08         0.00000E+00
    0.18316E-06        -0.15857E-08         0.00000E+00
    0.18302E-06        -0.15518E-08         0.00000E+00
    0.18288E-06        -0.15052E-08         0.00000E+00
    0.18274E-06        -0.14465E-08         0.00000E+00
    0.18260E-06        -0.13757E-08         0.00000E+00
    0.18246E-06        -0.12929E-08         0.00000E+00
    0.18233E-06        -0.11979E-08         0.00000E+00
    0.18220E-06        -0.10905E-08         0.00000E+00
    0.18206E-06        -0.97040E-09         0.00000E+00
    0.18193E-06        -0.83721E-09         0.00000E+00
    0.18180E-06        -0.69073E-09         0.00000E+00
    0.18167E-06        -0.53109E-09         0.00000E+00
    0.18154E-06        -0.35823E-09         0.00000E+00
    0.18141E-06        -0.17099E-09         0.00000E+00
    0.18127E-06         0.33103E-10         0.00000E+00
    0.18114E-06         0.25815E-09         0.00000E+00
    0.18100E-06         0.50114E-09         0.00000E+00
    0.18087E-06         0.74794E-09         0.00000E+00
    0.18074E-06         0.98803E-09         0.00000E+00
    0.18061E-06         0.12170E-08         0.00000E+00
    0.18049E-06         0.14294E-08         0.00000E+00
    0.18038E-06         0.16190E-08         0.00000E+00
    0.18027E-06         0.17790E-08         0.00000E+00
    0.18017E-06         0.19031E-08         0.00000E+00
    0.18009E-06         0.19850E-08         0.00000E+00
    0.18001E-06         0.20186E-08         0.00000E+00
    0.17994E-06         0.19978E-08         0.00000E+00
    0.17988E-06         0.19162E-08         0.00000E+00
    0.17984E-06         0.17674E-08         0.00000E+00
    0.17981E-06         0.15444E-08         0.00000E+00
    0.17981E-06         0.12614E-08         0.00000E+00
    0.17982E-06         0.96659E-09         0.00000E+00
    0.17983E-06         0.70117E-09         0.00000E+00
    0.17985E-06         0.47693E-09         0.00000E+00
    0.17986E-06         0.29414E-09         0.00000E+00
    0.17987E-06         0.15438E-09         0.00000E+00
    0.17988E-06         0.58972E-10         0.00000E+00
    0.17988E-06         0.22238E-10         0.00000E+00
    0.19436E-06        -0.10390E-09         0.00000E+00
    0.19434E-06        -0.19428E-09         0.00000E+00
    0.19428E-06        -0.35550E-09         0.00000E+00
    0.19420E-06        -0.48050E-09         0.00000E+00
    0.19409E-06        -0.57525E-09         0.00000E+00
    0.19395E-06        -0.64590E-09         0.00000E+00
    0.19380E-06        -0.69803E-09         0.00000E+00
    0.19365E-06        -0.73612E-09         0.00000E+00
    0.19348E-06        -0.76311E-09         0.00000E+00
    0.19331E-06        -0.78081E-09         0.00000E+00
    0.19314E-06        -0.79017E-09         0.00000E+00
    0.19297E-06        -0.79158E-09         0.00000E+00
    0.19280E-06        -0.78509E-09         0.00000E+00
    0.19263E-06        -0.77033E-09         0.00000E+00
    0.19247E-06        -0.74671E-09         0.00000E+00
    0.19231E-06        -0.71349E-09         0.00000E+00
    0.19216E-06        -0.66993E-09         0.00000E+00
    0.19202E-06        -0.61527E-09         0.00000E+00
    0.19187E-06        -0.54878E-09         0.00000E+00
    0.19173E-06        -0.46972E-09         0.00000E+00
    0.19160E-06        -0.37724E-09         0.00000E+00
    0.19147E-06        -0.27030E-09         0.00000E+00
    0.19134E-06        -0.14741E-09         0.00000E+00
    0.19122E-06        -0.65950E-11         0.00000E+00
    0.19110E-06         0.15343E-09         0.00000E+00
    0.19098E-06         0.33089E-09         0.00000E+00
    0.19087E-06         0.52121E-09         0.00000E+00
    0.19076E-06         0.72060E-09         0.00000E+00
    0.19065E-06         0.92692E-09         0.00000E+00
    0.19055E-06         0.11373E-08         0.00000E+00
    0.19046E-06         0.13473E-08         0.00000E+00
    0.19038E-06         0.15509E-08         0.00000E+00
    0.19031E-06         0.17421E-08         0.00000E+00
    0.19025E-06         0.19155E-08         0.00000E+00
    0.19019E-06         0.20658E-08         0.00000E+00
    0.19014E-06         0.21875E-08         0.00000E+00
    0.19010E-06         0.22743E-08         0.00000E+00
    0.19006E-06         0.23197E-08         0.00000E+00
    0.19003E-06         0.23161E-08         0.00000E+00
    0.19000E-06         0.22547E-08         0.00000E+00
    0.18998E-06         0.21253E-08         0.00000E+00
    0.18996E-06         0.19162E-08         0.00000E+00
    0.18994E-06         0.16282E-08         0.00000E+00
    0.18992E-06         0.13024E-08         0.00000E+00
    0.18990E-06         0.99179E-09         0.00000E+00
    0.18989E-06         0.71497E-09         0.00000E+00
    0.18988E-06         0.47567E-09         0.00000E+00
    0.18988E-06         0.28212E-09         0.00000E+00
    0.18988E-06         0.13840E-09         0.00000E+00
    0.18988E-06         0.47091E-10         0.00000E+00
    0.18988E-06         0.14985E-10         0.00000E+00
    0.20145E-06         0.20566E-11         0.00000E+00
    0.20141E-06         0.17360E-10         0.00000E+00
    0.20133E-06         0.55365E-10         0.00000E+00
    0.20122E-06         0.99169E-10         0.00000E+00
    0.20108E-06         0.13478E-09         0.00000E+00
    0.20094E-06         0.15591E-09         0.00000E+00
    0.20078E-06         0.16291E-09         0.00000E+00
    0.20062E-06         0.15923E-09         0.00000E+00
    0.20046E-06         0.14801E-09         0.00000E+00
    0.20031E-06         0.13099E-09         0.00000E+00
    0.20016E-06         0.10915E-09         0.00000E+00
    0.20002E-06         0.85192E-10         0.00000E+00
    0.19989E-06         0.63121E-10         0.00000E+00
    0.19977E-06         0.46362E-10         0.00000E+00
    0.19965E-06         0.37568E-10         0.00000E+00
    0.19954E-06         0.38694E-10         0.00000E+00
    0.19943E-06         0.51240E-10         0.00000E+00
    0.19933E-06         0.76377E-10         0.00000E+00
    0.19923E-06         0.11503E-09         0.00000E+00
    0.19914E-06         0.16794E-09         0.00000E+00
    0.19906E-06         0.23571E-09         0.00000E+00
    0.19898E-06         0.31876E-09         0.00000E+00
    0.19891E-06         0.41721E-09         0.00000E+00
    0.19884E-06         0.53068E-09         0.00000E+00
    0.19879E-06         0.65853E-09         0.00000E+00
    0.19874E-06         0.79957E-09         0.00000E+00
    0.19870E-06         0.95132E-09         0.00000E+00
    0.19867E-06         0.11103E-08         0.00000E+00
    0.19865E-06         0.12732E-08         0.00000E+00
    0.19865E-06         0.14367E-08         0.00000E+00
    0.19865E-06         0.15976E-08         0.00000E+00
    0.19867E-06         0.17525E-08         0.00000E+00
    0.19870E-06         0.18978E-08         0.00000E+00
    0.19873E-06         0.20294E-08         0.00000E+00
    0.19878E-06         0.21430E-08         0.00000E+00
    0.19883E-06         0.22341E-08         0.00000E+00
    0.19888E-06         0.22977E-08         0.00000E+00
    0.19894E-06         0.23280E-08         0.00000E+00
    0.19900E-06         0.23186E-08         0.00000E+00
    0.19906E-06         0.22622E-08         0.00000E+00
    0.19911E-06         0.21504E-08         0.00000E+00
    0.19915E-06         0.19741E-08         0.00000E+00
    0.19918E-06         0.17306E-08         0.00000E+00
    0.19919E-06         0.14293E-08         0.00000E+00
    0.19919E-06         0.11011E-08         0.00000E+00
    0.19918E-06         0.79356E-09         0.00000E+00
    0.19918E-06         0.52911E-09         0.00000E+00
    0.19918E-06         0.30955E-09         0.00000E+00
    0.19918E-06         0.14467E-09         0.00000E+00
    0.19919E-06         0.44403E-10         0.00000E+00
    0.19919E-06         0.11070E-10         0.00000E+00
    0.20375E-06         0.20977E-09         0.00000E+00
    0.20375E-06         0.36443E-09         0.00000E+00
    0.20376E-06         0.61409E-09         0.00000E+00
    0.20377E-06         0.76428E-09         0.00000E+00
    0.20378E-06         0.84806E-09         0.00000E+00
    0.20379E-06         0.88671E-09         0.00000E+00
    0.20381E-06         0.88867E-09         0.00000E+00
    0.20382E-06         0.85492E-09         0.00000E+00
    0.20384E-06         0.79117E-09         0.00000E+00
    0.20385E-06         0.71052E-09         0.00000E+00
    0.20387E-06         0.62851E-09         0.00000E+00
    0.20388E-06         0.55517E-09         0.00000E+00
    0.20388E-06         0.49356E-09         0.00000E+00
    0.20389E-06         0.44410E-09         0.00000E+00
    0.20389E-06         0.40665E-09         0.00000E+00
    0.20390E-06         0.38130E-09         0.00000E+00
    0.20390E-06         0.36809E-09         0.00000E+00
    0.20391E-06         0.36697E-09         0.00000E+00
    0.20392E-06         0.37788E-09         0.00000E+00
    0.20393E-06         0.40076E-09         0.00000E+00
    0.20395E-06         0.43539E-09         0.00000E+00
    0.20398E-06         0.48143E-09         0.00000E+00
    0.20401E-06         0.53831E-09         0.00000E+00
    0.20406E-06         0.60528E-09         0.00000E+00
    0.20412E-06         0.68131E-09         0.00000E+00
    0.20419E-06         0.76505E-09         0.00000E+00
    0.20428E-06         0.85507E-09         0.00000E+00
    0.20438E-06         0.94978E-09         0.00000E+00
    0.20450E-06         0.10474E-08         0.00000E+00
    0.20464E-06         0.11461E-08         0.00000E+00
    0.20479E-06         0.12440E-08         0.00000E+00
    0.20496E-06         0.13391E-08         0.00000E+00
    0.20514E-06         0.14293E-08         0.00000E+00
    0.20534E-06         0.15124E-08         0.00000E+00
    0.20554E-06         0.15860E-08         0.00000E+00
    0.20576E-06         0.16474E-08         0.00000E+00
    0.20599E-06         0.16937E-08         0.00000E+00
    0.20622E-06         0.17219E-08         0.00000E+00
    0.20646E-06         0.17285E-08         0.00000E+00
    0.20669E-06         0.17095E-08         0.00000E+00
    0.20691E-06         0.16606E-08         0.00000E+00
    0.20712E-06         0.15765E-08         0.00000E+00
    0.20730E-06         0.14488E-08         0.00000E+00
    0.20746E-06         0.12698E-08         0.00000E+00
    0.20759E-06         0.10414E-08         0.00000E+00
    0.20768E-06         0.77110E-09         0.00000E+00
    0.20775E-06         0.48800E-09         0.00000E+00
    0.20779E-06         0.24313E-09         0.00000E+00
    0.20781E-06         0.69828E-10         0.00000E+00
    0.20782E-06        -0.61742E-11         0.00000E+00
    0.20782E-06        -0.15327E-10         0.00000E+00
    0.20338E-06         0.00000E+00         0.00000E+00
    0.20342E-06         0.00000E+00         0.00000E+00
    0.20353E-06         0.00000E+00         0.00000E+00
    0.20367E-06         0.00000E+00         0.00000E+00
    0.20383E-06         0.00000E+00         0.00000E+00
    0.20401E-06         0.00000E+00         0.00000E+00
    0.20419E-06         0.00000E+00         0.00000E+00
    0.20436E-06         0.00000E+00         0.00000E+00
    0.20453E-06         0.00000E+00         0.00000E+00
    0.20468E-06        -0.55879E-20         0.00000E+00
    0.20481E-06         0.00000E+00         0.00000E+00
    0.20493E-06         0.55879E-20         0.00000E+00
    0.20503E-06         0.00000E+00         0.00000E+00
    0.20513E-06         0.00000E+00         0.00000E+00
    0.20521E-06         0.00000E+00         0.00000E+00
    0.20529E-06         0.00000E+00         0.00000E+00
    0.20536E-06         0.00000E+00         0.00000E+00
    0.20544E-06         0.55879E-20         0.00000E+00
    0.20551E-06         0.00000E+00         0.00000E+00
    0.20559E-06        -0.55879E-20         0.00000E+00
    0.20567E-06         0.00000E+00         0.00000E+00
    0.20576E-06         0.00000E+00         0.00000E+00
    0.20586E-06         0.00000E+00         0.00000E+00
    0.20598E-06         0.00000E+00         0.00000E+00
    0.20611E-06         0.00000E+00         0.00000E+00
    0.20625E-06         0.00000E+00         0.00000E+00
    0.20641E-06         0.00000E+00         0.00000E+00
    0.20659E-06         0.00000E+00         0.00000E+00
    0.20679E-06         0.00000E+00         0.00000E+00
    0.20701E-06         0.00000E+00         0.00000E+00
    0.20725E-06         0.00000E+00         0.00000E+00
    0.20751E-06         0.00000E+00         0.00000E+00
    0.20779E-06         0.00000E+00         0.00000E+00
    0.20808E-06         0.00000E+00         0.00000E+00
    0.20839E-06         0.00000E+00         0.00000E+00
    0.20872E-06         0.00000E+00         0.00000E+00
    0.20905E-06         0.00000E+00         0.00000E+00
    0.20939E-06         0.00000E+00         0.00000E+00
    0.20974E-06         0.00000E+00         0.00000E+00
    0.21008E-06        -0.65193E-20         0.00000E+00
    0.21042E-06        -0.55879E-20         0.00000E+00
    0.21075E-06         0.55879E-20         0.00000E+00
    0.21105E-06         0.55879E-20         0.00000E+00
    0.21133E-06         0.00000E+00         0.00000E+00
    0.21156E-06         0.00000E+00         0.00000E+00
    0.21174E-06         0.00000E+00         0.00000E+00
    0.21187E-06         0.00000E+00         0.00000E+00
    0.21194E-06         0.65193E-20         0.00000E+00
    0.21197E-06         0.93132E-21         0.00000E+00
    0.21197E-06         0.00000E+00         0.00000E+00
    0.21196E-06         0.13039E-19         0.00000E+00
CELL_DATA       5000
TENSORS stressef double 
    0.11464E+06        -0.11272E+04         0.00000E+00
   -0.11272E+04        -0.39178E+04         0.00000E+00
    0.00000E+00         0.00000E+00         0.00000E+00
 
    0.11048E+06        -0.13378E+04         0.00000E+00
   -0.13378E+04        -0.42288E+04         0.00000E+00
    0.00000E+00         0.00000E+00         0.00000E+00
 
    0.10691E+06        -0.14079E+04         0.00000E+00
   -0.14079E+04        -0.46240E+04         0.00000E+00
    0.00000E+00         0.00000E+00         0.00000E+00
 
    0.10377E+06        -0.14007E+04         0.00000E+00
   -0.14007E+04        -0.50586E+04         0.00000E+00
    0.00000E+00         0.00000E+00         0.00000E+00
 
    0.10094E+06        -0.13498E+04         0.00000E+00
   -0.13498E+04        -0.55043E+04         0.00000E+00
    0.00000E+00         0.00000E+00         0.00000E+00
 
    0.98362E+05        -0.12736E+04         0.00000E+00
   -0.12736E+04        -0.59428E+04         0.00000E+00
    0.00000E+00         0.00000E+00         0.00000E+00
 
    0.95973E+05        -0.11825E+04         0.00000E+00
   -0.11825E+04        -0.63620E+04         0.00000E+00
    0.00000E+00         0.00000E+00         0.00000E+00
 
    0.93735E+05        -0.10826E+04         0.00000E+00
   -0.10826E+04        -0.67541E+04         0.00000E+00
    0.00000E+00         0.00000E+00         0.00000E+00
 
    0.91617E+05        -0.97753E+03         0.00000E+00
   -0.97753E+03        -0.71139E+04         0.00000E+00
    0.00000E+00         0.00000E+00         0.00000E+00
 
    0.89594E+05        -0.86955E+03         0.00000E+00
   -0.86955E+03        -0.74377E+04         0.00000E+00
    0.00000E+00         0.00000E+00         0.00000E+00
 
    0.87648E+05        -0.76010E+03         0.00000E+00
   -0.76010E+03        -0.77233E+04         0.00000E+00
    0.00000E+00         0.00000E+00         0.00000E+00
 
    0.85763E+05        -0.65011E+03         0.00000E+00
   -0.65011E+03        -0.79692E+04         0.00000E+00
    0.00000E+00         0.00000E+00         0.00000E+00
 
    0.83925E+05        -0.54019E+03         0.00000E+00
   -0.54019E+03        -0.81746E+04         0.00000E+00
    0.00000E+00         0.00000E+00         0.00000E+00
 
    0.82125E+05        -0.43073E+03         0.00000E+00
   -0.43073E+03        -0.83388E+04         0.00000E+00
    0.00000E+00         0.00000E+00         0.00000E+00
 
    0.80354E+05        -0.32199E+03         0.00000E+00
   -0.32199E+03        -0.84616E+04         0.00000E+00
    0.00000E+00         0.00000E+00         0.00000E+00
 
    0.78603E+05        -0.21413E+03         0.00000E+00
   -0.21413E+03        -0.85430E+04         0.00000E+00
    0.00000E+00         0.00000E+00         0.00000E+00
 
    0.76866E+05        -0.10723E+03         0.00000E+00
   -0.10723E+03        -0.85830E+04         0.00000E+00
    0.00000E+00         0.00000E+00         0.00000E+00
 
    0.75138E+05        -0.13265E+01         0.00000E+00
   -0.13265E+01        -0.85818E+04         0.00000E+00
    0.00000E+00         0.00000E+00         0.00000E+00
 
    0.73414E+05         0.10358E+03         0.00000E+00
    0.10358E+03        -0.85396E+04         0.00000E+00
    0.00000E+00         0.00000E+00         0.00000E+00
 
    0.71688E+05         0.20751E+03         0.00000E+00
    0.20751E+03        -0.84566E+04         0.00000E+00
    0.00000E+00         0.00000E+00         0.00000E+00
 
    0.69958E+05         0.31053E+03         0.00000E+00
    0.31053E+03        -0.83331E+04         0.00000E+00
    0.00000E+00         0.00000E+00         0.00000E+00
 
    0.68220E+05         0.41270E+03         0.00000E+00
    0.41270E+03        -0.81694E+04         0.00000E+00
    0.00000E+00         0.00000E+00         0.00000E+00
 
    0.66470E+05         0.51413E+03         0.00000E+00
    0.51413E+03        -0.79656E+04         0.00000E+00
    0.00000E+00         0.00000E+00         0.00000E+00
 
    0.64705E+05         0.61492E+03         0.00000E+00
    0.61492E+03        -0.77220E+04         0.00000E+00
    0.00000E+00         0.00000E+00         0.00000E+00
 
    0.62923E+05         0.71520E+03         0.00000E+00
    0.71520E+03        -0.74388E+04         0.00000E+00
    0.00000E+00         0.00000E+00         0.00000E+00
 
    0.61121E+05         0.81511E+03         0.00000E+00
    0.81511E+03        -0.71161E+04         0.00000E+00
    0.00000E+00         0.00000E+00         0.00000E+00
 
    0.59297E+05         0.91481E+03         0.00000E+00
    0.91481E+03        -0.67540E+04         0.00000E+00
    0.00000E+00         0.00000E+00         0.00000E+00
 
    0.57448E+05         0.10145E+04         0.00000E+00
    0.10145E+04        -0.63525E+04         0.00000E+00
    0.00000E+00         0.00000E+00         0.00000E+00
 
    0.55572E+05         0.11144E+04         0.00000E+00
    0.11144E+04        -0.59115E+04         0.00000E+00
    0.00000E+00         0.00000E+00         0.00000E+00
 
    0.53666E+05         0.12147E+04         0.00000E+00
    0.12147E+04        -0.54310E+04         0.00000E+00
    0.00000E+00         0.00000E+00         0.00000E+00
 
    0.51728E+05         0.13157E+04         0.00000E+00
    0.13157E+04        -0.49106E+04         0.00000E+00
    0.00000E+00         0.00000E+00         0.00000E+00
 
    0.49755E+05         0.14177E+04         0.00000E+00
    0.14177E+04        -0.43501E+04         0.00000E+00
    0.00000E+00         0.00000E+00         0.00000E+00
 
    0.47745E+05         0.15211E+04         0.00000E+00
    0.15211E+04        -0.37490E+04         0.00000E+00
    0.00000E+00         0.00000E+00         0.00000E+00
 
    0.45695E+05         0.16264E+04         0.00000E+00
    0.16264E+04        -0.31065E+04         0.00000E+00
    0.00000E+00         0.00000E+00         0.00000E+00
 
    0.43601E+05         0.17340E+04         0.00000E+00
    0.17340E+04        -0.24220E+04         0.00000E+00
    0.00000E+00         0.00000E+00         0.00000E+00
 
    0.41460E+05         0.18445E+04         0.00000E+00
    0.18445E+04        -0.16944E+04         0.00000E+00
    0.00000E+00         0.00000E+00         0.00000E+00
 
    0.39269E+05         0.19587E+04         0.00000E+00
    0.19587E+04        -0.92236E+03         0.00000E+00
    0.00000E+00         0.00000E+00         0.00000E+00
 
    0.37022E+05         0.20775E+04         0.00000E+00
    0.20775E+04        -0.10434E+03         0.00000E+00
    0.00000E+00         0.00000E+00         0.00000E+00
 
    0.34716E+05         0.22020E+04         0.00000E+00
    0.22020E+04         0.76168E+03         0.00000E+00
    0.00000E+00         0.00000E+00         0.00000E+00
 
    0.32343E+05         0.23337E+04         0.00000E+00
    0.23337E+04         0.16781E+04         0.00000E+00
    0.00000E+00         0.00000E+00         0.00000E+00
 
    0.29896E+05         0.24743E+04         0.00000E+00
    0.24743E+04         0.26481E+04         0.00000E+00
    0.00000E+00         0.00000E+00         0.00000E+00
 
    0.27368E+05         0.26262E+04         0.00000E+00
    0.26262E+04         0.36755E+04         0.00000E+00
    0.00000E+00         0.00000E+00         0.00000E+00
 
    0.24748E+05         0.27926E+04         0.00000E+00
    0.27926E+04         0.47650E+04         0.00000E+00
    0.00000E+00         0.00000E+00         0.00000E+00
 
    0.22024E+05         0.29777E+04         0.00000E+00
    0.29777E+04         0.59228E+04         0.00000E+00
    0.00000E+00         0.00000E+00         0.00000E+00
 
    0.19178E+05         0.31874E+04         0.00000E+00
    0.31874E+04         0.71568E+04         0.00000E+00
    0.00000E+00         0.00000E+00         0.00000E+00
 
    0.16191E+05         0.34305E+04         0.00000E+00
    0.34305E+04         0.84773E+04         0.00000E+00
    0.00000E+00         0.00000E+00         0.00000E+00
 
    0.13034E+05         0.37196E+04         0.00000E+00
    0.37196E+04         0.98978E+04         0.00000E+00
    0.00000E+00         0.00000E+00         0.00000E+00
 
    0.96699E+04         0.40745E+04         0.00000E+00
    0.40745E+04         0.11437E+05         0.00000E+00
    0.00000E+00         0.00000E+00         0.00000E+00
 
    0.60448E+04         0.45268E+04         0.00000E+00
    0.45268E+04         0.13120E+05         0.00000E+00
    0.00000E+00         0.00000E+00         0.00000E+00
 
    0.20795E+04         0.51296E+04         0.00000E+00
    0.51296E+04         0.14984E+05         0.00000E+00
    0.00000E+00         0.00000E+00         0.00000E+00
 
    0.10305E+06        -0.75478E+03         0.00000E+00
   -0.75478E+03        -0.10882E+05         0.00000E+00
    0.00000E+00         0.00000E+00         0.00000E+00
 
    0.10071E+06        -0.15725E+04         0.00000E+00
   -0.15725E+04        -0.10740E+05         0.00000E+00
    0.00000E+00         0.00000E+00         0.00000E+00
 
    0.98303E+05        -0.20834E+04         0.00000E+00
   -0.20834E+04        -0.10644E+05         0.00000E+00
    0.00000E+00         0.00000E+00         0.00000E+00
 
    0.95925E+05        -0.23726E+04         0.00000E+00
   -0.23726E+04        -0.10595E+05         0.00000E+00
    0.00000E+00         0.00000E+00         0.00000E+00
 
    0.93620E+05        -0.25021E+04         0.00000E+00
   -0.25021E+04        -0.10588E+05         0.00000E+00
    0.00000E+00         0.00000E+00         0.00000E+00
 
    0.91400E+05        -0.25161E+04         0.00000E+00
   -0.25161E+04        -0.10613E+05         0.00000E+00
    0.00000E+00         0.00000E+00         0.00000E+00
 
    0.89266E+05        -0.24465E+04         0.00000E+00
   -0.24465E+04        -0.10658E+05         0.00000E+00
    0.00000E+00         0.00000E+00         0.00000E+00
 
    0.87213E+05        -0.23163E+04         0.00000E+00
   -0.23163E+04        -0.10716E+05         0.00000E+00
    0.00000E+00         0.00000E+00         0.00000E+00
 
    0.85232E+05        -0.21417E+04         0.00000E+00
   -0.21417E+04        -0.10776E+05         0.00000E+00
    0.00000E+00         0.00000E+00         0.00000E+00
 
    0.83313E+05        -0.19347E+04         0.00000E+00
   -0.19347E+04        -0.10833E+05         0.00000E+00
    0.00000E+00         0.00000E+00         0.00000E+00
 
    0.81447E+05        -0.17041E+04         0.00000E+00
   -0.17041E+04        -0.10879E+05         0.00000E+00
    0.00000E+00         0.00000E+00         0.00000E+00
 
    0.79626E+05        -0.14563E+04         0.00000E+00
   -0.14563E+04        -0.10911E+05         0.00000E+00
    0.00000E+00         0.00000E+00         0.00000E+00
 
    0.77841E+05        -0.11959E+04         0.00000E+00
   -0.11959E+04        -0.10924E+05         0.00000E+00
    0.00000E+00         0.00000E+00         0.00000E+00
 
    0.76084E+05        -0.92644E+03         0.00000E+00
   -0.92644E+03        -0.10915E+05         0.00000E+00
    0.00000E+00         0.00000E+00         0.00000E+00
 
    0.74350E+05        -0.65061E+03         0.00000E+00
   -0.65061E+03        -0.10882E+05         0.00000E+00
    0.00000E+00         0.00000E+00         0.00000E+00
 
    0.72633E+05        -0.37033E+03         0.00000E+00
   -0.37033E+03        -0.10822E+05         0.00000E+00
    0.00000E+00         0.00000E+00         0.00000E+00
 
    0.70926E+05        -0.87042E+02         0.00000E+00
   -0.87042E+02        -0.10733E+05         0.00000E+00
    0.00000E+00         0.00000E+00         0.00000E+00
 
    0.69226E+05         0.19819E+03         0.00000E+00
    0.19819E+03        -0.10615E+05         0.00000E+00
    0.00000E+00         0.00000E+00         0.00000E+00
 
    0.67528E+05         0.48459E+03         0.00000E+00
    0.48459E+03        -0.10466E+05         0.00000E+00
    0.00000E+00         0.00000E+00         0.00000E+00
 
    0.65829E+05         0.77162E+03         0.00000E+00
    0.77162E+03        -0.10286E+05         0.00000E+00
    0.00000E+00         0.00000E+00         0.00000E+00
 
    0.64124E+05         0.10589E+04         0.00000E+00
    0.10589E+04        -0.10073E+05         0.00000E+00
    0.00000E+00         0.00000E+00         0.00000E+00
 
    0.62411E+05         0.13463E+04         0.00000E+00
    0.13463E+04        -0.98264E+04         0.00000E+00
    0.00000E+00         0.00000E+00         0.00000E+00
 
    0.60687E+05         0.16337E+04         0.00000E+00
    0.16337E+04        -0.95468E+04         0.00000E+00
    0.00000E+00         0.00000E+00         0.00000E+00
 
    0.58949E+05         0.19211E+04         0.00000E+00
    0.19211E+04        -0.92331E+04         0.00000E+00
    0.00000E+00         0.00000E+00         0.00000E+00
 
    0.57194E+05         0.22087E+04         0.00000E+00
    0.22087E+04        -0.88852E+04         0.00000E+00
    0.00000E+00         0.00000E+00         0.00000E+00
 
    0.55420E+05         0.24966E+04         0.00000E+00
    0.24966E+04        -0.85026E+04         0.00000E+00
    0.00000E+00         0.00000E+00         0.00000E+00
 
    0.53625E+05         0.27852E+04         0.00000E+00
    0.27852E+04        -0.80849E+04         0.00000E+00
    0.00000E+00         0.00000E+00         0.00000E+00
 
    0.51806E+05         0.30748E+04         0.00000E+00
    0.30748E+04        -0.76320E+04         0.00000E+00
    0.00000E+00         0.00000E+00         0.00000E+00
 
    0.49962E+05         0.33661E+04         0.00000E+00
    0.33661E+04        -0.71433E+04         0.00000E+00
    0.00000E+00         0.00000E+00         0.00000E+00
 
    0.48091E+05         0.36594E+04         0.00000E+00
    0.36594E+04        -0.66186E+04         0.00000E+00
    0.00000E+00         0.00000E+00         0.00000E+00
 
    0.46189E+05         0.39555E+04         0.00000E+00
    0.39555E+04        -0.60575E+04         0.00000E+00
    0.00000E+00         0.00000E+00         0.00000E+00
 
    0.44256E+05         0.42553E+04         0.00000E+00
    0.42553E+04        -0.54594E+04         0.00000E+00
    0.00000E+00         0.00000E+00         0.00000E+00
 
    0.42288E+05         0.45596E+04         0.00000E+00
    0.45596E+04        -0.48237E+04         0.00000E+00
    0.00000E+00         0.00000E+00         0.00000E+00
 
    0.40284E+05         0.48697E+04         0.00000E+00
    0.48697E+04        -0.41500E+04         0.00000E+00
    0.00000E+00         0.00000E+00         0.00000E+00
 
    0.38241E+05         0.51869E+04         0.00000E+00
    0.51869E+04        -0.34373E+04         0.00000E+00
    0.00000E+00         0.00000E+00         0.00000E+00
 
    0.36157E+05         0.55127E+04         0.00000E+00
    0.55127E+04        -0.26849E+04         0.00000E+00
    0.00000E+00         0.00000E+00         0.00000E+00
 
    0.34029E+05         0.58491E+04         0.00000E+00
    0.58491E+04        -0.18917E+04         0.00000E+00
    0.00000E+00         0.00000E+00         0.00000E+00
 
    0.31855E+05         0.61984E+04         0.00000E+00
    0.61984E+04        -0.10565E+04         0.00000E+00
    0.00000E+00         0.00000E+00         0.00000E+00
 
    0.29630E+05         0.65633E+04         0.00000E+00
    0.65633E+04        -0.17799E+03         0.00000E+00
    0.00000E+00         0.00000E+00         0.00000E+00
 
    0.27353E+05         0.69473E+04         0.00000E+00
    0.69473E+04         0.74543E+03         0.00000E+00
    0.00000E+00         0.00000E+00         0.00000E+00
 
    0.25020E+05         0.73546E+04         0.00000E+00
    0.73546E+04         0.17155E+04         0.00000E+00
    0.00000E+00         0.00000E+00         0.00000E+00
 
    0.22627E+05         0.77904E+04         0.00000E+00
    0.77904E+04         0.27342E+04         0.00000E+00
    0.00000E+00         0.00000E+00         0.00000E+00
 
    0.20171E+05         0.82612E+04         0.00000E+00
    0.82612E+04         0.38037E+04         0.00000E+00
    0.00000E+00         0.00000E+00         0.00000E+00
 
    0.17649E+05         0.87754E+04         0.00000E+00
    0.87754E+04         0.49262E+04         0.00000E+00
    0.00000E+00         0.00000E+00         0.00000E+00
 
    0.15059E+05         0.93436E+04         0.00000E+00
    0.93436E+04         0.61038E+04         0.00000E+00
    0.00000E+00         0.00000E+00         0.00000E+00
 
    0.12402E+05         0.99794E+04         0.00000E+00
    0.99794E+04         0.73383E+04         0.00000E+00
    0.00000E+00         0.00000E+00         0.00000E+00
 
    0.96808E+04         0.10701E+05         0.00000E+00
    0.10701E+05         0.86302E+04         0.00000E+00
    0.00000E+00         0.00000E+00         0.00000E+00
 
    0.69091E+04         0.11531E+05         0.00000E+00
    0.11531E+05         0.99777E+04         0.00000E+00
    0.00000E+00         0.00000E+00         0.00000E+00
 
    0.41150E+04         0.12500E+05         0.00000E+00
    0.12500E+05         0.11374E+05         0.00000E+00
    0.00000E+00         0.00000E+00         0.00000E+00
 
    0.13587E+04         0.13646E+05         0.00000E+00
    0.13646E+05         0.12805E+05         0.00000E+00
    0.00000E+00         0.00000E+00         0.00000E+00
 
    0.92542E+05        -0.45267E+03         0.00000E+00
   -0.45267E+03        -0.17515E+05         0.00000E+00
    0.00000E+00         0.00000E+00         0.00000E+00
 
    0.91145E+05        -0.10351E+04         0.00000E+00
   -0.10351E+04        -0.17449E+05         0.00000E+00
    0.00000E+00         0.00000E+00         0.00000E+00
 
    0.89639E+05        -0.15007E+04         0.00000E+00
   -0.15007E+04        -0.17320E+05         0.00000E+00
    0.00000E+00         0.00000E+00         0.00000E+00
 
    0.88044E+05        -0.18374E+04         0.00000E+00
   -0.18374E+04        -0.17155E+05         0.00000E+00
    0.00000E+00         0.00000E+00         0.00000E+00
 
    0.86388E+05        -0.20503E+04         0.00000E+00
   -0.20503E+04        -0.16972E+05         0.00000E+00
    0.00000E+00         0.00000E+00         0.00000E+00
 
    0.84698E+05        -0.21517E+04         0.00000E+00
   -0.21517E+04        -0.16782E+05         0.00000E+00
    0.00000E+00         0.00000E+00         0.00000E+00
 
    0.82990E+05        -0.21565E+04         0.00000E+00
   -0.21565E+04        -0.16590E+05         0.00000E+00
    0.00000E+00         0.00000E+00         0.00000E+00
 
    0.81277E+05        -0.20795E+04         0.00000E+00
   -0.20795E+04        -0.16399E+05         0.00000E+00
    0.00000E+00         0.00000E+00         0.00000E+00
 
    0.79568E+05        -0.19341E+04         0.00000E+00
   -0.19341E+04        -0.16209E+05         0.00000E+00
    0.00000E+00         0.00000E+00         0.00000E+00
 
    0.77867E+05        -0.17322E+04         0.00000E+00
   -0.17322E+04        -0.16018E+05         0.00000E+00
    0.00000E+00         0.00000E+00         0.00000E+00
 
    0.76177E+05        -0.14839E+04         0.00000E+00
   -0.14839E+04        -0.15825E+05         0.00000E+00
    0.00000E+00         0.00000E+00         0.00000E+00
 
    0.74496E+05        -0.11976E+04         0.00000E+00
   -0.11976E+04        -0.15626E+05         0.00000E+00
    0.00000E+00         0.00000E+00         0.00000E+00
 
    0.72825E+05        -0.88044E+03         0.00000E+00
   -0.88044E+03        -0.15420E+05         0.00000E+00
    0.00000E+00         0.00000E+00         0.00000E+00
 
    0.71162E+05        -0.53811E+03         0.00000E+00
   -0.53811E+03        -0.15203E+05         0.00000E+00
    0.00000E+00         0.00000E+00         0.00000E+00
 
    0.69505E+05        -0.17538E+03         0.00000E+00
   -0.17538E+03        -0.14973E+05         0.00000E+00
    0.00000E+00         0.00000E+00         0.00000E+00
 
    0.67851E+05         0.20389E+03         0.00000E+00
    0.20389E+03        -0.14729E+05         0.00000E+00
    0.00000E+00         0.00000E+00         0.00000E+00
 
    0.66198E+05         0.59657E+03         0.00000E+00
    0.59657E+03        -0.14467E+05         0.00000E+00
    0.00000E+00         0.00000E+00         0.00000E+00
 
    0.64544E+05         0.10001E+04         0.00000E+00
    0.10001E+04        -0.14187E+05         0.00000E+00
    0.00000E+00         0.00000E+00         0.00000E+00
 
    0.62886E+05         0.14125E+04         0.00000E+00
    0.14125E+04        -0.13886E+05         0.00000E+00
    0.00000E+00         0.00000E+00         0.00000E+00
 
    0.61221E+05         0.18322E+04         0.00000E+00
    0.18322E+04        -0.13563E+05         0.00000E+00
    0.00000E+00         0.00000E+00         0.00000E+00
 
    0.59549E+05         0.22579E+04         0.00000E+00
    0.22579E+04        -0.13217E+05         0.00000E+00
    0.00000E+00         0.00000E+00         0.00000E+00
 
    0.57866E+05         0.26888E+04         0.00000E+00
    0.26888E+04        -0.12847E+05         0.00000E+00
    0.00000E+00         0.00000E+00         0.00000E+00
 
    0.56170E+05         0.31240E+04         0.00000E+00
    0.31240E+04        -0.12451E+05         0.00000E+00
    0.00000E+00         0.00000E+00         0.00000E+00
 
    0.54460E+05         0.35632E+04         0.00000E+00
    0.35632E+04        -0.12029E+05         0.00000E+00
    0.00000E+00         0.00000E+00         0.00000E+00
 
    0.52733E+05         0.40062E+04         0.00000E+00
    0.40062E+04        -0.11580E+05         0.00000E+00
    0.00000E+00         0.00000E+00         0.00000E+00
 
    0.50988E+05         0.44528E+04         0.00000E+00
    0.44528E+04        -0.11102E+05         0.00000E+00
    0.00000E+00         0.00000E+00         0.00000E+00
 
    0.49223E+05         0.49032E+04         0.00000E+00
    0.49032E+04        -0.10597E+05         0.00000E+00
    0.00000E+00         0.00000E+00         0.00000E+00
 
    0.47437E+05         0.53577E+04         0.00000E+00
    0.53577E+04        -0.10062E+05         0.00000E+00
    0.00000E+00         0.00000E+00         0.00000E+00
 
    0.45627E+05         0.58168E+04         0.00000E+00
    0.58168E+04        -0.94974E+04         0.00000E+00
    0.00000E+00         0.00000E+00         0.00000E+00
 
    0.43793E+05         0.62809E+04         0.00000E+00
    0.62809E+04        -0.89026E+04         0.00000E+00
    0.00000E+00         0.00000E+00         0.00000E+00
 
    0.41933E+05         0.67510E+04         0.00000E+00
    0.67510E+04        -0.82770E+04         0.00000E+00
    0.00000E+00         0.00000E+00         0.00000E+00
 
    0.40046E+05         0.72279E+04         0.00000E+00
    0.72279E+04        -0.76202E+04         0.00000E+00
    0.00000E+00         0.00000E+00         0.00000E+00
 
    0.38130E+05         0.77128E+04         0.00000E+00
    0.77128E+04        -0.69316E+04         0.00000E+00
    0.00000E+00         0.00000E+00         0.00000E+00
 
    0.36185E+05         0.82072E+04         0.00000E+00
    0.82072E+04        -0.62108E+04         0.00000E+00
    0.00000E+00         0.00000E+00         0.00000E+00
 
    0.34208E+05         0.87126E+04         0.00000E+00
    0.87126E+04        -0.54573E+04         0.00000E+00
    0.00000E+00         0.00000E+00         0.00000E+00
 
    0.32200E+05         0.92309E+04         0.00000E+00
    0.92309E+04        -0.46707E+04         0.00000E+00
    0.00000E+00         0.00000E+00         0.00000E+00
 
    0.30159E+05         0.97644E+04         0.00000E+00
    0.97644E+04        -0.38505E+04         0.00000E+00
    0.00000E+00         0.00000E+00         0.00000E+00
 
    0.28084E+05         0.10316E+05         0.00000E+00
    0.10316E+05        -0.29964E+04         0.00000E+00
    0.00000E+00         0.00000E+00         0.00000E+00
 
    0.25974E+05         0.10888E+05         0.00000E+00
    0.10888E+05        -0.21081E+04         0.00000E+00
    0.00000E+00         0.00000E+00         0.00000E+00
 
    0.23831E+05         0.11484E+05         0.00000E+00
    0.11484E+05        -0.11855E+04         0.00000E+00
    0.00000E+00         0.00000E+00         0.00000E+00
 
    0.21654E+05         0.12109E+05         0.00000E+00
    0.12109E+05        -0.22858E+03         0.00000E+00
    0.00000E+00         0.00000E+00         0.00000E+00
 
    0.19444E+05         0.12766E+05         0.00000E+00
    0.12766E+05         0.76220E+03         0.00000E+00
    0.00000E+00         0.00000E+00         0.00000E+00
 
    0.17203E+05         0.13462E+05         0.00000E+00
    0.13462E+05         0.17860E+04         0.00000E+00
    0.00000E+00         0.00000E+00         0.00000E+00
 
    0.14934E+05         0.14201E+05         0.00000E+00
    0.14201E+05         0.28414E+04         0.00000E+00
    0.00000E+00         0.00000E+00         0.00000E+00
 
    0.12643E+05         0.14991E+05         0.00000E+00
    0.14991E+05         0.39260E+04         0.00000E+00
    0.00000E+00         0.00000E+00         0.00000E+00
 
    0.10335E+05         0.15837E+05         0.00000E+00
    0.15837E+05         0.50359E+04         0.00000E+00
    0.00000E+00         0.00000E+00         0.00000E+00
 
    0.80211E+04         0.16746E+05         0.00000E+00
    0.16746E+05         0.61656E+04         0.00000E+00
    0.00000E+00         0.00000E+00         0.00000E+00
 
    0.57109E+04         0.17721E+05         0.00000E+00
    0.17721E+05         0.73073E+04         0.00000E+00
    0.00000E+00         0.00000E+00         0.00000E+00
 
    0.34150E+04         0.18761E+05         0.00000E+00
    0.18761E+05         0.84501E+04         0.00000E+00
    0.00000E+00         0.00000E+00         0.00000E+00
 
    0.11359E+04         0.19857E+05         0.00000E+00
    0.19857E+05         0.95805E+04         0.00000E+00
    0.00000E+00         0.00000E+00         0.00000E+00
 
    0.83938E+05        -0.27470E+03         0.00000E+00
   -0.27470E+03        -0.23576E+05         0.00000E+00
    0.00000E+00         0.00000E+00         0.00000E+00
 
    0.83032E+05        -0.60940E+03         0.00000E+00
   -0.60940E+03        -0.23511E+05         0.00000E+00
    0.00000E+00         0.00000E+00         0.00000E+00
 
    0.82021E+05        -0.86425E+03         0.00000E+00
   -0.86425E+03        -0.23396E+05         0.00000E+00
    0.00000E+00         0.00000E+00         0.00000E+00
 
    0.80917E+05        -0.10428E+04         0.00000E+00
   -0.10428E+04        -0.23235E+05         0.00000E+00
    0.00000E+00         0.00000E+00         0.00000E+00
 
    0.79731E+05        -0.11458E+04         0.00000E+00
   -0.11458E+04        -0.23035E+05         0.00000E+00
    0.00000E+00         0.00000E+00         0.00000E+00
 
    0.78476E+05        -0.11751E+04         0.00000E+00
   -0.11751E+04        -0.22801E+05         0.00000E+00
    0.00000E+00         0.00000E+00         0.00000E+00
 
    0.77162E+05        -0.11337E+04         0.00000E+00
   -0.11337E+04        -0.22541E+05         0.00000E+00
    0.00000E+00         0.00000E+00         0.00000E+00
 
    0.75799E+05        -0.10261E+04         0.00000E+00
   -0.10261E+04        -0.22259E+05         0.00000E+00
    0.00000E+00         0.00000E+00         0.00000E+00
 
    0.74396E+05        -0.85778E+03         0.00000E+00
   -0.85778E+03        -0.21960E+05         0.00000E+00
    0.00000E+00         0.00000E+00         0.00000E+00
 
    0.72961E+05        -0.63448E+03         0.00000E+00
   -0.63448E+03        -0.21645E+05         0.00000E+00
    0.00000E+00         0.00000E+00         0.00000E+00
 
    0.71499E+05        -0.36206E+03         0.00000E+00
   -0.36206E+03        -0.21317E+05         0.00000E+00
    0.00000E+00         0.00000E+00         0.00000E+00
 
    0.70015E+05        -0.46159E+02         0.00000E+00
   -0.46159E+02        -0.20977E+05         0.00000E+00
    0.00000E+00         0.00000E+00         0.00000E+00
 
    0.68512E+05         0.30795E+03         0.00000E+00
    0.30795E+03        -0.20624E+05         0.00000E+00
    0.00000E+00         0.00000E+00         0.00000E+00
 
    0.66993E+05         0.69543E+03         0.00000E+00
    0.69543E+03        -0.20259E+05         0.00000E+00
    0.00000E+00         0.00000E+00         0.00000E+00
 
    0.65459E+05         0.11120E+04         0.00000E+00
    0.11120E+04        -0.19882E+05         0.00000E+00
    0.00000E+00         0.00000E+00         0.00000E+00
 
    0.63911E+05         0.15537E+04         0.00000E+00
    0.15537E+04        -0.19491E+05         0.00000E+00
    0.00000E+00         0.00000E+00         0.00000E+00
 
    0.62350E+05         0.20173E+04         0.00000E+00
    0.20173E+04        -0.19085E+05         0.00000E+00
    0.00000E+00         0.00000E+00         0.00000E+00
 
    0.60774E+05         0.24998E+04         0.00000E+00
    0.24998E+04        -0.18664E+05         0.00000E+00
    0.00000E+00         0.00000E+00         0.00000E+00
 
    0.59185E+05         0.29988E+04         0.00000E+00
    0.29988E+04        -0.18228E+05         0.00000E+00
    0.00000E+00         0.00000E+00         0.00000E+00
 
    0.57582E+05         0.35121E+04         0.00000E+00
    0.35121E+04        -0.17774E+05         0.00000E+00
    0.00000E+00         0.00000E+00         0.00000E+00
 
    0.55963E+05         0.40381E+04         0.00000E+00
    0.40381E+04        -0.17302E+05         0.00000E+00
    0.00000E+00         0.00000E+00         0.00000E+00
 
    0.54329E+05         0.45752E+04         0.00000E+00
    0.45752E+04        -0.16811E+05         0.00000E+00
    0.00000E+00         0.00000E+00         0.00000E+00
 
    0.52679E+05         0.51224E+04         0.00000E+00
    0.51224E+04        -0.16300E+05         0.00000E+00
    0.00000E+00         0.00000E+00         0.00000E+00
 
    0.51011E+05         0.56786E+04         0.00000E+00
    0.56786E+04        -0.15768E+05         0.00000E+00
    0.00000E+00         0.00000E+00         0.00000E+00
 
    0.49325E+05         0.62434E+04         0.00000E+00
    0.62434E+04        -0.15216E+05         0.00000E+00
    0.00000E+00         0.00000E+00         0.00000E+00
 
    0.47621E+05         0.68163E+04         0.00000E+00
    0.68163E+04        -0.14641E+05         0.00000E+00
    0.00000E+00         0.00000E+00         0.00000E+00
 
    0.45897E+05         0.73970E+04         0.00000E+00
    0.73970E+04        -0.14044E+05         0.00000E+00
    0.00000E+00         0.00000E+00         0.00000E+00
 
    0.44152E+05         0.79856E+04         0.00000E+00
    0.79856E+04        -0.13423E+05         0.00000E+00
    0.00000E+00         0.00000E+00         0.00000E+00
 
    0.42386E+05         0.85822E+04         0.00000E+00
    0.85822E+04        -0.12779E+05         0.00000E+00
    0.00000E+00         0.00000E+00         0.00000E+00
 
    0.40599E+05         0.91872E+04         0.00000E+00
    0.91872E+04        -0.12111E+05         0.00000E+00
    0.00000E+00         0.00000E+00         0.00000E+00
 
    0.38789E+05         0.98012E+04         0.00000E+00
    0.98012E+04        -0.11418E+05         0.00000E+00
    0.00000E+00         0.00000E+00         0.00000E+00
 
    0.36957E+05         0.10425E+05         0.00000E+00
    0.10425E+05        -0.10701E+05         0.00000E+00
    0.00000E+00         0.00000E+00         0.00000E+00
 
    0.35101E+05         0.11059E+05         0.00000E+00
    0.11059E+05        -0.99586E+04         0.00000E+00
    0.00000E+00         0.00000E+00         0.00000E+00
 
    0.33223E+05         0.11705E+05         0.00000E+00
    0.11705E+05        -0.91913E+04         0.00000E+00
    0.00000E+00         0.00000E+00         0.00000E+00
 
    0.31321E+05         0.12364E+05         0.00000E+00
    0.12364E+05        -0.83990E+04         0.00000E+00
    0.00000E+00         0.00000E+00         0.00000E+00
 
    0.29396E+05         0.13038E+05         0.00000E+00
    0.13038E+05        -0.75817E+04         0.00000E+00
    0.00000E+00         0.00000E+00         0.00000E+00
 
    0.27449E+05         0.13728E+05         0.00000E+00
    0.13728E+05        -0.67397E+04         0.00000E+00
    0.00000E+00         0.00000E+00         0.00000E+00
 
    0.25479E+05         0.14436E+05         0.00000E+00
    0.14436E+05        -0.58734E+04         0.00000E+00
    0.00000E+00         0.00000E+00         0.00000E+00
 
    0.23489E+05         0.15164E+05         0.00000E+00
    0.15164E+05        -0.49833E+04         0.00000E+00
    0.00000E+00         0.00000E+00         0.00000E+00
 
    0.21479E+05         0.15915E+05         0.00000E+00
    0.15915E+05        -0.40705E+04         0.00000E+00
    0.00000E+00         0.00000E+00         0.00000E+00
 
    0.19451E+05         0.16691E+05         0.00000E+00
    0.16691E+05        -0.31360E+04         0.00000E+00
    0.00000E+00         0.00000E+00         0.00000E+00
 
    0.17408E+05         0.17494E+05         0.00000E+00
    0.17494E+05        -0.21815E+04         0.00000E+00
    0.00000E+00         0.00000E+00         0.00000E+00
 
    0.15353E+05         0.18328E+05         0.00000E+00
    0.18328E+05        -0.12089E+04         0.00000E+00
    0.00000E+00         0.00000E+00         0.00000E+00
 
    0.13290E+05         0.19194E+05         0.00000E+00
    0.19194E+05        -0.22063E+03         0.00000E+00
    0.00000E+00         0.00000E+00         0.00000E+00
 
    0.11223E+05         0.20094E+05         0.00000E+00
    0.20094E+05         0.78017E+03         0.00000E+00
    0.00000E+00         0.00000E+00         0.00000E+00
 
    0.91556E+04         0.21031E+05         0.00000E+00
    0.21031E+05         0.17900E+04         0.00000E+00
    0.00000E+00         0.00000E+00         0.00000E+00
 
    0.70941E+04         0.22006E+05         0.00000E+00
    0.22006E+05         0.28051E+04         0.00000E+00
    0.00000E+00         0.00000E+00         0.00000E+00
 
    0.50433E+04         0.23018E+05         0.00000E+00
    0.23018E+05         0.38213E+04         0.00000E+00
    0.00000E+00         0.00000E+00         0.00000E+00
 
    0.30085E+04         0.24070E+05         0.00000E+00
    0.24070E+05         0.48352E+04         0.00000E+00
    0.00000E+00         0.00000E+00         0.00000E+00
 
    0.99795E+03         0.25166E+05         0.00000E+00
    0.25166E+05         0.58450E+04         0.00000E+00
    0.00000E+00         0.00000E+00         0.00000E+00
 
    0.77027E+05        -0.11170E+03         0.00000E+00
   -0.11170E+03        -0.29273E+05         0.00000E+00
    0.00000E+00         0.00000E+00         0.00000E+00
 
    0.76440E+05        -0.20252E+03         0.00000E+00
   -0.20252E+03        -0.29212E+05         0.00000E+00
    0.00000E+00         0.00000E+00         0.00000E+00
 
    0.75749E+05        -0.24230E+03         0.00000E+00
   -0.24230E+03        -0.29099E+05         0.00000E+00
    0.00000E+00         0.00000E+00         0.00000E+00
 
    0.74963E+05        -0.22982E+03         0.00000E+00
   -0.22982E+03        -0.28938E+05         0.00000E+00
    0.00000E+00         0.00000E+00         0.00000E+00
 
    0.74089E+05        -0.16550E+03         0.00000E+00
   -0.16550E+03        -0.28734E+05         0.00000E+00
    0.00000E+00         0.00000E+00         0.00000E+00
 
    0.73136E+05        -0.50219E+02         0.00000E+00
   -0.50219E+02        -0.28492E+05         0.00000E+00
    0.00000E+00         0.00000E+00         0.00000E+00
 
    0.72112E+05         0.11477E+03         0.00000E+00
    0.11477E+03        -0.28214E+05         0.00000E+00
    0.00000E+00         0.00000E+00         0.00000E+00
 
    0.71023E+05         0.32785E+03         0.00000E+00
    0.32785E+03        -0.27904E+05         0.00000E+00
    0.00000E+00         0.00000E+00         0.00000E+00
 
    0.69876E+05         0.58702E+03         0.00000E+00
    0.58702E+03        -0.27566E+05         0.00000E+00
    0.00000E+00         0.00000E+00         0.00000E+00
 
    0.68677E+05         0.88993E+03         0.00000E+00
    0.88993E+03        -0.27202E+05         0.00000E+00
    0.00000E+00         0.00000E+00         0.00000E+00
 
    0.67431E+05         0.12339E+04         0.00000E+00
    0.12339E+04        -0.26815E+05         0.00000E+00
    0.00000E+00         0.00000E+00         0.00000E+00
 
    0.66143E+05         0.16162E+04         0.00000E+00
    0.16162E+04        -0.26407E+05         0.00000E+00
    0.00000E+00         0.00000E+00         0.00000E+00
 
    0.64818E+05         0.20338E+04         0.00000E+00
    0.20338E+04        -0.25979E+05         0.00000E+00
    0.00000E+00         0.00000E+00         0.00000E+00
 
    0.63457E+05         0.24840E+04         0.00000E+00
    0.24840E+04        -0.25532E+05         0.00000E+00
    0.00000E+00         0.00000E+00         0.00000E+00
 
    0.62066E+05         0.29638E+04         0.00000E+00
    0.29638E+04        -0.25067E+05         0.00000E+00
    0.00000E+00         0.00000E+00         0.00000E+00
 
    0.60645E+05         0.34707E+04         0.00000E+00
    0.34707E+04        -0.24586E+05         0.00000E+00
    0.00000E+00         0.00000E+00         0.00000E+00
 
    0.59197E+05         0.40020E+04         0.00000E+00
    0.40020E+04        -0.24088E+05         0.00000E+00
    0.00000E+00         0.00000E+00         0.00000E+00
 
    0.57724E+05         0.45556E+04         0.00000E+00
    0.45556E+04        -0.23572E+05         0.00000E+00
    0.00000E+00         0.00000E+00         0.00000E+00
 
    0.56226E+05         0.51293E+04         0.00000E+00
    0.51293E+04        -0.23041E+05         0.00000E+00
    0.00000E+00         0.00000E+00         0.00000E+00
 
    0.54705E+05         0.57212E+04         0.00000E+00
    0.57212E+04        -0.22492E+05         0.00000E+00
    0.00000E+00         0.00000E+00         0.00000E+00
 
    0.53161E+05         0.63297E+04         0.00000E+00
    0.63297E+04        -0.21927E+05         0.00000E+00
    0.00000E+00         0.00000E+00         0.00000E+00
 
    0.51595E+05         0.69534E+04         0.00000E+00
    0.69534E+04        -0.21344E+05         0.00000E+00
    0.00000E+00         0.00000E+00         0.00000E+00
 
    0.50008E+05         0.75909E+04         0.00000E+00
    0.75909E+04        -0.20744E+05         0.00000E+00
    0.00000E+00         0.00000E+00         0.00000E+00
 
    0.48399E+05         0.82414E+04         0.00000E+00
    0.82414E+04        -0.20126E+05         0.00000E+00
    0.00000E+00         0.00000E+00         0.00000E+00
 
    0.46770E+05         0.89040E+04         0.00000E+00
    0.89040E+04        -0.19490E+05         0.00000E+00
    0.00000E+00         0.00000E+00         0.00000E+00
 
    0.45119E+05         0.95780E+04         0.00000E+00
    0.95780E+04        -0.18835E+05         0.00000E+00
    0.00000E+00         0.00000E+00         0.00000E+00
 
    0.43447E+05         0.10263E+05         0.00000E+00
    0.10263E+05        -0.18162E+05         0.00000E+00
    0.00000E+00         0.00000E+00         0.00000E+00
 
    0.41755E+05         0.10959E+05         0.00000E+00
    0.10959E+05        -0.17471E+05         0.00000E+00
    0.00000E+00         0.00000E+00         0.00000E+00
 
    0.40043E+05         0.11665E+05         0.00000E+00
    0.11665E+05        -0.16760E+05         0.00000E+00
    0.00000E+00         0.00000E+00         0.00000E+00
 
    0.38310E+05         0.12382E+05         0.00000E+00
    0.12382E+05        -0.16030E+05         0.00000E+00
    0.00000E+00         0.00000E+00         0.00000E+00
 
    0.36557E+05         0.13110E+05         0.00000E+00
    0.13110E+05        -0.15282E+05         0.00000E+00
    0.00000E+00         0.00000E+00         0.00000E+00
 
    0.34784E+05         0.13849E+05         0.00000E+00
    0.13849E+05        -0.14514E+05         0.00000E+00
    0.00000E+00         0.00000E+00         0.00000E+00
 
    0.32993E+05         0.14599E+05         0.00000E+00
    0.14599E+05        -0.13728E+05         0.00000E+00
    0.00000E+00         0.00000E+00         0.00000E+00
 
    0.31182E+05         0.15362E+05         0.00000E+00
    0.15362E+05        -0.12923E+05         0.00000E+00
    0.00000E+00         0.00000E+00         0.00000E+00
 
    0.29354E+05         0.16138E+05         0.00000E+00
    0.16138E+05        -0.12100E+05         0.00000E+00
    0.00000E+00         0.00000E+00         0.00000E+00
 
    0.27508E+05         0.16928E+05         0.00000E+00
    0.16928E+05        -0.11259E+05         0.00000E+00
    0.00000E+00         0.00000E+00         0.00000E+00
 
    0.25647E+05         0.17732E+05         0.00000E+00
    0.17732E+05        -0.10401E+05         0.00000E+00
    0.00000E+00         0.00000E+00         0.00000E+00
 
    0.23770E+05         0.18552E+05         0.00000E+00
    0.18552E+05        -0.95272E+04         0.00000E+00
    0.00000E+00         0.00000E+00         0.00000E+00
 
    0.21881E+05         0.19389E+05         0.00000E+00
    0.19389E+05        -0.86378E+04         0.00000E+00
    0.00000E+00         0.00000E+00         0.00000E+00
 
    0.19980E+05         0.20243E+05         0.00000E+00
    0.20243E+05        -0.77344E+04         0.00000E+00
    0.00000E+00         0.00000E+00         0.00000E+00
 
    0.18070E+05         0.21117E+05         0.00000E+00
    0.21117E+05        -0.68183E+04         0.00000E+00
    0.00000E+00         0.00000E+00         0.00000E+00
 
    0.16152E+05         0.22010E+05         0.00000E+00
    0.22010E+05        -0.58912E+04         0.00000E+00
    0.00000E+00         0.00000E+00         0.00000E+00
 
    0.14231E+05         0.22925E+05         0.00000E+00
    0.22925E+05        -0.49549E+04         0.00000E+00
    0.00000E+00         0.00000E+00         0.00000E+00
 
    0.12307E+05         0.23861E+05         0.00000E+00
    0.23861E+05        -0.40115E+04         0.00000E+00
    0.00000E+00         0.00000E+00         0.00000E+00
 
    0.10385E+05         0.24819E+05         0.00000E+00
    0.24819E+05        -0.30631E+04         0.00000E+00
    0.00000E+00         0.00000E+00         0.00000E+00
 
    0.84683E+04         0.25800E+05         0.00000E+00
    0.25800E+05        -0.21123E+04         0.00000E+00
    0.00000E+00         0.00000E+00         0.00000E+00
 
    0.65597E+04         0.26804E+05         0.00000E+00
    0.26804E+05        -0.11617E+04         0.00000E+00
    0.00000E+00         0.00000E+00         0.00000E+00
 
    0.46634E+04         0.27831E+05         0.00000E+00
    0.27831E+05        -0.21383E+03         0.00000E+00
    0.00000E+00         0.00000E+00         0.00000E+00
 
    0.27836E+04         0.28881E+05         0.00000E+00
    0.28881E+05         0.72801E+03         0.00000E+00
    0.00000E+00         0.00000E+00         0.00000E+00
 
    0.92423E+03         0.29952E+05         0.00000E+00
    0.29952E+05         0.16598E+04         0.00000E+00
    0.00000E+00         0.00000E+00         0.00000E+00
 
    0.71667E+05         0.32031E+02         0.00000E+00
    0.32031E+02        -0.34685E+05         0.00000E+00
    0.00000E+00         0.00000E+00         0.00000E+00
 
    0.71283E+05         0.18024E+03         0.00000E+00
    0.18024E+03        -0.34628E+05         0.00000E+00
    0.00000E+00         0.00000E+00         0.00000E+00
 
    0.70801E+05         0.36124E+03         0.00000E+00
    0.36124E+03        -0.34521E+05         0.00000E+00
    0.00000E+00         0.00000E+00         0.00000E+00
 
    0.70227E+05         0.57604E+03         0.00000E+00
    0.57604E+03        -0.34365E+05         0.00000E+00
    0.00000E+00         0.00000E+00         0.00000E+00
 
    0.69565E+05         0.82542E+03         0.00000E+00
    0.82542E+03        -0.34165E+05         0.00000E+00
    0.00000E+00         0.00000E+00         0.00000E+00
 
    0.68823E+05         0.11097E+04         0.00000E+00
    0.11097E+04        -0.33924E+05         0.00000E+00
    0.00000E+00         0.00000E+00         0.00000E+00
 
    0.68005E+05         0.14289E+04         0.00000E+00
    0.14289E+04        -0.33643E+05         0.00000E+00
    0.00000E+00         0.00000E+00         0.00000E+00
 
    0.67116E+05         0.17825E+04         0.00000E+00
    0.17825E+04        -0.33327E+05         0.00000E+00
    0.00000E+00         0.00000E+00         0.00000E+00
 
    0.66163E+05         0.21698E+04         0.00000E+00
    0.21698E+04        -0.32977E+05         0.00000E+00
    0.00000E+00         0.00000E+00         0.00000E+00
 
    0.65148E+05         0.25899E+04         0.00000E+00
    0.25899E+04        -0.32597E+05         0.00000E+00
    0.00000E+00         0.00000E+00         0.00000E+00
 
    0.64078E+05         0.30417E+04         0.00000E+00
    0.30417E+04        -0.32187E+05         0.00000E+00
    0.00000E+00         0.00000E+00         0.00000E+00
 
    0.62955E+05         0.35239E+04         0.00000E+00
    0.35239E+04        -0.31751E+05         0.00000E+00
    0.00000E+00         0.00000E+00         0.00000E+00
 
    0.61784E+05         0.40351E+04         0.00000E+00
    0.40351E+04        -0.31289E+05         0.00000E+00
    0.00000E+00         0.00000E+00         0.00000E+00
 
    0.60568E+05         0.45738E+04         0.00000E+00
    0.45738E+04        -0.30804E+05         0.00000E+00
    0.00000E+00         0.00000E+00         0.00000E+00
 
    0.59310E+05         0.51384E+04         0.00000E+00
    0.51384E+04        -0.30296E+05         0.00000E+00
    0.00000E+00         0.00000E+00         0.00000E+00
 
    0.58013E+05         0.57273E+04         0.00000E+00
    0.57273E+04        -0.29767E+05         0.00000E+00
    0.00000E+00         0.00000E+00         0.00000E+00
 
    0.56680E+05         0.63391E+04         0.00000E+00
    0.63391E+04        -0.29218E+05         0.00000E+00
    0.00000E+00         0.00000E+00         0.00000E+00
 
    0.55312E+05         0.69721E+04         0.00000E+00
    0.69721E+04        -0.28649E+05         0.00000E+00
    0.00000E+00         0.00000E+00         0.00000E+00
 
    0.53911E+05         0.76251E+04         0.00000E+00
    0.76251E+04        -0.28061E+05         0.00000E+00
    0.00000E+00         0.00000E+00         0.00000E+00
 
    0.52480E+05         0.82966E+04         0.00000E+00
    0.82966E+04        -0.27455E+05         0.00000E+00
    0.00000E+00         0.00000E+00         0.00000E+00
 
    0.51019E+05         0.89853E+04         0.00000E+00
    0.89853E+04        -0.26831E+05         0.00000E+00
    0.00000E+00         0.00000E+00         0.00000E+00
 
    0.49531E+05         0.96902E+04         0.00000E+00
    0.96902E+04        -0.26189E+05         0.00000E+00
    0.00000E+00         0.00000E+00         0.00000E+00
 
    0.48016E+05         0.10410E+05         0.00000E+00
    0.10410E+05        -0.25530E+05         0.00000E+00
    0.00000E+00         0.00000E+00         0.00000E+00
 
    0.46475E+05         0.11144E+05         0.00000E+00
    0.11144E+05        -0.24854E+05         0.00000E+00
    0.00000E+00         0.00000E+00         0.00000E+00
 
    0.44910E+05         0.11892E+05         0.00000E+00
    0.11892E+05        -0.24162E+05         0.00000E+00
    0.00000E+00         0.00000E+00         0.00000E+00
 
    0.43321E+05         0.12652E+05         0.00000E+00
    0.12652E+05        -0.23452E+05         0.00000E+00
    0.00000E+00         0.00000E+00         0.00000E+00
 
    0.41709E+05         0.13425E+05         0.00000E+00
    0.13425E+05        -0.22727E+05         0.00000E+00
    0.00000E+00         0.00000E+00         0.00000E+00
 
    0.40075E+05         0.14209E+05         0.00000E+00
    0.14209E+05        -0.21985E+05         0.00000E+00
    0.00000E+00         0.00000E+00         0.00000E+00
 
    0.38420E+05         0.15004E+05         0.00000E+00
    0.15004E+05        -0.21227E+05         0.00000E+00
    0.00000E+00         0.00000E+00         0.00000E+00
 
    0.36745E+05         0.15811E+05         0.00000E+00
    0.15811E+05        -0.20453E+05         0.00000E+00
    0.00000E+00         0.00000E+00         0.00000E+00
 
    0.35050E+05         0.16629E+05         0.00000E+00
    0.16629E+05        -0.19664E+05         0.00000E+00
    0.00000E+00         0.00000E+00         0.00000E+00
 
    0.33336E+05         0.17458E+05         0.00000E+00
    0.17458E+05        -0.18861E+05         0.00000E+00
    0.00000E+00         0.00000E+00         0.00000E+00
 
    0.31604E+05         0.18298E+05         0.00000E+00
    0.18298E+05        -0.18043E+05         0.00000E+00
    0.00000E+00         0.00000E+00         0.00000E+00
 
    0.29856E+05         0.19150E+05         0.00000E+00
    0.19150E+05        -0.17210E+05         0.00000E+00
    0.00000E+00         0.00000E+00         0.00000E+00
 
    0.28092E+05         0.20012E+05         0.00000E+00
    0.20012E+05        -0.16365E+05         0.00000E+00
    0.00000E+00         0.00000E+00         0.00000E+00
 
    0.26314E+05         0.20887E+05         0.00000E+00
    0.20887E+05        -0.15507E+05         0.00000E+00
    0.00000E+00         0.00000E+00         0.00000E+00
 
    0.24523E+05         0.21773E+05         0.00000E+00
    0.21773E+05        -0.14637E+05         0.00000E+00
    0.00000E+00         0.00000E+00         0.00000E+00
 
    0.22720E+05         0.22672E+05         0.00000E+00
    0.22672E+05        -0.13757E+05         0.00000E+00
    0.00000E+00         0.00000E+00         0.00000E+00
 
    0.20907E+05         0.23583E+05         0.00000E+00
    0.23583E+05        -0.12866E+05         0.00000E+00
    0.00000E+00         0.00000E+00         0.00000E+00
 
    0.19086E+05         0.24507E+05         0.00000E+00
    0.24507E+05        -0.11967E+05         0.00000E+00
    0.00000E+00         0.00000E+00         0.00000E+00
 
    0.17258E+05         0.25444E+05         0.00000E+00
    0.25444E+05        -0.11061E+05         0.00000E+00
    0.00000E+00         0.00000E+00         0.00000E+00
 
    0.15426E+05         0.26395E+05         0.00000E+00
    0.26395E+05        -0.10149E+05         0.00000E+00
    0.00000E+00         0.00000E+00         0.00000E+00
 
    0.13592E+05         0.27359E+05         0.00000E+00
    0.27359E+05        -0.92324E+04         0.00000E+00
    0.00000E+00         0.00000E+00         0.00000E+00
 
    0.11757E+05         0.28336E+05         0.00000E+00
    0.28336E+05        -0.83132E+04         0.00000E+00
    0.00000E+00         0.00000E+00         0.00000E+00
 
    0.99245E+04         0.29327E+05         0.00000E+00
    0.29327E+05        -0.73931E+04         0.00000E+00
    0.00000E+00         0.00000E+00         0.00000E+00
 
    0.80968E+04         0.30330E+05         0.00000E+00
    0.30330E+05        -0.64739E+04         0.00000E+00
    0.00000E+00         0.00000E+00         0.00000E+00
 
    0.62765E+04         0.31347E+05         0.00000E+00
    0.31347E+05        -0.55576E+04         0.00000E+00
    0.00000E+00         0.00000E+00         0.00000E+00
 
    0.44663E+04         0.32375E+05         0.00000E+00
    0.32375E+05        -0.46463E+04         0.00000E+00
    0.00000E+00         0.00000E+00         0.00000E+00
 
    0.26687E+04         0.33415E+05         0.00000E+00
    0.33415E+05        -0.37422E+04         0.00000E+00
    0.00000E+00         0.00000E+00         0.00000E+00
 
    0.88673E+03         0.34466E+05         0.00000E+00
    0.34466E+05        -0.28470E+04         0.00000E+00
    0.00000E+00         0.00000E+00         0.00000E+00
 
    0.67712E+05         0.16397E+03         0.00000E+00
    0.16397E+03        -0.39898E+05         0.00000E+00
    0.00000E+00         0.00000E+00         0.00000E+00
 
    0.67455E+05         0.54094E+03         0.00000E+00
    0.54094E+03        -0.39845E+05         0.00000E+00
    0.00000E+00         0.00000E+00         0.00000E+00
 
    0.67106E+05         0.93795E+03         0.00000E+00
    0.93795E+03        -0.39743E+05         0.00000E+00
    0.00000E+00         0.00000E+00         0.00000E+00
 
    0.66669E+05         0.13562E+04         0.00000E+00
    0.13562E+04        -0.39594E+05         0.00000E+00
    0.00000E+00         0.00000E+00         0.00000E+00
 
    0.66148E+05         0.17967E+04         0.00000E+00
    0.17967E+04        -0.39401E+05         0.00000E+00
    0.00000E+00         0.00000E+00         0.00000E+00
 
    0.65548E+05         0.22600E+04         0.00000E+00
    0.22600E+04        -0.39166E+05         0.00000E+00
    0.00000E+00         0.00000E+00         0.00000E+00
 
    0.64873E+05         0.27468E+04         0.00000E+00
    0.27468E+04        -0.38891E+05         0.00000E+00
    0.00000E+00         0.00000E+00         0.00000E+00
 
    0.64126E+05         0.32571E+04         0.00000E+00
    0.32571E+04        -0.38579E+05         0.00000E+00
    0.00000E+00         0.00000E+00         0.00000E+00
 
    0.63312E+05         0.37910E+04         0.00000E+00
    0.37910E+04        -0.38230E+05         0.00000E+00
    0.00000E+00         0.00000E+00         0.00000E+00
 
    0.62434E+05         0.43484E+04         0.00000E+00
    0.43484E+04        -0.37848E+05         0.00000E+00
    0.00000E+00         0.00000E+00         0.00000E+00
 
    0.61497E+05         0.49290E+04         0.00000E+00
    0.49290E+04        -0.37434E+05         0.00000E+00
    0.00000E+00         0.00000E+00         0.00000E+00
 
    0.60502E+05         0.55323E+04         0.00000E+00
    0.55323E+04        -0.36990E+05         0.00000E+00
    0.00000E+00         0.00000E+00         0.00000E+00
 
    0.59454E+05         0.61576E+04         0.00000E+00
    0.61576E+04        -0.36518E+05         0.00000E+00
    0.00000E+00         0.00000E+00         0.00000E+00
 
    0.58356E+05         0.68044E+04         0.00000E+00
    0.68044E+04        -0.36018E+05         0.00000E+00
    0.00000E+00         0.00000E+00         0.00000E+00
 
    0.57210E+05         0.74718E+04         0.00000E+00
    0.74718E+04        -0.35493E+05         0.00000E+00
    0.00000E+00         0.00000E+00         0.00000E+00
 
    0.56019E+05         0.81591E+04         0.00000E+00
    0.81591E+04        -0.34944E+05         0.00000E+00
    0.00000E+00         0.00000E+00         0.00000E+00
 
    0.54786E+05         0.88654E+04         0.00000E+00
    0.88654E+04        -0.34371E+05         0.00000E+00
    0.00000E+00         0.00000E+00         0.00000E+00
 
    0.53513E+05         0.95897E+04         0.00000E+00
    0.95897E+04        -0.33777E+05         0.00000E+00
    0.00000E+00         0.00000E+00         0.00000E+00
 
    0.52202E+05         0.10331E+05         0.00000E+00
    0.10331E+05        -0.33161E+05         0.00000E+00
    0.00000E+00         0.00000E+00         0.00000E+00
 
    0.50855E+05         0.11089E+05         0.00000E+00
    0.11089E+05        -0.32525E+05         0.00000E+00
    0.00000E+00         0.00000E+00         0.00000E+00
 
    0.49473E+05         0.11863E+05         0.00000E+00
    0.11863E+05        -0.31870E+05         0.00000E+00
    0.00000E+00         0.00000E+00         0.00000E+00
 
    0.48060E+05         0.12651E+05         0.00000E+00
    0.12651E+05        -0.31196E+05         0.00000E+00
    0.00000E+00         0.00000E+00         0.00000E+00
 
    0.46615E+05         0.13453E+05         0.00000E+00
    0.13453E+05        -0.30505E+05         0.00000E+00
    0.00000E+00         0.00000E+00         0.00000E+00
 
    0.45141E+05         0.14268E+05         0.00000E+00
    0.14268E+05        -0.29795E+05         0.00000E+00
    0.00000E+00         0.00000E+00         0.00000E+00
 
    0.43640E+05         0.15096E+05         0.00000E+00
    0.15096E+05        -0.29069E+05         0.00000E+00
    0.00000E+00         0.00000E+00         0.00000E+00
 
    0.42111E+05         0.15936E+05         0.00000E+00
    0.15936E+05        -0.28327E+05         0.00000E+00
    0.00000E+00         0.00000E+00         0.00000E+00
 
    0.40558E+05         0.16788E+05         0.00000E+00
    0.16788E+05        -0.27569E+05         0.00000E+00
    0.00000E+00         0.00000E+00         0.00000E+00
 
    0.38980E+05         0.17650E+05         0.00000E+00
    0.17650E+05        -0.26796E+05         0.00000E+00
    0.00000E+00         0.00000E+00         0.00000E+00
 
    0.37380E+05         0.18523E+05         0.00000E+00
    0.18523E+05        -0.26009E+05         0.00000E+00
    0.00000E+00         0.00000E+00         0.00000E+00
 
    0.35758E+05         0.19406E+05         0.00000E+00
    0.19406E+05        -0.25208E+05         0.00000E+00
    0.00000E+00         0.00000E+00         0.00000E+00
 
    0.34116E+05         0.20299E+05         0.00000E+00
    0.20299E+05        -0.24393E+05         0.00000E+00
    0.00000E+00         0.00000E+00         0.00000E+00
 
    0.32454E+05         0.21202E+05         0.00000E+00
    0.21202E+05        -0.23566E+05         0.00000E+00
    0.00000E+00         0.00000E+00         0.00000E+00
 
    0.30774E+05         0.22114E+05         0.00000E+00
    0.22114E+05        -0.22727E+05         0.00000E+00
    0.00000E+00         0.00000E+00         0.00000E+00
 
    0.29078E+05         0.23035E+05         0.00000E+00
    0.23035E+05        -0.21876E+05         0.00000E+00
    0.00000E+00         0.00000E+00         0.00000E+00
 
    0.27366E+05         0.23965E+05         0.00000E+00
    0.23965E+05        -0.21016E+05         0.00000E+00
    0.00000E+00         0.00000E+00         0.00000E+00
 
    0.25640E+05         0.24904E+05         0.00000E+00
    0.24904E+05        -0.20145E+05         0.00000E+00
    0.00000E+00         0.00000E+00         0.00000E+00
 
    0.23901E+05         0.25852E+05         0.00000E+00
    0.25852E+05        -0.19266E+05         0.00000E+00
    0.00000E+00         0.00000E+00         0.00000E+00
 
    0.22151E+05         0.26808E+05         0.00000E+00
    0.26808E+05        -0.18379E+05         0.00000E+00
    0.00000E+00         0.00000E+00         0.00000E+00
 
    0.20391E+05         0.27773E+05         0.00000E+00
    0.27773E+05        -0.17485E+05         0.00000E+00
    0.00000E+00         0.00000E+00         0.00000E+00
 
    0.18623E+05         0.28747E+05         0.00000E+00
    0.28747E+05        -0.16586E+05         0.00000E+00
    0.00000E+00         0.00000E+00         0.00000E+00
 
    0.16848E+05         0.29728E+05         0.00000E+00
    0.29728E+05        -0.15682E+05         0.00000E+00
    0.00000E+00         0.00000E+00         0.00000E+00
 
    0.15069E+05         0.30717E+05         0.00000E+00
    0.30717E+05        -0.14775E+05         0.00000E+00
    0.00000E+00         0.00000E+00         0.00000E+00
 
    0.13286E+05         0.31714E+05         0.00000E+00
    0.31714E+05        -0.13867E+05         0.00000E+00
    0.00000E+00         0.00000E+00         0.00000E+00
 
    0.11502E+05         0.32718E+05         0.00000E+00
    0.32718E+05        -0.12957E+05         0.00000E+00
    0.00000E+00         0.00000E+00         0.00000E+00
 
    0.97181E+04         0.33729E+05         0.00000E+00
    0.33729E+05        -0.12049E+05         0.00000E+00
    0.00000E+00         0.00000E+00         0.00000E+00
 
    0.79367E+04         0.34745E+05         0.00000E+00
    0.34745E+05        -0.11143E+05         0.00000E+00
    0.00000E+00         0.00000E+00         0.00000E+00
 
    0.61597E+04         0.35768E+05         0.00000E+00
    0.35768E+05        -0.10240E+05         0.00000E+00
    0.00000E+00         0.00000E+00         0.00000E+00
 
    0.43888E+04         0.36795E+05         0.00000E+00
    0.36795E+05        -0.93432E+04         0.00000E+00
    0.00000E+00         0.00000E+00         0.00000E+00
 
    0.26261E+04         0.37825E+05         0.00000E+00
    0.37825E+05        -0.84531E+04         0.00000E+00
    0.00000E+00         0.00000E+00         0.00000E+00
 
    0.87354E+03         0.38859E+05         0.00000E+00
    0.38859E+05        -0.75716E+04         0.00000E+00
    0.00000E+00         0.00000E+00         0.00000E+00
 
    0.65026E+05         0.28577E+03         0.00000E+00
    0.28577E+03        -0.44987E+05         0.00000E+00
    0.00000E+00         0.00000E+00         0.00000E+00
 
    0.64841E+05         0.88094E+03         0.00000E+00
    0.88094E+03        -0.44938E+05         0.00000E+00
    0.00000E+00         0.00000E+00         0.00000E+00
 
    0.64570E+05         0.14867E+04         0.00000E+00
    0.14867E+04        -0.44841E+05         0.00000E+00
    0.00000E+00         0.00000E+00         0.00000E+00
 
    0.64216E+05         0.21044E+04         0.00000E+00
    0.21044E+04        -0.44699E+05         0.00000E+00
    0.00000E+00         0.00000E+00         0.00000E+00
 
    0.63784E+05         0.27349E+04         0.00000E+00
    0.27349E+04        -0.44514E+05         0.00000E+00
    0.00000E+00         0.00000E+00         0.00000E+00
 
    0.63275E+05         0.33793E+04         0.00000E+00
    0.33793E+04        -0.44288E+05         0.00000E+00
    0.00000E+00         0.00000E+00         0.00000E+00
 
    0.62693E+05         0.40381E+04         0.00000E+00
    0.40381E+04        -0.44021E+05         0.00000E+00
    0.00000E+00         0.00000E+00         0.00000E+00
 
    0.62041E+05         0.47119E+04         0.00000E+00
    0.47119E+04        -0.43717E+05         0.00000E+00
    0.00000E+00         0.00000E+00         0.00000E+00
 
    0.61322E+05         0.54012E+04         0.00000E+00
    0.54012E+04        -0.43376E+05         0.00000E+00
    0.00000E+00         0.00000E+00         0.00000E+00
 
    0.60540E+05         0.61061E+04         0.00000E+00
    0.61061E+04        -0.43000E+05         0.00000E+00
    0.00000E+00         0.00000E+00         0.00000E+00
 
    0.59697E+05         0.68267E+04         0.00000E+00
    0.68267E+04        -0.42591E+05         0.00000E+00
    0.00000E+00         0.00000E+00         0.00000E+00
 
    0.58795E+05         0.75631E+04         0.00000E+00
    0.75631E+04        -0.42150E+05         0.00000E+00
    0.00000E+00         0.00000E+00         0.00000E+00
 
    0.57838E+05         0.83152E+04         0.00000E+00
    0.83152E+04        -0.41679E+05         0.00000E+00
    0.00000E+00         0.00000E+00         0.00000E+00
 
    0.56829E+05         0.90826E+04         0.00000E+00
    0.90826E+04        -0.41179E+05         0.00000E+00
    0.00000E+00         0.00000E+00         0.00000E+00
 
    0.55769E+05         0.98652E+04         0.00000E+00
    0.98652E+04        -0.40651E+05         0.00000E+00
    0.00000E+00         0.00000E+00         0.00000E+00
 
    0.54661E+05         0.10662E+05         0.00000E+00
    0.10662E+05        -0.40098E+05         0.00000E+00
    0.00000E+00         0.00000E+00         0.00000E+00
 
    0.53508E+05         0.11474E+05         0.00000E+00
    0.11474E+05        -0.39519E+05         0.00000E+00
    0.00000E+00         0.00000E+00         0.00000E+00
 
    0.52312E+05         0.12300E+05         0.00000E+00
    0.12300E+05        -0.38916E+05         0.00000E+00
    0.00000E+00         0.00000E+00         0.00000E+00
 
    0.51074E+05         0.13139E+05         0.00000E+00
    0.13139E+05        -0.38291E+05         0.00000E+00
    0.00000E+00         0.00000E+00         0.00000E+00
 
    0.49797E+05         0.13991E+05         0.00000E+00
    0.13991E+05        -0.37643E+05         0.00000E+00
    0.00000E+00         0.00000E+00         0.00000E+00
 
    0.48482E+05         0.14855E+05         0.00000E+00
    0.14855E+05        -0.36975E+05         0.00000E+00
    0.00000E+00         0.00000E+00         0.00000E+00
 
    0.47132E+05         0.15731E+05         0.00000E+00
    0.15731E+05        -0.36287E+05         0.00000E+00
    0.00000E+00         0.00000E+00         0.00000E+00
 
    0.45749E+05         0.16618E+05         0.00000E+00
    0.16618E+05        -0.35580E+05         0.00000E+00
    0.00000E+00         0.00000E+00         0.00000E+00
 
    0.44333E+05         0.17517E+05         0.00000E+00
    0.17517E+05        -0.34855E+05         0.00000E+00
    0.00000E+00         0.00000E+00         0.00000E+00
 
    0.42886E+05         0.18425E+05         0.00000E+00
    0.18425E+05        -0.34112E+05         0.00000E+00
    0.00000E+00         0.00000E+00         0.00000E+00
 
    0.41410E+05         0.19343E+05         0.00000E+00
    0.19343E+05        -0.33353E+05         0.00000E+00
    0.00000E+00         0.00000E+00         0.00000E+00
 
    0.39907E+05         0.20271E+05         0.00000E+00
    0.20271E+05        -0.32579E+05         0.00000E+00
    0.00000E+00         0.00000E+00         0.00000E+00
 
    0.38377E+05         0.21208E+05         0.00000E+00
    0.21208E+05        -0.31789E+05         0.00000E+00
    0.00000E+00         0.00000E+00         0.00000E+00
 
    0.36823E+05         0.22152E+05         0.00000E+00
    0.22152E+05        -0.30985E+05         0.00000E+00
    0.00000E+00         0.00000E+00         0.00000E+00
 
    0.35245E+05         0.23105E+05         0.00000E+00
    0.23105E+05        -0.30168E+05         0.00000E+00
    0.00000E+00         0.00000E+00         0.00000E+00
 
    0.33645E+05         0.24066E+05         0.00000E+00
    0.24066E+05        -0.29339E+05         0.00000E+00
    0.00000E+00         0.00000E+00         0.00000E+00
 
    0.32024E+05         0.25033E+05         0.00000E+00
    0.25033E+05        -0.28497E+05         0.00000E+00
    0.00000E+00         0.00000E+00         0.00000E+00
 
    0.30384E+05         0.26008E+05         0.00000E+00
    0.26008E+05        -0.27645E+05         0.00000E+00
    0.00000E+00         0.00000E+00         0.00000E+00
 
    0.28726E+05         0.26989E+05         0.00000E+00
    0.26989E+05        -0.26783E+05         0.00000E+00
    0.00000E+00         0.00000E+00         0.00000E+00
 
    0.27051E+05         0.27976E+05         0.00000E+00
    0.27976E+05        -0.25911E+05         0.00000E+00
    0.00000E+00         0.00000E+00         0.00000E+00
 
    0.25361E+05         0.28969E+05         0.00000E+00
    0.28969E+05        -0.25032E+05         0.00000E+00
    0.00000E+00         0.00000E+00         0.00000E+00
 
    0.23657E+05         0.29968E+05         0.00000E+00
    0.29968E+05        -0.24145E+05         0.00000E+00
    0.00000E+00         0.00000E+00         0.00000E+00
 
    0.21940E+05         0.30971E+05         0.00000E+00
    0.30971E+05        -0.23251E+05         0.00000E+00
    0.00000E+00         0.00000E+00         0.00000E+00
 
    0.20212E+05         0.31980E+05         0.00000E+00
    0.31980E+05        -0.22352E+05         0.00000E+00
    0.00000E+00         0.00000E+00         0.00000E+00
 
    0.18474E+05         0.32992E+05         0.00000E+00
    0.32992E+05        -0.21449E+05         0.00000E+00
    0.00000E+00         0.00000E+00         0.00000E+00
 
    0.16728E+05         0.34008E+05         0.00000E+00
    0.34008E+05        -0.20542E+05         0.00000E+00
    0.00000E+00         0.00000E+00         0.00000E+00
 
    0.14975E+05         0.35028E+05         0.00000E+00
    0.35028E+05        -0.19633E+05         0.00000E+00
    0.00000E+00         0.00000E+00         0.00000E+00
 
    0.13216E+05         0.36050E+05         0.00000E+00
    0.36050E+05        -0.18724E+05         0.00000E+00
    0.00000E+00         0.00000E+00         0.00000E+00
 
    0.11453E+05         0.37075E+05         0.00000E+00
    0.37075E+05        -0.17814E+05         0.00000E+00
    0.00000E+00         0.00000E+00         0.00000E+00
 
    0.96884E+04         0.38101E+05         0.00000E+00
    0.38101E+05        -0.16905E+05         0.00000E+00
    0.00000E+00         0.00000E+00         0.00000E+00
 
    0.79223E+04         0.39128E+05         0.00000E+00
    0.39128E+05        -0.15999E+05         0.00000E+00
    0.00000E+00         0.00000E+00         0.00000E+00
 
    0.61566E+04         0.40156E+05         0.00000E+00
    0.40156E+05        -0.15097E+05         0.00000E+00
    0.00000E+00         0.00000E+00         0.00000E+00
 
    0.43928E+04         0.41182E+05         0.00000E+00
    0.41182E+05        -0.14199E+05         0.00000E+00
    0.00000E+00         0.00000E+00         0.00000E+00
 
    0.26323E+04         0.42207E+05         0.00000E+00
    0.42207E+05        -0.13308E+05         0.00000E+00
    0.00000E+00         0.00000E+00         0.00000E+00
 
    0.87655E+03         0.43229E+05         0.00000E+00
    0.43229E+05        -0.12424E+05         0.00000E+00
    0.00000E+00         0.00000E+00         0.00000E+00
 
    0.63482E+05         0.39888E+03         0.00000E+00
    0.39888E+03        -0.50017E+05         0.00000E+00
    0.00000E+00         0.00000E+00         0.00000E+00
 
    0.63329E+05         0.12013E+04         0.00000E+00
    0.12013E+04        -0.49971E+05         0.00000E+00
    0.00000E+00         0.00000E+00         0.00000E+00
 
    0.63095E+05         0.20074E+04         0.00000E+00
    0.20074E+04        -0.49879E+05         0.00000E+00
    0.00000E+00         0.00000E+00         0.00000E+00
 
    0.62785E+05         0.28182E+04         0.00000E+00
    0.28182E+04        -0.49744E+05         0.00000E+00
    0.00000E+00         0.00000E+00         0.00000E+00
 
    0.62399E+05         0.36348E+04         0.00000E+00
    0.36348E+04        -0.49567E+05         0.00000E+00
    0.00000E+00         0.00000E+00         0.00000E+00
 
    0.61942E+05         0.44581E+04         0.00000E+00
    0.44581E+04        -0.49350E+05         0.00000E+00
    0.00000E+00         0.00000E+00         0.00000E+00
 
    0.61415E+05         0.52889E+04         0.00000E+00
    0.52889E+04        -0.49093E+05         0.00000E+00
    0.00000E+00         0.00000E+00         0.00000E+00
 
    0.60820E+05         0.61279E+04         0.00000E+00
    0.61279E+04        -0.48799E+05         0.00000E+00
    0.00000E+00         0.00000E+00         0.00000E+00
 
    0.60161E+05         0.69755E+04         0.00000E+00
    0.69755E+04        -0.48468E+05         0.00000E+00
    0.00000E+00         0.00000E+00         0.00000E+00
 
    0.59439E+05         0.78323E+04         0.00000E+00
    0.78323E+04        -0.48102E+05         0.00000E+00
    0.00000E+00         0.00000E+00         0.00000E+00
 
    0.58657E+05         0.86986E+04         0.00000E+00
    0.86986E+04        -0.47702E+05         0.00000E+00
    0.00000E+00         0.00000E+00         0.00000E+00
 
    0.57818E+05         0.95745E+04         0.00000E+00
    0.95745E+04        -0.47269E+05         0.00000E+00
    0.00000E+00         0.00000E+00         0.00000E+00
 
    0.56923E+05         0.10460E+05         0.00000E+00
    0.10460E+05        -0.46806E+05         0.00000E+00
    0.00000E+00         0.00000E+00         0.00000E+00
 
    0.55974E+05         0.11356E+05         0.00000E+00
    0.11356E+05        -0.46312E+05         0.00000E+00
    0.00000E+00         0.00000E+00         0.00000E+00
 
    0.54974E+05         0.12261E+05         0.00000E+00
    0.12261E+05        -0.45790E+05         0.00000E+00
    0.00000E+00         0.00000E+00         0.00000E+00
 
    0.53926E+05         0.13177E+05         0.00000E+00
    0.13177E+05        -0.45240E+05         0.00000E+00
    0.00000E+00         0.00000E+00         0.00000E+00
 
    0.52830E+05         0.14101E+05         0.00000E+00
    0.14101E+05        -0.44664E+05         0.00000E+00
    0.00000E+00         0.00000E+00         0.00000E+00
 
    0.51689E+05         0.15036E+05         0.00000E+00
    0.15036E+05        -0.44062E+05         0.00000E+00
    0.00000E+00         0.00000E+00         0.00000E+00
 
    0.50505E+05         0.15979E+05         0.00000E+00
    0.15979E+05        -0.43437E+05         0.00000E+00
    0.00000E+00         0.00000E+00         0.00000E+00
 
    0.49280E+05         0.16931E+05         0.00000E+00
    0.16931E+05        -0.42788E+05         0.00000E+00
    0.00000E+00         0.00000E+00         0.00000E+00
 
    0.48016E+05         0.17892E+05         0.00000E+00
    0.17892E+05        -0.42118E+05         0.00000E+00
    0.00000E+00         0.00000E+00         0.00000E+00
 
    0.46714E+05         0.18861E+05         0.00000E+00
    0.18861E+05        -0.41426E+05         0.00000E+00
    0.00000E+00         0.00000E+00         0.00000E+00
 
    0.45375E+05         0.19839E+05         0.00000E+00
    0.19839E+05        -0.40715E+05         0.00000E+00
    0.00000E+00         0.00000E+00         0.00000E+00
 
    0.44003E+05         0.20823E+05         0.00000E+00
    0.20823E+05        -0.39984E+05         0.00000E+00
    0.00000E+00         0.00000E+00         0.00000E+00
 
    0.42597E+05         0.21815E+05         0.00000E+00
    0.21815E+05        -0.39236E+05         0.00000E+00
    0.00000E+00         0.00000E+00         0.00000E+00
 
    0.41161E+05         0.22813E+05         0.00000E+00
    0.22813E+05        -0.38470E+05         0.00000E+00
    0.00000E+00         0.00000E+00         0.00000E+00
 
    0.39695E+05         0.23818E+05         0.00000E+00
    0.23818E+05        -0.37688E+05         0.00000E+00
    0.00000E+00         0.00000E+00         0.00000E+00
 
    0.38200E+05         0.24829E+05         0.00000E+00
    0.24829E+05        -0.36891E+05         0.00000E+00
    0.00000E+00         0.00000E+00         0.00000E+00
 
    0.36679E+05         0.25845E+05         0.00000E+00
    0.25845E+05        -0.36079E+05         0.00000E+00
    0.00000E+00         0.00000E+00         0.00000E+00
 
    0.35132E+05         0.26866E+05         0.00000E+00
    0.26866E+05        -0.35253E+05         0.00000E+00
    0.00000E+00         0.00000E+00         0.00000E+00
 
    0.33561E+05         0.27892E+05         0.00000E+00
    0.27892E+05        -0.34415E+05         0.00000E+00
    0.00000E+00         0.00000E+00         0.00000E+00
 
    0.31967E+05         0.28922E+05         0.00000E+00
    0.28922E+05        -0.33565E+05         0.00000E+00
    0.00000E+00         0.00000E+00         0.00000E+00
 
    0.30352E+05         0.29956E+05         0.00000E+00
    0.29956E+05        -0.32705E+05         0.00000E+00
    0.00000E+00         0.00000E+00         0.00000E+00
 
    0.28718E+05         0.30994E+05         0.00000E+00
    0.30994E+05        -0.31834E+05         0.00000E+00
    0.00000E+00         0.00000E+00         0.00000E+00
 
    0.27064E+05         0.32034E+05         0.00000E+00
    0.32034E+05        -0.30954E+05         0.00000E+00
    0.00000E+00         0.00000E+00         0.00000E+00
 
    0.25393E+05         0.33078E+05         0.00000E+00
    0.33078E+05        -0.30067E+05         0.00000E+00
    0.00000E+00         0.00000E+00         0.00000E+00
 
    0.23706E+05         0.34123E+05         0.00000E+00
    0.34123E+05        -0.29172E+05         0.00000E+00
    0.00000E+00         0.00000E+00         0.00000E+00
 
    0.22004E+05         0.35169E+05         0.00000E+00
    0.35169E+05        -0.28270E+05         0.00000E+00
    0.00000E+00         0.00000E+00         0.00000E+00
 
    0.20289E+05         0.36217E+05         0.00000E+00
    0.36217E+05        -0.27364E+05         0.00000E+00
    0.00000E+00         0.00000E+00         0.00000E+00
 
    0.18562E+05         0.37266E+05         0.00000E+00
    0.37266E+05        -0.26453E+05         0.00000E+00
    0.00000E+00         0.00000E+00         0.00000E+00
 
    0.16824E+05         0.38314E+05         0.00000E+00
    0.38314E+05        -0.25539E+05         0.00000E+00
    0.00000E+00         0.00000E+00         0.00000E+00
 
    0.15076E+05         0.39362E+05         0.00000E+00
    0.39362E+05        -0.24623E+05         0.00000E+00
    0.00000E+00         0.00000E+00         0.00000E+00
 
    0.13319E+05         0.40409E+05         0.00000E+00
    0.40409E+05        -0.23706E+05         0.00000E+00
    0.00000E+00         0.00000E+00         0.00000E+00
 
    0.11556E+05         0.41454E+05         0.00000E+00
    0.41454E+05        -0.22788E+05         0.00000E+00
    0.00000E+00         0.00000E+00         0.00000E+00
 
    0.97863E+04         0.42497E+05         0.00000E+00
    0.42497E+05        -0.21871E+05         0.00000E+00
    0.00000E+00         0.00000E+00         0.00000E+00
 
    0.80121E+04         0.43537E+05         0.00000E+00
    0.43537E+05        -0.20956E+05         0.00000E+00
    0.00000E+00         0.00000E+00         0.00000E+00
 
    0.62344E+04         0.44572E+05         0.00000E+00
    0.44572E+05        -0.20044E+05         0.00000E+00
    0.00000E+00         0.00000E+00         0.00000E+00
 
    0.44542E+04         0.45603E+05         0.00000E+00
    0.45603E+05        -0.19135E+05         0.00000E+00
    0.00000E+00         0.00000E+00         0.00000E+00
 
    0.26726E+04         0.46628E+05         0.00000E+00
    0.46628E+05        -0.18232E+05         0.00000E+00
    0.00000E+00         0.00000E+00         0.00000E+00
 
    0.89084E+03         0.47646E+05         0.00000E+00
    0.47646E+05        -0.17334E+05         0.00000E+00
    0.00000E+00         0.00000E+00         0.00000E+00
 
    0.62964E+05         0.50433E+03         0.00000E+00
    0.50433E+03        -0.55047E+05         0.00000E+00
    0.00000E+00         0.00000E+00         0.00000E+00
 
    0.62811E+05         0.15037E+04         0.00000E+00
    0.15037E+04        -0.55003E+05         0.00000E+00
    0.00000E+00         0.00000E+00         0.00000E+00
 
    0.62584E+05         0.25012E+04         0.00000E+00
    0.25012E+04        -0.54916E+05         0.00000E+00
    0.00000E+00         0.00000E+00         0.00000E+00
 
    0.62286E+05         0.34982E+04         0.00000E+00
    0.34982E+04        -0.54787E+05         0.00000E+00
    0.00000E+00         0.00000E+00         0.00000E+00
 
    0.61917E+05         0.44954E+04         0.00000E+00
    0.44954E+04        -0.54618E+05         0.00000E+00
    0.00000E+00         0.00000E+00         0.00000E+00
 
    0.61480E+05         0.54939E+04         0.00000E+00
    0.54939E+04        -0.54410E+05         0.00000E+00
    0.00000E+00         0.00000E+00         0.00000E+00
 
    0.60977E+05         0.64943E+04         0.00000E+00
    0.64943E+04        -0.54162E+05         0.00000E+00
    0.00000E+00         0.00000E+00         0.00000E+00
 
    0.60410E+05         0.74973E+04         0.00000E+00
    0.74973E+04        -0.53878E+05         0.00000E+00
    0.00000E+00         0.00000E+00         0.00000E+00
 
    0.59781E+05         0.85036E+04         0.00000E+00
    0.85036E+04        -0.53557E+05         0.00000E+00
    0.00000E+00         0.00000E+00         0.00000E+00
 
    0.59091E+05         0.95135E+04         0.00000E+00
    0.95135E+04        -0.53202E+05         0.00000E+00
    0.00000E+00         0.00000E+00         0.00000E+00
 
    0.58342E+05         0.10528E+05         0.00000E+00
    0.10528E+05        -0.52812E+05         0.00000E+00
    0.00000E+00         0.00000E+00         0.00000E+00
 
    0.57537E+05         0.11546E+05         0.00000E+00
    0.11546E+05        -0.52390E+05         0.00000E+00
    0.00000E+00         0.00000E+00         0.00000E+00
 
    0.56677E+05         0.12570E+05         0.00000E+00
    0.12570E+05        -0.51936E+05         0.00000E+00
    0.00000E+00         0.00000E+00         0.00000E+00
 
    0.55764E+05         0.13598E+05         0.00000E+00
    0.13598E+05        -0.51451E+05         0.00000E+00
    0.00000E+00         0.00000E+00         0.00000E+00
 
    0.54800E+05         0.14631E+05         0.00000E+00
    0.14631E+05        -0.50937E+05         0.00000E+00
    0.00000E+00         0.00000E+00         0.00000E+00
 
    0.53787E+05         0.15669E+05         0.00000E+00
    0.15669E+05        -0.50395E+05         0.00000E+00
    0.00000E+00         0.00000E+00         0.00000E+00
 
    0.52727E+05         0.16713E+05         0.00000E+00
    0.16713E+05        -0.49826E+05         0.00000E+00
    0.00000E+00         0.00000E+00         0.00000E+00
 
    0.51621E+05         0.17761E+05         0.00000E+00
    0.17761E+05        -0.49230E+05         0.00000E+00
    0.00000E+00         0.00000E+00         0.00000E+00
 
    0.50470E+05         0.18814E+05         0.00000E+00
    0.18814E+05        -0.48609E+05         0.00000E+00
    0.00000E+00         0.00000E+00         0.00000E+00
 
    0.49278E+05         0.19872E+05         0.00000E+00
    0.19872E+05        -0.47964E+05         0.00000E+00
    0.00000E+00         0.00000E+00         0.00000E+00
 
    0.48045E+05         0.20935E+05         0.00000E+00
    0.20935E+05        -0.47297E+05         0.00000E+00
    0.00000E+00         0.00000E+00         0.00000E+00
 
    0.46772E+05         0.22002E+05         0.00000E+00
    0.22002E+05        -0.46607E+05         0.00000E+00
    0.00000E+00         0.00000E+00         0.00000E+00
 
    0.45462E+05         0.23073E+05         0.00000E+00
    0.23073E+05        -0.45896E+05         0.00000E+00
    0.00000E+00         0.00000E+00         0.00000E+00
 
    0.44117E+05         0.24148E+05         0.00000E+00
    0.24148E+05        -0.45165E+05         0.00000E+00
    0.00000E+00         0.00000E+00         0.00000E+00
 
    0.42736E+05         0.25227E+05         0.00000E+00
    0.25227E+05        -0.44416E+05         0.00000E+00
    0.00000E+00         0.00000E+00         0.00000E+00
 
    0.41323E+05         0.26309E+05         0.00000E+00
    0.26309E+05        -0.43648E+05         0.00000E+00
    0.00000E+00         0.00000E+00         0.00000E+00
 
    0.39878E+05         0.27394E+05         0.00000E+00
    0.27394E+05        -0.42863E+05         0.00000E+00
    0.00000E+00         0.00000E+00         0.00000E+00
 
    0.38404E+05         0.28482E+05         0.00000E+00
    0.28482E+05        -0.42062E+05         0.00000E+00
    0.00000E+00         0.00000E+00         0.00000E+00
 
    0.36900E+05         0.29571E+05         0.00000E+00
    0.29571E+05        -0.41246E+05         0.00000E+00
    0.00000E+00         0.00000E+00         0.00000E+00
 
    0.35369E+05         0.30663E+05         0.00000E+00
    0.30663E+05        -0.40416E+05         0.00000E+00
    0.00000E+00         0.00000E+00         0.00000E+00
 
    0.33812E+05         0.31756E+05         0.00000E+00
    0.31756E+05        -0.39572E+05         0.00000E+00
    0.00000E+00         0.00000E+00         0.00000E+00
 
    0.32230E+05         0.32850E+05         0.00000E+00
    0.32850E+05        -0.38716E+05         0.00000E+00
    0.00000E+00         0.00000E+00         0.00000E+00
 
    0.30625E+05         0.33945E+05         0.00000E+00
    0.33945E+05        -0.37848E+05         0.00000E+00
    0.00000E+00         0.00000E+00         0.00000E+00
 
    0.28997E+05         0.35040E+05         0.00000E+00
    0.35040E+05        -0.36970E+05         0.00000E+00
    0.00000E+00         0.00000E+00         0.00000E+00
 
    0.27349E+05         0.36135E+05         0.00000E+00
    0.36135E+05        -0.36082E+05         0.00000E+00
    0.00000E+00         0.00000E+00         0.00000E+00
 
    0.25681E+05         0.37229E+05         0.00000E+00
    0.37229E+05        -0.35186E+05         0.00000E+00
    0.00000E+00         0.00000E+00         0.00000E+00
 
    0.23995E+05         0.38321E+05         0.00000E+00
    0.38321E+05        -0.34282E+05         0.00000E+00
    0.00000E+00         0.00000E+00         0.00000E+00
 
    0.22291E+05         0.39412E+05         0.00000E+00
    0.39412E+05        -0.33371E+05         0.00000E+00
    0.00000E+00         0.00000E+00         0.00000E+00
 
    0.20572E+05         0.40501E+05         0.00000E+00
    0.40501E+05        -0.32455E+05         0.00000E+00
    0.00000E+00         0.00000E+00         0.00000E+00
 
    0.18837E+05         0.41587E+05         0.00000E+00
    0.41587E+05        -0.31533E+05         0.00000E+00
    0.00000E+00         0.00000E+00         0.00000E+00
 
    0.17089E+05         0.42670E+05         0.00000E+00
    0.42670E+05        -0.30608E+05         0.00000E+00
    0.00000E+00         0.00000E+00         0.00000E+00
 
    0.15328E+05         0.43748E+05         0.00000E+00
    0.43748E+05        -0.29679E+05         0.00000E+00
    0.00000E+00         0.00000E+00         0.00000E+00
 
    0.13556E+05         0.44822E+05         0.00000E+00
    0.44822E+05        -0.28749E+05         0.00000E+00
    0.00000E+00         0.00000E+00         0.00000E+00
 
    0.11773E+05         0.45891E+05         0.00000E+00
    0.45891E+05        -0.27817E+05         0.00000E+00
    0.00000E+00         0.00000E+00         0.00000E+00
 
    0.99809E+04         0.46955E+05         0.00000E+00
    0.46955E+05        -0.26885E+05         0.00000E+00
    0.00000E+00         0.00000E+00         0.00000E+00
 
    0.81804E+04         0.48011E+05         0.00000E+00
    0.48011E+05        -0.25954E+05         0.00000E+00
    0.00000E+00         0.00000E+00         0.00000E+00
 
    0.63724E+04         0.49061E+05         0.00000E+00
    0.49061E+05        -0.25024E+05         0.00000E+00
    0.00000E+00         0.00000E+00         0.00000E+00
 
    0.45580E+04         0.50102E+05         0.00000E+00
    0.50102E+05        -0.24097E+05         0.00000E+00
    0.00000E+00         0.00000E+00         0.00000E+00
 
    0.27381E+04         0.51135E+05         0.00000E+00
    0.51135E+05        -0.23173E+05         0.00000E+00
    0.00000E+00         0.00000E+00         0.00000E+00
 
    0.91341E+03         0.52158E+05         0.00000E+00
    0.52158E+05        -0.22253E+05         0.00000E+00
    0.00000E+00         0.00000E+00         0.00000E+00
 
    0.63364E+05         0.60320E+03         0.00000E+00
    0.60320E+03        -0.60130E+05         0.00000E+00
    0.00000E+00         0.00000E+00         0.00000E+00
 
    0.63189E+05         0.17899E+04         0.00000E+00
    0.17899E+04        -0.60088E+05         0.00000E+00
    0.00000E+00         0.00000E+00         0.00000E+00
 
    0.62946E+05         0.29709E+04         0.00000E+00
    0.29709E+04        -0.60005E+05         0.00000E+00
    0.00000E+00         0.00000E+00         0.00000E+00
 
    0.62635E+05         0.41472E+04         0.00000E+00
    0.41472E+04        -0.59882E+05         0.00000E+00
    0.00000E+00         0.00000E+00         0.00000E+00
 
    0.62259E+05         0.53195E+04         0.00000E+00
    0.53195E+04        -0.59719E+05         0.00000E+00
    0.00000E+00         0.00000E+00         0.00000E+00
 
    0.61819E+05         0.64886E+04         0.00000E+00
    0.64886E+04        -0.59518E+05         0.00000E+00
    0.00000E+00         0.00000E+00         0.00000E+00
 
    0.61316E+05         0.76553E+04         0.00000E+00
    0.76553E+04        -0.59279E+05         0.00000E+00
    0.00000E+00         0.00000E+00         0.00000E+00
 
    0.60751E+05         0.88202E+04         0.00000E+00
    0.88202E+04        -0.59004E+05         0.00000E+00
    0.00000E+00         0.00000E+00         0.00000E+00
 
    0.60127E+05         0.99839E+04         0.00000E+00
    0.99839E+04        -0.58692E+05         0.00000E+00
    0.00000E+00         0.00000E+00         0.00000E+00
 
    0.59445E+05         0.11147E+05         0.00000E+00
    0.11147E+05        -0.58346E+05         0.00000E+00
    0.00000E+00         0.00000E+00         0.00000E+00
 
    0.58706E+05         0.12309E+05         0.00000E+00
    0.12309E+05        -0.57967E+05         0.00000E+00
    0.00000E+00         0.00000E+00         0.00000E+00
 
    0.57912E+05         0.13472E+05         0.00000E+00
    0.13472E+05        -0.57554E+05         0.00000E+00
    0.00000E+00         0.00000E+00         0.00000E+00
 
    0.57065E+05         0.14635E+05         0.00000E+00
    0.14635E+05        -0.57109E+05         0.00000E+00
    0.00000E+00         0.00000E+00         0.00000E+00
 
    0.56165E+05         0.15798E+05         0.00000E+00
    0.15798E+05        -0.56633E+05         0.00000E+00
    0.00000E+00         0.00000E+00         0.00000E+00
 
    0.55216E+05         0.16962E+05         0.00000E+00
    0.16962E+05        -0.56128E+05         0.00000E+00
    0.00000E+00         0.00000E+00         0.00000E+00
 
    0.54217E+05         0.18127E+05         0.00000E+00
    0.18127E+05        -0.55594E+05         0.00000E+00
    0.00000E+00         0.00000E+00         0.00000E+00
 
    0.53171E+05         0.19293E+05         0.00000E+00
    0.19293E+05        -0.55031E+05         0.00000E+00
    0.00000E+00         0.00000E+00         0.00000E+00
 
    0.52079E+05         0.20460E+05         0.00000E+00
    0.20460E+05        -0.54442E+05         0.00000E+00
    0.00000E+00         0.00000E+00         0.00000E+00
 
    0.50942E+05         0.21627E+05         0.00000E+00
    0.21627E+05        -0.53827E+05         0.00000E+00
    0.00000E+00         0.00000E+00         0.00000E+00
 
    0.49763E+05         0.22796E+05         0.00000E+00
    0.22796E+05        -0.53187E+05         0.00000E+00
    0.00000E+00         0.00000E+00         0.00000E+00
 
    0.48542E+05         0.23965E+05         0.00000E+00
    0.23965E+05        -0.52523E+05         0.00000E+00
    0.00000E+00         0.00000E+00         0.00000E+00
 
    0.47281E+05         0.25135E+05         0.00000E+00
    0.25135E+05        -0.51837E+05         0.00000E+00
    0.00000E+00         0.00000E+00         0.00000E+00
 
    0.45982E+05         0.26305E+05         0.00000E+00
    0.26305E+05        -0.51128E+05         0.00000E+00
    0.00000E+00         0.00000E+00         0.00000E+00
 
    0.44646E+05         0.27475E+05         0.00000E+00
    0.27475E+05        -0.50398E+05         0.00000E+00
    0.00000E+00         0.00000E+00         0.00000E+00
 
    0.43273E+05         0.28645E+05         0.00000E+00
    0.28645E+05        -0.49649E+05         0.00000E+00
    0.00000E+00         0.00000E+00         0.00000E+00
 
    0.41867E+05         0.29816E+05         0.00000E+00
    0.29816E+05        -0.48880E+05         0.00000E+00
    0.00000E+00         0.00000E+00         0.00000E+00
 
    0.40427E+05         0.30985E+05         0.00000E+00
    0.30985E+05        -0.48093E+05         0.00000E+00
    0.00000E+00         0.00000E+00         0.00000E+00
 
    0.38955E+05         0.32154E+05         0.00000E+00
    0.32154E+05        -0.47289E+05         0.00000E+00
    0.00000E+00         0.00000E+00         0.00000E+00
 
    0.37453E+05         0.33321E+05         0.00000E+00
    0.33321E+05        -0.46469E+05         0.00000E+00
    0.00000E+00         0.00000E+00         0.00000E+00
 
    0.35922E+05         0.34487E+05         0.00000E+00
    0.34487E+05        -0.45634E+05         0.00000E+00
    0.00000E+00         0.00000E+00         0.00000E+00
 
    0.34363E+05         0.35651E+05         0.00000E+00
    0.35651E+05        -0.44785E+05         0.00000E+00
    0.00000E+00         0.00000E+00         0.00000E+00
 
    0.32777E+05         0.36813E+05         0.00000E+00
    0.36813E+05        -0.43922E+05         0.00000E+00
    0.00000E+00         0.00000E+00         0.00000E+00
 
    0.31166E+05         0.37972E+05         0.00000E+00
    0.37972E+05        -0.43047E+05         0.00000E+00
    0.00000E+00         0.00000E+00         0.00000E+00
 
    0.29530E+05         0.39128E+05         0.00000E+00
    0.39128E+05        -0.42160E+05         0.00000E+00
    0.00000E+00         0.00000E+00         0.00000E+00
 
    0.27871E+05         0.40280E+05         0.00000E+00
    0.40280E+05        -0.41263E+05         0.00000E+00
    0.00000E+00         0.00000E+00         0.00000E+00
 
    0.26190E+05         0.41429E+05         0.00000E+00
    0.41429E+05        -0.40356E+05         0.00000E+00
    0.00000E+00         0.00000E+00         0.00000E+00
 
    0.24489E+05         0.42573E+05         0.00000E+00
    0.42573E+05        -0.39440E+05         0.00000E+00
    0.00000E+00         0.00000E+00         0.00000E+00
 
    0.22767E+05         0.43712E+05         0.00000E+00
    0.43712E+05        -0.38517E+05         0.00000E+00
    0.00000E+00         0.00000E+00         0.00000E+00
 
    0.21027E+05         0.44846E+05         0.00000E+00
    0.44846E+05        -0.37586E+05         0.00000E+00
    0.00000E+00         0.00000E+00         0.00000E+00
 
    0.19270E+05         0.45974E+05         0.00000E+00
    0.45974E+05        -0.36650E+05         0.00000E+00
    0.00000E+00         0.00000E+00         0.00000E+00
 
    0.17496E+05         0.47095E+05         0.00000E+00
    0.47095E+05        -0.35709E+05         0.00000E+00
    0.00000E+00         0.00000E+00         0.00000E+00
 
    0.15706E+05         0.48210E+05         0.00000E+00
    0.48210E+05        -0.34764E+05         0.00000E+00
    0.00000E+00         0.00000E+00         0.00000E+00
 
    0.13902E+05         0.49316E+05         0.00000E+00
    0.49316E+05        -0.33815E+05         0.00000E+00
    0.00000E+00         0.00000E+00         0.00000E+00
 
    0.12084E+05         0.50415E+05         0.00000E+00
    0.50415E+05        -0.32864E+05         0.00000E+00
    0.00000E+00         0.00000E+00         0.00000E+00
 
    0.10254E+05         0.51505E+05         0.00000E+00
    0.51505E+05        -0.31911E+05         0.00000E+00
    0.00000E+00         0.00000E+00         0.00000E+00
 
    0.84118E+04         0.52585E+05         0.00000E+00
    0.52585E+05        -0.30958E+05         0.00000E+00
    0.00000E+00         0.00000E+00         0.00000E+00
 
    0.65588E+04         0.53655E+05         0.00000E+00
    0.53655E+05        -0.30004E+05         0.00000E+00
    0.00000E+00         0.00000E+00         0.00000E+00
 
    0.46957E+04         0.54715E+05         0.00000E+00
    0.54715E+05        -0.29052E+05         0.00000E+00
    0.00000E+00         0.00000E+00         0.00000E+00
 
    0.28234E+04         0.55763E+05         0.00000E+00
    0.55763E+05        -0.28102E+05         0.00000E+00
    0.00000E+00         0.00000E+00         0.00000E+00
 
    0.94249E+03         0.56799E+05         0.00000E+00
    0.56799E+05        -0.27153E+05         0.00000E+00
    0.00000E+00         0.00000E+00         0.00000E+00
 
    0.64586E+05         0.69659E+03         0.00000E+00
    0.69659E+03        -0.65315E+05         0.00000E+00
    0.00000E+00         0.00000E+00         0.00000E+00
 
    0.64373E+05         0.20626E+04         0.00000E+00
    0.20626E+04        -0.65275E+05         0.00000E+00
    0.00000E+00         0.00000E+00         0.00000E+00
 
    0.64095E+05         0.34200E+04         0.00000E+00
    0.34200E+04        -0.65195E+05         0.00000E+00
    0.00000E+00         0.00000E+00         0.00000E+00
 
    0.63755E+05         0.47695E+04         0.00000E+00
    0.47695E+04        -0.65076E+05         0.00000E+00
    0.00000E+00         0.00000E+00         0.00000E+00
 
    0.63352E+05         0.61117E+04         0.00000E+00
    0.61117E+04        -0.64918E+05         0.00000E+00
    0.00000E+00         0.00000E+00         0.00000E+00
 
    0.62889E+05         0.74475E+04         0.00000E+00
    0.74475E+04        -0.64723E+05         0.00000E+00
    0.00000E+00         0.00000E+00         0.00000E+00
 
    0.62367E+05         0.87773E+04         0.00000E+00
    0.87773E+04        -0.64491E+05         0.00000E+00
    0.00000E+00         0.00000E+00         0.00000E+00
 
    0.61786E+05         0.10102E+05         0.00000E+00
    0.10102E+05        -0.64222E+05         0.00000E+00
    0.00000E+00         0.00000E+00         0.00000E+00
 
    0.61148E+05         0.11421E+05         0.00000E+00
    0.11421E+05        -0.63918E+05         0.00000E+00
    0.00000E+00         0.00000E+00         0.00000E+00
 
    0.60453E+05         0.12736E+05         0.00000E+00
    0.12736E+05        -0.63580E+05         0.00000E+00
    0.00000E+00         0.00000E+00         0.00000E+00
 
    0.59704E+05         0.14047E+05         0.00000E+00
    0.14047E+05        -0.63208E+05         0.00000E+00
    0.00000E+00         0.00000E+00         0.00000E+00
 
    0.58902E+05         0.15355E+05         0.00000E+00
    0.15355E+05        -0.62802E+05         0.00000E+00
    0.00000E+00         0.00000E+00         0.00000E+00
 
    0.58047E+05         0.16658E+05         0.00000E+00
    0.16658E+05        -0.62365E+05         0.00000E+00
    0.00000E+00         0.00000E+00         0.00000E+00
 
    0.57141E+05         0.17959E+05         0.00000E+00
    0.17959E+05        -0.61897E+05         0.00000E+00
    0.00000E+00         0.00000E+00         0.00000E+00
 
    0.56186E+05         0.19256E+05         0.00000E+00
    0.19256E+05        -0.61398E+05         0.00000E+00
    0.00000E+00         0.00000E+00         0.00000E+00
 
    0.55182E+05         0.20551E+05         0.00000E+00
    0.20551E+05        -0.60870E+05         0.00000E+00
    0.00000E+00         0.00000E+00         0.00000E+00
 
    0.54131E+05         0.21842E+05         0.00000E+00
    0.21842E+05        -0.60313E+05         0.00000E+00
    0.00000E+00         0.00000E+00         0.00000E+00
 
    0.53035E+05         0.23131E+05         0.00000E+00
    0.23131E+05        -0.59729E+05         0.00000E+00
    0.00000E+00         0.00000E+00         0.00000E+00
 
    0.51894E+05         0.24417E+05         0.00000E+00
    0.24417E+05        -0.59118E+05         0.00000E+00
    0.00000E+00         0.00000E+00         0.00000E+00
 
    0.50709E+05         0.25699E+05         0.00000E+00
    0.25699E+05        -0.58481E+05         0.00000E+00
    0.00000E+00         0.00000E+00         0.00000E+00
 
    0.49483E+05         0.26979E+05         0.00000E+00
    0.26979E+05        -0.57820E+05         0.00000E+00
    0.00000E+00         0.00000E+00         0.00000E+00
 
    0.48216E+05         0.28256E+05         0.00000E+00
    0.28256E+05        -0.57135E+05         0.00000E+00
    0.00000E+00         0.00000E+00         0.00000E+00
 
    0.46910E+05         0.29530E+05         0.00000E+00
    0.29530E+05        -0.56427E+05         0.00000E+00
    0.00000E+00         0.00000E+00         0.00000E+00
 
    0.45566E+05         0.30801E+05         0.00000E+00
    0.30801E+05        -0.55697E+05         0.00000E+00
    0.00000E+00         0.00000E+00         0.00000E+00
 
    0.44185E+05         0.32067E+05         0.00000E+00
    0.32067E+05        -0.54946E+05         0.00000E+00
    0.00000E+00         0.00000E+00         0.00000E+00
 
    0.42768E+05         0.33331E+05         0.00000E+00
    0.33331E+05        -0.54174E+05         0.00000E+00
    0.00000E+00         0.00000E+00         0.00000E+00
 
    0.41316E+05         0.34590E+05         0.00000E+00
    0.34590E+05        -0.53384E+05         0.00000E+00
    0.00000E+00         0.00000E+00         0.00000E+00
 
    0.39832E+05         0.35845E+05         0.00000E+00
    0.35845E+05        -0.52576E+05         0.00000E+00
    0.00000E+00         0.00000E+00         0.00000E+00
 
    0.38315E+05         0.37095E+05         0.00000E+00
    0.37095E+05        -0.51750E+05         0.00000E+00
    0.00000E+00         0.00000E+00         0.00000E+00
 
    0.36768E+05         0.38340E+05         0.00000E+00
    0.38340E+05        -0.50908E+05         0.00000E+00
    0.00000E+00         0.00000E+00         0.00000E+00
 
    0.35191E+05         0.39581E+05         0.00000E+00
    0.39581E+05        -0.50050E+05         0.00000E+00
    0.00000E+00         0.00000E+00         0.00000E+00
 
    0.33585E+05         0.40815E+05         0.00000E+00
    0.40815E+05        -0.49178E+05         0.00000E+00
    0.00000E+00         0.00000E+00         0.00000E+00
 
    0.31952E+05         0.42044E+05         0.00000E+00
    0.42044E+05        -0.48292E+05         0.00000E+00
    0.00000E+00         0.00000E+00         0.00000E+00
 
    0.30292E+05         0.43267E+05         0.00000E+00
    0.43267E+05        -0.47394E+05         0.00000E+00
    0.00000E+00         0.00000E+00         0.00000E+00
 
    0.28607E+05         0.44483E+05         0.00000E+00
    0.44483E+05        -0.46484E+05         0.00000E+00
    0.00000E+00         0.00000E+00         0.00000E+00
 
    0.26898E+05         0.45691E+05         0.00000E+00
    0.45691E+05        -0.45563E+05         0.00000E+00
    0.00000E+00         0.00000E+00         0.00000E+00
 
    0.25166E+05         0.46892E+05         0.00000E+00
    0.46892E+05        -0.44632E+05         0.00000E+00
    0.00000E+00         0.00000E+00         0.00000E+00
 
    0.23412E+05         0.48086E+05         0.00000E+00
    0.48086E+05        -0.43692E+05         0.00000E+00
    0.00000E+00         0.00000E+00         0.00000E+00
 
    0.21637E+05         0.49270E+05         0.00000E+00
    0.49270E+05        -0.42744E+05         0.00000E+00
    0.00000E+00         0.00000E+00         0.00000E+00
 
    0.19841E+05         0.50446E+05         0.00000E+00
    0.50446E+05        -0.41789E+05         0.00000E+00
    0.00000E+00         0.00000E+00         0.00000E+00
 
    0.18027E+05         0.51613E+05         0.00000E+00
    0.51613E+05        -0.40827E+05         0.00000E+00
    0.00000E+00         0.00000E+00         0.00000E+00
 
    0.16194E+05         0.52769E+05         0.00000E+00
    0.52769E+05        -0.39860E+05         0.00000E+00
    0.00000E+00         0.00000E+00         0.00000E+00
 
    0.14344E+05         0.53915E+05         0.00000E+00
    0.53915E+05        -0.38888E+05         0.00000E+00
    0.00000E+00         0.00000E+00         0.00000E+00
 
    0.12477E+05         0.55050E+05         0.00000E+00
    0.55050E+05        -0.37913E+05         0.00000E+00
    0.00000E+00         0.00000E+00         0.00000E+00
 
    0.10595E+05         0.56174E+05         0.00000E+00
    0.56174E+05        -0.36934E+05         0.00000E+00
    0.00000E+00         0.00000E+00         0.00000E+00
 
    0.86977E+04         0.57285E+05         0.00000E+00
    0.57285E+05        -0.35953E+05         0.00000E+00
    0.00000E+00         0.00000E+00         0.00000E+00
 
    0.67867E+04         0.58384E+05         0.00000E+00
    0.58384E+05        -0.34971E+05         0.00000E+00
    0.00000E+00         0.00000E+00         0.00000E+00
 
    0.48625E+04         0.59470E+05         0.00000E+00
    0.59470E+05        -0.33988E+05         0.00000E+00
    0.00000E+00         0.00000E+00         0.00000E+00
 
    0.29257E+04         0.60542E+05         0.00000E+00
    0.60542E+05        -0.33005E+05         0.00000E+00
    0.00000E+00         0.00000E+00         0.00000E+00
 
    0.97716E+03         0.61599E+05         0.00000E+00
    0.61599E+05        -0.32023E+05         0.00000E+00
    0.00000E+00         0.00000E+00         0.00000E+00
 
    0.66547E+05         0.78567E+03         0.00000E+00
    0.78567E+03        -0.70648E+05         0.00000E+00
    0.00000E+00         0.00000E+00         0.00000E+00
 
    0.66283E+05         0.23246E+04         0.00000E+00
    0.23246E+04        -0.70608E+05         0.00000E+00
    0.00000E+00         0.00000E+00         0.00000E+00
 
    0.65958E+05         0.38527E+04         0.00000E+00
    0.38527E+04        -0.70530E+05         0.00000E+00
    0.00000E+00         0.00000E+00         0.00000E+00
 
    0.65574E+05         0.53706E+04         0.00000E+00
    0.53706E+04        -0.70414E+05         0.00000E+00
    0.00000E+00         0.00000E+00         0.00000E+00
 
    0.65131E+05         0.68788E+04         0.00000E+00
    0.68788E+04        -0.70260E+05         0.00000E+00
    0.00000E+00         0.00000E+00         0.00000E+00
 
    0.64631E+05         0.83778E+04         0.00000E+00
    0.83778E+04        -0.70069E+05         0.00000E+00
    0.00000E+00         0.00000E+00         0.00000E+00
 
    0.64073E+05         0.98681E+04         0.00000E+00
    0.98681E+04        -0.69841E+05         0.00000E+00
    0.00000E+00         0.00000E+00         0.00000E+00
 
    0.63460E+05         0.11350E+05         0.00000E+00
    0.11350E+05        -0.69577E+05         0.00000E+00
    0.00000E+00         0.00000E+00         0.00000E+00
 
    0.62791E+05         0.12824E+05         0.00000E+00
    0.12824E+05        -0.69278E+05         0.00000E+00
    0.00000E+00         0.00000E+00         0.00000E+00
 
    0.62068E+05         0.14291E+05         0.00000E+00
    0.14291E+05        -0.68945E+05         0.00000E+00
    0.00000E+00         0.00000E+00         0.00000E+00
 
    0.61293E+05         0.15751E+05         0.00000E+00
    0.15751E+05        -0.68577E+05         0.00000E+00
    0.00000E+00         0.00000E+00         0.00000E+00
 
    0.60465E+05         0.17203E+05         0.00000E+00
    0.17203E+05        -0.68177E+05         0.00000E+00
    0.00000E+00         0.00000E+00         0.00000E+00
 
    0.59586E+05         0.18649E+05         0.00000E+00
    0.18649E+05        -0.67744E+05         0.00000E+00
    0.00000E+00         0.00000E+00         0.00000E+00
 
    0.58657E+05         0.20088E+05         0.00000E+00
    0.20088E+05        -0.67279E+05         0.00000E+00
    0.00000E+00         0.00000E+00         0.00000E+00
 
    0.57679E+05         0.21521E+05         0.00000E+00
    0.21521E+05        -0.66784E+05         0.00000E+00
    0.00000E+00         0.00000E+00         0.00000E+00
 
    0.56653E+05         0.22948E+05         0.00000E+00
    0.22948E+05        -0.66259E+05         0.00000E+00
    0.00000E+00         0.00000E+00         0.00000E+00
 
    0.55580E+05         0.24368E+05         0.00000E+00
    0.24368E+05        -0.65705E+05         0.00000E+00
    0.00000E+00         0.00000E+00         0.00000E+00
 
    0.54462E+05         0.25782E+05         0.00000E+00
    0.25782E+05        -0.65122E+05         0.00000E+00
    0.00000E+00         0.00000E+00         0.00000E+00
 
    0.53300E+05         0.27190E+05         0.00000E+00
    0.27190E+05        -0.64513E+05         0.00000E+00
    0.00000E+00         0.00000E+00         0.00000E+00
 
    0.52094E+05         0.28591E+05         0.00000E+00
    0.28591E+05        -0.63876E+05         0.00000E+00
    0.00000E+00         0.00000E+00         0.00000E+00
 
    0.50845E+05         0.29986E+05         0.00000E+00
    0.29986E+05        -0.63214E+05         0.00000E+00
    0.00000E+00         0.00000E+00         0.00000E+00
 
    0.49556E+05         0.31375E+05         0.00000E+00
    0.31375E+05        -0.62527E+05         0.00000E+00
    0.00000E+00         0.00000E+00         0.00000E+00
 
    0.48226E+05         0.32757E+05         0.00000E+00
    0.32757E+05        -0.61816E+05         0.00000E+00
    0.00000E+00         0.00000E+00         0.00000E+00
 
    0.46857E+05         0.34133E+05         0.00000E+00
    0.34133E+05        -0.61083E+05         0.00000E+00
    0.00000E+00         0.00000E+00         0.00000E+00
 
    0.45451E+05         0.35502E+05         0.00000E+00
    0.35502E+05        -0.60327E+05         0.00000E+00
    0.00000E+00         0.00000E+00         0.00000E+00
 
    0.44008E+05         0.36863E+05         0.00000E+00
    0.36863E+05        -0.59550E+05         0.00000E+00
    0.00000E+00         0.00000E+00         0.00000E+00
 
    0.42529E+05         0.38218E+05         0.00000E+00
    0.38218E+05        -0.58753E+05         0.00000E+00
    0.00000E+00         0.00000E+00         0.00000E+00
 
    0.41016E+05         0.39564E+05         0.00000E+00
    0.39564E+05        -0.57936E+05         0.00000E+00
    0.00000E+00         0.00000E+00         0.00000E+00
 
    0.39469E+05         0.40903E+05         0.00000E+00
    0.40903E+05        -0.57101E+05         0.00000E+00
    0.00000E+00         0.00000E+00         0.00000E+00
 
    0.37890E+05         0.42234E+05         0.00000E+00
    0.42234E+05        -0.56248E+05         0.00000E+00
    0.00000E+00         0.00000E+00         0.00000E+00
 
    0.36279E+05         0.43557E+05         0.00000E+00
    0.43557E+05        -0.55379E+05         0.00000E+00
    0.00000E+00         0.00000E+00         0.00000E+00
 
    0.34638E+05         0.44871E+05         0.00000E+00
    0.44871E+05        -0.54493E+05         0.00000E+00
    0.00000E+00         0.00000E+00         0.00000E+00
 
    0.32968E+05         0.46176E+05         0.00000E+00
    0.46176E+05        -0.53593E+05         0.00000E+00
    0.00000E+00         0.00000E+00         0.00000E+00
 
    0.31270E+05         0.47471E+05         0.00000E+00
    0.47471E+05        -0.52679E+05         0.00000E+00
    0.00000E+00         0.00000E+00         0.00000E+00
 
    0.29544E+05         0.48757E+05         0.00000E+00
    0.48757E+05        -0.51752E+05         0.00000E+00
    0.00000E+00         0.00000E+00         0.00000E+00
 
    0.27792E+05         0.50032E+05         0.00000E+00
    0.50032E+05        -0.50813E+05         0.00000E+00
    0.00000E+00         0.00000E+00         0.00000E+00
 
    0.26015E+05         0.51297E+05         0.00000E+00
    0.51297E+05        -0.49862E+05         0.00000E+00
    0.00000E+00         0.00000E+00         0.00000E+00
 
    0.24214E+05         0.52552E+05         0.00000E+00
    0.52552E+05        -0.48901E+05         0.00000E+00
    0.00000E+00         0.00000E+00         0.00000E+00
 
    0.22389E+05         0.53794E+05         0.00000E+00
    0.53794E+05        -0.47931E+05         0.00000E+00
    0.00000E+00         0.00000E+00         0.00000E+00
 
    0.20542E+05         0.55025E+05         0.00000E+00
    0.55025E+05        -0.46952E+05         0.00000E+00
    0.00000E+00         0.00000E+00         0.00000E+00
 
    0.18673E+05         0.56244E+05         0.00000E+00
    0.56244E+05        -0.45964E+05         0.00000E+00
    0.00000E+00         0.00000E+00         0.00000E+00
 
    0.16783E+05         0.57450E+05         0.00000E+00
    0.57450E+05        -0.44970E+05         0.00000E+00
    0.00000E+00         0.00000E+00         0.00000E+00
 
    0.14874E+05         0.58643E+05         0.00000E+00
    0.58643E+05        -0.43970E+05         0.00000E+00
    0.00000E+00         0.00000E+00         0.00000E+00
 
    0.12945E+05         0.59822E+05         0.00000E+00
    0.59822E+05        -0.42964E+05         0.00000E+00
    0.00000E+00         0.00000E+00         0.00000E+00
 
    0.10998E+05         0.60988E+05         0.00000E+00
    0.60988E+05        -0.41954E+05         0.00000E+00
    0.00000E+00         0.00000E+00         0.00000E+00
 
    0.90340E+04         0.62138E+05         0.00000E+00
    0.62138E+05        -0.40941E+05         0.00000E+00
    0.00000E+00         0.00000E+00         0.00000E+00
 
    0.70531E+04         0.63274E+05         0.00000E+00
    0.63274E+05        -0.39924E+05         0.00000E+00
    0.00000E+00         0.00000E+00         0.00000E+00
 
    0.50561E+04         0.64394E+05         0.00000E+00
    0.64394E+05        -0.38905E+05         0.00000E+00
    0.00000E+00         0.00000E+00         0.00000E+00
 
    0.30439E+04         0.65498E+05         0.00000E+00
    0.65498E+05        -0.37885E+05         0.00000E+00
    0.00000E+00         0.00000E+00         0.00000E+00
 
    0.10170E+04         0.66586E+05         0.00000E+00
    0.66586E+05        -0.36864E+05         0.00000E+00
    0.00000E+00         0.00000E+00         0.00000E+00
 
    0.69175E+05         0.87164E+03         0.00000E+00
    0.87164E+03        -0.76169E+05         0.00000E+00
    0.00000E+00         0.00000E+00         0.00000E+00
 
    0.68851E+05         0.25790E+04         0.00000E+00
    0.25790E+04        -0.76130E+05         0.00000E+00
    0.00000E+00         0.00000E+00         0.00000E+00
 
    0.68469E+05         0.42739E+04         0.00000E+00
    0.42739E+04        -0.76053E+05         0.00000E+00
    0.00000E+00         0.00000E+00         0.00000E+00
 
    0.68031E+05         0.59568E+04         0.00000E+00
    0.59568E+04        -0.75939E+05         0.00000E+00
    0.00000E+00         0.00000E+00         0.00000E+00
 
    0.67537E+05         0.76281E+04         0.00000E+00
    0.76281E+04        -0.75786E+05         0.00000E+00
    0.00000E+00         0.00000E+00         0.00000E+00
 
    0.66988E+05         0.92883E+04         0.00000E+00
    0.92883E+04        -0.75597E+05         0.00000E+00
    0.00000E+00         0.00000E+00         0.00000E+00
 
    0.66383E+05         0.10938E+05         0.00000E+00
    0.10938E+05        -0.75371E+05         0.00000E+00
    0.00000E+00         0.00000E+00         0.00000E+00
 
    0.65725E+05         0.12576E+05         0.00000E+00
    0.12576E+05        -0.75110E+05         0.00000E+00
    0.00000E+00         0.00000E+00         0.00000E+00
 
    0.65012E+05         0.14205E+05         0.00000E+00
    0.14205E+05        -0.74813E+05         0.00000E+00
    0.00000E+00         0.00000E+00         0.00000E+00
 
    0.64248E+05         0.15823E+05         0.00000E+00
    0.15823E+05        -0.74481E+05         0.00000E+00
    0.00000E+00         0.00000E+00         0.00000E+00
 
    0.63431E+05         0.17432E+05         0.00000E+00
    0.17432E+05        -0.74115E+05         0.00000E+00
    0.00000E+00         0.00000E+00         0.00000E+00
 
    0.62564E+05         0.19031E+05         0.00000E+00
    0.19031E+05        -0.73716E+05         0.00000E+00
    0.00000E+00         0.00000E+00         0.00000E+00
 
    0.61646E+05         0.20620E+05         0.00000E+00
    0.20620E+05        -0.73284E+05         0.00000E+00
    0.00000E+00         0.00000E+00         0.00000E+00
 
    0.60679E+05         0.22200E+05         0.00000E+00
    0.22200E+05        -0.72820E+05         0.00000E+00
    0.00000E+00         0.00000E+00         0.00000E+00
 
    0.59664E+05         0.23771E+05         0.00000E+00
    0.23771E+05        -0.72325E+05         0.00000E+00
    0.00000E+00         0.00000E+00         0.00000E+00
 
    0.58601E+05         0.25332E+05         0.00000E+00
    0.25332E+05        -0.71799E+05         0.00000E+00
    0.00000E+00         0.00000E+00         0.00000E+00
 
    0.57492E+05         0.26884E+05         0.00000E+00
    0.26884E+05        -0.71243E+05         0.00000E+00
    0.00000E+00         0.00000E+00         0.00000E+00
 
    0.56337E+05         0.28427E+05         0.00000E+00
    0.28427E+05        -0.70658E+05         0.00000E+00
    0.00000E+00         0.00000E+00         0.00000E+00
 
    0.55137E+05         0.29961E+05         0.00000E+00
    0.29961E+05        -0.70045E+05         0.00000E+00
    0.00000E+00         0.00000E+00         0.00000E+00
 
    0.53894E+05         0.31486E+05         0.00000E+00
    0.31486E+05        -0.69405E+05         0.00000E+00
    0.00000E+00         0.00000E+00         0.00000E+00
 
    0.52608E+05         0.33000E+05         0.00000E+00
    0.33000E+05        -0.68738E+05         0.00000E+00
    0.00000E+00         0.00000E+00         0.00000E+00
 
    0.51281E+05         0.34506E+05         0.00000E+00
    0.34506E+05        -0.68045E+05         0.00000E+00
    0.00000E+00         0.00000E+00         0.00000E+00
 
    0.49912E+05         0.36002E+05         0.00000E+00
    0.36002E+05        -0.67327E+05         0.00000E+00
    0.00000E+00         0.00000E+00         0.00000E+00
 
    0.48504E+05         0.37488E+05         0.00000E+00
    0.37488E+05        -0.66585E+05         0.00000E+00
    0.00000E+00         0.00000E+00         0.00000E+00
 
    0.47057E+05         0.38964E+05         0.00000E+00
    0.38964E+05        -0.65820E+05         0.00000E+00
    0.00000E+00         0.00000E+00         0.00000E+00
 
    0.45573E+05         0.40430E+05         0.00000E+00
    0.40430E+05        -0.65033E+05         0.00000E+00
    0.00000E+00         0.00000E+00         0.00000E+00
 
    0.44051E+05         0.41885E+05         0.00000E+00
    0.41885E+05        -0.64224E+05         0.00000E+00
    0.00000E+00         0.00000E+00         0.00000E+00
 
    0.42494E+05         0.43330E+05         0.00000E+00
    0.43330E+05        -0.63394E+05         0.00000E+00
    0.00000E+00         0.00000E+00         0.00000E+00
 
    0.40902E+05         0.44764E+05         0.00000E+00
    0.44764E+05        -0.62545E+05         0.00000E+00
    0.00000E+00         0.00000E+00         0.00000E+00
 
    0.39277E+05         0.46187E+05         0.00000E+00
    0.46187E+05        -0.61677E+05         0.00000E+00
    0.00000E+00         0.00000E+00         0.00000E+00
 
    0.37618E+05         0.47598E+05         0.00000E+00
    0.47598E+05        -0.60791E+05         0.00000E+00
    0.00000E+00         0.00000E+00         0.00000E+00
 
    0.35927E+05         0.48998E+05         0.00000E+00
    0.48998E+05        -0.59888E+05         0.00000E+00
    0.00000E+00         0.00000E+00         0.00000E+00
 
    0.34206E+05         0.50386E+05         0.00000E+00
    0.50386E+05        -0.58968E+05         0.00000E+00
    0.00000E+00         0.00000E+00         0.00000E+00
 
    0.32454E+05         0.51761E+05         0.00000E+00
    0.51761E+05        -0.58034E+05         0.00000E+00
    0.00000E+00         0.00000E+00         0.00000E+00
 
    0.30674E+05         0.53124E+05         0.00000E+00
    0.53124E+05        -0.57084E+05         0.00000E+00
    0.00000E+00         0.00000E+00         0.00000E+00
 
    0.28865E+05         0.54473E+05         0.00000E+00
    0.54473E+05        -0.56122E+05         0.00000E+00
    0.00000E+00         0.00000E+00         0.00000E+00
 
    0.27029E+05         0.55810E+05         0.00000E+00
    0.55810E+05        -0.55146E+05         0.00000E+00
    0.00000E+00         0.00000E+00         0.00000E+00
 
    0.25166E+05         0.57132E+05         0.00000E+00
    0.57132E+05        -0.54159E+05         0.00000E+00
    0.00000E+00         0.00000E+00         0.00000E+00
 
    0.23278E+05         0.58440E+05         0.00000E+00
    0.58440E+05        -0.53160E+05         0.00000E+00
    0.00000E+00         0.00000E+00         0.00000E+00
 
    0.21366E+05         0.59734E+05         0.00000E+00
    0.59734E+05        -0.52152E+05         0.00000E+00
    0.00000E+00         0.00000E+00         0.00000E+00
 
    0.19429E+05         0.61013E+05         0.00000E+00
    0.61013E+05        -0.51134E+05         0.00000E+00
    0.00000E+00         0.00000E+00         0.00000E+00
 
    0.17470E+05         0.62277E+05         0.00000E+00
    0.62277E+05        -0.50107E+05         0.00000E+00
    0.00000E+00         0.00000E+00         0.00000E+00
 
    0.15489E+05         0.63524E+05         0.00000E+00
    0.63524E+05        -0.49073E+05         0.00000E+00
    0.00000E+00         0.00000E+00         0.00000E+00
 
    0.13486E+05         0.64756E+05         0.00000E+00
    0.64756E+05        -0.48033E+05         0.00000E+00
    0.00000E+00         0.00000E+00         0.00000E+00
 
    0.11462E+05         0.65971E+05         0.00000E+00
    0.65971E+05        -0.46986E+05         0.00000E+00
    0.00000E+00         0.00000E+00         0.00000E+00
 
    0.94191E+04         0.67169E+05         0.00000E+00
    0.67169E+05        -0.45934E+05         0.00000E+00
    0.00000E+00         0.00000E+00         0.00000E+00
 
    0.73567E+04         0.68350E+05         0.00000E+00
    0.68350E+05        -0.44877E+05         0.00000E+00
    0.00000E+00         0.00000E+00         0.00000E+00
 
    0.52760E+04         0.69513E+05         0.00000E+00
    0.69513E+05        -0.43817E+05         0.00000E+00
    0.00000E+00         0.00000E+00         0.00000E+00
 
    0.31775E+04         0.70658E+05         0.00000E+00
    0.70658E+05        -0.42754E+05         0.00000E+00
    0.00000E+00         0.00000E+00         0.00000E+00
 
    0.10620E+04         0.71784E+05         0.00000E+00
    0.71784E+05        -0.41690E+05         0.00000E+00
    0.00000E+00         0.00000E+00         0.00000E+00
 
    0.72411E+05         0.95570E+03         0.00000E+00
    0.95570E+03        -0.81920E+05         0.00000E+00
    0.00000E+00         0.00000E+00         0.00000E+00
 
    0.72021E+05         0.28288E+04         0.00000E+00
    0.28288E+04        -0.81881E+05         0.00000E+00
    0.00000E+00         0.00000E+00         0.00000E+00
 
    0.71576E+05         0.46883E+04         0.00000E+00
    0.46883E+04        -0.81804E+05         0.00000E+00
    0.00000E+00         0.00000E+00         0.00000E+00
 
    0.71076E+05         0.65346E+04         0.00000E+00
    0.65346E+04        -0.81690E+05         0.00000E+00
    0.00000E+00         0.00000E+00         0.00000E+00
 
    0.70522E+05         0.83678E+04         0.00000E+00
    0.83678E+04        -0.81538E+05         0.00000E+00
    0.00000E+00         0.00000E+00         0.00000E+00
 
    0.69914E+05         0.10188E+05         0.00000E+00
    0.10188E+05        -0.81348E+05         0.00000E+00
    0.00000E+00         0.00000E+00         0.00000E+00
 
    0.69253E+05         0.11996E+05         0.00000E+00
    0.11996E+05        -0.81122E+05         0.00000E+00
    0.00000E+00         0.00000E+00         0.00000E+00
 
    0.68539E+05         0.13792E+05         0.00000E+00
    0.13792E+05        -0.80860E+05         0.00000E+00
    0.00000E+00         0.00000E+00         0.00000E+00
 
    0.67773E+05         0.15575E+05         0.00000E+00
    0.15575E+05        -0.80562E+05         0.00000E+00
    0.00000E+00         0.00000E+00         0.00000E+00
 
    0.66955E+05         0.17346E+05         0.00000E+00
    0.17346E+05        -0.80229E+05         0.00000E+00
    0.00000E+00         0.00000E+00         0.00000E+00
 
    0.66086E+05         0.19105E+05         0.00000E+00
    0.19105E+05        -0.79861E+05         0.00000E+00
    0.00000E+00         0.00000E+00         0.00000E+00
 
    0.65167E+05         0.20852E+05         0.00000E+00
    0.20852E+05        -0.79460E+05         0.00000E+00
    0.00000E+00         0.00000E+00         0.00000E+00
 
    0.64198E+05         0.22587E+05         0.00000E+00
    0.22587E+05        -0.79025E+05         0.00000E+00
    0.00000E+00         0.00000E+00         0.00000E+00
 
    0.63181E+05         0.24311E+05         0.00000E+00
    0.24311E+05        -0.78557E+05         0.00000E+00
    0.00000E+00         0.00000E+00         0.00000E+00
 
    0.62115E+05         0.26022E+05         0.00000E+00
    0.26022E+05        -0.78057E+05         0.00000E+00
    0.00000E+00         0.00000E+00         0.00000E+00
 
    0.61002E+05         0.27722E+05         0.00000E+00
    0.27722E+05        -0.77526E+05         0.00000E+00
    0.00000E+00         0.00000E+00         0.00000E+00
 
    0.59843E+05         0.29410E+05         0.00000E+00
    0.29410E+05        -0.76964E+05         0.00000E+00
    0.00000E+00         0.00000E+00         0.00000E+00
 
    0.58637E+05         0.31086E+05         0.00000E+00
    0.31086E+05        -0.76372E+05         0.00000E+00
    0.00000E+00         0.00000E+00         0.00000E+00
 
    0.57387E+05         0.32750E+05         0.00000E+00
    0.32750E+05        -0.75751E+05         0.00000E+00
    0.00000E+00         0.00000E+00         0.00000E+00
 
    0.56093E+05         0.34401E+05         0.00000E+00
    0.34401E+05        -0.75102E+05         0.00000E+00
    0.00000E+00         0.00000E+00         0.00000E+00
 
    0.54756E+05         0.36041E+05         0.00000E+00
    0.36041E+05        -0.74425E+05         0.00000E+00
    0.00000E+00         0.00000E+00         0.00000E+00
 
    0.53376E+05         0.37668E+05         0.00000E+00
    0.37668E+05        -0.73721E+05         0.00000E+00
    0.00000E+00         0.00000E+00         0.00000E+00
 
    0.51955E+05         0.39283E+05         0.00000E+00
    0.39283E+05        -0.72991E+05         0.00000E+00
    0.00000E+00         0.00000E+00         0.00000E+00
 
    0.50493E+05         0.40885E+05         0.00000E+00
    0.40885E+05        -0.72236E+05         0.00000E+00
    0.00000E+00         0.00000E+00         0.00000E+00
 
    0.48992E+05         0.42474E+05         0.00000E+00
    0.42474E+05        -0.71457E+05         0.00000E+00
    0.00000E+00         0.00000E+00         0.00000E+00
 
    0.47452E+05         0.44050E+05         0.00000E+00
    0.44050E+05        -0.70654E+05         0.00000E+00
    0.00000E+00         0.00000E+00         0.00000E+00
 
    0.45874E+05         0.45613E+05         0.00000E+00
    0.45613E+05        -0.69828E+05         0.00000E+00
    0.00000E+00         0.00000E+00         0.00000E+00
 
    0.44259E+05         0.47163E+05         0.00000E+00
    0.47163E+05        -0.68980E+05         0.00000E+00
    0.00000E+00         0.00000E+00         0.00000E+00
 
    0.42607E+05         0.48698E+05         0.00000E+00
    0.48698E+05        -0.68112E+05         0.00000E+00
    0.00000E+00         0.00000E+00         0.00000E+00
 
    0.40921E+05         0.50220E+05         0.00000E+00
    0.50220E+05        -0.67223E+05         0.00000E+00
    0.00000E+00         0.00000E+00         0.00000E+00
 
    0.39200E+05         0.51727E+05         0.00000E+00
    0.51727E+05        -0.66315E+05         0.00000E+00
    0.00000E+00         0.00000E+00         0.00000E+00
 
    0.37446E+05         0.53220E+05         0.00000E+00
    0.53220E+05        -0.65388E+05         0.00000E+00
    0.00000E+00         0.00000E+00         0.00000E+00
 
    0.35659E+05         0.54698E+05         0.00000E+00
    0.54698E+05        -0.64444E+05         0.00000E+00
    0.00000E+00         0.00000E+00         0.00000E+00
 
    0.33840E+05         0.56160E+05         0.00000E+00
    0.56160E+05        -0.63482E+05         0.00000E+00
    0.00000E+00         0.00000E+00         0.00000E+00
 
    0.31991E+05         0.57607E+05         0.00000E+00
    0.57607E+05        -0.62506E+05         0.00000E+00
    0.00000E+00         0.00000E+00         0.00000E+00
 
    0.30112E+05         0.59038E+05         0.00000E+00
    0.59038E+05        -0.61514E+05         0.00000E+00
    0.00000E+00         0.00000E+00         0.00000E+00
 
    0.28203E+05         0.60453E+05         0.00000E+00
    0.60453E+05        -0.60507E+05         0.00000E+00
    0.00000E+00         0.00000E+00         0.00000E+00
 
    0.26267E+05         0.61852E+05         0.00000E+00
    0.61852E+05        -0.59488E+05         0.00000E+00
    0.00000E+00         0.00000E+00         0.00000E+00
 
    0.24303E+05         0.63234E+05         0.00000E+00
    0.63234E+05        -0.58456E+05         0.00000E+00
    0.00000E+00         0.00000E+00         0.00000E+00
 
    0.22312E+05         0.64598E+05         0.00000E+00
    0.64598E+05        -0.57412E+05         0.00000E+00
    0.00000E+00         0.00000E+00         0.00000E+00
 
    0.20295E+05         0.65945E+05         0.00000E+00
    0.65945E+05        -0.56358E+05         0.00000E+00
    0.00000E+00         0.00000E+00         0.00000E+00
 
    0.18254E+05         0.67274E+05         0.00000E+00
    0.67274E+05        -0.55294E+05         0.00000E+00
    0.00000E+00         0.00000E+00         0.00000E+00
 
    0.16188E+05         0.68585E+05         0.00000E+00
    0.68585E+05        -0.54221E+05         0.00000E+00
    0.00000E+00         0.00000E+00         0.00000E+00
 
    0.14099E+05         0.69877E+05         0.00000E+00
    0.69877E+05        -0.53139E+05         0.00000E+00
    0.00000E+00         0.00000E+00         0.00000E+00
 
    0.11987E+05         0.71150E+05         0.00000E+00
    0.71150E+05        -0.52050E+05         0.00000E+00
    0.00000E+00         0.00000E+00         0.00000E+00
 
    0.98530E+04         0.72404E+05         0.00000E+00
    0.72404E+05        -0.50954E+05         0.00000E+00
    0.00000E+00         0.00000E+00         0.00000E+00
 
    0.76978E+04         0.73638E+05         0.00000E+00
    0.73638E+05        -0.49853E+05         0.00000E+00
    0.00000E+00         0.00000E+00         0.00000E+00
 
    0.55222E+04         0.74852E+05         0.00000E+00
    0.74852E+05        -0.48746E+05         0.00000E+00
    0.00000E+00         0.00000E+00         0.00000E+00
 
    0.33267E+04         0.76045E+05         0.00000E+00
    0.76045E+05        -0.47635E+05         0.00000E+00
    0.00000E+00         0.00000E+00         0.00000E+00
 
    0.11120E+04         0.77218E+05         0.00000E+00
    0.77218E+05        -0.46521E+05         0.00000E+00
    0.00000E+00         0.00000E+00         0.00000E+00
 
    0.76207E+05         0.10390E+04         0.00000E+00
    0.10390E+04        -0.87938E+05         0.00000E+00
    0.00000E+00         0.00000E+00         0.00000E+00
 
    0.75747E+05         0.30772E+04         0.00000E+00
    0.30772E+04        -0.87899E+05         0.00000E+00
    0.00000E+00         0.00000E+00         0.00000E+00
 
    0.75234E+05         0.51010E+04         0.00000E+00
    0.51010E+04        -0.87822E+05         0.00000E+00
    0.00000E+00         0.00000E+00         0.00000E+00
 
    0.74667E+05         0.71106E+04         0.00000E+00
    0.71106E+04        -0.87706E+05         0.00000E+00
    0.00000E+00         0.00000E+00         0.00000E+00
 
    0.74046E+05         0.91061E+04         0.00000E+00
    0.91061E+04        -0.87552E+05         0.00000E+00
    0.00000E+00         0.00000E+00         0.00000E+00
 
    0.73373E+05         0.11088E+05         0.00000E+00
    0.11088E+05        -0.87361E+05         0.00000E+00
    0.00000E+00         0.00000E+00         0.00000E+00
 
    0.72648E+05         0.13055E+05         0.00000E+00
    0.13055E+05        -0.87132E+05         0.00000E+00
    0.00000E+00         0.00000E+00         0.00000E+00
 
    0.71870E+05         0.15009E+05         0.00000E+00
    0.15009E+05        -0.86866E+05         0.00000E+00
    0.00000E+00         0.00000E+00         0.00000E+00
 
    0.71040E+05         0.16948E+05         0.00000E+00
    0.16948E+05        -0.86564E+05         0.00000E+00
    0.00000E+00         0.00000E+00         0.00000E+00
 
    0.70160E+05         0.18874E+05         0.00000E+00
    0.18874E+05        -0.86226E+05         0.00000E+00
    0.00000E+00         0.00000E+00         0.00000E+00
 
    0.69229E+05         0.20786E+05         0.00000E+00
    0.20786E+05        -0.85853E+05         0.00000E+00
    0.00000E+00         0.00000E+00         0.00000E+00
 
    0.68248E+05         0.22684E+05         0.00000E+00
    0.22684E+05        -0.85445E+05         0.00000E+00
    0.00000E+00         0.00000E+00         0.00000E+00
 
    0.67218E+05         0.24568E+05         0.00000E+00
    0.24568E+05        -0.85003E+05         0.00000E+00
    0.00000E+00         0.00000E+00         0.00000E+00
 
    0.66138E+05         0.26438E+05         0.00000E+00
    0.26438E+05        -0.84528E+05         0.00000E+00
    0.00000E+00         0.00000E+00         0.00000E+00
 
    0.65011E+05         0.28294E+05         0.00000E+00
    0.28294E+05        -0.84019E+05         0.00000E+00
    0.00000E+00         0.00000E+00         0.00000E+00
 
    0.63836E+05         0.30136E+05         0.00000E+00
    0.30136E+05        -0.83478E+05         0.00000E+00
    0.00000E+00         0.00000E+00         0.00000E+00
 
    0.62615E+05         0.31964E+05         0.00000E+00
    0.31964E+05        -0.82905E+05         0.00000E+00
    0.00000E+00         0.00000E+00         0.00000E+00
 
    0.61347E+05         0.33777E+05         0.00000E+00
    0.33777E+05        -0.82302E+05         0.00000E+00
    0.00000E+00         0.00000E+00         0.00000E+00
 
    0.60034E+05         0.35576E+05         0.00000E+00
    0.35576E+05        -0.81668E+05         0.00000E+00
    0.00000E+00         0.00000E+00         0.00000E+00
 
    0.58676E+05         0.37360E+05         0.00000E+00
    0.37360E+05        -0.81005E+05         0.00000E+00
    0.00000E+00         0.00000E+00         0.00000E+00
 
    0.57275E+05         0.39130E+05         0.00000E+00
    0.39130E+05        -0.80313E+05         0.00000E+00
    0.00000E+00         0.00000E+00         0.00000E+00
 
    0.55830E+05         0.40884E+05         0.00000E+00
    0.40884E+05        -0.79593E+05         0.00000E+00
    0.00000E+00         0.00000E+00         0.00000E+00
 
    0.54343E+05         0.42624E+05         0.00000E+00
    0.42624E+05        -0.78845E+05         0.00000E+00
    0.00000E+00         0.00000E+00         0.00000E+00
 
    0.52815E+05         0.44348E+05         0.00000E+00
    0.44348E+05        -0.78071E+05         0.00000E+00
    0.00000E+00         0.00000E+00         0.00000E+00
 
    0.51246E+05         0.46056E+05         0.00000E+00
    0.46056E+05        -0.77272E+05         0.00000E+00
    0.00000E+00         0.00000E+00         0.00000E+00
 
    0.49637E+05         0.47749E+05         0.00000E+00
    0.47749E+05        -0.76448E+05         0.00000E+00
    0.00000E+00         0.00000E+00         0.00000E+00
 
    0.47988E+05         0.49426E+05         0.00000E+00
    0.49426E+05        -0.75599E+05         0.00000E+00
    0.00000E+00         0.00000E+00         0.00000E+00
 
    0.46302E+05         0.51087E+05         0.00000E+00
    0.51087E+05        -0.74728E+05         0.00000E+00
    0.00000E+00         0.00000E+00         0.00000E+00
 
    0.44578E+05         0.52731E+05         0.00000E+00
    0.52731E+05        -0.73834E+05         0.00000E+00
    0.00000E+00         0.00000E+00         0.00000E+00
 
    0.42818E+05         0.54358E+05         0.00000E+00
    0.54358E+05        -0.72918E+05         0.00000E+00
    0.00000E+00         0.00000E+00         0.00000E+00
 
    0.41022E+05         0.55968E+05         0.00000E+00
    0.55968E+05        -0.71982E+05         0.00000E+00
    0.00000E+00         0.00000E+00         0.00000E+00
 
    0.39190E+05         0.57561E+05         0.00000E+00
    0.57561E+05        -0.71026E+05         0.00000E+00
    0.00000E+00         0.00000E+00         0.00000E+00
 
    0.37325E+05         0.59136E+05         0.00000E+00
    0.59136E+05        -0.70050E+05         0.00000E+00
    0.00000E+00         0.00000E+00         0.00000E+00
 
    0.35426E+05         0.60694E+05         0.00000E+00
    0.60694E+05        -0.69057E+05         0.00000E+00
    0.00000E+00         0.00000E+00         0.00000E+00
 
    0.33495E+05         0.62233E+05         0.00000E+00
    0.62233E+05        -0.68046E+05         0.00000E+00
    0.00000E+00         0.00000E+00         0.00000E+00
 
    0.31532E+05         0.63753E+05         0.00000E+00
    0.63753E+05        -0.67019E+05         0.00000E+00
    0.00000E+00         0.00000E+00         0.00000E+00
 
    0.29539E+05         0.65255E+05         0.00000E+00
    0.65255E+05        -0.65977E+05         0.00000E+00
    0.00000E+00         0.00000E+00         0.00000E+00
 
    0.27515E+05         0.66737E+05         0.00000E+00
    0.66737E+05        -0.64919E+05         0.00000E+00
    0.00000E+00         0.00000E+00         0.00000E+00
 
    0.25462E+05         0.68200E+05         0.00000E+00
    0.68200E+05        -0.63848E+05         0.00000E+00
    0.00000E+00         0.00000E+00         0.00000E+00
 
    0.23380E+05         0.69644E+05         0.00000E+00
    0.69644E+05        -0.62763E+05         0.00000E+00
    0.00000E+00         0.00000E+00         0.00000E+00
 
    0.21271E+05         0.71067E+05         0.00000E+00
    0.71067E+05        -0.61667E+05         0.00000E+00
    0.00000E+00         0.00000E+00         0.00000E+00
 
    0.19135E+05         0.72469E+05         0.00000E+00
    0.72469E+05        -0.60559E+05         0.00000E+00
    0.00000E+00         0.00000E+00         0.00000E+00
 
    0.16973E+05         0.73851E+05         0.00000E+00
    0.73851E+05        -0.59440E+05         0.00000E+00
    0.00000E+00         0.00000E+00         0.00000E+00
 
    0.14785E+05         0.75212E+05         0.00000E+00
    0.75212E+05        -0.58312E+05         0.00000E+00
    0.00000E+00         0.00000E+00         0.00000E+00
 
    0.12573E+05         0.76551E+05         0.00000E+00
    0.76551E+05        -0.57175E+05         0.00000E+00
    0.00000E+00         0.00000E+00         0.00000E+00
 
    0.10337E+05         0.77869E+05         0.00000E+00
    0.77869E+05        -0.56030E+05         0.00000E+00
    0.00000E+00         0.00000E+00         0.00000E+00
 
    0.80773E+04         0.79164E+05         0.00000E+00
    0.79164E+05        -0.54878E+05         0.00000E+00
    0.00000E+00         0.00000E+00         0.00000E+00
 
    0.57955E+04         0.80437E+05         0.00000E+00
    0.80437E+05        -0.53719E+05         0.00000E+00
    0.00000E+00         0.00000E+00         0.00000E+00
 
    0.34920E+04         0.81687E+05         0.00000E+00
    0.81687E+05        -0.52555E+05         0.00000E+00
    0.00000E+00         0.00000E+00         0.00000E+00
 
    0.11675E+04         0.82914E+05         0.00000E+00
    0.82914E+05        -0.51386E+05         0.00000E+00
    0.00000E+00         0.00000E+00         0.00000E+00
 
    0.80528E+05         0.11227E+04         0.00000E+00
    0.11227E+04        -0.94261E+05         0.00000E+00
    0.00000E+00         0.00000E+00         0.00000E+00
 
    0.79995E+05         0.33271E+04         0.00000E+00
    0.33271E+04        -0.94222E+05         0.00000E+00
    0.00000E+00         0.00000E+00         0.00000E+00
 
    0.79410E+05         0.55168E+04         0.00000E+00
    0.55168E+04        -0.94142E+05         0.00000E+00
    0.00000E+00         0.00000E+00         0.00000E+00
 
    0.78771E+05         0.76914E+04         0.00000E+00
    0.76914E+04        -0.94024E+05         0.00000E+00
    0.00000E+00         0.00000E+00         0.00000E+00
 
    0.78079E+05         0.98511E+04         0.00000E+00
    0.98511E+04        -0.93867E+05         0.00000E+00
    0.00000E+00         0.00000E+00         0.00000E+00
 
    0.77335E+05         0.11996E+05         0.00000E+00
    0.11996E+05        -0.93671E+05         0.00000E+00
    0.00000E+00         0.00000E+00         0.00000E+00
 
    0.76538E+05         0.14125E+05         0.00000E+00
    0.14125E+05        -0.93437E+05         0.00000E+00
    0.00000E+00         0.00000E+00         0.00000E+00
 
    0.75690E+05         0.16240E+05         0.00000E+00
    0.16240E+05        -0.93166E+05         0.00000E+00
    0.00000E+00         0.00000E+00         0.00000E+00
 
    0.74790E+05         0.18339E+05         0.00000E+00
    0.18339E+05        -0.92857E+05         0.00000E+00
    0.00000E+00         0.00000E+00         0.00000E+00
 
    0.73839E+05         0.20422E+05         0.00000E+00
    0.20422E+05        -0.92511E+05         0.00000E+00
    0.00000E+00         0.00000E+00         0.00000E+00
 
    0.72837E+05         0.22490E+05         0.00000E+00
    0.22490E+05        -0.92129E+05         0.00000E+00
    0.00000E+00         0.00000E+00         0.00000E+00
 
    0.71786E+05         0.24543E+05         0.00000E+00
    0.24543E+05        -0.91711E+05         0.00000E+00
    0.00000E+00         0.00000E+00         0.00000E+00
 
    0.70684E+05         0.26580E+05         0.00000E+00
    0.26580E+05        -0.91258E+05         0.00000E+00
    0.00000E+00         0.00000E+00         0.00000E+00
 
    0.69534E+05         0.28601E+05         0.00000E+00
    0.28601E+05        -0.90770E+05         0.00000E+00
    0.00000E+00         0.00000E+00         0.00000E+00
 
    0.68335E+05         0.30606E+05         0.00000E+00
    0.30606E+05        -0.90248E+05         0.00000E+00
    0.00000E+00         0.00000E+00         0.00000E+00
 
    0.67088E+05         0.32595E+05         0.00000E+00
    0.32595E+05        -0.89693E+05         0.00000E+00
    0.00000E+00         0.00000E+00         0.00000E+00
 
    0.65793E+05         0.34567E+05         0.00000E+00
    0.34567E+05        -0.89105E+05         0.00000E+00
    0.00000E+00         0.00000E+00         0.00000E+00
 
    0.64452E+05         0.36523E+05         0.00000E+00
    0.36523E+05        -0.88484E+05         0.00000E+00
    0.00000E+00         0.00000E+00         0.00000E+00
 
    0.63065E+05         0.38462E+05         0.00000E+00
    0.38462E+05        -0.87833E+05         0.00000E+00
    0.00000E+00         0.00000E+00         0.00000E+00
 
    0.61632E+05         0.40385E+05         0.00000E+00
    0.40385E+05        -0.87150E+05         0.00000E+00
    0.00000E+00         0.00000E+00         0.00000E+00
 
    0.60155E+05         0.42290E+05         0.00000E+00
    0.42290E+05        -0.86437E+05         0.00000E+00
    0.00000E+00         0.00000E+00         0.00000E+00
 
    0.58634E+05         0.44178E+05         0.00000E+00
    0.44178E+05        -0.85696E+05         0.00000E+00
    0.00000E+00         0.00000E+00         0.00000E+00
 
    0.57069E+05         0.46048E+05         0.00000E+00
    0.46048E+05        -0.84925E+05         0.00000E+00
    0.00000E+00         0.00000E+00         0.00000E+00
 
    0.55462E+05         0.47900E+05         0.00000E+00
    0.47900E+05        -0.84127E+05         0.00000E+00
    0.00000E+00         0.00000E+00         0.00000E+00
 
    0.53813E+05         0.49735E+05         0.00000E+00
    0.49735E+05        -0.83302E+05         0.00000E+00
    0.00000E+00         0.00000E+00         0.00000E+00
 
    0.52122E+05         0.51551E+05         0.00000E+00
    0.51551E+05        -0.82450E+05         0.00000E+00
    0.00000E+00         0.00000E+00         0.00000E+00
 
    0.50392E+05         0.53349E+05         0.00000E+00
    0.53349E+05        -0.81573E+05         0.00000E+00
    0.00000E+00         0.00000E+00         0.00000E+00
 
    0.48622E+05         0.55127E+05         0.00000E+00
    0.55127E+05        -0.80672E+05         0.00000E+00
    0.00000E+00         0.00000E+00         0.00000E+00
 
    0.46812E+05         0.56887E+05         0.00000E+00
    0.56887E+05        -0.79747E+05         0.00000E+00
    0.00000E+00         0.00000E+00         0.00000E+00
 
    0.44965E+05         0.58627E+05         0.00000E+00
    0.58627E+05        -0.78798E+05         0.00000E+00
    0.00000E+00         0.00000E+00         0.00000E+00
 
    0.43081E+05         0.60348E+05         0.00000E+00
    0.60348E+05        -0.77828E+05         0.00000E+00
    0.00000E+00         0.00000E+00         0.00000E+00
 
    0.41160E+05         0.62049E+05         0.00000E+00
    0.62049E+05        -0.76836E+05         0.00000E+00
    0.00000E+00         0.00000E+00         0.00000E+00
 
    0.39203E+05         0.63729E+05         0.00000E+00
    0.63729E+05        -0.75824E+05         0.00000E+00
    0.00000E+00         0.00000E+00         0.00000E+00
 
    0.37212E+05         0.65389E+05         0.00000E+00
    0.65389E+05        -0.74792E+05         0.00000E+00
    0.00000E+00         0.00000E+00         0.00000E+00
 
    0.35186E+05         0.67028E+05         0.00000E+00
    0.67028E+05        -0.73741E+05         0.00000E+00
    0.00000E+00         0.00000E+00         0.00000E+00
 
    0.33127E+05         0.68645E+05         0.00000E+00
    0.68645E+05        -0.72673E+05         0.00000E+00
    0.00000E+00         0.00000E+00         0.00000E+00
 
    0.31035E+05         0.70242E+05         0.00000E+00
    0.70242E+05        -0.71587E+05         0.00000E+00
    0.00000E+00         0.00000E+00         0.00000E+00
 
    0.28912E+05         0.71816E+05         0.00000E+00
    0.71816E+05        -0.70486E+05         0.00000E+00
    0.00000E+00         0.00000E+00         0.00000E+00
 
    0.26757E+05         0.73369E+05         0.00000E+00
    0.73369E+05        -0.69369E+05         0.00000E+00
    0.00000E+00         0.00000E+00         0.00000E+00
 
    0.24572E+05         0.74899E+05         0.00000E+00
    0.74899E+05        -0.68237E+05         0.00000E+00
    0.00000E+00         0.00000E+00         0.00000E+00
 
    0.22358E+05         0.76406E+05         0.00000E+00
    0.76406E+05        -0.67092E+05         0.00000E+00
    0.00000E+00         0.00000E+00         0.00000E+00
 
    0.20115E+05         0.77890E+05         0.00000E+00
    0.77890E+05        -0.65934E+05         0.00000E+00
    0.00000E+00         0.00000E+00         0.00000E+00
 
    0.17844E+05         0.79351E+05         0.00000E+00
    0.79351E+05        -0.64765E+05         0.00000E+00
    0.00000E+00         0.00000E+00         0.00000E+00
 
    0.15546E+05         0.80788E+05         0.00000E+00
    0.80788E+05        -0.63584E+05         0.00000E+00
    0.00000E+00         0.00000E+00         0.00000E+00
 
    0.13222E+05         0.82202E+05         0.00000E+00
    0.82202E+05        -0.62393E+05         0.00000E+00
    0.00000E+00         0.00000E+00         0.00000E+00
 
    0.10872E+05         0.83591E+05         0.00000E+00
    0.83591E+05        -0.61193E+05         0.00000E+00
    0.00000E+00         0.00000E+00         0.00000E+00
 
    0.84964E+04         0.84956E+05         0.00000E+00
    0.84956E+05        -0.59984E+05         0.00000E+00
    0.00000E+00         0.00000E+00         0.00000E+00
 
    0.60970E+04         0.86296E+05         0.00000E+00
    0.86296E+05        -0.58767E+05         0.00000E+00
    0.00000E+00         0.00000E+00         0.00000E+00
 
    0.36741E+04         0.87611E+05         0.00000E+00
    0.87611E+05        -0.57544E+05         0.00000E+00
    0.00000E+00         0.00000E+00         0.00000E+00
 
    0.12285E+04         0.88900E+05         0.00000E+00
    0.88900E+05        -0.56315E+05         0.00000E+00
    0.00000E+00         0.00000E+00         0.00000E+00
 
    0.85347E+05         0.12077E+04         0.00000E+00
    0.12077E+04        -0.10093E+06         0.00000E+00
    0.00000E+00         0.00000E+00         0.00000E+00
 
    0.84740E+05         0.35816E+04         0.00000E+00
    0.35816E+04        -0.10088E+06         0.00000E+00
    0.00000E+00         0.00000E+00         0.00000E+00
 
    0.84079E+05         0.59401E+04         0.00000E+00
    0.59401E+04        -0.10080E+06         0.00000E+00
    0.00000E+00         0.00000E+00         0.00000E+00
 
    0.83365E+05         0.82832E+04         0.00000E+00
    0.82832E+04        -0.10068E+06         0.00000E+00
    0.00000E+00         0.00000E+00         0.00000E+00
 
    0.82598E+05         0.10611E+05         0.00000E+00
    0.10611E+05        -0.10052E+06         0.00000E+00
    0.00000E+00         0.00000E+00         0.00000E+00
 
    0.81778E+05         0.12922E+05         0.00000E+00
    0.12922E+05        -0.10032E+06         0.00000E+00
    0.00000E+00         0.00000E+00         0.00000E+00
 
    0.80905E+05         0.15217E+05         0.00000E+00
    0.15217E+05        -0.10008E+06         0.00000E+00
    0.00000E+00         0.00000E+00         0.00000E+00
 
    0.79980E+05         0.17497E+05         0.00000E+00
    0.17497E+05        -0.99796E+05         0.00000E+00
    0.00000E+00         0.00000E+00         0.00000E+00
 
    0.79004E+05         0.19759E+05         0.00000E+00
    0.19759E+05        -0.99477E+05         0.00000E+00
    0.00000E+00         0.00000E+00         0.00000E+00
 
    0.77975E+05         0.22005E+05         0.00000E+00
    0.22005E+05        -0.99120E+05         0.00000E+00
    0.00000E+00         0.00000E+00         0.00000E+00
 
    0.76896E+05         0.24234E+05         0.00000E+00
    0.24234E+05        -0.98726E+05         0.00000E+00
    0.00000E+00         0.00000E+00         0.00000E+00
 
    0.75765E+05         0.26446E+05         0.00000E+00
    0.26446E+05        -0.98294E+05         0.00000E+00
    0.00000E+00         0.00000E+00         0.00000E+00
 
    0.74585E+05         0.28641E+05         0.00000E+00
    0.28641E+05        -0.97826E+05         0.00000E+00
    0.00000E+00         0.00000E+00         0.00000E+00
 
    0.73354E+05         0.30818E+05         0.00000E+00
    0.30818E+05        -0.97322E+05         0.00000E+00
    0.00000E+00         0.00000E+00         0.00000E+00
 
    0.72074E+05         0.32977E+05         0.00000E+00
    0.32977E+05        -0.96783E+05         0.00000E+00
    0.00000E+00         0.00000E+00         0.00000E+00
 
    0.70746E+05         0.35118E+05         0.00000E+00
    0.35118E+05        -0.96208E+05         0.00000E+00
    0.00000E+00         0.00000E+00         0.00000E+00
 
    0.69369E+05         0.37241E+05         0.00000E+00
    0.37241E+05        -0.95600E+05         0.00000E+00
    0.00000E+00         0.00000E+00         0.00000E+00
 
    0.67945E+05         0.39346E+05         0.00000E+00
    0.39346E+05        -0.94958E+05         0.00000E+00
    0.00000E+00         0.00000E+00         0.00000E+00
 
    0.66473E+05         0.41431E+05         0.00000E+00
    0.41431E+05        -0.94283E+05         0.00000E+00
    0.00000E+00         0.00000E+00         0.00000E+00
 
    0.64955E+05         0.43498E+05         0.00000E+00
    0.43498E+05        -0.93576E+05         0.00000E+00
    0.00000E+00         0.00000E+00         0.00000E+00
 
    0.63391E+05         0.45545E+05         0.00000E+00
    0.45545E+05        -0.92838E+05         0.00000E+00
    0.00000E+00         0.00000E+00         0.00000E+00
 
    0.61782E+05         0.47573E+05         0.00000E+00
    0.47573E+05        -0.92068E+05         0.00000E+00
    0.00000E+00         0.00000E+00         0.00000E+00
 
    0.60128E+05         0.49581E+05         0.00000E+00
    0.49581E+05        -0.91269E+05         0.00000E+00
    0.00000E+00         0.00000E+00         0.00000E+00
 
    0.58430E+05         0.51568E+05         0.00000E+00
    0.51568E+05        -0.90441E+05         0.00000E+00
    0.00000E+00         0.00000E+00         0.00000E+00
 
    0.56690E+05         0.53536E+05         0.00000E+00
    0.53536E+05        -0.89584E+05         0.00000E+00
    0.00000E+00         0.00000E+00         0.00000E+00
 
    0.54906E+05         0.55482E+05         0.00000E+00
    0.55482E+05        -0.88699E+05         0.00000E+00
    0.00000E+00         0.00000E+00         0.00000E+00
 
    0.53081E+05         0.57408E+05         0.00000E+00
    0.57408E+05        -0.87788E+05         0.00000E+00
    0.00000E+00         0.00000E+00         0.00000E+00
 
    0.51215E+05         0.59312E+05         0.00000E+00
    0.59312E+05        -0.86851E+05         0.00000E+00
    0.00000E+00         0.00000E+00         0.00000E+00
 
    0.49309E+05         0.61195E+05         0.00000E+00
    0.61195E+05        -0.85888E+05         0.00000E+00
    0.00000E+00         0.00000E+00         0.00000E+00
 
    0.47363E+05         0.63056E+05         0.00000E+00
    0.63056E+05        -0.84901E+05         0.00000E+00
    0.00000E+00         0.00000E+00         0.00000E+00
 
    0.45378E+05         0.64894E+05         0.00000E+00
    0.64894E+05        -0.83890E+05         0.00000E+00
    0.00000E+00         0.00000E+00         0.00000E+00
 
    0.43355E+05         0.66710E+05         0.00000E+00
    0.66710E+05        -0.82856E+05         0.00000E+00
    0.00000E+00         0.00000E+00         0.00000E+00
 
    0.41295E+05         0.68504E+05         0.00000E+00
    0.68504E+05        -0.81801E+05         0.00000E+00
    0.00000E+00         0.00000E+00         0.00000E+00
 
    0.39198E+05         0.70274E+05         0.00000E+00
    0.70274E+05        -0.80724E+05         0.00000E+00
    0.00000E+00         0.00000E+00         0.00000E+00
 
    0.37065E+05         0.72021E+05         0.00000E+00
    0.72021E+05        -0.79627E+05         0.00000E+00
    0.00000E+00         0.00000E+00         0.00000E+00
 
    0.34897E+05         0.73744E+05         0.00000E+00
    0.73744E+05        -0.78511E+05         0.00000E+00
    0.00000E+00         0.00000E+00         0.00000E+00
 
    0.32695E+05         0.75442E+05         0.00000E+00
    0.75442E+05        -0.77376E+05         0.00000E+00
    0.00000E+00         0.00000E+00         0.00000E+00
 
    0.30460E+05         0.77117E+05         0.00000E+00
    0.77117E+05        -0.76224E+05         0.00000E+00
    0.00000E+00         0.00000E+00         0.00000E+00
 
    0.28191E+05         0.78767E+05         0.00000E+00
    0.78767E+05        -0.75055E+05         0.00000E+00
    0.00000E+00         0.00000E+00         0.00000E+00
 
    0.25891E+05         0.80392E+05         0.00000E+00
    0.80392E+05        -0.73870E+05         0.00000E+00
    0.00000E+00         0.00000E+00         0.00000E+00
 
    0.23559E+05         0.81991E+05         0.00000E+00
    0.81991E+05        -0.72670E+05         0.00000E+00
    0.00000E+00         0.00000E+00         0.00000E+00
 
    0.21197E+05         0.83565E+05         0.00000E+00
    0.83565E+05        -0.71456E+05         0.00000E+00
    0.00000E+00         0.00000E+00         0.00000E+00
 
    0.18806E+05         0.85114E+05         0.00000E+00
    0.85114E+05        -0.70229E+05         0.00000E+00
    0.00000E+00         0.00000E+00         0.00000E+00
 
    0.16385E+05         0.86636E+05         0.00000E+00
    0.86636E+05        -0.68990E+05         0.00000E+00
    0.00000E+00         0.00000E+00         0.00000E+00
 
    0.13936E+05         0.88131E+05         0.00000E+00
    0.88131E+05        -0.67739E+05         0.00000E+00
    0.00000E+00         0.00000E+00         0.00000E+00
 
    0.11460E+05         0.89600E+05         0.00000E+00
    0.89600E+05        -0.66477E+05         0.00000E+00
    0.00000E+00         0.00000E+00         0.00000E+00
 
    0.89567E+04         0.91042E+05         0.00000E+00
    0.91042E+05        -0.65206E+05         0.00000E+00
    0.00000E+00         0.00000E+00         0.00000E+00
 
    0.64278E+04         0.92457E+05         0.00000E+00
    0.92457E+05        -0.63925E+05         0.00000E+00
    0.00000E+00         0.00000E+00         0.00000E+00
 
    0.38738E+04         0.93844E+05         0.00000E+00
    0.93844E+05        -0.62637E+05         0.00000E+00
    0.00000E+00         0.00000E+00         0.00000E+00
 
    0.12953E+04         0.95204E+05         0.00000E+00
    0.95204E+05        -0.61342E+05         0.00000E+00
    0.00000E+00         0.00000E+00         0.00000E+00
 
    0.90648E+05         0.12950E+04         0.00000E+00
    0.12950E+04        -0.10797E+06         0.00000E+00
    0.00000E+00         0.00000E+00         0.00000E+00
 
    0.89964E+05         0.38431E+04         0.00000E+00
    0.38431E+04        -0.10792E+06         0.00000E+00
    0.00000E+00         0.00000E+00         0.00000E+00
 
    0.89226E+05         0.63755E+04         0.00000E+00
    0.63755E+04        -0.10784E+06         0.00000E+00
    0.00000E+00         0.00000E+00         0.00000E+00
 
    0.88434E+05         0.88919E+04         0.00000E+00
    0.88919E+04        -0.10771E+06         0.00000E+00
    0.00000E+00         0.00000E+00         0.00000E+00
 
    0.87588E+05         0.11392E+05         0.00000E+00
    0.11392E+05        -0.10754E+06         0.00000E+00
    0.00000E+00         0.00000E+00         0.00000E+00
 
    0.86688E+05         0.13876E+05         0.00000E+00
    0.13876E+05        -0.10733E+06         0.00000E+00
    0.00000E+00         0.00000E+00         0.00000E+00
 
    0.85735E+05         0.16342E+05         0.00000E+00
    0.16342E+05        -0.10708E+06         0.00000E+00
    0.00000E+00         0.00000E+00         0.00000E+00
 
    0.84728E+05         0.18791E+05         0.00000E+00
    0.18791E+05        -0.10679E+06         0.00000E+00
    0.00000E+00         0.00000E+00         0.00000E+00
 
    0.83669E+05         0.21223E+05         0.00000E+00
    0.21223E+05        -0.10646E+06         0.00000E+00
    0.00000E+00         0.00000E+00         0.00000E+00
 
    0.82557E+05         0.23637E+05         0.00000E+00
    0.23637E+05        -0.10609E+06         0.00000E+00
    0.00000E+00         0.00000E+00         0.00000E+00
 
    0.81393E+05         0.26033E+05         0.00000E+00
    0.26033E+05        -0.10568E+06         0.00000E+00
    0.00000E+00         0.00000E+00         0.00000E+00
 
    0.80177E+05         0.28410E+05         0.00000E+00
    0.28410E+05        -0.10523E+06         0.00000E+00
    0.00000E+00         0.00000E+00         0.00000E+00
 
    0.78910E+05         0.30768E+05         0.00000E+00
    0.30768E+05        -0.10475E+06         0.00000E+00
    0.00000E+00         0.00000E+00         0.00000E+00
 
    0.77592E+05         0.33107E+05         0.00000E+00
    0.33107E+05        -0.10422E+06         0.00000E+00
    0.00000E+00         0.00000E+00         0.00000E+00
 
    0.76223E+05         0.35427E+05         0.00000E+00
    0.35427E+05        -0.10366E+06         0.00000E+00
    0.00000E+00         0.00000E+00         0.00000E+00
 
    0.74804E+05         0.37727E+05         0.00000E+00
    0.37727E+05        -0.10306E+06         0.00000E+00
    0.00000E+00         0.00000E+00         0.00000E+00
 
    0.73336E+05         0.40007E+05         0.00000E+00
    0.40007E+05        -0.10243E+06         0.00000E+00
    0.00000E+00         0.00000E+00         0.00000E+00
 
    0.71819E+05         0.42266E+05         0.00000E+00
    0.42266E+05        -0.10176E+06         0.00000E+00
    0.00000E+00         0.00000E+00         0.00000E+00
 
    0.70253E+05         0.44505E+05         0.00000E+00
    0.44505E+05        -0.10106E+06         0.00000E+00
    0.00000E+00         0.00000E+00         0.00000E+00
 
    0.68640E+05         0.46723E+05         0.00000E+00
    0.46723E+05        -0.10032E+06         0.00000E+00
    0.00000E+00         0.00000E+00         0.00000E+00
 
    0.66979E+05         0.48919E+05         0.00000E+00
    0.48919E+05        -0.99551E+05         0.00000E+00
    0.00000E+00         0.00000E+00         0.00000E+00
 
    0.65272E+05         0.51094E+05         0.00000E+00
    0.51094E+05        -0.98749E+05         0.00000E+00
    0.00000E+00         0.00000E+00         0.00000E+00
 
    0.63518E+05         0.53247E+05         0.00000E+00
    0.53247E+05        -0.97916E+05         0.00000E+00
    0.00000E+00         0.00000E+00         0.00000E+00
 
    0.61720E+05         0.55377E+05         0.00000E+00
    0.55377E+05        -0.97051E+05         0.00000E+00
    0.00000E+00         0.00000E+00         0.00000E+00
 
    0.59876E+05         0.57485E+05         0.00000E+00
    0.57485E+05        -0.96157E+05         0.00000E+00
    0.00000E+00         0.00000E+00         0.00000E+00
 
    0.57989E+05         0.59569E+05         0.00000E+00
    0.59569E+05        -0.95234E+05         0.00000E+00
    0.00000E+00         0.00000E+00         0.00000E+00
 
    0.56058E+05         0.61631E+05         0.00000E+00
    0.61631E+05        -0.94282E+05         0.00000E+00
    0.00000E+00         0.00000E+00         0.00000E+00
 
    0.54085E+05         0.63668E+05         0.00000E+00
    0.63668E+05        -0.93302E+05         0.00000E+00
    0.00000E+00         0.00000E+00         0.00000E+00
 
    0.52069E+05         0.65682E+05         0.00000E+00
    0.65682E+05        -0.92296E+05         0.00000E+00
    0.00000E+00         0.00000E+00         0.00000E+00
 
    0.50012E+05         0.67671E+05         0.00000E+00
    0.67671E+05        -0.91264E+05         0.00000E+00
    0.00000E+00         0.00000E+00         0.00000E+00
 
    0.47915E+05         0.69636E+05         0.00000E+00
    0.69636E+05        -0.90206E+05         0.00000E+00
    0.00000E+00         0.00000E+00         0.00000E+00
 
    0.45778E+05         0.71575E+05         0.00000E+00
    0.71575E+05        -0.89124E+05         0.00000E+00
    0.00000E+00         0.00000E+00         0.00000E+00
 
    0.43602E+05         0.73489E+05         0.00000E+00
    0.73489E+05        -0.88019E+05         0.00000E+00
    0.00000E+00         0.00000E+00         0.00000E+00
 
    0.41388E+05         0.75378E+05         0.00000E+00
    0.75378E+05        -0.86891E+05         0.00000E+00
    0.00000E+00         0.00000E+00         0.00000E+00
 
    0.39136E+05         0.77241E+05         0.00000E+00
    0.77241E+05        -0.85742E+05         0.00000E+00
    0.00000E+00         0.00000E+00         0.00000E+00
 
    0.36847E+05         0.79077E+05         0.00000E+00
    0.79077E+05        -0.84571E+05         0.00000E+00
    0.00000E+00         0.00000E+00         0.00000E+00
 
    0.34522E+05         0.80887E+05         0.00000E+00
    0.80887E+05        -0.83381E+05         0.00000E+00
    0.00000E+00         0.00000E+00         0.00000E+00
 
    0.32162E+05         0.82669E+05         0.00000E+00
    0.82669E+05        -0.82172E+05         0.00000E+00
    0.00000E+00         0.00000E+00         0.00000E+00
 
    0.29768E+05         0.84425E+05         0.00000E+00
    0.84425E+05        -0.80944E+05         0.00000E+00
    0.00000E+00         0.00000E+00         0.00000E+00
 
    0.27339E+05         0.86153E+05         0.00000E+00
    0.86153E+05        -0.79700E+05         0.00000E+00
    0.00000E+00         0.00000E+00         0.00000E+00
 
    0.24878E+05         0.87853E+05         0.00000E+00
    0.87853E+05        -0.78439E+05         0.00000E+00
    0.00000E+00         0.00000E+00         0.00000E+00
 
    0.22384E+05         0.89525E+05         0.00000E+00
    0.89525E+05        -0.77162E+05         0.00000E+00
    0.00000E+00         0.00000E+00         0.00000E+00
 
    0.19859E+05         0.91169E+05         0.00000E+00
    0.91169E+05        -0.75871E+05         0.00000E+00
    0.00000E+00         0.00000E+00         0.00000E+00
 
    0.17303E+05         0.92784E+05         0.00000E+00
    0.92784E+05        -0.74566E+05         0.00000E+00
    0.00000E+00         0.00000E+00         0.00000E+00
 
    0.14718E+05         0.94369E+05         0.00000E+00
    0.94369E+05        -0.73249E+05         0.00000E+00
    0.00000E+00         0.00000E+00         0.00000E+00
 
    0.12103E+05         0.95926E+05         0.00000E+00
    0.95926E+05        -0.71919E+05         0.00000E+00
    0.00000E+00         0.00000E+00         0.00000E+00
 
    0.94599E+04         0.97453E+05         0.00000E+00
    0.97453E+05        -0.70579E+05         0.00000E+00
    0.00000E+00         0.00000E+00         0.00000E+00
 
    0.67892E+04         0.98950E+05         0.00000E+00
    0.98950E+05        -0.69229E+05         0.00000E+00
    0.00000E+00         0.00000E+00         0.00000E+00
 
    0.40917E+04         0.10042E+06         0.00000E+00
    0.10042E+06        -0.67869E+05         0.00000E+00
    0.00000E+00         0.00000E+00         0.00000E+00
 
    0.13682E+04         0.10185E+06         0.00000E+00
    0.10185E+06        -0.66502E+05         0.00000E+00
    0.00000E+00         0.00000E+00         0.00000E+00
 
    0.96422E+05         0.13856E+04         0.00000E+00
    0.13856E+04        -0.11542E+06         0.00000E+00
    0.00000E+00         0.00000E+00         0.00000E+00
 
    0.95660E+05         0.41143E+04         0.00000E+00
    0.41143E+04        -0.11538E+06         0.00000E+00
    0.00000E+00         0.00000E+00         0.00000E+00
 
    0.94843E+05         0.68270E+04         0.00000E+00
    0.68270E+04        -0.11529E+06         0.00000E+00
    0.00000E+00         0.00000E+00         0.00000E+00
 
    0.93970E+05         0.95232E+04         0.00000E+00
    0.95232E+04        -0.11516E+06         0.00000E+00
    0.00000E+00         0.00000E+00         0.00000E+00
 
    0.93042E+05         0.12203E+05         0.00000E+00
    0.12203E+05        -0.11498E+06         0.00000E+00
    0.00000E+00         0.00000E+00         0.00000E+00
 
    0.92059E+05         0.14865E+05         0.00000E+00
    0.14865E+05        -0.11476E+06         0.00000E+00
    0.00000E+00         0.00000E+00         0.00000E+00
 
    0.91021E+05         0.17509E+05         0.00000E+00
    0.17509E+05        -0.11450E+06         0.00000E+00
    0.00000E+00         0.00000E+00         0.00000E+00
 
    0.89928E+05         0.20135E+05         0.00000E+00
    0.20135E+05        -0.11419E+06         0.00000E+00
    0.00000E+00         0.00000E+00         0.00000E+00
 
    0.88781E+05         0.22742E+05         0.00000E+00
    0.22742E+05        -0.11385E+06         0.00000E+00
    0.00000E+00         0.00000E+00         0.00000E+00
 
    0.87580E+05         0.25331E+05         0.00000E+00
    0.25331E+05        -0.11346E+06         0.00000E+00
    0.00000E+00         0.00000E+00         0.00000E+00
 
    0.86326E+05         0.27900E+05         0.00000E+00
    0.27900E+05        -0.11303E+06         0.00000E+00
    0.00000E+00         0.00000E+00         0.00000E+00
 
    0.85018E+05         0.30449E+05         0.00000E+00
    0.30449E+05        -0.11256E+06         0.00000E+00
    0.00000E+00         0.00000E+00         0.00000E+00
 
    0.83657E+05         0.32979E+05         0.00000E+00
    0.32979E+05        -0.11205E+06         0.00000E+00
    0.00000E+00         0.00000E+00         0.00000E+00
 
    0.82243E+05         0.35487E+05         0.00000E+00
    0.35487E+05        -0.11150E+06         0.00000E+00
    0.00000E+00         0.00000E+00         0.00000E+00
 
    0.80778E+05         0.37975E+05         0.00000E+00
    0.37975E+05        -0.11092E+06         0.00000E+00
    0.00000E+00         0.00000E+00         0.00000E+00
 
    0.79261E+05         0.40441E+05         0.00000E+00
    0.40441E+05        -0.11029E+06         0.00000E+00
    0.00000E+00         0.00000E+00         0.00000E+00
 
    0.77693E+05         0.42885E+05         0.00000E+00
    0.42885E+05        -0.10963E+06         0.00000E+00
    0.00000E+00         0.00000E+00         0.00000E+00
 
    0.76074E+05         0.45307E+05         0.00000E+00
    0.45307E+05        -0.10893E+06         0.00000E+00
    0.00000E+00         0.00000E+00         0.00000E+00
 
    0.74405E+05         0.47707E+05         0.00000E+00
    0.47707E+05        -0.10819E+06         0.00000E+00
    0.00000E+00         0.00000E+00         0.00000E+00
 
    0.72687E+05         0.50083E+05         0.00000E+00
    0.50083E+05        -0.10742E+06         0.00000E+00
    0.00000E+00         0.00000E+00         0.00000E+00
 
    0.70920E+05         0.52436E+05         0.00000E+00
    0.52436E+05        -0.10662E+06         0.00000E+00
    0.00000E+00         0.00000E+00         0.00000E+00
 
    0.69104E+05         0.54766E+05         0.00000E+00
    0.54766E+05        -0.10578E+06         0.00000E+00
    0.00000E+00         0.00000E+00         0.00000E+00
 
    0.67241E+05         0.57071E+05         0.00000E+00
    0.57071E+05        -0.10490E+06         0.00000E+00
    0.00000E+00         0.00000E+00         0.00000E+00
 
    0.65331E+05         0.59352E+05         0.00000E+00
    0.59352E+05        -0.10400E+06         0.00000E+00
    0.00000E+00         0.00000E+00         0.00000E+00
 
    0.63374E+05         0.61608E+05         0.00000E+00
    0.61608E+05        -0.10306E+06         0.00000E+00
    0.00000E+00         0.00000E+00         0.00000E+00
 
    0.61372E+05         0.63839E+05         0.00000E+00
    0.63839E+05        -0.10209E+06         0.00000E+00
    0.00000E+00         0.00000E+00         0.00000E+00
 
    0.59324E+05         0.66044E+05         0.00000E+00
    0.66044E+05        -0.10109E+06         0.00000E+00
    0.00000E+00         0.00000E+00         0.00000E+00
 
    0.57232E+05         0.68223E+05         0.00000E+00
    0.68223E+05        -0.10007E+06         0.00000E+00
    0.00000E+00         0.00000E+00         0.00000E+00
 
    0.55096E+05         0.70376E+05         0.00000E+00
    0.70376E+05        -0.99010E+05         0.00000E+00
    0.00000E+00         0.00000E+00         0.00000E+00
 
    0.52917E+05         0.72502E+05         0.00000E+00
    0.72502E+05        -0.97926E+05         0.00000E+00
    0.00000E+00         0.00000E+00         0.00000E+00
 
    0.50696E+05         0.74600E+05         0.00000E+00
    0.74600E+05        -0.96815E+05         0.00000E+00
    0.00000E+00         0.00000E+00         0.00000E+00
 
    0.48433E+05         0.76672E+05         0.00000E+00
    0.76672E+05        -0.95679E+05         0.00000E+00
    0.00000E+00         0.00000E+00         0.00000E+00
 
    0.46129E+05         0.78715E+05         0.00000E+00
    0.78715E+05        -0.94518E+05         0.00000E+00
    0.00000E+00         0.00000E+00         0.00000E+00
 
    0.43785E+05         0.80731E+05         0.00000E+00
    0.80731E+05        -0.93332E+05         0.00000E+00
    0.00000E+00         0.00000E+00         0.00000E+00
 
    0.41402E+05         0.82718E+05         0.00000E+00
    0.82718E+05        -0.92124E+05         0.00000E+00
    0.00000E+00         0.00000E+00         0.00000E+00
 
    0.38980E+05         0.84676E+05         0.00000E+00
    0.84676E+05        -0.90893E+05         0.00000E+00
    0.00000E+00         0.00000E+00         0.00000E+00
 
    0.36520E+05         0.86605E+05         0.00000E+00
    0.86605E+05        -0.89640E+05         0.00000E+00
    0.00000E+00         0.00000E+00         0.00000E+00
 
    0.34023E+05         0.88504E+05         0.00000E+00
    0.88504E+05        -0.88367E+05         0.00000E+00
    0.00000E+00         0.00000E+00         0.00000E+00
 
    0.31490E+05         0.90374E+05         0.00000E+00
    0.90374E+05        -0.87075E+05         0.00000E+00
    0.00000E+00         0.00000E+00         0.00000E+00
 
    0.28921E+05         0.92213E+05         0.00000E+00
    0.92213E+05        -0.85763E+05         0.00000E+00
    0.00000E+00         0.00000E+00         0.00000E+00
 
    0.26317E+05         0.94022E+05         0.00000E+00
    0.94022E+05        -0.84434E+05         0.00000E+00
    0.00000E+00         0.00000E+00         0.00000E+00
 
    0.23679E+05         0.95800E+05         0.00000E+00
    0.95800E+05        -0.83089E+05         0.00000E+00
    0.00000E+00         0.00000E+00         0.00000E+00
 
    0.21008E+05         0.97547E+05         0.00000E+00
    0.97547E+05        -0.81727E+05         0.00000E+00
    0.00000E+00         0.00000E+00         0.00000E+00
 
    0.18305E+05         0.99263E+05         0.00000E+00
    0.99263E+05        -0.80350E+05         0.00000E+00
    0.00000E+00         0.00000E+00         0.00000E+00
 
    0.15570E+05         0.10095E+06         0.00000E+00
    0.10095E+06        -0.78960E+05         0.00000E+00
    0.00000E+00         0.00000E+00         0.00000E+00
 
    0.12804E+05         0.10260E+06         0.00000E+00
    0.10260E+06        -0.77556E+05         0.00000E+00
    0.00000E+00         0.00000E+00         0.00000E+00
 
    0.10008E+05         0.10422E+06         0.00000E+00
    0.10422E+06        -0.76141E+05         0.00000E+00
    0.00000E+00         0.00000E+00         0.00000E+00
 
    0.71825E+04         0.10581E+06         0.00000E+00
    0.10581E+06        -0.74714E+05         0.00000E+00
    0.00000E+00         0.00000E+00         0.00000E+00
 
    0.43288E+04         0.10736E+06         0.00000E+00
    0.10736E+06        -0.73277E+05         0.00000E+00
    0.00000E+00         0.00000E+00         0.00000E+00
 
    0.14475E+04         0.10888E+06         0.00000E+00
    0.10888E+06        -0.71831E+05         0.00000E+00
    0.00000E+00         0.00000E+00         0.00000E+00
 
    0.10267E+06         0.14801E+04         0.00000E+00
    0.14801E+04        -0.12333E+06         0.00000E+00
    0.00000E+00         0.00000E+00         0.00000E+00
 
    0.10183E+06         0.43974E+04         0.00000E+00
    0.43974E+04        -0.12328E+06         0.00000E+00
    0.00000E+00         0.00000E+00         0.00000E+00
 
    0.10093E+06         0.72982E+04         0.00000E+00
    0.72982E+04        -0.12319E+06         0.00000E+00
    0.00000E+00         0.00000E+00         0.00000E+00
 
    0.99973E+05         0.10182E+05         0.00000E+00
    0.10182E+05        -0.12305E+06         0.00000E+00
    0.00000E+00         0.00000E+00         0.00000E+00
 
    0.98960E+05         0.13049E+05         0.00000E+00
    0.13049E+05        -0.12286E+06         0.00000E+00
    0.00000E+00         0.00000E+00         0.00000E+00
 
    0.97890E+05         0.15897E+05         0.00000E+00
    0.15897E+05        -0.12263E+06         0.00000E+00
    0.00000E+00         0.00000E+00         0.00000E+00
 
    0.96764E+05         0.18727E+05         0.00000E+00
    0.18727E+05        -0.12236E+06         0.00000E+00
    0.00000E+00         0.00000E+00         0.00000E+00
 
    0.95580E+05         0.21538E+05         0.00000E+00
    0.21538E+05        -0.12204E+06         0.00000E+00
    0.00000E+00         0.00000E+00         0.00000E+00
 
    0.94340E+05         0.24329E+05         0.00000E+00
    0.24329E+05        -0.12167E+06         0.00000E+00
    0.00000E+00         0.00000E+00         0.00000E+00
 
    0.93045E+05         0.27100E+05         0.00000E+00
    0.27100E+05        -0.12127E+06         0.00000E+00
    0.00000E+00         0.00000E+00         0.00000E+00
 
    0.91694E+05         0.29851E+05         0.00000E+00
    0.29851E+05        -0.12081E+06         0.00000E+00
    0.00000E+00         0.00000E+00         0.00000E+00
 
    0.90287E+05         0.32581E+05         0.00000E+00
    0.32581E+05        -0.12032E+06         0.00000E+00
    0.00000E+00         0.00000E+00         0.00000E+00
 
    0.88826E+05         0.35289E+05         0.00000E+00
    0.35289E+05        -0.11979E+06         0.00000E+00
    0.00000E+00         0.00000E+00         0.00000E+00
 
    0.87310E+05         0.37975E+05         0.00000E+00
    0.37975E+05        -0.11921E+06         0.00000E+00
    0.00000E+00         0.00000E+00         0.00000E+00
 
    0.85740E+05         0.40638E+05         0.00000E+00
    0.40638E+05        -0.11859E+06         0.00000E+00
    0.00000E+00         0.00000E+00         0.00000E+00
 
    0.84117E+05         0.43279E+05         0.00000E+00
    0.43279E+05        -0.11794E+06         0.00000E+00
    0.00000E+00         0.00000E+00         0.00000E+00
 
    0.82441E+05         0.45895E+05         0.00000E+00
    0.45895E+05        -0.11724E+06         0.00000E+00
    0.00000E+00         0.00000E+00         0.00000E+00
 
    0.80712E+05         0.48489E+05         0.00000E+00
    0.48489E+05        -0.11650E+06         0.00000E+00
    0.00000E+00         0.00000E+00         0.00000E+00
 
    0.78932E+05         0.51057E+05         0.00000E+00
    0.51057E+05        -0.11573E+06         0.00000E+00
    0.00000E+00         0.00000E+00         0.00000E+00
 
    0.77100E+05         0.53601E+05         0.00000E+00
    0.53601E+05        -0.11492E+06         0.00000E+00
    0.00000E+00         0.00000E+00         0.00000E+00
 
    0.75217E+05         0.56119E+05         0.00000E+00
    0.56119E+05        -0.11407E+06         0.00000E+00
    0.00000E+00         0.00000E+00         0.00000E+00
 
    0.73283E+05         0.58612E+05         0.00000E+00
    0.58612E+05        -0.11319E+06         0.00000E+00
    0.00000E+00         0.00000E+00         0.00000E+00
 
    0.71300E+05         0.61079E+05         0.00000E+00
    0.61079E+05        -0.11227E+06         0.00000E+00
    0.00000E+00         0.00000E+00         0.00000E+00
 
    0.69268E+05         0.63519E+05         0.00000E+00
    0.63519E+05        -0.11132E+06         0.00000E+00
    0.00000E+00         0.00000E+00         0.00000E+00
 
    0.67188E+05         0.65932E+05         0.00000E+00
    0.65932E+05        -0.11033E+06         0.00000E+00
    0.00000E+00         0.00000E+00         0.00000E+00
 
    0.65060E+05         0.68317E+05         0.00000E+00
    0.68317E+05        -0.10931E+06         0.00000E+00
    0.00000E+00         0.00000E+00         0.00000E+00
 
    0.62884E+05         0.70675E+05         0.00000E+00
    0.70675E+05        -0.10826E+06         0.00000E+00
    0.00000E+00         0.00000E+00         0.00000E+00
 
    0.60662E+05         0.73004E+05         0.00000E+00
    0.73004E+05        -0.10718E+06         0.00000E+00
    0.00000E+00         0.00000E+00         0.00000E+00
 
    0.58395E+05         0.75304E+05         0.00000E+00
    0.75304E+05        -0.10607E+06         0.00000E+00
    0.00000E+00         0.00000E+00         0.00000E+00
 
    0.56082E+05         0.77576E+05         0.00000E+00
    0.77576E+05        -0.10493E+06         0.00000E+00
    0.00000E+00         0.00000E+00         0.00000E+00
 
    0.53725E+05         0.79818E+05         0.00000E+00
    0.79818E+05        -0.10376E+06         0.00000E+00
    0.00000E+00         0.00000E+00         0.00000E+00
 
    0.51325E+05         0.82029E+05         0.00000E+00
    0.82029E+05        -0.10256E+06         0.00000E+00
    0.00000E+00         0.00000E+00         0.00000E+00
 
    0.48881E+05         0.84211E+05         0.00000E+00
    0.84211E+05        -0.10134E+06         0.00000E+00
    0.00000E+00         0.00000E+00         0.00000E+00
 
    0.46396E+05         0.86362E+05         0.00000E+00
    0.86362E+05        -0.10009E+06         0.00000E+00
    0.00000E+00         0.00000E+00         0.00000E+00
 
    0.43869E+05         0.88482E+05         0.00000E+00
    0.88482E+05        -0.98812E+05         0.00000E+00
    0.00000E+00         0.00000E+00         0.00000E+00
 
    0.41301E+05         0.90570E+05         0.00000E+00
    0.90570E+05        -0.97513E+05         0.00000E+00
    0.00000E+00         0.00000E+00         0.00000E+00
 
    0.38694E+05         0.92627E+05         0.00000E+00
    0.92627E+05        -0.96192E+05         0.00000E+00
    0.00000E+00         0.00000E+00         0.00000E+00
 
    0.36047E+05         0.94652E+05         0.00000E+00
    0.94652E+05        -0.94849E+05         0.00000E+00
    0.00000E+00         0.00000E+00         0.00000E+00
 
    0.33362E+05         0.96644E+05         0.00000E+00
    0.96644E+05        -0.93485E+05         0.00000E+00
    0.00000E+00         0.00000E+00         0.00000E+00
 
    0.30640E+05         0.98603E+05         0.00000E+00
    0.98603E+05        -0.92100E+05         0.00000E+00
    0.00000E+00         0.00000E+00         0.00000E+00
 
    0.27881E+05         0.10053E+06         0.00000E+00
    0.10053E+06        -0.90697E+05         0.00000E+00
    0.00000E+00         0.00000E+00         0.00000E+00
 
    0.25086E+05         0.10242E+06         0.00000E+00
    0.10242E+06        -0.89275E+05         0.00000E+00
    0.00000E+00         0.00000E+00         0.00000E+00
 
    0.22256E+05         0.10428E+06         0.00000E+00
    0.10428E+06        -0.87836E+05         0.00000E+00
    0.00000E+00         0.00000E+00         0.00000E+00
 
    0.19392E+05         0.10611E+06         0.00000E+00
    0.10611E+06        -0.86381E+05         0.00000E+00
    0.00000E+00         0.00000E+00         0.00000E+00
 
    0.16494E+05         0.10790E+06         0.00000E+00
    0.10790E+06        -0.84910E+05         0.00000E+00
    0.00000E+00         0.00000E+00         0.00000E+00
 
    0.13564E+05         0.10965E+06         0.00000E+00
    0.10965E+06        -0.83426E+05         0.00000E+00
    0.00000E+00         0.00000E+00         0.00000E+00
 
    0.10602E+05         0.11137E+06         0.00000E+00
    0.11137E+06        -0.81928E+05         0.00000E+00
    0.00000E+00         0.00000E+00         0.00000E+00
 
    0.76091E+04         0.11306E+06         0.00000E+00
    0.11306E+06        -0.80418E+05         0.00000E+00
    0.00000E+00         0.00000E+00         0.00000E+00
 
    0.45859E+04         0.11471E+06         0.00000E+00
    0.11471E+06        -0.78896E+05         0.00000E+00
    0.00000E+00         0.00000E+00         0.00000E+00
 
    0.15335E+04         0.11633E+06         0.00000E+00
    0.11633E+06        -0.77365E+05         0.00000E+00
    0.00000E+00         0.00000E+00         0.00000E+00
 
    0.10939E+06         0.15794E+04         0.00000E+00
    0.15794E+04        -0.13172E+06         0.00000E+00
    0.00000E+00         0.00000E+00         0.00000E+00
 
    0.10847E+06         0.46946E+04         0.00000E+00
    0.46946E+04        -0.13167E+06         0.00000E+00
    0.00000E+00         0.00000E+00         0.00000E+00
 
    0.10749E+06         0.77930E+04         0.00000E+00
    0.77930E+04        -0.13157E+06         0.00000E+00
    0.00000E+00         0.00000E+00         0.00000E+00
 
    0.10645E+06         0.10874E+05         0.00000E+00
    0.10874E+05        -0.13143E+06         0.00000E+00
    0.00000E+00         0.00000E+00         0.00000E+00
 
    0.10535E+06         0.13937E+05         0.00000E+00
    0.13937E+05        -0.13123E+06         0.00000E+00
    0.00000E+00         0.00000E+00         0.00000E+00
 
    0.10419E+06         0.16981E+05         0.00000E+00
    0.16981E+05        -0.13099E+06         0.00000E+00
    0.00000E+00         0.00000E+00         0.00000E+00
 
    0.10297E+06         0.20006E+05         0.00000E+00
    0.20006E+05        -0.13070E+06         0.00000E+00
    0.00000E+00         0.00000E+00         0.00000E+00
 
    0.10169E+06         0.23011E+05         0.00000E+00
    0.23011E+05        -0.13036E+06         0.00000E+00
    0.00000E+00         0.00000E+00         0.00000E+00
 
    0.10035E+06         0.25995E+05         0.00000E+00
    0.25995E+05        -0.12998E+06         0.00000E+00
    0.00000E+00         0.00000E+00         0.00000E+00
 
    0.98956E+05         0.28958E+05         0.00000E+00
    0.28958E+05        -0.12955E+06         0.00000E+00
    0.00000E+00         0.00000E+00         0.00000E+00
 
    0.97502E+05         0.31899E+05         0.00000E+00
    0.31899E+05        -0.12907E+06         0.00000E+00
    0.00000E+00         0.00000E+00         0.00000E+00
 
    0.95991E+05         0.34818E+05         0.00000E+00
    0.34818E+05        -0.12855E+06         0.00000E+00
    0.00000E+00         0.00000E+00         0.00000E+00
 
    0.94423E+05         0.37714E+05         0.00000E+00
    0.37714E+05        -0.12799E+06         0.00000E+00
    0.00000E+00         0.00000E+00         0.00000E+00
 
    0.92798E+05         0.40587E+05         0.00000E+00
    0.40587E+05        -0.12738E+06         0.00000E+00
    0.00000E+00         0.00000E+00         0.00000E+00
 
    0.91117E+05         0.43435E+05         0.00000E+00
    0.43435E+05        -0.12673E+06         0.00000E+00
    0.00000E+00         0.00000E+00         0.00000E+00
 
    0.89380E+05         0.46259E+05         0.00000E+00
    0.46259E+05        -0.12603E+06         0.00000E+00
    0.00000E+00         0.00000E+00         0.00000E+00
 
    0.87588E+05         0.49058E+05         0.00000E+00
    0.49058E+05        -0.12530E+06         0.00000E+00
    0.00000E+00         0.00000E+00         0.00000E+00
 
    0.85740E+05         0.51831E+05         0.00000E+00
    0.51831E+05        -0.12452E+06         0.00000E+00
    0.00000E+00         0.00000E+00         0.00000E+00
 
    0.83839E+05         0.54578E+05         0.00000E+00
    0.54578E+05        -0.12371E+06         0.00000E+00
    0.00000E+00         0.00000E+00         0.00000E+00
 
    0.81884E+05         0.57299E+05         0.00000E+00
    0.57299E+05        -0.12285E+06         0.00000E+00
    0.00000E+00         0.00000E+00         0.00000E+00
 
    0.79876E+05         0.59992E+05         0.00000E+00
    0.59992E+05        -0.12196E+06         0.00000E+00
    0.00000E+00         0.00000E+00         0.00000E+00
 
    0.77815E+05         0.62657E+05         0.00000E+00
    0.62657E+05        -0.12103E+06         0.00000E+00
    0.00000E+00         0.00000E+00         0.00000E+00
 
    0.75703E+05         0.65294E+05         0.00000E+00
    0.65294E+05        -0.12006E+06         0.00000E+00
    0.00000E+00         0.00000E+00         0.00000E+00
 
    0.73539E+05         0.67902E+05         0.00000E+00
    0.67902E+05        -0.11905E+06         0.00000E+00
    0.00000E+00         0.00000E+00         0.00000E+00
 
    0.71324E+05         0.70481E+05         0.00000E+00
    0.70481E+05        -0.11801E+06         0.00000E+00
    0.00000E+00         0.00000E+00         0.00000E+00
 
    0.69059E+05         0.73031E+05         0.00000E+00
    0.73031E+05        -0.11694E+06         0.00000E+00
    0.00000E+00         0.00000E+00         0.00000E+00
 
    0.66745E+05         0.75550E+05         0.00000E+00
    0.75550E+05        -0.11583E+06         0.00000E+00
    0.00000E+00         0.00000E+00         0.00000E+00
 
    0.64383E+05         0.78039E+05         0.00000E+00
    0.78039E+05        -0.11469E+06         0.00000E+00
    0.00000E+00         0.00000E+00         0.00000E+00
 
    0.61972E+05         0.80496E+05         0.00000E+00
    0.80496E+05        -0.11351E+06         0.00000E+00
    0.00000E+00         0.00000E+00         0.00000E+00
 
    0.59514E+05         0.82922E+05         0.00000E+00
    0.82922E+05        -0.11231E+06         0.00000E+00
    0.00000E+00         0.00000E+00         0.00000E+00
 
    0.57010E+05         0.85316E+05         0.00000E+00
    0.85316E+05        -0.11107E+06         0.00000E+00
    0.00000E+00         0.00000E+00         0.00000E+00
 
    0.54460E+05         0.87678E+05         0.00000E+00
    0.87678E+05        -0.10981E+06         0.00000E+00
    0.00000E+00         0.00000E+00         0.00000E+00
 
    0.51865E+05         0.90007E+05         0.00000E+00
    0.90007E+05        -0.10851E+06         0.00000E+00
    0.00000E+00         0.00000E+00         0.00000E+00
 
    0.49225E+05         0.92302E+05         0.00000E+00
    0.92302E+05        -0.10719E+06         0.00000E+00
    0.00000E+00         0.00000E+00         0.00000E+00
 
    0.46542E+05         0.94564E+05         0.00000E+00
    0.94564E+05        -0.10585E+06         0.00000E+00
    0.00000E+00         0.00000E+00         0.00000E+00
 
    0.43816E+05         0.96792E+05         0.00000E+00
    0.96792E+05        -0.10447E+06         0.00000E+00
    0.00000E+00         0.00000E+00         0.00000E+00
 
    0.41049E+05         0.98986E+05         0.00000E+00
    0.98986E+05        -0.10308E+06         0.00000E+00
    0.00000E+00         0.00000E+00         0.00000E+00
 
    0.38240E+05         0.10114E+06         0.00000E+00
    0.10114E+06        -0.10166E+06         0.00000E+00
    0.00000E+00         0.00000E+00         0.00000E+00
 
    0.35391E+05         0.10327E+06         0.00000E+00
    0.10327E+06        -0.10021E+06         0.00000E+00
    0.00000E+00         0.00000E+00         0.00000E+00
 
    0.32502E+05         0.10536E+06         0.00000E+00
    0.10536E+06        -0.98749E+05         0.00000E+00
    0.00000E+00         0.00000E+00         0.00000E+00
 
    0.29575E+05         0.10741E+06         0.00000E+00
    0.10741E+06        -0.97263E+05         0.00000E+00
    0.00000E+00         0.00000E+00         0.00000E+00
 
    0.26610E+05         0.10942E+06         0.00000E+00
    0.10942E+06        -0.95759E+05         0.00000E+00
    0.00000E+00         0.00000E+00         0.00000E+00
 
    0.23608E+05         0.11140E+06         0.00000E+00
    0.11140E+06        -0.94235E+05         0.00000E+00
    0.00000E+00         0.00000E+00         0.00000E+00
 
    0.20569E+05         0.11335E+06         0.00000E+00
    0.11335E+06        -0.92695E+05         0.00000E+00
    0.00000E+00         0.00000E+00         0.00000E+00
 
    0.17495E+05         0.11525E+06         0.00000E+00
    0.11525E+06        -0.91137E+05         0.00000E+00
    0.00000E+00         0.00000E+00         0.00000E+00
 
    0.14387E+05         0.11712E+06         0.00000E+00
    0.11712E+06        -0.89565E+05         0.00000E+00
    0.00000E+00         0.00000E+00         0.00000E+00
 
    0.11245E+05         0.11895E+06         0.00000E+00
    0.11895E+06        -0.87978E+05         0.00000E+00
    0.00000E+00         0.00000E+00         0.00000E+00
 
    0.80706E+04         0.12074E+06         0.00000E+00
    0.12074E+06        -0.86377E+05         0.00000E+00
    0.00000E+00         0.00000E+00         0.00000E+00
 
    0.48640E+04         0.12250E+06         0.00000E+00
    0.12250E+06        -0.84764E+05         0.00000E+00
    0.00000E+00         0.00000E+00         0.00000E+00
 
    0.16264E+04         0.12421E+06         0.00000E+00
    0.12421E+06        -0.83140E+05         0.00000E+00
    0.00000E+00         0.00000E+00         0.00000E+00
 
    0.11661E+06         0.16842E+04         0.00000E+00
    0.16842E+04        -0.14064E+06         0.00000E+00
    0.00000E+00         0.00000E+00         0.00000E+00
 
    0.11560E+06         0.50081E+04         0.00000E+00
    0.50081E+04        -0.14059E+06         0.00000E+00
    0.00000E+00         0.00000E+00         0.00000E+00
 
    0.11454E+06         0.83146E+04         0.00000E+00
    0.83146E+04        -0.14048E+06         0.00000E+00
    0.00000E+00         0.00000E+00         0.00000E+00
 
    0.11341E+06         0.11603E+05         0.00000E+00
    0.11603E+05        -0.14033E+06         0.00000E+00
    0.00000E+00         0.00000E+00         0.00000E+00
 
    0.11221E+06         0.14873E+05         0.00000E+00
    0.14873E+05        -0.14012E+06         0.00000E+00
    0.00000E+00         0.00000E+00         0.00000E+00
 
    0.11096E+06         0.18123E+05         0.00000E+00
    0.18123E+05        -0.13986E+06         0.00000E+00
    0.00000E+00         0.00000E+00         0.00000E+00
 
    0.10964E+06         0.21353E+05         0.00000E+00
    0.21353E+05        -0.13956E+06         0.00000E+00
    0.00000E+00         0.00000E+00         0.00000E+00
 
    0.10826E+06         0.24562E+05         0.00000E+00
    0.24562E+05        -0.13920E+06         0.00000E+00
    0.00000E+00         0.00000E+00         0.00000E+00
 
    0.10682E+06         0.27750E+05         0.00000E+00
    0.27750E+05        -0.13879E+06         0.00000E+00
    0.00000E+00         0.00000E+00         0.00000E+00
 
    0.10532E+06         0.30915E+05         0.00000E+00
    0.30915E+05        -0.13834E+06         0.00000E+00
    0.00000E+00         0.00000E+00         0.00000E+00
 
    0.10376E+06         0.34058E+05         0.00000E+00
    0.34058E+05        -0.13784E+06         0.00000E+00
    0.00000E+00         0.00000E+00         0.00000E+00
 
    0.10214E+06         0.37176E+05         0.00000E+00
    0.37176E+05        -0.13729E+06         0.00000E+00
    0.00000E+00         0.00000E+00         0.00000E+00
 
    0.10046E+06         0.40271E+05         0.00000E+00
    0.40271E+05        -0.13669E+06         0.00000E+00
    0.00000E+00         0.00000E+00         0.00000E+00
 
    0.98717E+05         0.43340E+05         0.00000E+00
    0.43340E+05        -0.13605E+06         0.00000E+00
    0.00000E+00         0.00000E+00         0.00000E+00
 
    0.96917E+05         0.46384E+05         0.00000E+00
    0.46384E+05        -0.13536E+06         0.00000E+00
    0.00000E+00         0.00000E+00         0.00000E+00
 
    0.95058E+05         0.49402E+05         0.00000E+00
    0.49402E+05        -0.13462E+06         0.00000E+00
    0.00000E+00         0.00000E+00         0.00000E+00
 
    0.93142E+05         0.52393E+05         0.00000E+00
    0.52393E+05        -0.13385E+06         0.00000E+00
    0.00000E+00         0.00000E+00         0.00000E+00
 
    0.91168E+05         0.55356E+05         0.00000E+00
    0.55356E+05        -0.13303E+06         0.00000E+00
    0.00000E+00         0.00000E+00         0.00000E+00
 
    0.89137E+05         0.58291E+05         0.00000E+00
    0.58291E+05        -0.13216E+06         0.00000E+00
    0.00000E+00         0.00000E+00         0.00000E+00
 
    0.87050E+05         0.61198E+05         0.00000E+00
    0.61198E+05        -0.13126E+06         0.00000E+00
    0.00000E+00         0.00000E+00         0.00000E+00
 
    0.84907E+05         0.64076E+05         0.00000E+00
    0.64076E+05        -0.13032E+06         0.00000E+00
    0.00000E+00         0.00000E+00         0.00000E+00
 
    0.82709E+05         0.66924E+05         0.00000E+00
    0.66924E+05        -0.12933E+06         0.00000E+00
    0.00000E+00         0.00000E+00         0.00000E+00
 
    0.80457E+05         0.69741E+05         0.00000E+00
    0.69741E+05        -0.12830E+06         0.00000E+00
    0.00000E+00         0.00000E+00         0.00000E+00
 
    0.78151E+05         0.72528E+05         0.00000E+00
    0.72528E+05        -0.12724E+06         0.00000E+00
    0.00000E+00         0.00000E+00         0.00000E+00
 
    0.75792E+05         0.75283E+05         0.00000E+00
    0.75283E+05        -0.12614E+06         0.00000E+00
    0.00000E+00         0.00000E+00         0.00000E+00
 
    0.73380E+05         0.78006E+05         0.00000E+00
    0.78006E+05        -0.12500E+06         0.00000E+00
    0.00000E+00         0.00000E+00         0.00000E+00
 
    0.70916E+05         0.80697E+05         0.00000E+00
    0.80697E+05        -0.12383E+06         0.00000E+00
    0.00000E+00         0.00000E+00         0.00000E+00
 
    0.68402E+05         0.83355E+05         0.00000E+00
    0.83355E+05        -0.12262E+06         0.00000E+00
    0.00000E+00         0.00000E+00         0.00000E+00
 
    0.65837E+05         0.85979E+05         0.00000E+00
    0.85979E+05        -0.12138E+06         0.00000E+00
    0.00000E+00         0.00000E+00         0.00000E+00
 
    0.63222E+05         0.88570E+05         0.00000E+00
    0.88570E+05        -0.12010E+06         0.00000E+00
    0.00000E+00         0.00000E+00         0.00000E+00
 
    0.60558E+05         0.91126E+05         0.00000E+00
    0.91126E+05        -0.11880E+06         0.00000E+00
    0.00000E+00         0.00000E+00         0.00000E+00
 
    0.57846E+05         0.93647E+05         0.00000E+00
    0.93647E+05        -0.11746E+06         0.00000E+00
    0.00000E+00         0.00000E+00         0.00000E+00
 
    0.55087E+05         0.96132E+05         0.00000E+00
    0.96132E+05        -0.11609E+06         0.00000E+00
    0.00000E+00         0.00000E+00         0.00000E+00
 
    0.52281E+05         0.98582E+05         0.00000E+00
    0.98582E+05        -0.11469E+06         0.00000E+00
    0.00000E+00         0.00000E+00         0.00000E+00
 
    0.49430E+05         0.10100E+06         0.00000E+00
    0.10100E+06        -0.11327E+06         0.00000E+00
    0.00000E+00         0.00000E+00         0.00000E+00
 
    0.46533E+05         0.10337E+06         0.00000E+00
    0.10337E+06        -0.11181E+06         0.00000E+00
    0.00000E+00         0.00000E+00         0.00000E+00
 
    0.43592E+05         0.10571E+06         0.00000E+00
    0.10571E+06        -0.11033E+06         0.00000E+00
    0.00000E+00         0.00000E+00         0.00000E+00
 
    0.40608E+05         0.10801E+06         0.00000E+00
    0.10801E+06        -0.10883E+06         0.00000E+00
    0.00000E+00         0.00000E+00         0.00000E+00
 
    0.37581E+05         0.11028E+06         0.00000E+00
    0.11028E+06        -0.10730E+06         0.00000E+00
    0.00000E+00         0.00000E+00         0.00000E+00
 
    0.34513E+05         0.11250E+06         0.00000E+00
    0.11250E+06        -0.10575E+06         0.00000E+00
    0.00000E+00         0.00000E+00         0.00000E+00
 
    0.31404E+05         0.11469E+06         0.00000E+00
    0.11469E+06        -0.10417E+06         0.00000E+00
    0.00000E+00         0.00000E+00         0.00000E+00
 
    0.28255E+05         0.11684E+06         0.00000E+00
    0.11684E+06        -0.10258E+06         0.00000E+00
    0.00000E+00         0.00000E+00         0.00000E+00
 
    0.25066E+05         0.11895E+06         0.00000E+00
    0.11895E+06        -0.10096E+06         0.00000E+00
    0.00000E+00         0.00000E+00         0.00000E+00
 
    0.21840E+05         0.12102E+06         0.00000E+00
    0.12102E+06        -0.99330E+05         0.00000E+00
    0.00000E+00         0.00000E+00         0.00000E+00
 
    0.18576E+05         0.12305E+06         0.00000E+00
    0.12305E+06        -0.97679E+05         0.00000E+00
    0.00000E+00         0.00000E+00         0.00000E+00
 
    0.15275E+05         0.12504E+06         0.00000E+00
    0.12504E+06        -0.96011E+05         0.00000E+00
    0.00000E+00         0.00000E+00         0.00000E+00
 
    0.11939E+05         0.12698E+06         0.00000E+00
    0.12698E+06        -0.94327E+05         0.00000E+00
    0.00000E+00         0.00000E+00         0.00000E+00
 
    0.85685E+04         0.12889E+06         0.00000E+00
    0.12889E+06        -0.92629E+05         0.00000E+00
    0.00000E+00         0.00000E+00         0.00000E+00
 
    0.51640E+04         0.13076E+06         0.00000E+00
    0.13076E+06        -0.90918E+05         0.00000E+00
    0.00000E+00         0.00000E+00         0.00000E+00
 
    0.17267E+04         0.13258E+06         0.00000E+00
    0.13258E+06        -0.89194E+05         0.00000E+00
    0.00000E+00         0.00000E+00         0.00000E+00
 
    0.12433E+06         0.17952E+04         0.00000E+00
    0.17952E+04        -0.15013E+06         0.00000E+00
    0.00000E+00         0.00000E+00         0.00000E+00
 
    0.12324E+06         0.53397E+04         0.00000E+00
    0.53397E+04        -0.15007E+06         0.00000E+00
    0.00000E+00         0.00000E+00         0.00000E+00
 
    0.12209E+06         0.88663E+04         0.00000E+00
    0.88663E+04        -0.14996E+06         0.00000E+00
    0.00000E+00         0.00000E+00         0.00000E+00
 
    0.12086E+06         0.12374E+05         0.00000E+00
    0.12374E+05        -0.14980E+06         0.00000E+00
    0.00000E+00         0.00000E+00         0.00000E+00
 
    0.11958E+06         0.15863E+05         0.00000E+00
    0.15863E+05        -0.14958E+06         0.00000E+00
    0.00000E+00         0.00000E+00         0.00000E+00
 
    0.11822E+06         0.19331E+05         0.00000E+00
    0.19331E+05        -0.14930E+06         0.00000E+00
    0.00000E+00         0.00000E+00         0.00000E+00
 
    0.11681E+06         0.22778E+05         0.00000E+00
    0.22778E+05        -0.14898E+06         0.00000E+00
    0.00000E+00         0.00000E+00         0.00000E+00
 
    0.11532E+06         0.26203E+05         0.00000E+00
    0.26203E+05        -0.14860E+06         0.00000E+00
    0.00000E+00         0.00000E+00         0.00000E+00
 
    0.11377E+06         0.29606E+05         0.00000E+00
    0.29606E+05        -0.14817E+06         0.00000E+00
    0.00000E+00         0.00000E+00         0.00000E+00
 
    0.11216E+06         0.32985E+05         0.00000E+00
    0.32985E+05        -0.14769E+06         0.00000E+00
    0.00000E+00         0.00000E+00         0.00000E+00
 
    0.11049E+06         0.36339E+05         0.00000E+00
    0.36339E+05        -0.14715E+06         0.00000E+00
    0.00000E+00         0.00000E+00         0.00000E+00
 
    0.10875E+06         0.39669E+05         0.00000E+00
    0.39669E+05        -0.14657E+06         0.00000E+00
    0.00000E+00         0.00000E+00         0.00000E+00
 
    0.10694E+06         0.42973E+05         0.00000E+00
    0.42973E+05        -0.14594E+06         0.00000E+00
    0.00000E+00         0.00000E+00         0.00000E+00
 
    0.10508E+06         0.46250E+05         0.00000E+00
    0.46250E+05        -0.14526E+06         0.00000E+00
    0.00000E+00         0.00000E+00         0.00000E+00
 
    0.10315E+06         0.49501E+05         0.00000E+00
    0.49501E+05        -0.14453E+06         0.00000E+00
    0.00000E+00         0.00000E+00         0.00000E+00
 
    0.10117E+06         0.52723E+05         0.00000E+00
    0.52723E+05        -0.14375E+06         0.00000E+00
    0.00000E+00         0.00000E+00         0.00000E+00
 
    0.99116E+05         0.55917E+05         0.00000E+00
    0.55917E+05        -0.14293E+06         0.00000E+00
    0.00000E+00         0.00000E+00         0.00000E+00
 
    0.97007E+05         0.59082E+05         0.00000E+00
    0.59082E+05        -0.14206E+06         0.00000E+00
    0.00000E+00         0.00000E+00         0.00000E+00
 
    0.94838E+05         0.62217E+05         0.00000E+00
    0.62217E+05        -0.14114E+06         0.00000E+00
    0.00000E+00         0.00000E+00         0.00000E+00
 
    0.92610E+05         0.65321E+05         0.00000E+00
    0.65321E+05        -0.14018E+06         0.00000E+00
    0.00000E+00         0.00000E+00         0.00000E+00
 
    0.90323E+05         0.68394E+05         0.00000E+00
    0.68394E+05        -0.13918E+06         0.00000E+00
    0.00000E+00         0.00000E+00         0.00000E+00
 
    0.87978E+05         0.71436E+05         0.00000E+00
    0.71436E+05        -0.13814E+06         0.00000E+00
    0.00000E+00         0.00000E+00         0.00000E+00
 
    0.85576E+05         0.74445E+05         0.00000E+00
    0.74445E+05        -0.13705E+06         0.00000E+00
    0.00000E+00         0.00000E+00         0.00000E+00
 
    0.83117E+05         0.77420E+05         0.00000E+00
    0.77420E+05        -0.13593E+06         0.00000E+00
    0.00000E+00         0.00000E+00         0.00000E+00
 
    0.80603E+05         0.80362E+05         0.00000E+00
    0.80362E+05        -0.13476E+06         0.00000E+00
    0.00000E+00         0.00000E+00         0.00000E+00
 
    0.78033E+05         0.83270E+05         0.00000E+00
    0.83270E+05        -0.13355E+06         0.00000E+00
    0.00000E+00         0.00000E+00         0.00000E+00
 
    0.75408E+05         0.86143E+05         0.00000E+00
    0.86143E+05        -0.13231E+06         0.00000E+00
    0.00000E+00         0.00000E+00         0.00000E+00
 
    0.72730E+05         0.88981E+05         0.00000E+00
    0.88981E+05        -0.13103E+06         0.00000E+00
    0.00000E+00         0.00000E+00         0.00000E+00
 
    0.69999E+05         0.91783E+05         0.00000E+00
    0.91783E+05        -0.12971E+06         0.00000E+00
    0.00000E+00         0.00000E+00         0.00000E+00
 
    0.67215E+05         0.94548E+05         0.00000E+00
    0.94548E+05        -0.12836E+06         0.00000E+00
    0.00000E+00         0.00000E+00         0.00000E+00
 
    0.64380E+05         0.97276E+05         0.00000E+00
    0.97276E+05        -0.12698E+06         0.00000E+00
    0.00000E+00         0.00000E+00         0.00000E+00
 
    0.61494E+05         0.99967E+05         0.00000E+00
    0.99967E+05        -0.12556E+06         0.00000E+00
    0.00000E+00         0.00000E+00         0.00000E+00
 
    0.58558E+05         0.10262E+06         0.00000E+00
    0.10262E+06        -0.12411E+06         0.00000E+00
    0.00000E+00         0.00000E+00         0.00000E+00
 
    0.55573E+05         0.10523E+06         0.00000E+00
    0.10523E+06        -0.12262E+06         0.00000E+00
    0.00000E+00         0.00000E+00         0.00000E+00
 
    0.52540E+05         0.10781E+06         0.00000E+00
    0.10781E+06        -0.12111E+06         0.00000E+00
    0.00000E+00         0.00000E+00         0.00000E+00
 
    0.49459E+05         0.11034E+06         0.00000E+00
    0.11034E+06        -0.11957E+06         0.00000E+00
    0.00000E+00         0.00000E+00         0.00000E+00
 
    0.46332E+05         0.11284E+06         0.00000E+00
    0.11284E+06        -0.11800E+06         0.00000E+00
    0.00000E+00         0.00000E+00         0.00000E+00
 
    0.43159E+05         0.11529E+06         0.00000E+00
    0.11529E+06        -0.11640E+06         0.00000E+00
    0.00000E+00         0.00000E+00         0.00000E+00
 
    0.39941E+05         0.11771E+06         0.00000E+00
    0.11771E+06        -0.11478E+06         0.00000E+00
    0.00000E+00         0.00000E+00         0.00000E+00
 
    0.36679E+05         0.12008E+06         0.00000E+00
    0.12008E+06        -0.11314E+06         0.00000E+00
    0.00000E+00         0.00000E+00         0.00000E+00
 
    0.33373E+05         0.12241E+06         0.00000E+00
    0.12241E+06        -0.11147E+06         0.00000E+00
    0.00000E+00         0.00000E+00         0.00000E+00
 
    0.30026E+05         0.12470E+06         0.00000E+00
    0.12470E+06        -0.10977E+06         0.00000E+00
    0.00000E+00         0.00000E+00         0.00000E+00
 
    0.26637E+05         0.12695E+06         0.00000E+00
    0.12695E+06        -0.10806E+06         0.00000E+00
    0.00000E+00         0.00000E+00         0.00000E+00
 
    0.23208E+05         0.12916E+06         0.00000E+00
    0.12916E+06        -0.10633E+06         0.00000E+00
    0.00000E+00         0.00000E+00         0.00000E+00
 
    0.19739E+05         0.13132E+06         0.00000E+00
    0.13132E+06        -0.10457E+06         0.00000E+00
    0.00000E+00         0.00000E+00         0.00000E+00
 
    0.16231E+05         0.13344E+06         0.00000E+00
    0.13344E+06        -0.10280E+06         0.00000E+00
    0.00000E+00         0.00000E+00         0.00000E+00
 
    0.12686E+05         0.13551E+06         0.00000E+00
    0.13551E+06        -0.10101E+06         0.00000E+00
    0.00000E+00         0.00000E+00         0.00000E+00
 
    0.91045E+04         0.13754E+06         0.00000E+00
    0.13754E+06        -0.99211E+05         0.00000E+00
    0.00000E+00         0.00000E+00         0.00000E+00
 
    0.54870E+04         0.13953E+06         0.00000E+00
    0.13953E+06        -0.97393E+05         0.00000E+00
    0.00000E+00         0.00000E+00         0.00000E+00
 
    0.18347E+04         0.14147E+06         0.00000E+00
    0.14147E+06        -0.95561E+05         0.00000E+00
    0.00000E+00         0.00000E+00         0.00000E+00
 
    0.13258E+06         0.19129E+04         0.00000E+00
    0.19129E+04        -0.16022E+06         0.00000E+00
    0.00000E+00         0.00000E+00         0.00000E+00
 
    0.13140E+06         0.56914E+04         0.00000E+00
    0.56914E+04        -0.16016E+06         0.00000E+00
    0.00000E+00         0.00000E+00         0.00000E+00
 
    0.13016E+06         0.94514E+04         0.00000E+00
    0.94514E+04        -0.16005E+06         0.00000E+00
    0.00000E+00         0.00000E+00         0.00000E+00
 
    0.12884E+06         0.13192E+05         0.00000E+00
    0.13192E+05        -0.15987E+06         0.00000E+00
    0.00000E+00         0.00000E+00         0.00000E+00
 
    0.12745E+06         0.16912E+05         0.00000E+00
    0.16912E+05        -0.15964E+06         0.00000E+00
    0.00000E+00         0.00000E+00         0.00000E+00
 
    0.12600E+06         0.20611E+05         0.00000E+00
    0.20611E+05        -0.15935E+06         0.00000E+00
    0.00000E+00         0.00000E+00         0.00000E+00
 
    0.12447E+06         0.24288E+05         0.00000E+00
    0.24288E+05        -0.15900E+06         0.00000E+00
    0.00000E+00         0.00000E+00         0.00000E+00
 
    0.12288E+06         0.27942E+05         0.00000E+00
    0.27942E+05        -0.15860E+06         0.00000E+00
    0.00000E+00         0.00000E+00         0.00000E+00
 
    0.12122E+06         0.31572E+05         0.00000E+00
    0.31572E+05        -0.15814E+06         0.00000E+00
    0.00000E+00         0.00000E+00         0.00000E+00
 
    0.11949E+06         0.35177E+05         0.00000E+00
    0.35177E+05        -0.15763E+06         0.00000E+00
    0.00000E+00         0.00000E+00         0.00000E+00
 
    0.11769E+06         0.38757E+05         0.00000E+00
    0.38757E+05        -0.15706E+06         0.00000E+00
    0.00000E+00         0.00000E+00         0.00000E+00
 
    0.11583E+06         0.42310E+05         0.00000E+00
    0.42310E+05        -0.15644E+06         0.00000E+00
    0.00000E+00         0.00000E+00         0.00000E+00
 
    0.11390E+06         0.45836E+05         0.00000E+00
    0.45836E+05        -0.15577E+06         0.00000E+00
    0.00000E+00         0.00000E+00         0.00000E+00
 
    0.11190E+06         0.49334E+05         0.00000E+00
    0.49334E+05        -0.15505E+06         0.00000E+00
    0.00000E+00         0.00000E+00         0.00000E+00
 
    0.10984E+06         0.52803E+05         0.00000E+00
    0.52803E+05        -0.15427E+06         0.00000E+00
    0.00000E+00         0.00000E+00         0.00000E+00
 
    0.10772E+06         0.56243E+05         0.00000E+00
    0.56243E+05        -0.15345E+06         0.00000E+00
    0.00000E+00         0.00000E+00         0.00000E+00
 
    0.10553E+06         0.59652E+05         0.00000E+00
    0.59652E+05        -0.15258E+06         0.00000E+00
    0.00000E+00         0.00000E+00         0.00000E+00
 
    0.10327E+06         0.63030E+05         0.00000E+00
    0.63030E+05        -0.15165E+06         0.00000E+00
    0.00000E+00         0.00000E+00         0.00000E+00
 
    0.10096E+06         0.66376E+05         0.00000E+00
    0.66376E+05        -0.15068E+06         0.00000E+00
    0.00000E+00         0.00000E+00         0.00000E+00
 
    0.98578E+05         0.69690E+05         0.00000E+00
    0.69690E+05        -0.14967E+06         0.00000E+00
    0.00000E+00         0.00000E+00         0.00000E+00
 
    0.96137E+05         0.72970E+05         0.00000E+00
    0.72970E+05        -0.14860E+06         0.00000E+00
    0.00000E+00         0.00000E+00         0.00000E+00
 
    0.93636E+05         0.76217E+05         0.00000E+00
    0.76217E+05        -0.14750E+06         0.00000E+00
    0.00000E+00         0.00000E+00         0.00000E+00
 
    0.91073E+05         0.79429E+05         0.00000E+00
    0.79429E+05        -0.14634E+06         0.00000E+00
    0.00000E+00         0.00000E+00         0.00000E+00
 
    0.88451E+05         0.82605E+05         0.00000E+00
    0.82605E+05        -0.14515E+06         0.00000E+00
    0.00000E+00         0.00000E+00         0.00000E+00
 
    0.85770E+05         0.85746E+05         0.00000E+00
    0.85746E+05        -0.14391E+06         0.00000E+00
    0.00000E+00         0.00000E+00         0.00000E+00
 
    0.83031E+05         0.88849E+05         0.00000E+00
    0.88849E+05        -0.14263E+06         0.00000E+00
    0.00000E+00         0.00000E+00         0.00000E+00
 
    0.80234E+05         0.91916E+05         0.00000E+00
    0.91916E+05        -0.14131E+06         0.00000E+00
    0.00000E+00         0.00000E+00         0.00000E+00
 
    0.77381E+05         0.94945E+05         0.00000E+00
    0.94945E+05        -0.13995E+06         0.00000E+00
    0.00000E+00         0.00000E+00         0.00000E+00
 
    0.74471E+05         0.97935E+05         0.00000E+00
    0.97935E+05        -0.13855E+06         0.00000E+00
    0.00000E+00         0.00000E+00         0.00000E+00
 
    0.71506E+05         0.10089E+06         0.00000E+00
    0.10089E+06        -0.13712E+06         0.00000E+00
    0.00000E+00         0.00000E+00         0.00000E+00
 
    0.68487E+05         0.10380E+06         0.00000E+00
    0.10380E+06        -0.13565E+06         0.00000E+00
    0.00000E+00         0.00000E+00         0.00000E+00
 
    0.65414E+05         0.10667E+06         0.00000E+00
    0.10667E+06        -0.13414E+06         0.00000E+00
    0.00000E+00         0.00000E+00         0.00000E+00
 
    0.62289E+05         0.10950E+06         0.00000E+00
    0.10950E+06        -0.13260E+06         0.00000E+00
    0.00000E+00         0.00000E+00         0.00000E+00
 
    0.59111E+05         0.11229E+06         0.00000E+00
    0.11229E+06        -0.13103E+06         0.00000E+00
    0.00000E+00         0.00000E+00         0.00000E+00
 
    0.55883E+05         0.11504E+06         0.00000E+00
    0.11504E+06        -0.12942E+06         0.00000E+00
    0.00000E+00         0.00000E+00         0.00000E+00
 
    0.52604E+05         0.11774E+06         0.00000E+00
    0.11774E+06        -0.12779E+06         0.00000E+00
    0.00000E+00         0.00000E+00         0.00000E+00
 
    0.49276E+05         0.12040E+06         0.00000E+00
    0.12040E+06        -0.12612E+06         0.00000E+00
    0.00000E+00         0.00000E+00         0.00000E+00
 
    0.45900E+05         0.12302E+06         0.00000E+00
    0.12302E+06        -0.12443E+06         0.00000E+00
    0.00000E+00         0.00000E+00         0.00000E+00
 
    0.42476E+05         0.12560E+06         0.00000E+00
    0.12560E+06        -0.12270E+06         0.00000E+00
    0.00000E+00         0.00000E+00         0.00000E+00
 
    0.39006E+05         0.12813E+06         0.00000E+00
    0.12813E+06        -0.12095E+06         0.00000E+00
    0.00000E+00         0.00000E+00         0.00000E+00
 
    0.35490E+05         0.13061E+06         0.00000E+00
    0.13061E+06        -0.11918E+06         0.00000E+00
    0.00000E+00         0.00000E+00         0.00000E+00
 
    0.31929E+05         0.13305E+06         0.00000E+00
    0.13305E+06        -0.11738E+06         0.00000E+00
    0.00000E+00         0.00000E+00         0.00000E+00
 
    0.28325E+05         0.13545E+06         0.00000E+00
    0.13545E+06        -0.11556E+06         0.00000E+00
    0.00000E+00         0.00000E+00         0.00000E+00
 
    0.24678E+05         0.13780E+06         0.00000E+00
    0.13780E+06        -0.11372E+06         0.00000E+00
    0.00000E+00         0.00000E+00         0.00000E+00
 
    0.20989E+05         0.14010E+06         0.00000E+00
    0.14010E+06        -0.11186E+06         0.00000E+00
    0.00000E+00         0.00000E+00         0.00000E+00
 
    0.17259E+05         0.14236E+06         0.00000E+00
    0.14236E+06        -0.10998E+06         0.00000E+00
    0.00000E+00         0.00000E+00         0.00000E+00
 
    0.13489E+05         0.14457E+06         0.00000E+00
    0.14457E+06        -0.10808E+06         0.00000E+00
    0.00000E+00         0.00000E+00         0.00000E+00
 
    0.96806E+04         0.14673E+06         0.00000E+00
    0.14673E+06        -0.10616E+06         0.00000E+00
    0.00000E+00         0.00000E+00         0.00000E+00
 
    0.58341E+04         0.14885E+06         0.00000E+00
    0.14885E+06        -0.10423E+06         0.00000E+00
    0.00000E+00         0.00000E+00         0.00000E+00
 
    0.19508E+04         0.15091E+06         0.00000E+00
    0.15091E+06        -0.10228E+06         0.00000E+00
    0.00000E+00         0.00000E+00         0.00000E+00
 
    0.14139E+06         0.20381E+04         0.00000E+00
    0.20381E+04        -0.17097E+06         0.00000E+00
    0.00000E+00         0.00000E+00         0.00000E+00
 
    0.14012E+06         0.60651E+04         0.00000E+00
    0.60651E+04        -0.17091E+06         0.00000E+00
    0.00000E+00         0.00000E+00         0.00000E+00
 
    0.13878E+06         0.10073E+05         0.00000E+00
    0.10073E+05        -0.17078E+06         0.00000E+00
    0.00000E+00         0.00000E+00         0.00000E+00
 
    0.13736E+06         0.14060E+05         0.00000E+00
    0.14060E+05        -0.17060E+06         0.00000E+00
    0.00000E+00         0.00000E+00         0.00000E+00
 
    0.13587E+06         0.18026E+05         0.00000E+00
    0.18026E+05        -0.17035E+06         0.00000E+00
    0.00000E+00         0.00000E+00         0.00000E+00
 
    0.13431E+06         0.21970E+05         0.00000E+00
    0.21970E+05        -0.17004E+06         0.00000E+00
    0.00000E+00         0.00000E+00         0.00000E+00
 
    0.13267E+06         0.25891E+05         0.00000E+00
    0.25891E+05        -0.16967E+06         0.00000E+00
    0.00000E+00         0.00000E+00         0.00000E+00
 
    0.13096E+06         0.29788E+05         0.00000E+00
    0.29788E+05        -0.16924E+06         0.00000E+00
    0.00000E+00         0.00000E+00         0.00000E+00
 
    0.12918E+06         0.33659E+05         0.00000E+00
    0.33659E+05        -0.16876E+06         0.00000E+00
    0.00000E+00         0.00000E+00         0.00000E+00
 
    0.12733E+06         0.37504E+05         0.00000E+00
    0.37504E+05        -0.16821E+06         0.00000E+00
    0.00000E+00         0.00000E+00         0.00000E+00
 
    0.12540E+06         0.41322E+05         0.00000E+00
    0.41322E+05        -0.16761E+06         0.00000E+00
    0.00000E+00         0.00000E+00         0.00000E+00
 
    0.12341E+06         0.45113E+05         0.00000E+00
    0.45113E+05        -0.16695E+06         0.00000E+00
    0.00000E+00         0.00000E+00         0.00000E+00
 
    0.12134E+06         0.48874E+05         0.00000E+00
    0.48874E+05        -0.16624E+06         0.00000E+00
    0.00000E+00         0.00000E+00         0.00000E+00
 
    0.11921E+06         0.52606E+05         0.00000E+00
    0.52606E+05        -0.16547E+06         0.00000E+00
    0.00000E+00         0.00000E+00         0.00000E+00
 
    0.11701E+06         0.56307E+05         0.00000E+00
    0.56307E+05        -0.16465E+06         0.00000E+00
    0.00000E+00         0.00000E+00         0.00000E+00
 
    0.11473E+06         0.59977E+05         0.00000E+00
    0.59977E+05        -0.16377E+06         0.00000E+00
    0.00000E+00         0.00000E+00         0.00000E+00
 
    0.11239E+06         0.63615E+05         0.00000E+00
    0.63615E+05        -0.16284E+06         0.00000E+00
    0.00000E+00         0.00000E+00         0.00000E+00
 
    0.10999E+06         0.67219E+05         0.00000E+00
    0.67219E+05        -0.16186E+06         0.00000E+00
    0.00000E+00         0.00000E+00         0.00000E+00
 
    0.10751E+06         0.70790E+05         0.00000E+00
    0.70790E+05        -0.16083E+06         0.00000E+00
    0.00000E+00         0.00000E+00         0.00000E+00
 
    0.10497E+06         0.74326E+05         0.00000E+00
    0.74326E+05        -0.15975E+06         0.00000E+00
    0.00000E+00         0.00000E+00         0.00000E+00
 
    0.10237E+06         0.77826E+05         0.00000E+00
    0.77826E+05        -0.15862E+06         0.00000E+00
    0.00000E+00         0.00000E+00         0.00000E+00
 
    0.99699E+05         0.81291E+05         0.00000E+00
    0.81291E+05        -0.15744E+06         0.00000E+00
    0.00000E+00         0.00000E+00         0.00000E+00
 
    0.96966E+05         0.84718E+05         0.00000E+00
    0.84718E+05        -0.15622E+06         0.00000E+00
    0.00000E+00         0.00000E+00         0.00000E+00
 
    0.94169E+05         0.88108E+05         0.00000E+00
    0.88108E+05        -0.15495E+06         0.00000E+00
    0.00000E+00         0.00000E+00         0.00000E+00
 
    0.91311E+05         0.91459E+05         0.00000E+00
    0.91459E+05        -0.15363E+06         0.00000E+00
    0.00000E+00         0.00000E+00         0.00000E+00
 
    0.88390E+05         0.94771E+05         0.00000E+00
    0.94771E+05        -0.15227E+06         0.00000E+00
    0.00000E+00         0.00000E+00         0.00000E+00
 
    0.85409E+05         0.98043E+05         0.00000E+00
    0.98043E+05        -0.15087E+06         0.00000E+00
    0.00000E+00         0.00000E+00         0.00000E+00
 
    0.82367E+05         0.10127E+06         0.00000E+00
    0.10127E+06        -0.14943E+06         0.00000E+00
    0.00000E+00         0.00000E+00         0.00000E+00
 
    0.79267E+05         0.10447E+06         0.00000E+00
    0.10447E+06        -0.14794E+06         0.00000E+00
    0.00000E+00         0.00000E+00         0.00000E+00
 
    0.76108E+05         0.10761E+06         0.00000E+00
    0.10761E+06        -0.14642E+06         0.00000E+00
    0.00000E+00         0.00000E+00         0.00000E+00
 
    0.72892E+05         0.11072E+06         0.00000E+00
    0.11072E+06        -0.14486E+06         0.00000E+00
    0.00000E+00         0.00000E+00         0.00000E+00
 
    0.69619E+05         0.11378E+06         0.00000E+00
    0.11378E+06        -0.14326E+06         0.00000E+00
    0.00000E+00         0.00000E+00         0.00000E+00
 
    0.66290E+05         0.11680E+06         0.00000E+00
    0.11680E+06        -0.14162E+06         0.00000E+00
    0.00000E+00         0.00000E+00         0.00000E+00
 
    0.62906E+05         0.11978E+06         0.00000E+00
    0.11978E+06        -0.13995E+06         0.00000E+00
    0.00000E+00         0.00000E+00         0.00000E+00
 
    0.59469E+05         0.12271E+06         0.00000E+00
    0.12271E+06        -0.13824E+06         0.00000E+00
    0.00000E+00         0.00000E+00         0.00000E+00
 
    0.55978E+05         0.12560E+06         0.00000E+00
    0.12560E+06        -0.13650E+06         0.00000E+00
    0.00000E+00         0.00000E+00         0.00000E+00
 
    0.52435E+05         0.12843E+06         0.00000E+00
    0.12843E+06        -0.13473E+06         0.00000E+00
    0.00000E+00         0.00000E+00         0.00000E+00
 
    0.48841E+05         0.13123E+06         0.00000E+00
    0.13123E+06        -0.13293E+06         0.00000E+00
    0.00000E+00         0.00000E+00         0.00000E+00
 
    0.45196E+05         0.13397E+06         0.00000E+00
    0.13397E+06        -0.13110E+06         0.00000E+00
    0.00000E+00         0.00000E+00         0.00000E+00
 
    0.41503E+05         0.13667E+06         0.00000E+00
    0.13667E+06        -0.12924E+06         0.00000E+00
    0.00000E+00         0.00000E+00         0.00000E+00
 
    0.37761E+05         0.13932E+06         0.00000E+00
    0.13932E+06        -0.12736E+06         0.00000E+00
    0.00000E+00         0.00000E+00         0.00000E+00
 
    0.33972E+05         0.14193E+06         0.00000E+00
    0.14193E+06        -0.12545E+06         0.00000E+00
    0.00000E+00         0.00000E+00         0.00000E+00
 
    0.30136E+05         0.14448E+06         0.00000E+00
    0.14448E+06        -0.12351E+06         0.00000E+00
    0.00000E+00         0.00000E+00         0.00000E+00
 
    0.26255E+05         0.14698E+06         0.00000E+00
    0.14698E+06        -0.12155E+06         0.00000E+00
    0.00000E+00         0.00000E+00         0.00000E+00
 
    0.22330E+05         0.14944E+06         0.00000E+00
    0.14944E+06        -0.11957E+06         0.00000E+00
    0.00000E+00         0.00000E+00         0.00000E+00
 
    0.18361E+05         0.15184E+06         0.00000E+00
    0.15184E+06        -0.11757E+06         0.00000E+00
    0.00000E+00         0.00000E+00         0.00000E+00
 
    0.14351E+05         0.15420E+06         0.00000E+00
    0.15420E+06        -0.11555E+06         0.00000E+00
    0.00000E+00         0.00000E+00         0.00000E+00
 
    0.10299E+05         0.15650E+06         0.00000E+00
    0.15650E+06        -0.11351E+06         0.00000E+00
    0.00000E+00         0.00000E+00         0.00000E+00
 
    0.62065E+04         0.15876E+06         0.00000E+00
    0.15876E+06        -0.11146E+06         0.00000E+00
    0.00000E+00         0.00000E+00         0.00000E+00
 
    0.20753E+04         0.16096E+06         0.00000E+00
    0.16096E+06        -0.10938E+06         0.00000E+00
    0.00000E+00         0.00000E+00         0.00000E+00
 
    0.15078E+06         0.21713E+04         0.00000E+00
    0.21713E+04        -0.18242E+06         0.00000E+00
    0.00000E+00         0.00000E+00         0.00000E+00
 
    0.14942E+06         0.64625E+04         0.00000E+00
    0.64625E+04        -0.18235E+06         0.00000E+00
    0.00000E+00         0.00000E+00         0.00000E+00
 
    0.14797E+06         0.10734E+05         0.00000E+00
    0.10734E+05        -0.18222E+06         0.00000E+00
    0.00000E+00         0.00000E+00         0.00000E+00
 
    0.14645E+06         0.14984E+05         0.00000E+00
    0.14984E+05        -0.18202E+06         0.00000E+00
    0.00000E+00         0.00000E+00         0.00000E+00
 
    0.14485E+06         0.19211E+05         0.00000E+00
    0.19211E+05        -0.18175E+06         0.00000E+00
    0.00000E+00         0.00000E+00         0.00000E+00
 
    0.14318E+06         0.23416E+05         0.00000E+00
    0.23416E+05        -0.18143E+06         0.00000E+00
    0.00000E+00         0.00000E+00         0.00000E+00
 
    0.14142E+06         0.27595E+05         0.00000E+00
    0.27595E+05        -0.18103E+06         0.00000E+00
    0.00000E+00         0.00000E+00         0.00000E+00
 
    0.13959E+06         0.31750E+05         0.00000E+00
    0.31750E+05        -0.18058E+06         0.00000E+00
    0.00000E+00         0.00000E+00         0.00000E+00
 
    0.13769E+06         0.35877E+05         0.00000E+00
    0.35877E+05        -0.18006E+06         0.00000E+00
    0.00000E+00         0.00000E+00         0.00000E+00
 
    0.13570E+06         0.39978E+05         0.00000E+00
    0.39978E+05        -0.17948E+06         0.00000E+00
    0.00000E+00         0.00000E+00         0.00000E+00
 
    0.13364E+06         0.44049E+05         0.00000E+00
    0.44049E+05        -0.17884E+06         0.00000E+00
    0.00000E+00         0.00000E+00         0.00000E+00
 
    0.13151E+06         0.48091E+05         0.00000E+00
    0.48091E+05        -0.17814E+06         0.00000E+00
    0.00000E+00         0.00000E+00         0.00000E+00
 
    0.12930E+06         0.52103E+05         0.00000E+00
    0.52103E+05        -0.17738E+06         0.00000E+00
    0.00000E+00         0.00000E+00         0.00000E+00
 
    0.12702E+06         0.56083E+05         0.00000E+00
    0.56083E+05        -0.17656E+06         0.00000E+00
    0.00000E+00         0.00000E+00         0.00000E+00
 
    0.12467E+06         0.60031E+05         0.00000E+00
    0.60031E+05        -0.17569E+06         0.00000E+00
    0.00000E+00         0.00000E+00         0.00000E+00
 
    0.12224E+06         0.63945E+05         0.00000E+00
    0.63945E+05        -0.17476E+06         0.00000E+00
    0.00000E+00         0.00000E+00         0.00000E+00
 
    0.11974E+06         0.67825E+05         0.00000E+00
    0.67825E+05        -0.17377E+06         0.00000E+00
    0.00000E+00         0.00000E+00         0.00000E+00
 
    0.11717E+06         0.71670E+05         0.00000E+00
    0.71670E+05        -0.17273E+06         0.00000E+00
    0.00000E+00         0.00000E+00         0.00000E+00
 
    0.11453E+06         0.75479E+05         0.00000E+00
    0.75479E+05        -0.17163E+06         0.00000E+00
    0.00000E+00         0.00000E+00         0.00000E+00
 
    0.11182E+06         0.79251E+05         0.00000E+00
    0.79251E+05        -0.17048E+06         0.00000E+00
    0.00000E+00         0.00000E+00         0.00000E+00
 
    0.10904E+06         0.82986E+05         0.00000E+00
    0.82986E+05        -0.16928E+06         0.00000E+00
    0.00000E+00         0.00000E+00         0.00000E+00
 
    0.10619E+06         0.86682E+05         0.00000E+00
    0.86682E+05        -0.16803E+06         0.00000E+00
    0.00000E+00         0.00000E+00         0.00000E+00
 
    0.10327E+06         0.90338E+05         0.00000E+00
    0.90338E+05        -0.16673E+06         0.00000E+00
    0.00000E+00         0.00000E+00         0.00000E+00
 
    0.10029E+06         0.93954E+05         0.00000E+00
    0.93954E+05        -0.16538E+06         0.00000E+00
    0.00000E+00         0.00000E+00         0.00000E+00
 
    0.97241E+05         0.97529E+05         0.00000E+00
    0.97529E+05        -0.16398E+06         0.00000E+00
    0.00000E+00         0.00000E+00         0.00000E+00
 
    0.94128E+05         0.10106E+06         0.00000E+00
    0.10106E+06        -0.16253E+06         0.00000E+00
    0.00000E+00         0.00000E+00         0.00000E+00
 
    0.90949E+05         0.10455E+06         0.00000E+00
    0.10455E+06        -0.16104E+06         0.00000E+00
    0.00000E+00         0.00000E+00         0.00000E+00
 
    0.87707E+05         0.10800E+06         0.00000E+00
    0.10800E+06        -0.15951E+06         0.00000E+00
    0.00000E+00         0.00000E+00         0.00000E+00
 
    0.84403E+05         0.11141E+06         0.00000E+00
    0.11141E+06        -0.15793E+06         0.00000E+00
    0.00000E+00         0.00000E+00         0.00000E+00
 
    0.81036E+05         0.11476E+06         0.00000E+00
    0.11476E+06        -0.15631E+06         0.00000E+00
    0.00000E+00         0.00000E+00         0.00000E+00
 
    0.77609E+05         0.11808E+06         0.00000E+00
    0.11808E+06        -0.15464E+06         0.00000E+00
    0.00000E+00         0.00000E+00         0.00000E+00
 
    0.74122E+05         0.12135E+06         0.00000E+00
    0.12135E+06        -0.15294E+06         0.00000E+00
    0.00000E+00         0.00000E+00         0.00000E+00
 
    0.70576E+05         0.12457E+06         0.00000E+00
    0.12457E+06        -0.15120E+06         0.00000E+00
    0.00000E+00         0.00000E+00         0.00000E+00
 
    0.66971E+05         0.12774E+06         0.00000E+00
    0.12774E+06        -0.14942E+06         0.00000E+00
    0.00000E+00         0.00000E+00         0.00000E+00
 
    0.63310E+05         0.13087E+06         0.00000E+00
    0.13087E+06        -0.14761E+06         0.00000E+00
    0.00000E+00         0.00000E+00         0.00000E+00
 
    0.59592E+05         0.13394E+06         0.00000E+00
    0.13394E+06        -0.14576E+06         0.00000E+00
    0.00000E+00         0.00000E+00         0.00000E+00
 
    0.55819E+05         0.13697E+06         0.00000E+00
    0.13697E+06        -0.14388E+06         0.00000E+00
    0.00000E+00         0.00000E+00         0.00000E+00
 
    0.51991E+05         0.13995E+06         0.00000E+00
    0.13995E+06        -0.14196E+06         0.00000E+00
    0.00000E+00         0.00000E+00         0.00000E+00
 
    0.48111E+05         0.14288E+06         0.00000E+00
    0.14288E+06        -0.14002E+06         0.00000E+00
    0.00000E+00         0.00000E+00         0.00000E+00
 
    0.44178E+05         0.14576E+06         0.00000E+00
    0.14576E+06        -0.13804E+06         0.00000E+00
    0.00000E+00         0.00000E+00         0.00000E+00
 
    0.40194E+05         0.14858E+06         0.00000E+00
    0.14858E+06        -0.13603E+06         0.00000E+00
    0.00000E+00         0.00000E+00         0.00000E+00
 
    0.36160E+05         0.15136E+06         0.00000E+00
    0.15136E+06        -0.13400E+06         0.00000E+00
    0.00000E+00         0.00000E+00         0.00000E+00
 
    0.32076E+05         0.15408E+06         0.00000E+00
    0.15408E+06        -0.13194E+06         0.00000E+00
    0.00000E+00         0.00000E+00         0.00000E+00
 
    0.27945E+05         0.15675E+06         0.00000E+00
    0.15675E+06        -0.12986E+06         0.00000E+00
    0.00000E+00         0.00000E+00         0.00000E+00
 
    0.23767E+05         0.15937E+06         0.00000E+00
    0.15937E+06        -0.12775E+06         0.00000E+00
    0.00000E+00         0.00000E+00         0.00000E+00
 
    0.19543E+05         0.16193E+06         0.00000E+00
    0.16193E+06        -0.12562E+06         0.00000E+00
    0.00000E+00         0.00000E+00         0.00000E+00
 
    0.15274E+05         0.16444E+06         0.00000E+00
    0.16444E+06        -0.12347E+06         0.00000E+00
    0.00000E+00         0.00000E+00         0.00000E+00
 
    0.10961E+05         0.16690E+06         0.00000E+00
    0.16690E+06        -0.12131E+06         0.00000E+00
    0.00000E+00         0.00000E+00         0.00000E+00
 
    0.66055E+04         0.16930E+06         0.00000E+00
    0.16930E+06        -0.11912E+06         0.00000E+00
    0.00000E+00         0.00000E+00         0.00000E+00
 
    0.22087E+04         0.17165E+06         0.00000E+00
    0.17165E+06        -0.11691E+06         0.00000E+00
    0.00000E+00         0.00000E+00         0.00000E+00
 
    0.16079E+06         0.23131E+04         0.00000E+00
    0.23131E+04        -0.19461E+06         0.00000E+00
    0.00000E+00         0.00000E+00         0.00000E+00
 
    0.15933E+06         0.68857E+04         0.00000E+00
    0.68857E+04        -0.19454E+06         0.00000E+00
    0.00000E+00         0.00000E+00         0.00000E+00
 
    0.15778E+06         0.11437E+05         0.00000E+00
    0.11437E+05        -0.19440E+06         0.00000E+00
    0.00000E+00         0.00000E+00         0.00000E+00
 
    0.15615E+06         0.15966E+05         0.00000E+00
    0.15966E+05        -0.19419E+06         0.00000E+00
    0.00000E+00         0.00000E+00         0.00000E+00
 
    0.15444E+06         0.20472E+05         0.00000E+00
    0.20472E+05        -0.19391E+06         0.00000E+00
    0.00000E+00         0.00000E+00         0.00000E+00
 
    0.15264E+06         0.24953E+05         0.00000E+00
    0.24953E+05        -0.19356E+06         0.00000E+00
    0.00000E+00         0.00000E+00         0.00000E+00
 
    0.15076E+06         0.29409E+05         0.00000E+00
    0.29409E+05        -0.19314E+06         0.00000E+00
    0.00000E+00         0.00000E+00         0.00000E+00
 
    0.14881E+06         0.33837E+05         0.00000E+00
    0.33837E+05        -0.19265E+06         0.00000E+00
    0.00000E+00         0.00000E+00         0.00000E+00
 
    0.14676E+06         0.38238E+05         0.00000E+00
    0.38238E+05        -0.19210E+06         0.00000E+00
    0.00000E+00         0.00000E+00         0.00000E+00
 
    0.14464E+06         0.42609E+05         0.00000E+00
    0.42609E+05        -0.19148E+06         0.00000E+00
    0.00000E+00         0.00000E+00         0.00000E+00
 
    0.14244E+06         0.46950E+05         0.00000E+00
    0.46950E+05        -0.19080E+06         0.00000E+00
    0.00000E+00         0.00000E+00         0.00000E+00
 
    0.14016E+06         0.51260E+05         0.00000E+00
    0.51260E+05        -0.19006E+06         0.00000E+00
    0.00000E+00         0.00000E+00         0.00000E+00
 
    0.13780E+06         0.55537E+05         0.00000E+00
    0.55537E+05        -0.18925E+06         0.00000E+00
    0.00000E+00         0.00000E+00         0.00000E+00
 
    0.13536E+06         0.59781E+05         0.00000E+00
    0.59781E+05        -0.18838E+06         0.00000E+00
    0.00000E+00         0.00000E+00         0.00000E+00
 
    0.13285E+06         0.63991E+05         0.00000E+00
    0.63991E+05        -0.18745E+06         0.00000E+00
    0.00000E+00         0.00000E+00         0.00000E+00
 
    0.13026E+06         0.68166E+05         0.00000E+00
    0.68166E+05        -0.18646E+06         0.00000E+00
    0.00000E+00         0.00000E+00         0.00000E+00
 
    0.12759E+06         0.72304E+05         0.00000E+00
    0.72304E+05        -0.18540E+06         0.00000E+00
    0.00000E+00         0.00000E+00         0.00000E+00
 
    0.12484E+06         0.76404E+05         0.00000E+00
    0.76404E+05        -0.18430E+06         0.00000E+00
    0.00000E+00         0.00000E+00         0.00000E+00
 
    0.12202E+06         0.80466E+05         0.00000E+00
    0.80466E+05        -0.18313E+06         0.00000E+00
    0.00000E+00         0.00000E+00         0.00000E+00
 
    0.11913E+06         0.84490E+05         0.00000E+00
    0.84490E+05        -0.18191E+06         0.00000E+00
    0.00000E+00         0.00000E+00         0.00000E+00
 
    0.11617E+06         0.88472E+05         0.00000E+00
    0.88472E+05        -0.18063E+06         0.00000E+00
    0.00000E+00         0.00000E+00         0.00000E+00
 
    0.11313E+06         0.92414E+05         0.00000E+00
    0.92414E+05        -0.17930E+06         0.00000E+00
    0.00000E+00         0.00000E+00         0.00000E+00
 
    0.11002E+06         0.96314E+05         0.00000E+00
    0.96314E+05        -0.17791E+06         0.00000E+00
    0.00000E+00         0.00000E+00         0.00000E+00
 
    0.10683E+06         0.10017E+06         0.00000E+00
    0.10017E+06        -0.17647E+06         0.00000E+00
    0.00000E+00         0.00000E+00         0.00000E+00
 
    0.10358E+06         0.10398E+06         0.00000E+00
    0.10398E+06        -0.17499E+06         0.00000E+00
    0.00000E+00         0.00000E+00         0.00000E+00
 
    0.10026E+06         0.10775E+06         0.00000E+00
    0.10775E+06        -0.17345E+06         0.00000E+00
    0.00000E+00         0.00000E+00         0.00000E+00
 
    0.96874E+05         0.11148E+06         0.00000E+00
    0.11148E+06        -0.17186E+06         0.00000E+00
    0.00000E+00         0.00000E+00         0.00000E+00
 
    0.93418E+05         0.11515E+06         0.00000E+00
    0.11515E+06        -0.17023E+06         0.00000E+00
    0.00000E+00         0.00000E+00         0.00000E+00
 
    0.89896E+05         0.11879E+06         0.00000E+00
    0.11879E+06        -0.16855E+06         0.00000E+00
    0.00000E+00         0.00000E+00         0.00000E+00
 
    0.86308E+05         0.12237E+06         0.00000E+00
    0.12237E+06        -0.16682E+06         0.00000E+00
    0.00000E+00         0.00000E+00         0.00000E+00
 
    0.82655E+05         0.12590E+06         0.00000E+00
    0.12590E+06        -0.16506E+06         0.00000E+00
    0.00000E+00         0.00000E+00         0.00000E+00
 
    0.78939E+05         0.12939E+06         0.00000E+00
    0.12939E+06        -0.16325E+06         0.00000E+00
    0.00000E+00         0.00000E+00         0.00000E+00
 
    0.75160E+05         0.13282E+06         0.00000E+00
    0.13282E+06        -0.16139E+06         0.00000E+00
    0.00000E+00         0.00000E+00         0.00000E+00
 
    0.71320E+05         0.13621E+06         0.00000E+00
    0.13621E+06        -0.15950E+06         0.00000E+00
    0.00000E+00         0.00000E+00         0.00000E+00
 
    0.67419E+05         0.13954E+06         0.00000E+00
    0.13954E+06        -0.15757E+06         0.00000E+00
    0.00000E+00         0.00000E+00         0.00000E+00
 
    0.63458E+05         0.14283E+06         0.00000E+00
    0.14283E+06        -0.15561E+06         0.00000E+00
    0.00000E+00         0.00000E+00         0.00000E+00
 
    0.59439E+05         0.14606E+06         0.00000E+00
    0.14606E+06        -0.15360E+06         0.00000E+00
    0.00000E+00         0.00000E+00         0.00000E+00
 
    0.55362E+05         0.14923E+06         0.00000E+00
    0.14923E+06        -0.15157E+06         0.00000E+00
    0.00000E+00         0.00000E+00         0.00000E+00
 
    0.51229E+05         0.15236E+06         0.00000E+00
    0.15236E+06        -0.14949E+06         0.00000E+00
    0.00000E+00         0.00000E+00         0.00000E+00
 
    0.47041E+05         0.15542E+06         0.00000E+00
    0.15542E+06        -0.14739E+06         0.00000E+00
    0.00000E+00         0.00000E+00         0.00000E+00
 
    0.42798E+05         0.15844E+06         0.00000E+00
    0.15844E+06        -0.14526E+06         0.00000E+00
    0.00000E+00         0.00000E+00         0.00000E+00
 
    0.38501E+05         0.16140E+06         0.00000E+00
    0.16140E+06        -0.14309E+06         0.00000E+00
    0.00000E+00         0.00000E+00         0.00000E+00
 
    0.34153E+05         0.16430E+06         0.00000E+00
    0.16430E+06        -0.14090E+06         0.00000E+00
    0.00000E+00         0.00000E+00         0.00000E+00
 
    0.29754E+05         0.16715E+06         0.00000E+00
    0.16715E+06        -0.13869E+06         0.00000E+00
    0.00000E+00         0.00000E+00         0.00000E+00
 
    0.25305E+05         0.16994E+06         0.00000E+00
    0.16994E+06        -0.13644E+06         0.00000E+00
    0.00000E+00         0.00000E+00         0.00000E+00
 
    0.20807E+05         0.17267E+06         0.00000E+00
    0.17267E+06        -0.13418E+06         0.00000E+00
    0.00000E+00         0.00000E+00         0.00000E+00
 
    0.16262E+05         0.17535E+06         0.00000E+00
    0.17535E+06        -0.13189E+06         0.00000E+00
    0.00000E+00         0.00000E+00         0.00000E+00
 
    0.11670E+05         0.17796E+06         0.00000E+00
    0.17796E+06        -0.12958E+06         0.00000E+00
    0.00000E+00         0.00000E+00         0.00000E+00
 
    0.70326E+04         0.18052E+06         0.00000E+00
    0.18052E+06        -0.12725E+06         0.00000E+00
    0.00000E+00         0.00000E+00         0.00000E+00
 
    0.23514E+04         0.18302E+06         0.00000E+00
    0.18302E+06        -0.12491E+06         0.00000E+00
    0.00000E+00         0.00000E+00         0.00000E+00
 
    0.17145E+06         0.24643E+04         0.00000E+00
    0.24643E+04        -0.20760E+06         0.00000E+00
    0.00000E+00         0.00000E+00         0.00000E+00
 
    0.16989E+06         0.73365E+04         0.00000E+00
    0.73365E+04        -0.20753E+06         0.00000E+00
    0.00000E+00         0.00000E+00         0.00000E+00
 
    0.16823E+06         0.12187E+05         0.00000E+00
    0.12187E+05        -0.20738E+06         0.00000E+00
    0.00000E+00         0.00000E+00         0.00000E+00
 
    0.16649E+06         0.17013E+05         0.00000E+00
    0.17013E+05        -0.20715E+06         0.00000E+00
    0.00000E+00         0.00000E+00         0.00000E+00
 
    0.16465E+06         0.21815E+05         0.00000E+00
    0.21815E+05        -0.20685E+06         0.00000E+00
    0.00000E+00         0.00000E+00         0.00000E+00
 
    0.16273E+06         0.26591E+05         0.00000E+00
    0.26591E+05        -0.20648E+06         0.00000E+00
    0.00000E+00         0.00000E+00         0.00000E+00
 
    0.16073E+06         0.31339E+05         0.00000E+00
    0.31339E+05        -0.20603E+06         0.00000E+00
    0.00000E+00         0.00000E+00         0.00000E+00
 
    0.15863E+06         0.36060E+05         0.00000E+00
    0.36060E+05        -0.20552E+06         0.00000E+00
    0.00000E+00         0.00000E+00         0.00000E+00
 
    0.15645E+06         0.40750E+05         0.00000E+00
    0.40750E+05        -0.20493E+06         0.00000E+00
    0.00000E+00         0.00000E+00         0.00000E+00
 
    0.15418E+06         0.45410E+05         0.00000E+00
    0.45410E+05        -0.20427E+06         0.00000E+00
    0.00000E+00         0.00000E+00         0.00000E+00
 
    0.15183E+06         0.50038E+05         0.00000E+00
    0.50038E+05        -0.20355E+06         0.00000E+00
    0.00000E+00         0.00000E+00         0.00000E+00
 
    0.14939E+06         0.54632E+05         0.00000E+00
    0.54632E+05        -0.20275E+06         0.00000E+00
    0.00000E+00         0.00000E+00         0.00000E+00
 
    0.14687E+06         0.59193E+05         0.00000E+00
    0.59193E+05        -0.20189E+06         0.00000E+00
    0.00000E+00         0.00000E+00         0.00000E+00
 
    0.14427E+06         0.63718E+05         0.00000E+00
    0.63718E+05        -0.20097E+06         0.00000E+00
    0.00000E+00         0.00000E+00         0.00000E+00
 
    0.14158E+06         0.68206E+05         0.00000E+00
    0.68206E+05        -0.19997E+06         0.00000E+00
    0.00000E+00         0.00000E+00         0.00000E+00
 
    0.13882E+06         0.72657E+05         0.00000E+00
    0.72657E+05        -0.19892E+06         0.00000E+00
    0.00000E+00         0.00000E+00         0.00000E+00
 
    0.13597E+06         0.77069E+05         0.00000E+00
    0.77069E+05        -0.19780E+06         0.00000E+00
    0.00000E+00         0.00000E+00         0.00000E+00
 
    0.13304E+06         0.81442E+05         0.00000E+00
    0.81442E+05        -0.19662E+06         0.00000E+00
    0.00000E+00         0.00000E+00         0.00000E+00
 
    0.13003E+06         0.85773E+05         0.00000E+00
    0.85773E+05        -0.19538E+06         0.00000E+00
    0.00000E+00         0.00000E+00         0.00000E+00
 
    0.12694E+06         0.90063E+05         0.00000E+00
    0.90063E+05        -0.19407E+06         0.00000E+00
    0.00000E+00         0.00000E+00         0.00000E+00
 
    0.12378E+06         0.94311E+05         0.00000E+00
    0.94311E+05        -0.19271E+06         0.00000E+00
    0.00000E+00         0.00000E+00         0.00000E+00
 
    0.12054E+06         0.98514E+05         0.00000E+00
    0.98514E+05        -0.19130E+06         0.00000E+00
    0.00000E+00         0.00000E+00         0.00000E+00
 
    0.11722E+06         0.10267E+06         0.00000E+00
    0.10267E+06        -0.18982E+06         0.00000E+00
    0.00000E+00         0.00000E+00         0.00000E+00
 
    0.11383E+06         0.10679E+06         0.00000E+00
    0.10679E+06        -0.18829E+06         0.00000E+00
    0.00000E+00         0.00000E+00         0.00000E+00
 
    0.11036E+06         0.11085E+06         0.00000E+00
    0.11085E+06        -0.18671E+06         0.00000E+00
    0.00000E+00         0.00000E+00         0.00000E+00
 
    0.10682E+06         0.11487E+06         0.00000E+00
    0.11487E+06        -0.18507E+06         0.00000E+00
    0.00000E+00         0.00000E+00         0.00000E+00
 
    0.10321E+06         0.11884E+06         0.00000E+00
    0.11884E+06        -0.18338E+06         0.00000E+00
    0.00000E+00         0.00000E+00         0.00000E+00
 
    0.99521E+05         0.12277E+06         0.00000E+00
    0.12277E+06        -0.18165E+06         0.00000E+00
    0.00000E+00         0.00000E+00         0.00000E+00
 
    0.95766E+05         0.12664E+06         0.00000E+00
    0.12664E+06        -0.17986E+06         0.00000E+00
    0.00000E+00         0.00000E+00         0.00000E+00
 
    0.91941E+05         0.13046E+06         0.00000E+00
    0.13046E+06        -0.17802E+06         0.00000E+00
    0.00000E+00         0.00000E+00         0.00000E+00
 
    0.88048E+05         0.13423E+06         0.00000E+00
    0.13423E+06        -0.17614E+06         0.00000E+00
    0.00000E+00         0.00000E+00         0.00000E+00
 
    0.84088E+05         0.13795E+06         0.00000E+00
    0.13795E+06        -0.17421E+06         0.00000E+00
    0.00000E+00         0.00000E+00         0.00000E+00
 
    0.80061E+05         0.14161E+06         0.00000E+00
    0.14161E+06        -0.17224E+06         0.00000E+00
    0.00000E+00         0.00000E+00         0.00000E+00
 
    0.75969E+05         0.14522E+06         0.00000E+00
    0.14522E+06        -0.17023E+06         0.00000E+00
    0.00000E+00         0.00000E+00         0.00000E+00
 
    0.71812E+05         0.14878E+06         0.00000E+00
    0.14878E+06        -0.16818E+06         0.00000E+00
    0.00000E+00         0.00000E+00         0.00000E+00
 
    0.67592E+05         0.15228E+06         0.00000E+00
    0.15228E+06        -0.16608E+06         0.00000E+00
    0.00000E+00         0.00000E+00         0.00000E+00
 
    0.63310E+05         0.15572E+06         0.00000E+00
    0.15572E+06        -0.16395E+06         0.00000E+00
    0.00000E+00         0.00000E+00         0.00000E+00
 
    0.58966E+05         0.15911E+06         0.00000E+00
    0.15911E+06        -0.16178E+06         0.00000E+00
    0.00000E+00         0.00000E+00         0.00000E+00
 
    0.54563E+05         0.16244E+06         0.00000E+00
    0.16244E+06        -0.15958E+06         0.00000E+00
    0.00000E+00         0.00000E+00         0.00000E+00
 
    0.50101E+05         0.16571E+06         0.00000E+00
    0.16571E+06        -0.15734E+06         0.00000E+00
    0.00000E+00         0.00000E+00         0.00000E+00
 
    0.45581E+05         0.16893E+06         0.00000E+00
    0.16893E+06        -0.15507E+06         0.00000E+00
    0.00000E+00         0.00000E+00         0.00000E+00
 
    0.41005E+05         0.17208E+06         0.00000E+00
    0.17208E+06        -0.15276E+06         0.00000E+00
    0.00000E+00         0.00000E+00         0.00000E+00
 
    0.36374E+05         0.17518E+06         0.00000E+00
    0.17518E+06        -0.15043E+06         0.00000E+00
    0.00000E+00         0.00000E+00         0.00000E+00
 
    0.31688E+05         0.17821E+06         0.00000E+00
    0.17821E+06        -0.14807E+06         0.00000E+00
    0.00000E+00         0.00000E+00         0.00000E+00
 
    0.26949E+05         0.18119E+06         0.00000E+00
    0.18119E+06        -0.14568E+06         0.00000E+00
    0.00000E+00         0.00000E+00         0.00000E+00
 
    0.22159E+05         0.18410E+06         0.00000E+00
    0.18410E+06        -0.14327E+06         0.00000E+00
    0.00000E+00         0.00000E+00         0.00000E+00
 
    0.17318E+05         0.18695E+06         0.00000E+00
    0.18695E+06        -0.14084E+06         0.00000E+00
    0.00000E+00         0.00000E+00         0.00000E+00
 
    0.12428E+05         0.18974E+06         0.00000E+00
    0.18974E+06        -0.13838E+06         0.00000E+00
    0.00000E+00         0.00000E+00         0.00000E+00
 
    0.74893E+04         0.19247E+06         0.00000E+00
    0.19247E+06        -0.13590E+06         0.00000E+00
    0.00000E+00         0.00000E+00         0.00000E+00
 
    0.25041E+04         0.19513E+06         0.00000E+00
    0.19513E+06        -0.13340E+06         0.00000E+00
    0.00000E+00         0.00000E+00         0.00000E+00
 
    0.18282E+06         0.26254E+04         0.00000E+00
    0.26254E+04        -0.22145E+06         0.00000E+00
    0.00000E+00         0.00000E+00         0.00000E+00
 
    0.18114E+06         0.78168E+04         0.00000E+00
    0.78168E+04        -0.22137E+06         0.00000E+00
    0.00000E+00         0.00000E+00         0.00000E+00
 
    0.17937E+06         0.12985E+05         0.00000E+00
    0.12985E+05        -0.22121E+06         0.00000E+00
    0.00000E+00         0.00000E+00         0.00000E+00
 
    0.17750E+06         0.18128E+05         0.00000E+00
    0.18128E+05        -0.22096E+06         0.00000E+00
    0.00000E+00         0.00000E+00         0.00000E+00
 
    0.17554E+06         0.23245E+05         0.00000E+00
    0.23245E+05        -0.22065E+06         0.00000E+00
    0.00000E+00         0.00000E+00         0.00000E+00
 
    0.17349E+06         0.28335E+05         0.00000E+00
    0.28335E+05        -0.22025E+06         0.00000E+00
    0.00000E+00         0.00000E+00         0.00000E+00
 
    0.17134E+06         0.33396E+05         0.00000E+00
    0.33396E+05        -0.21977E+06         0.00000E+00
    0.00000E+00         0.00000E+00         0.00000E+00
 
    0.16911E+06         0.38427E+05         0.00000E+00
    0.38427E+05        -0.21922E+06         0.00000E+00
    0.00000E+00         0.00000E+00         0.00000E+00
 
    0.16678E+06         0.43426E+05         0.00000E+00
    0.43426E+05        -0.21860E+06         0.00000E+00
    0.00000E+00         0.00000E+00         0.00000E+00
 
    0.16435E+06         0.48393E+05         0.00000E+00
    0.48393E+05        -0.21790E+06         0.00000E+00
    0.00000E+00         0.00000E+00         0.00000E+00
 
    0.16184E+06         0.53326E+05         0.00000E+00
    0.53326E+05        -0.21713E+06         0.00000E+00
    0.00000E+00         0.00000E+00         0.00000E+00
 
    0.15924E+06         0.58224E+05         0.00000E+00
    0.58224E+05        -0.21628E+06         0.00000E+00
    0.00000E+00         0.00000E+00         0.00000E+00
 
    0.15655E+06         0.63085E+05         0.00000E+00
    0.63085E+05        -0.21536E+06         0.00000E+00
    0.00000E+00         0.00000E+00         0.00000E+00
 
    0.15377E+06         0.67909E+05         0.00000E+00
    0.67909E+05        -0.21438E+06         0.00000E+00
    0.00000E+00         0.00000E+00         0.00000E+00
 
    0.15090E+06         0.72694E+05         0.00000E+00
    0.72694E+05        -0.21332E+06         0.00000E+00
    0.00000E+00         0.00000E+00         0.00000E+00
 
    0.14795E+06         0.77439E+05         0.00000E+00
    0.77439E+05        -0.21220E+06         0.00000E+00
    0.00000E+00         0.00000E+00         0.00000E+00
 
    0.14491E+06         0.82143E+05         0.00000E+00
    0.82143E+05        -0.21101E+06         0.00000E+00
    0.00000E+00         0.00000E+00         0.00000E+00
 
    0.14178E+06         0.86805E+05         0.00000E+00
    0.86805E+05        -0.20975E+06         0.00000E+00
    0.00000E+00         0.00000E+00         0.00000E+00
 
    0.13857E+06         0.91424E+05         0.00000E+00
    0.91424E+05        -0.20843E+06         0.00000E+00
    0.00000E+00         0.00000E+00         0.00000E+00
 
    0.13528E+06         0.95998E+05         0.00000E+00
    0.95998E+05        -0.20704E+06         0.00000E+00
    0.00000E+00         0.00000E+00         0.00000E+00
 
    0.13190E+06         0.10053E+06         0.00000E+00
    0.10053E+06        -0.20559E+06         0.00000E+00
    0.00000E+00         0.00000E+00         0.00000E+00
 
    0.12845E+06         0.10501E+06         0.00000E+00
    0.10501E+06        -0.20408E+06         0.00000E+00
    0.00000E+00         0.00000E+00         0.00000E+00
 
    0.12491E+06         0.10944E+06         0.00000E+00
    0.10944E+06        -0.20251E+06         0.00000E+00
    0.00000E+00         0.00000E+00         0.00000E+00
 
    0.12129E+06         0.11383E+06         0.00000E+00
    0.11383E+06        -0.20088E+06         0.00000E+00
    0.00000E+00         0.00000E+00         0.00000E+00
 
    0.11759E+06         0.11817E+06         0.00000E+00
    0.11817E+06        -0.19920E+06         0.00000E+00
    0.00000E+00         0.00000E+00         0.00000E+00
 
    0.11382E+06         0.12245E+06         0.00000E+00
    0.12245E+06        -0.19745E+06         0.00000E+00
    0.00000E+00         0.00000E+00         0.00000E+00
 
    0.10996E+06         0.12669E+06         0.00000E+00
    0.12669E+06        -0.19566E+06         0.00000E+00
    0.00000E+00         0.00000E+00         0.00000E+00
 
    0.10604E+06         0.13087E+06         0.00000E+00
    0.13087E+06        -0.19381E+06         0.00000E+00
    0.00000E+00         0.00000E+00         0.00000E+00
 
    0.10203E+06         0.13500E+06         0.00000E+00
    0.13500E+06        -0.19190E+06         0.00000E+00
    0.00000E+00         0.00000E+00         0.00000E+00
 
    0.97957E+05         0.13907E+06         0.00000E+00
    0.13907E+06        -0.18995E+06         0.00000E+00
    0.00000E+00         0.00000E+00         0.00000E+00
 
    0.93808E+05         0.14309E+06         0.00000E+00
    0.14309E+06        -0.18795E+06         0.00000E+00
    0.00000E+00         0.00000E+00         0.00000E+00
 
    0.89587E+05         0.14706E+06         0.00000E+00
    0.14706E+06        -0.18589E+06         0.00000E+00
    0.00000E+00         0.00000E+00         0.00000E+00
 
    0.85295E+05         0.15096E+06         0.00000E+00
    0.15096E+06        -0.18380E+06         0.00000E+00
    0.00000E+00         0.00000E+00         0.00000E+00
 
    0.80934E+05         0.15481E+06         0.00000E+00
    0.15481E+06        -0.18165E+06         0.00000E+00
    0.00000E+00         0.00000E+00         0.00000E+00
 
    0.76504E+05         0.15861E+06         0.00000E+00
    0.15861E+06        -0.17947E+06         0.00000E+00
    0.00000E+00         0.00000E+00         0.00000E+00
 
    0.72007E+05         0.16234E+06         0.00000E+00
    0.16234E+06        -0.17724E+06         0.00000E+00
    0.00000E+00         0.00000E+00         0.00000E+00
 
    0.67444E+05         0.16601E+06         0.00000E+00
    0.16601E+06        -0.17497E+06         0.00000E+00
    0.00000E+00         0.00000E+00         0.00000E+00
 
    0.62816E+05         0.16962E+06         0.00000E+00
    0.16962E+06        -0.17266E+06         0.00000E+00
    0.00000E+00         0.00000E+00         0.00000E+00
 
    0.58125E+05         0.17318E+06         0.00000E+00
    0.17318E+06        -0.17031E+06         0.00000E+00
    0.00000E+00         0.00000E+00         0.00000E+00
 
    0.53371E+05         0.17667E+06         0.00000E+00
    0.17667E+06        -0.16792E+06         0.00000E+00
    0.00000E+00         0.00000E+00         0.00000E+00
 
    0.48555E+05         0.18009E+06         0.00000E+00
    0.18009E+06        -0.16551E+06         0.00000E+00
    0.00000E+00         0.00000E+00         0.00000E+00
 
    0.43680E+05         0.18346E+06         0.00000E+00
    0.18346E+06        -0.16305E+06         0.00000E+00
    0.00000E+00         0.00000E+00         0.00000E+00
 
    0.38746E+05         0.18676E+06         0.00000E+00
    0.18676E+06        -0.16057E+06         0.00000E+00
    0.00000E+00         0.00000E+00         0.00000E+00
 
    0.33754E+05         0.18999E+06         0.00000E+00
    0.18999E+06        -0.15806E+06         0.00000E+00
    0.00000E+00         0.00000E+00         0.00000E+00
 
    0.28706E+05         0.19317E+06         0.00000E+00
    0.19317E+06        -0.15552E+06         0.00000E+00
    0.00000E+00         0.00000E+00         0.00000E+00
 
    0.23603E+05         0.19627E+06         0.00000E+00
    0.19627E+06        -0.15295E+06         0.00000E+00
    0.00000E+00         0.00000E+00         0.00000E+00
 
    0.18447E+05         0.19931E+06         0.00000E+00
    0.19931E+06        -0.15035E+06         0.00000E+00
    0.00000E+00         0.00000E+00         0.00000E+00
 
    0.13238E+05         0.20229E+06         0.00000E+00
    0.20229E+06        -0.14773E+06         0.00000E+00
    0.00000E+00         0.00000E+00         0.00000E+00
 
    0.79773E+04         0.20519E+06         0.00000E+00
    0.20519E+06        -0.14509E+06         0.00000E+00
    0.00000E+00         0.00000E+00         0.00000E+00
 
    0.26673E+04         0.20804E+06         0.00000E+00
    0.20804E+06        -0.14243E+06         0.00000E+00
    0.00000E+00         0.00000E+00         0.00000E+00
 
    0.19492E+06         0.27971E+04         0.00000E+00
    0.27971E+04        -0.23620E+06         0.00000E+00
    0.00000E+00         0.00000E+00         0.00000E+00
 
    0.19313E+06         0.83288E+04         0.00000E+00
    0.83288E+04        -0.23612E+06         0.00000E+00
    0.00000E+00         0.00000E+00         0.00000E+00
 
    0.19124E+06         0.13836E+05         0.00000E+00
    0.13836E+05        -0.23594E+06         0.00000E+00
    0.00000E+00         0.00000E+00         0.00000E+00
 
    0.18924E+06         0.19317E+05         0.00000E+00
    0.19317E+05        -0.23569E+06         0.00000E+00
    0.00000E+00         0.00000E+00         0.00000E+00
 
    0.18715E+06         0.24770E+05         0.00000E+00
    0.24770E+05        -0.23535E+06         0.00000E+00
    0.00000E+00         0.00000E+00         0.00000E+00
 
    0.18495E+06         0.30194E+05         0.00000E+00
    0.30194E+05        -0.23492E+06         0.00000E+00
    0.00000E+00         0.00000E+00         0.00000E+00
 
    0.18266E+06         0.35587E+05         0.00000E+00
    0.35587E+05        -0.23442E+06         0.00000E+00
    0.00000E+00         0.00000E+00         0.00000E+00
 
    0.18027E+06         0.40949E+05         0.00000E+00
    0.40949E+05        -0.23383E+06         0.00000E+00
    0.00000E+00         0.00000E+00         0.00000E+00
 
    0.17778E+06         0.46277E+05         0.00000E+00
    0.46277E+05        -0.23317E+06         0.00000E+00
    0.00000E+00         0.00000E+00         0.00000E+00
 
    0.17520E+06         0.51571E+05         0.00000E+00
    0.51571E+05        -0.23242E+06         0.00000E+00
    0.00000E+00         0.00000E+00         0.00000E+00
 
    0.17251E+06         0.56829E+05         0.00000E+00
    0.56829E+05        -0.23160E+06         0.00000E+00
    0.00000E+00         0.00000E+00         0.00000E+00
 
    0.16974E+06         0.62050E+05         0.00000E+00
    0.62050E+05        -0.23070E+06         0.00000E+00
    0.00000E+00         0.00000E+00         0.00000E+00
 
    0.16686E+06         0.67231E+05         0.00000E+00
    0.67231E+05        -0.22972E+06         0.00000E+00
    0.00000E+00         0.00000E+00         0.00000E+00
 
    0.16390E+06         0.72373E+05         0.00000E+00
    0.72373E+05        -0.22867E+06         0.00000E+00
    0.00000E+00         0.00000E+00         0.00000E+00
 
    0.16084E+06         0.77474E+05         0.00000E+00
    0.77474E+05        -0.22755E+06         0.00000E+00
    0.00000E+00         0.00000E+00         0.00000E+00
 
    0.15769E+06         0.82533E+05         0.00000E+00
    0.82533E+05        -0.22635E+06         0.00000E+00
    0.00000E+00         0.00000E+00         0.00000E+00
 
    0.15444E+06         0.87547E+05         0.00000E+00
    0.87547E+05        -0.22508E+06         0.00000E+00
    0.00000E+00         0.00000E+00         0.00000E+00
 
    0.15111E+06         0.92517E+05         0.00000E+00
    0.92517E+05        -0.22374E+06         0.00000E+00
    0.00000E+00         0.00000E+00         0.00000E+00
 
    0.14768E+06         0.97441E+05         0.00000E+00
    0.97441E+05        -0.22233E+06         0.00000E+00
    0.00000E+00         0.00000E+00         0.00000E+00
 
    0.14417E+06         0.10232E+06         0.00000E+00
    0.10232E+06        -0.22085E+06         0.00000E+00
    0.00000E+00         0.00000E+00         0.00000E+00
 
    0.14057E+06         0.10715E+06         0.00000E+00
    0.10715E+06        -0.21931E+06         0.00000E+00
    0.00000E+00         0.00000E+00         0.00000E+00
 
    0.13688E+06         0.11193E+06         0.00000E+00
    0.11193E+06        -0.21770E+06         0.00000E+00
    0.00000E+00         0.00000E+00         0.00000E+00
 
    0.13311E+06         0.11665E+06         0.00000E+00
    0.11665E+06        -0.21603E+06         0.00000E+00
    0.00000E+00         0.00000E+00         0.00000E+00
 
    0.12925E+06         0.12133E+06         0.00000E+00
    0.12133E+06        -0.21430E+06         0.00000E+00
    0.00000E+00         0.00000E+00         0.00000E+00
 
    0.12531E+06         0.12595E+06         0.00000E+00
    0.12595E+06        -0.21250E+06         0.00000E+00
    0.00000E+00         0.00000E+00         0.00000E+00
 
    0.12129E+06         0.13052E+06         0.00000E+00
    0.13052E+06        -0.21065E+06         0.00000E+00
    0.00000E+00         0.00000E+00         0.00000E+00
 
    0.11718E+06         0.13504E+06         0.00000E+00
    0.13504E+06        -0.20873E+06         0.00000E+00
    0.00000E+00         0.00000E+00         0.00000E+00
 
    0.11299E+06         0.13950E+06         0.00000E+00
    0.13950E+06        -0.20676E+06         0.00000E+00
    0.00000E+00         0.00000E+00         0.00000E+00
 
    0.10872E+06         0.14390E+06         0.00000E+00
    0.14390E+06        -0.20473E+06         0.00000E+00
    0.00000E+00         0.00000E+00         0.00000E+00
 
    0.10438E+06         0.14825E+06         0.00000E+00
    0.14825E+06        -0.20265E+06         0.00000E+00
    0.00000E+00         0.00000E+00         0.00000E+00
 
    0.99955E+05         0.15253E+06         0.00000E+00
    0.15253E+06        -0.20052E+06         0.00000E+00
    0.00000E+00         0.00000E+00         0.00000E+00
 
    0.95456E+05         0.15676E+06         0.00000E+00
    0.15676E+06        -0.19834E+06         0.00000E+00
    0.00000E+00         0.00000E+00         0.00000E+00
 
    0.90882E+05         0.16093E+06         0.00000E+00
    0.16093E+06        -0.19610E+06         0.00000E+00
    0.00000E+00         0.00000E+00         0.00000E+00
 
    0.86234E+05         0.16503E+06         0.00000E+00
    0.16503E+06        -0.19382E+06         0.00000E+00
    0.00000E+00         0.00000E+00         0.00000E+00
 
    0.81513E+05         0.16907E+06         0.00000E+00
    0.16907E+06        -0.19149E+06         0.00000E+00
    0.00000E+00         0.00000E+00         0.00000E+00
 
    0.76720E+05         0.17305E+06         0.00000E+00
    0.17305E+06        -0.18912E+06         0.00000E+00
    0.00000E+00         0.00000E+00         0.00000E+00
 
    0.71858E+05         0.17697E+06         0.00000E+00
    0.17697E+06        -0.18670E+06         0.00000E+00
    0.00000E+00         0.00000E+00         0.00000E+00
 
    0.66926E+05         0.18082E+06         0.00000E+00
    0.18082E+06        -0.18424E+06         0.00000E+00
    0.00000E+00         0.00000E+00         0.00000E+00
 
    0.61927E+05         0.18461E+06         0.00000E+00
    0.18461E+06        -0.18174E+06         0.00000E+00
    0.00000E+00         0.00000E+00         0.00000E+00
 
    0.56862E+05         0.18833E+06         0.00000E+00
    0.18833E+06        -0.17920E+06         0.00000E+00
    0.00000E+00         0.00000E+00         0.00000E+00
 
    0.51731E+05         0.19199E+06         0.00000E+00
    0.19199E+06        -0.17663E+06         0.00000E+00
    0.00000E+00         0.00000E+00         0.00000E+00
 
    0.46536E+05         0.19557E+06         0.00000E+00
    0.19557E+06        -0.17401E+06         0.00000E+00
    0.00000E+00         0.00000E+00         0.00000E+00
 
    0.41279E+05         0.19909E+06         0.00000E+00
    0.19909E+06        -0.17137E+06         0.00000E+00
    0.00000E+00         0.00000E+00         0.00000E+00
 
    0.35961E+05         0.20254E+06         0.00000E+00
    0.20254E+06        -0.16869E+06         0.00000E+00
    0.00000E+00         0.00000E+00         0.00000E+00
 
    0.30583E+05         0.20592E+06         0.00000E+00
    0.20592E+06        -0.16598E+06         0.00000E+00
    0.00000E+00         0.00000E+00         0.00000E+00
 
    0.25146E+05         0.20924E+06         0.00000E+00
    0.20924E+06        -0.16325E+06         0.00000E+00
    0.00000E+00         0.00000E+00         0.00000E+00
 
    0.19652E+05         0.21248E+06         0.00000E+00
    0.21248E+06        -0.16048E+06         0.00000E+00
    0.00000E+00         0.00000E+00         0.00000E+00
 
    0.14102E+05         0.21565E+06         0.00000E+00
    0.21565E+06        -0.15770E+06         0.00000E+00
    0.00000E+00         0.00000E+00         0.00000E+00
 
    0.84985E+04         0.21875E+06         0.00000E+00
    0.21875E+06        -0.15488E+06         0.00000E+00
    0.00000E+00         0.00000E+00         0.00000E+00
 
    0.28415E+04         0.22178E+06         0.00000E+00
    0.22178E+06        -0.15205E+06         0.00000E+00
    0.00000E+00         0.00000E+00         0.00000E+00
 
    0.20781E+06         0.29803E+04         0.00000E+00
    0.29803E+04        -0.25193E+06         0.00000E+00
    0.00000E+00         0.00000E+00         0.00000E+00
 
    0.20590E+06         0.88746E+04         0.00000E+00
    0.88746E+04        -0.25184E+06         0.00000E+00
    0.00000E+00         0.00000E+00         0.00000E+00
 
    0.20388E+06         0.14743E+05         0.00000E+00
    0.14743E+05        -0.25165E+06         0.00000E+00
    0.00000E+00         0.00000E+00         0.00000E+00
 
    0.20175E+06         0.20583E+05         0.00000E+00
    0.20583E+05        -0.25138E+06         0.00000E+00
    0.00000E+00         0.00000E+00         0.00000E+00
 
    0.19951E+06         0.26394E+05         0.00000E+00
    0.26394E+05        -0.25102E+06         0.00000E+00
    0.00000E+00         0.00000E+00         0.00000E+00
 
    0.19717E+06         0.32175E+05         0.00000E+00
    0.32175E+05        -0.25057E+06         0.00000E+00
    0.00000E+00         0.00000E+00         0.00000E+00
 
    0.19472E+06         0.37923E+05         0.00000E+00
    0.37923E+05        -0.25003E+06         0.00000E+00
    0.00000E+00         0.00000E+00         0.00000E+00
 
    0.19217E+06         0.43637E+05         0.00000E+00
    0.43637E+05        -0.24940E+06         0.00000E+00
    0.00000E+00         0.00000E+00         0.00000E+00
 
    0.18951E+06         0.49316E+05         0.00000E+00
    0.49316E+05        -0.24869E+06         0.00000E+00
    0.00000E+00         0.00000E+00         0.00000E+00
 
    0.18675E+06         0.54958E+05         0.00000E+00
    0.54958E+05        -0.24790E+06         0.00000E+00
    0.00000E+00         0.00000E+00         0.00000E+00
 
    0.18389E+06         0.60562E+05         0.00000E+00
    0.60562E+05        -0.24702E+06         0.00000E+00
    0.00000E+00         0.00000E+00         0.00000E+00
 
    0.18093E+06         0.66126E+05         0.00000E+00
    0.66126E+05        -0.24606E+06         0.00000E+00
    0.00000E+00         0.00000E+00         0.00000E+00
 
    0.17786E+06         0.71649E+05         0.00000E+00
    0.71649E+05        -0.24502E+06         0.00000E+00
    0.00000E+00         0.00000E+00         0.00000E+00
 
    0.17470E+06         0.77130E+05         0.00000E+00
    0.77130E+05        -0.24390E+06         0.00000E+00
    0.00000E+00         0.00000E+00         0.00000E+00
 
    0.17143E+06         0.82567E+05         0.00000E+00
    0.82567E+05        -0.24271E+06         0.00000E+00
    0.00000E+00         0.00000E+00         0.00000E+00
 
    0.16807E+06         0.87959E+05         0.00000E+00
    0.87959E+05        -0.24143E+06         0.00000E+00
    0.00000E+00         0.00000E+00         0.00000E+00
 
    0.16461E+06         0.93305E+05         0.00000E+00
    0.93305E+05        -0.24008E+06         0.00000E+00
    0.00000E+00         0.00000E+00         0.00000E+00
 
    0.16105E+06         0.98603E+05         0.00000E+00
    0.98603E+05        -0.23865E+06         0.00000E+00
    0.00000E+00         0.00000E+00         0.00000E+00
 
    0.15740E+06         0.10385E+06         0.00000E+00
    0.10385E+06        -0.23715E+06         0.00000E+00
    0.00000E+00         0.00000E+00         0.00000E+00
 
    0.15366E+06         0.10905E+06         0.00000E+00
    0.10905E+06        -0.23558E+06         0.00000E+00
    0.00000E+00         0.00000E+00         0.00000E+00
 
    0.14982E+06         0.11420E+06         0.00000E+00
    0.11420E+06        -0.23394E+06         0.00000E+00
    0.00000E+00         0.00000E+00         0.00000E+00
 
    0.14588E+06         0.11929E+06         0.00000E+00
    0.11929E+06        -0.23222E+06         0.00000E+00
    0.00000E+00         0.00000E+00         0.00000E+00
 
    0.14186E+06         0.12433E+06         0.00000E+00
    0.12433E+06        -0.23044E+06         0.00000E+00
    0.00000E+00         0.00000E+00         0.00000E+00
 
    0.13775E+06         0.12932E+06         0.00000E+00
    0.12932E+06        -0.22859E+06         0.00000E+00
    0.00000E+00         0.00000E+00         0.00000E+00
 
    0.13354E+06         0.13425E+06         0.00000E+00
    0.13425E+06        -0.22668E+06         0.00000E+00
    0.00000E+00         0.00000E+00         0.00000E+00
 
    0.12925E+06         0.13912E+06         0.00000E+00
    0.13912E+06        -0.22471E+06         0.00000E+00
    0.00000E+00         0.00000E+00         0.00000E+00
 
    0.12487E+06         0.14394E+06         0.00000E+00
    0.14394E+06        -0.22267E+06         0.00000E+00
    0.00000E+00         0.00000E+00         0.00000E+00
 
    0.12041E+06         0.14869E+06         0.00000E+00
    0.14869E+06        -0.22057E+06         0.00000E+00
    0.00000E+00         0.00000E+00         0.00000E+00
 
    0.11586E+06         0.15338E+06         0.00000E+00
    0.15338E+06        -0.21841E+06         0.00000E+00
    0.00000E+00         0.00000E+00         0.00000E+00
 
    0.11123E+06         0.15802E+06         0.00000E+00
    0.15802E+06        -0.21619E+06         0.00000E+00
    0.00000E+00         0.00000E+00         0.00000E+00
 
    0.10651E+06         0.16259E+06         0.00000E+00
    0.16259E+06        -0.21392E+06         0.00000E+00
    0.00000E+00         0.00000E+00         0.00000E+00
 
    0.10172E+06         0.16709E+06         0.00000E+00
    0.16709E+06        -0.21159E+06         0.00000E+00
    0.00000E+00         0.00000E+00         0.00000E+00
 
    0.96843E+05         0.17154E+06         0.00000E+00
    0.17154E+06        -0.20922E+06         0.00000E+00
    0.00000E+00         0.00000E+00         0.00000E+00
 
    0.91888E+05         0.17591E+06         0.00000E+00
    0.17591E+06        -0.20678E+06         0.00000E+00
    0.00000E+00         0.00000E+00         0.00000E+00
 
    0.86857E+05         0.18022E+06         0.00000E+00
    0.18022E+06        -0.20430E+06         0.00000E+00
    0.00000E+00         0.00000E+00         0.00000E+00
 
    0.81750E+05         0.18447E+06         0.00000E+00
    0.18447E+06        -0.20178E+06         0.00000E+00
    0.00000E+00         0.00000E+00         0.00000E+00
 
    0.76568E+05         0.18864E+06         0.00000E+00
    0.18864E+06        -0.19920E+06         0.00000E+00
    0.00000E+00         0.00000E+00         0.00000E+00
 
    0.71312E+05         0.19275E+06         0.00000E+00
    0.19275E+06        -0.19658E+06         0.00000E+00
    0.00000E+00         0.00000E+00         0.00000E+00
 
    0.65985E+05         0.19679E+06         0.00000E+00
    0.19679E+06        -0.19392E+06         0.00000E+00
    0.00000E+00         0.00000E+00         0.00000E+00
 
    0.60587E+05         0.20076E+06         0.00000E+00
    0.20076E+06        -0.19121E+06         0.00000E+00
    0.00000E+00         0.00000E+00         0.00000E+00
 
    0.55119E+05         0.20465E+06         0.00000E+00
    0.20465E+06        -0.18847E+06         0.00000E+00
    0.00000E+00         0.00000E+00         0.00000E+00
 
    0.49584E+05         0.20848E+06         0.00000E+00
    0.20848E+06        -0.18569E+06         0.00000E+00
    0.00000E+00         0.00000E+00         0.00000E+00
 
    0.43982E+05         0.21223E+06         0.00000E+00
    0.21223E+06        -0.18287E+06         0.00000E+00
    0.00000E+00         0.00000E+00         0.00000E+00
 
    0.38316E+05         0.21591E+06         0.00000E+00
    0.21591E+06        -0.18002E+06         0.00000E+00
    0.00000E+00         0.00000E+00         0.00000E+00
 
    0.32585E+05         0.21952E+06         0.00000E+00
    0.21952E+06        -0.17714E+06         0.00000E+00
    0.00000E+00         0.00000E+00         0.00000E+00
 
    0.26792E+05         0.22305E+06         0.00000E+00
    0.22305E+06        -0.17422E+06         0.00000E+00
    0.00000E+00         0.00000E+00         0.00000E+00
 
    0.20939E+05         0.22650E+06         0.00000E+00
    0.22650E+06        -0.17128E+06         0.00000E+00
    0.00000E+00         0.00000E+00         0.00000E+00
 
    0.15026E+05         0.22988E+06         0.00000E+00
    0.22988E+06        -0.16831E+06         0.00000E+00
    0.00000E+00         0.00000E+00         0.00000E+00
 
    0.90547E+04         0.23319E+06         0.00000E+00
    0.23319E+06        -0.16531E+06         0.00000E+00
    0.00000E+00         0.00000E+00         0.00000E+00
 
    0.30275E+04         0.23642E+06         0.00000E+00
    0.23642E+06        -0.16229E+06         0.00000E+00
    0.00000E+00         0.00000E+00         0.00000E+00
 
    0.22155E+06         0.31755E+04         0.00000E+00
    0.31755E+04        -0.26869E+06         0.00000E+00
    0.00000E+00         0.00000E+00         0.00000E+00
 
    0.21950E+06         0.94563E+04         0.00000E+00
    0.94563E+04        -0.26859E+06         0.00000E+00
    0.00000E+00         0.00000E+00         0.00000E+00
 
    0.21734E+06         0.15709E+05         0.00000E+00
    0.15709E+05        -0.26840E+06         0.00000E+00
    0.00000E+00         0.00000E+00         0.00000E+00
 
    0.21507E+06         0.21933E+05         0.00000E+00
    0.21933E+05        -0.26811E+06         0.00000E+00
    0.00000E+00         0.00000E+00         0.00000E+00
 
    0.21268E+06         0.28126E+05         0.00000E+00
    0.28126E+05        -0.26772E+06         0.00000E+00
    0.00000E+00         0.00000E+00         0.00000E+00
 
    0.21018E+06         0.34286E+05         0.00000E+00
    0.34286E+05        -0.26724E+06         0.00000E+00
    0.00000E+00         0.00000E+00         0.00000E+00
 
    0.20757E+06         0.40411E+05         0.00000E+00
    0.40411E+05        -0.26667E+06         0.00000E+00
    0.00000E+00         0.00000E+00         0.00000E+00
 
    0.20485E+06         0.46501E+05         0.00000E+00
    0.46501E+05        -0.26600E+06         0.00000E+00
    0.00000E+00         0.00000E+00         0.00000E+00
 
    0.20201E+06         0.52553E+05         0.00000E+00
    0.52553E+05        -0.26524E+06         0.00000E+00
    0.00000E+00         0.00000E+00         0.00000E+00
 
    0.19907E+06         0.58566E+05         0.00000E+00
    0.58566E+05        -0.26440E+06         0.00000E+00
    0.00000E+00         0.00000E+00         0.00000E+00
 
    0.19601E+06         0.64539E+05         0.00000E+00
    0.64539E+05        -0.26346E+06         0.00000E+00
    0.00000E+00         0.00000E+00         0.00000E+00
 
    0.19285E+06         0.70470E+05         0.00000E+00
    0.70470E+05        -0.26244E+06         0.00000E+00
    0.00000E+00         0.00000E+00         0.00000E+00
 
    0.18958E+06         0.76357E+05         0.00000E+00
    0.76357E+05        -0.26133E+06         0.00000E+00
    0.00000E+00         0.00000E+00         0.00000E+00
 
    0.18621E+06         0.82198E+05         0.00000E+00
    0.82198E+05        -0.26014E+06         0.00000E+00
    0.00000E+00         0.00000E+00         0.00000E+00
 
    0.18272E+06         0.87994E+05         0.00000E+00
    0.87994E+05        -0.25886E+06         0.00000E+00
    0.00000E+00         0.00000E+00         0.00000E+00
 
    0.17914E+06         0.93741E+05         0.00000E+00
    0.93741E+05        -0.25751E+06         0.00000E+00
    0.00000E+00         0.00000E+00         0.00000E+00
 
    0.17545E+06         0.99439E+05         0.00000E+00
    0.99439E+05        -0.25607E+06         0.00000E+00
    0.00000E+00         0.00000E+00         0.00000E+00
 
    0.17166E+06         0.10509E+06         0.00000E+00
    0.10509E+06        -0.25455E+06         0.00000E+00
    0.00000E+00         0.00000E+00         0.00000E+00
 
    0.16776E+06         0.11068E+06         0.00000E+00
    0.11068E+06        -0.25295E+06         0.00000E+00
    0.00000E+00         0.00000E+00         0.00000E+00
 
    0.16377E+06         0.11622E+06         0.00000E+00
    0.11622E+06        -0.25127E+06         0.00000E+00
    0.00000E+00         0.00000E+00         0.00000E+00
 
    0.15967E+06         0.12171E+06         0.00000E+00
    0.12171E+06        -0.24952E+06         0.00000E+00
    0.00000E+00         0.00000E+00         0.00000E+00
 
    0.15548E+06         0.12714E+06         0.00000E+00
    0.12714E+06        -0.24770E+06         0.00000E+00
    0.00000E+00         0.00000E+00         0.00000E+00
 
    0.15119E+06         0.13252E+06         0.00000E+00
    0.13252E+06        -0.24580E+06         0.00000E+00
    0.00000E+00         0.00000E+00         0.00000E+00
 
    0.14680E+06         0.13783E+06         0.00000E+00
    0.13783E+06        -0.24383E+06         0.00000E+00
    0.00000E+00         0.00000E+00         0.00000E+00
 
    0.14232E+06         0.14309E+06         0.00000E+00
    0.14309E+06        -0.24180E+06         0.00000E+00
    0.00000E+00         0.00000E+00         0.00000E+00
 
    0.13775E+06         0.14828E+06         0.00000E+00
    0.14828E+06        -0.23969E+06         0.00000E+00
    0.00000E+00         0.00000E+00         0.00000E+00
 
    0.13308E+06         0.15341E+06         0.00000E+00
    0.15341E+06        -0.23752E+06         0.00000E+00
    0.00000E+00         0.00000E+00         0.00000E+00
 
    0.12832E+06         0.15848E+06         0.00000E+00
    0.15848E+06        -0.23528E+06         0.00000E+00
    0.00000E+00         0.00000E+00         0.00000E+00
 
    0.12347E+06         0.16349E+06         0.00000E+00
    0.16349E+06        -0.23299E+06         0.00000E+00
    0.00000E+00         0.00000E+00         0.00000E+00
 
    0.11853E+06         0.16843E+06         0.00000E+00
    0.16843E+06        -0.23062E+06         0.00000E+00
    0.00000E+00         0.00000E+00         0.00000E+00
 
    0.11351E+06         0.17330E+06         0.00000E+00
    0.17330E+06        -0.22820E+06         0.00000E+00
    0.00000E+00         0.00000E+00         0.00000E+00
 
    0.10840E+06         0.17810E+06         0.00000E+00
    0.17810E+06        -0.22573E+06         0.00000E+00
    0.00000E+00         0.00000E+00         0.00000E+00
 
    0.10320E+06         0.18284E+06         0.00000E+00
    0.18284E+06        -0.22319E+06         0.00000E+00
    0.00000E+00         0.00000E+00         0.00000E+00
 
    0.97920E+05         0.18751E+06         0.00000E+00
    0.18751E+06        -0.22060E+06         0.00000E+00
    0.00000E+00         0.00000E+00         0.00000E+00
 
    0.92558E+05         0.19210E+06         0.00000E+00
    0.19210E+06        -0.21796E+06         0.00000E+00
    0.00000E+00         0.00000E+00         0.00000E+00
 
    0.87114E+05         0.19663E+06         0.00000E+00
    0.19663E+06        -0.21527E+06         0.00000E+00
    0.00000E+00         0.00000E+00         0.00000E+00
 
    0.81592E+05         0.20108E+06         0.00000E+00
    0.20108E+06        -0.21252E+06         0.00000E+00
    0.00000E+00         0.00000E+00         0.00000E+00
 
    0.75991E+05         0.20546E+06         0.00000E+00
    0.20546E+06        -0.20973E+06         0.00000E+00
    0.00000E+00         0.00000E+00         0.00000E+00
 
    0.70313E+05         0.20976E+06         0.00000E+00
    0.20976E+06        -0.20690E+06         0.00000E+00
    0.00000E+00         0.00000E+00         0.00000E+00
 
    0.64561E+05         0.21400E+06         0.00000E+00
    0.21400E+06        -0.20402E+06         0.00000E+00
    0.00000E+00         0.00000E+00         0.00000E+00
 
    0.58734E+05         0.21815E+06         0.00000E+00
    0.21815E+06        -0.20109E+06         0.00000E+00
    0.00000E+00         0.00000E+00         0.00000E+00
 
    0.52836E+05         0.22223E+06         0.00000E+00
    0.22223E+06        -0.19813E+06         0.00000E+00
    0.00000E+00         0.00000E+00         0.00000E+00
 
    0.46866E+05         0.22623E+06         0.00000E+00
    0.22623E+06        -0.19513E+06         0.00000E+00
    0.00000E+00         0.00000E+00         0.00000E+00
 
    0.40828E+05         0.23015E+06         0.00000E+00
    0.23015E+06        -0.19209E+06         0.00000E+00
    0.00000E+00         0.00000E+00         0.00000E+00
 
    0.34721E+05         0.23400E+06         0.00000E+00
    0.23400E+06        -0.18902E+06         0.00000E+00
    0.00000E+00         0.00000E+00         0.00000E+00
 
    0.28548E+05         0.23776E+06         0.00000E+00
    0.23776E+06        -0.18591E+06         0.00000E+00
    0.00000E+00         0.00000E+00         0.00000E+00
 
    0.22311E+05         0.24145E+06         0.00000E+00
    0.24145E+06        -0.18278E+06         0.00000E+00
    0.00000E+00         0.00000E+00         0.00000E+00
 
    0.16010E+05         0.24505E+06         0.00000E+00
    0.24505E+06        -0.17961E+06         0.00000E+00
    0.00000E+00         0.00000E+00         0.00000E+00
 
    0.96482E+04         0.24857E+06         0.00000E+00
    0.24857E+06        -0.17642E+06         0.00000E+00
    0.00000E+00         0.00000E+00         0.00000E+00
 
    0.32259E+04         0.25202E+06         0.00000E+00
    0.25202E+06        -0.17320E+06         0.00000E+00
    0.00000E+00         0.00000E+00         0.00000E+00
 
    0.23617E+06         0.33836E+04         0.00000E+00
    0.33836E+04        -0.28656E+06         0.00000E+00
    0.00000E+00         0.00000E+00         0.00000E+00
 
    0.23399E+06         0.10077E+05         0.00000E+00
    0.10077E+05        -0.28645E+06         0.00000E+00
    0.00000E+00         0.00000E+00         0.00000E+00
 
    0.23169E+06         0.16740E+05         0.00000E+00
    0.16740E+05        -0.28625E+06         0.00000E+00
    0.00000E+00         0.00000E+00         0.00000E+00
 
    0.22926E+06         0.23372E+05         0.00000E+00
    0.23372E+05        -0.28594E+06         0.00000E+00
    0.00000E+00         0.00000E+00         0.00000E+00
 
    0.22671E+06         0.29971E+05         0.00000E+00
    0.29971E+05        -0.28552E+06         0.00000E+00
    0.00000E+00         0.00000E+00         0.00000E+00
 
    0.22405E+06         0.36536E+05         0.00000E+00
    0.36536E+05        -0.28501E+06         0.00000E+00
    0.00000E+00         0.00000E+00         0.00000E+00
 
    0.22126E+06         0.43064E+05         0.00000E+00
    0.43064E+05        -0.28440E+06         0.00000E+00
    0.00000E+00         0.00000E+00         0.00000E+00
 
    0.21835E+06         0.49554E+05         0.00000E+00
    0.49554E+05        -0.28369E+06         0.00000E+00
    0.00000E+00         0.00000E+00         0.00000E+00
 
    0.21533E+06         0.56004E+05         0.00000E+00
    0.56004E+05        -0.28289E+06         0.00000E+00
    0.00000E+00         0.00000E+00         0.00000E+00
 
    0.21219E+06         0.62413E+05         0.00000E+00
    0.62413E+05        -0.28199E+06         0.00000E+00
    0.00000E+00         0.00000E+00         0.00000E+00
 
    0.20893E+06         0.68778E+05         0.00000E+00
    0.68778E+05        -0.28099E+06         0.00000E+00
    0.00000E+00         0.00000E+00         0.00000E+00
 
    0.20556E+06         0.75099E+05         0.00000E+00
    0.75099E+05        -0.27990E+06         0.00000E+00
    0.00000E+00         0.00000E+00         0.00000E+00
 
    0.20207E+06         0.81373E+05         0.00000E+00
    0.81373E+05        -0.27872E+06         0.00000E+00
    0.00000E+00         0.00000E+00         0.00000E+00
 
    0.19847E+06         0.87600E+05         0.00000E+00
    0.87600E+05        -0.27745E+06         0.00000E+00
    0.00000E+00         0.00000E+00         0.00000E+00
 
    0.19476E+06         0.93777E+05         0.00000E+00
    0.93777E+05        -0.27609E+06         0.00000E+00
    0.00000E+00         0.00000E+00         0.00000E+00
 
    0.19093E+06         0.99903E+05         0.00000E+00
    0.99903E+05        -0.27464E+06         0.00000E+00
    0.00000E+00         0.00000E+00         0.00000E+00
 
    0.18700E+06         0.10598E+06         0.00000E+00
    0.10598E+06        -0.27311E+06         0.00000E+00
    0.00000E+00         0.00000E+00         0.00000E+00
 
    0.18295E+06         0.11200E+06         0.00000E+00
    0.11200E+06        -0.27149E+06         0.00000E+00
    0.00000E+00         0.00000E+00         0.00000E+00
 
    0.17880E+06         0.11796E+06         0.00000E+00
    0.11796E+06        -0.26979E+06         0.00000E+00
    0.00000E+00         0.00000E+00         0.00000E+00
 
    0.17454E+06         0.12387E+06         0.00000E+00
    0.12387E+06        -0.26800E+06         0.00000E+00
    0.00000E+00         0.00000E+00         0.00000E+00
 
    0.17018E+06         0.12972E+06         0.00000E+00
    0.12972E+06        -0.26614E+06         0.00000E+00
    0.00000E+00         0.00000E+00         0.00000E+00
 
    0.16571E+06         0.13551E+06         0.00000E+00
    0.13551E+06        -0.26420E+06         0.00000E+00
    0.00000E+00         0.00000E+00         0.00000E+00
 
    0.16113E+06         0.14123E+06         0.00000E+00
    0.14123E+06        -0.26217E+06         0.00000E+00
    0.00000E+00         0.00000E+00         0.00000E+00
 
    0.15646E+06         0.14690E+06         0.00000E+00
    0.14690E+06        -0.26008E+06         0.00000E+00
    0.00000E+00         0.00000E+00         0.00000E+00
 
    0.15168E+06         0.15250E+06         0.00000E+00
    0.15250E+06        -0.25791E+06         0.00000E+00
    0.00000E+00         0.00000E+00         0.00000E+00
 
    0.14680E+06         0.15804E+06         0.00000E+00
    0.15804E+06        -0.25567E+06         0.00000E+00
    0.00000E+00         0.00000E+00         0.00000E+00
 
    0.14183E+06         0.16351E+06         0.00000E+00
    0.16351E+06        -0.25335E+06         0.00000E+00
    0.00000E+00         0.00000E+00         0.00000E+00
 
    0.13675E+06         0.16892E+06         0.00000E+00
    0.16892E+06        -0.25097E+06         0.00000E+00
    0.00000E+00         0.00000E+00         0.00000E+00
 
    0.13159E+06         0.17425E+06         0.00000E+00
    0.17425E+06        -0.24852E+06         0.00000E+00
    0.00000E+00         0.00000E+00         0.00000E+00
 
    0.12632E+06         0.17952E+06         0.00000E+00
    0.17952E+06        -0.24601E+06         0.00000E+00
    0.00000E+00         0.00000E+00         0.00000E+00
 
    0.12097E+06         0.18471E+06         0.00000E+00
    0.18471E+06        -0.24343E+06         0.00000E+00
    0.00000E+00         0.00000E+00         0.00000E+00
 
    0.11552E+06         0.18983E+06         0.00000E+00
    0.18983E+06        -0.24079E+06         0.00000E+00
    0.00000E+00         0.00000E+00         0.00000E+00
 
    0.10998E+06         0.19488E+06         0.00000E+00
    0.19488E+06        -0.23809E+06         0.00000E+00
    0.00000E+00         0.00000E+00         0.00000E+00
 
    0.10435E+06         0.19986E+06         0.00000E+00
    0.19986E+06        -0.23533E+06         0.00000E+00
    0.00000E+00         0.00000E+00         0.00000E+00
 
    0.98636E+05         0.20476E+06         0.00000E+00
    0.20476E+06        -0.23252E+06         0.00000E+00
    0.00000E+00         0.00000E+00         0.00000E+00
 
    0.92835E+05         0.20958E+06         0.00000E+00
    0.20958E+06        -0.22965E+06         0.00000E+00
    0.00000E+00         0.00000E+00         0.00000E+00
 
    0.86949E+05         0.21433E+06         0.00000E+00
    0.21433E+06        -0.22673E+06         0.00000E+00
    0.00000E+00         0.00000E+00         0.00000E+00
 
    0.80980E+05         0.21900E+06         0.00000E+00
    0.21900E+06        -0.22375E+06         0.00000E+00
    0.00000E+00         0.00000E+00         0.00000E+00
 
    0.74929E+05         0.22359E+06         0.00000E+00
    0.22359E+06        -0.22073E+06         0.00000E+00
    0.00000E+00         0.00000E+00         0.00000E+00
 
    0.68799E+05         0.22810E+06         0.00000E+00
    0.22810E+06        -0.21766E+06         0.00000E+00
    0.00000E+00         0.00000E+00         0.00000E+00
 
    0.62590E+05         0.23253E+06         0.00000E+00
    0.23253E+06        -0.21455E+06         0.00000E+00
    0.00000E+00         0.00000E+00         0.00000E+00
 
    0.56303E+05         0.23688E+06         0.00000E+00
    0.23688E+06        -0.21139E+06         0.00000E+00
    0.00000E+00         0.00000E+00         0.00000E+00
 
    0.49942E+05         0.24114E+06         0.00000E+00
    0.24114E+06        -0.20820E+06         0.00000E+00
    0.00000E+00         0.00000E+00         0.00000E+00
 
    0.43507E+05         0.24533E+06         0.00000E+00
    0.24533E+06        -0.20496E+06         0.00000E+00
    0.00000E+00         0.00000E+00         0.00000E+00
 
    0.37000E+05         0.24942E+06         0.00000E+00
    0.24942E+06        -0.20169E+06         0.00000E+00
    0.00000E+00         0.00000E+00         0.00000E+00
 
    0.30422E+05         0.25344E+06         0.00000E+00
    0.25344E+06        -0.19838E+06         0.00000E+00
    0.00000E+00         0.00000E+00         0.00000E+00
 
    0.23775E+05         0.25737E+06         0.00000E+00
    0.25737E+06        -0.19504E+06         0.00000E+00
    0.00000E+00         0.00000E+00         0.00000E+00
 
    0.17061E+05         0.26121E+06         0.00000E+00
    0.26121E+06        -0.19166E+06         0.00000E+00
    0.00000E+00         0.00000E+00         0.00000E+00
 
    0.10281E+05         0.26497E+06         0.00000E+00
    0.26497E+06        -0.18826E+06         0.00000E+00
    0.00000E+00         0.00000E+00         0.00000E+00
 
    0.34376E+04         0.26864E+06         0.00000E+00
    0.26864E+06        -0.18483E+06         0.00000E+00
    0.00000E+00         0.00000E+00         0.00000E+00
 
    0.25175E+06         0.36055E+04         0.00000E+00
    0.36055E+04        -0.30560E+06         0.00000E+00
    0.00000E+00         0.00000E+00         0.00000E+00
 
    0.24942E+06         0.10738E+05         0.00000E+00
    0.10738E+05        -0.30549E+06         0.00000E+00
    0.00000E+00         0.00000E+00         0.00000E+00
 
    0.24697E+06         0.17838E+05         0.00000E+00
    0.17838E+05        -0.30527E+06         0.00000E+00
    0.00000E+00         0.00000E+00         0.00000E+00
 
    0.24438E+06         0.24906E+05         0.00000E+00
    0.24906E+05        -0.30494E+06         0.00000E+00
    0.00000E+00         0.00000E+00         0.00000E+00
 
    0.24166E+06         0.31939E+05         0.00000E+00
    0.31939E+05        -0.30450E+06         0.00000E+00
    0.00000E+00         0.00000E+00         0.00000E+00
 
    0.23882E+06         0.38934E+05         0.00000E+00
    0.38934E+05        -0.30396E+06         0.00000E+00
    0.00000E+00         0.00000E+00         0.00000E+00
 
    0.23584E+06         0.45891E+05         0.00000E+00
    0.45891E+05        -0.30331E+06         0.00000E+00
    0.00000E+00         0.00000E+00         0.00000E+00
 
    0.23274E+06         0.52808E+05         0.00000E+00
    0.52808E+05        -0.30255E+06         0.00000E+00
    0.00000E+00         0.00000E+00         0.00000E+00
 
    0.22952E+06         0.59682E+05         0.00000E+00
    0.59682E+05        -0.30169E+06         0.00000E+00
    0.00000E+00         0.00000E+00         0.00000E+00
 
    0.22617E+06         0.66512E+05         0.00000E+00
    0.66512E+05        -0.30073E+06         0.00000E+00
    0.00000E+00         0.00000E+00         0.00000E+00
 
    0.22269E+06         0.73296E+05         0.00000E+00
    0.73296E+05        -0.29967E+06         0.00000E+00
    0.00000E+00         0.00000E+00         0.00000E+00
 
    0.21910E+06         0.80033E+05         0.00000E+00
    0.80033E+05        -0.29851E+06         0.00000E+00
    0.00000E+00         0.00000E+00         0.00000E+00
 
    0.21538E+06         0.86720E+05         0.00000E+00
    0.86720E+05        -0.29726E+06         0.00000E+00
    0.00000E+00         0.00000E+00         0.00000E+00
 
    0.21154E+06         0.93356E+05         0.00000E+00
    0.93356E+05        -0.29590E+06         0.00000E+00
    0.00000E+00         0.00000E+00         0.00000E+00
 
    0.20758E+06         0.99940E+05         0.00000E+00
    0.99940E+05        -0.29445E+06         0.00000E+00
    0.00000E+00         0.00000E+00         0.00000E+00
 
    0.20350E+06         0.10647E+06         0.00000E+00
    0.10647E+06        -0.29291E+06         0.00000E+00
    0.00000E+00         0.00000E+00         0.00000E+00
 
    0.19931E+06         0.11294E+06         0.00000E+00
    0.11294E+06        -0.29128E+06         0.00000E+00
    0.00000E+00         0.00000E+00         0.00000E+00
 
    0.19500E+06         0.11936E+06         0.00000E+00
    0.11936E+06        -0.28955E+06         0.00000E+00
    0.00000E+00         0.00000E+00         0.00000E+00
 
    0.19057E+06         0.12572E+06         0.00000E+00
    0.12572E+06        -0.28774E+06         0.00000E+00
    0.00000E+00         0.00000E+00         0.00000E+00
 
    0.18603E+06         0.13201E+06         0.00000E+00
    0.13201E+06        -0.28584E+06         0.00000E+00
    0.00000E+00         0.00000E+00         0.00000E+00
 
    0.18137E+06         0.13825E+06         0.00000E+00
    0.13825E+06        -0.28385E+06         0.00000E+00
    0.00000E+00         0.00000E+00         0.00000E+00
 
    0.17661E+06         0.14442E+06         0.00000E+00
    0.14442E+06        -0.28178E+06         0.00000E+00
    0.00000E+00         0.00000E+00         0.00000E+00
 
    0.17173E+06         0.15052E+06         0.00000E+00
    0.15052E+06        -0.27963E+06         0.00000E+00
    0.00000E+00         0.00000E+00         0.00000E+00
 
    0.16675E+06         0.15656E+06         0.00000E+00
    0.15656E+06        -0.27740E+06         0.00000E+00
    0.00000E+00         0.00000E+00         0.00000E+00
 
    0.16165E+06         0.16254E+06         0.00000E+00
    0.16254E+06        -0.27508E+06         0.00000E+00
    0.00000E+00         0.00000E+00         0.00000E+00
 
    0.15646E+06         0.16844E+06         0.00000E+00
    0.16844E+06        -0.27270E+06         0.00000E+00
    0.00000E+00         0.00000E+00         0.00000E+00
 
    0.15115E+06         0.17427E+06         0.00000E+00
    0.17427E+06        -0.27023E+06         0.00000E+00
    0.00000E+00         0.00000E+00         0.00000E+00
 
    0.14574E+06         0.18003E+06         0.00000E+00
    0.18003E+06        -0.26769E+06         0.00000E+00
    0.00000E+00         0.00000E+00         0.00000E+00
 
    0.14024E+06         0.18572E+06         0.00000E+00
    0.18572E+06        -0.26509E+06         0.00000E+00
    0.00000E+00         0.00000E+00         0.00000E+00
 
    0.13463E+06         0.19133E+06         0.00000E+00
    0.19133E+06        -0.26241E+06         0.00000E+00
    0.00000E+00         0.00000E+00         0.00000E+00
 
    0.12892E+06         0.19687E+06         0.00000E+00
    0.19687E+06        -0.25966E+06         0.00000E+00
    0.00000E+00         0.00000E+00         0.00000E+00
 
    0.12311E+06         0.20233E+06         0.00000E+00
    0.20233E+06        -0.25685E+06         0.00000E+00
    0.00000E+00         0.00000E+00         0.00000E+00
 
    0.11721E+06         0.20772E+06         0.00000E+00
    0.20772E+06        -0.25397E+06         0.00000E+00
    0.00000E+00         0.00000E+00         0.00000E+00
 
    0.11121E+06         0.21302E+06         0.00000E+00
    0.21302E+06        -0.25103E+06         0.00000E+00
    0.00000E+00         0.00000E+00         0.00000E+00
 
    0.10512E+06         0.21825E+06         0.00000E+00
    0.21825E+06        -0.24804E+06         0.00000E+00
    0.00000E+00         0.00000E+00         0.00000E+00
 
    0.98933E+05         0.22339E+06         0.00000E+00
    0.22339E+06        -0.24498E+06         0.00000E+00
    0.00000E+00         0.00000E+00         0.00000E+00
 
    0.92660E+05         0.22845E+06         0.00000E+00
    0.22845E+06        -0.24187E+06         0.00000E+00
    0.00000E+00         0.00000E+00         0.00000E+00
 
    0.86299E+05         0.23343E+06         0.00000E+00
    0.23343E+06        -0.23870E+06         0.00000E+00
    0.00000E+00         0.00000E+00         0.00000E+00
 
    0.79850E+05         0.23832E+06         0.00000E+00
    0.23832E+06        -0.23548E+06         0.00000E+00
    0.00000E+00         0.00000E+00         0.00000E+00
 
    0.73317E+05         0.24313E+06         0.00000E+00
    0.24313E+06        -0.23221E+06         0.00000E+00
    0.00000E+00         0.00000E+00         0.00000E+00
 
    0.66700E+05         0.24785E+06         0.00000E+00
    0.24785E+06        -0.22889E+06         0.00000E+00
    0.00000E+00         0.00000E+00         0.00000E+00
 
    0.60001E+05         0.25249E+06         0.00000E+00
    0.25249E+06        -0.22553E+06         0.00000E+00
    0.00000E+00         0.00000E+00         0.00000E+00
 
    0.53221E+05         0.25704E+06         0.00000E+00
    0.25704E+06        -0.22212E+06         0.00000E+00
    0.00000E+00         0.00000E+00         0.00000E+00
 
    0.46363E+05         0.26149E+06         0.00000E+00
    0.26149E+06        -0.21868E+06         0.00000E+00
    0.00000E+00         0.00000E+00         0.00000E+00
 
    0.39429E+05         0.26586E+06         0.00000E+00
    0.26586E+06        -0.21519E+06         0.00000E+00
    0.00000E+00         0.00000E+00         0.00000E+00
 
    0.32419E+05         0.27014E+06         0.00000E+00
    0.27014E+06        -0.21166E+06         0.00000E+00
    0.00000E+00         0.00000E+00         0.00000E+00
 
    0.25336E+05         0.27433E+06         0.00000E+00
    0.27433E+06        -0.20810E+06         0.00000E+00
    0.00000E+00         0.00000E+00         0.00000E+00
 
    0.18181E+05         0.27843E+06         0.00000E+00
    0.27843E+06        -0.20451E+06         0.00000E+00
    0.00000E+00         0.00000E+00         0.00000E+00
 
    0.10956E+05         0.28244E+06         0.00000E+00
    0.28244E+06        -0.20088E+06         0.00000E+00
    0.00000E+00         0.00000E+00         0.00000E+00
 
    0.36632E+04         0.28635E+06         0.00000E+00
    0.28635E+06        -0.19723E+06         0.00000E+00
    0.00000E+00         0.00000E+00         0.00000E+00
 
    0.26834E+06         0.38421E+04         0.00000E+00
    0.38421E+04        -0.32591E+06         0.00000E+00
    0.00000E+00         0.00000E+00         0.00000E+00
 
    0.26586E+06         0.11442E+05         0.00000E+00
    0.11442E+05        -0.32579E+06         0.00000E+00
    0.00000E+00         0.00000E+00         0.00000E+00
 
    0.26324E+06         0.19009E+05         0.00000E+00
    0.19009E+05        -0.32555E+06         0.00000E+00
    0.00000E+00         0.00000E+00         0.00000E+00
 
    0.26048E+06         0.26541E+05         0.00000E+00
    0.26541E+05        -0.32520E+06         0.00000E+00
    0.00000E+00         0.00000E+00         0.00000E+00
 
    0.25758E+06         0.34036E+05         0.00000E+00
    0.34036E+05        -0.32473E+06         0.00000E+00
    0.00000E+00         0.00000E+00         0.00000E+00
 
    0.25455E+06         0.41491E+05         0.00000E+00
    0.41491E+05        -0.32415E+06         0.00000E+00
    0.00000E+00         0.00000E+00         0.00000E+00
 
    0.25138E+06         0.48905E+05         0.00000E+00
    0.48905E+05        -0.32346E+06         0.00000E+00
    0.00000E+00         0.00000E+00         0.00000E+00
 
    0.24807E+06         0.56276E+05         0.00000E+00
    0.56276E+05        -0.32266E+06         0.00000E+00
    0.00000E+00         0.00000E+00         0.00000E+00
 
    0.24463E+06         0.63602E+05         0.00000E+00
    0.63602E+05        -0.32174E+06         0.00000E+00
    0.00000E+00         0.00000E+00         0.00000E+00
 
    0.24106E+06         0.70881E+05         0.00000E+00
    0.70881E+05        -0.32072E+06         0.00000E+00
    0.00000E+00         0.00000E+00         0.00000E+00
 
    0.23736E+06         0.78111E+05         0.00000E+00
    0.78111E+05        -0.31959E+06         0.00000E+00
    0.00000E+00         0.00000E+00         0.00000E+00
 
    0.23352E+06         0.85291E+05         0.00000E+00
    0.85291E+05        -0.31835E+06         0.00000E+00
    0.00000E+00         0.00000E+00         0.00000E+00
 
    0.22956E+06         0.92418E+05         0.00000E+00
    0.92418E+05        -0.31701E+06         0.00000E+00
    0.00000E+00         0.00000E+00         0.00000E+00
 
    0.22546E+06         0.99491E+05         0.00000E+00
    0.99491E+05        -0.31557E+06         0.00000E+00
    0.00000E+00         0.00000E+00         0.00000E+00
 
    0.22124E+06         0.10651E+06         0.00000E+00
    0.10651E+06        -0.31403E+06         0.00000E+00
    0.00000E+00         0.00000E+00         0.00000E+00
 
    0.21690E+06         0.11347E+06         0.00000E+00
    0.11347E+06        -0.31239E+06         0.00000E+00
    0.00000E+00         0.00000E+00         0.00000E+00
 
    0.21242E+06         0.12037E+06         0.00000E+00
    0.12037E+06        -0.31064E+06         0.00000E+00
    0.00000E+00         0.00000E+00         0.00000E+00
 
    0.20783E+06         0.12721E+06         0.00000E+00
    0.12721E+06        -0.30881E+06         0.00000E+00
    0.00000E+00         0.00000E+00         0.00000E+00
 
    0.20311E+06         0.13398E+06         0.00000E+00
    0.13398E+06        -0.30688E+06         0.00000E+00
    0.00000E+00         0.00000E+00         0.00000E+00
 
    0.19827E+06         0.14069E+06         0.00000E+00
    0.14069E+06        -0.30485E+06         0.00000E+00
    0.00000E+00         0.00000E+00         0.00000E+00
 
    0.19330E+06         0.14734E+06         0.00000E+00
    0.14734E+06        -0.30273E+06         0.00000E+00
    0.00000E+00         0.00000E+00         0.00000E+00
 
    0.18822E+06         0.15392E+06         0.00000E+00
    0.15392E+06        -0.30053E+06         0.00000E+00
    0.00000E+00         0.00000E+00         0.00000E+00
 
    0.18303E+06         0.16043E+06         0.00000E+00
    0.16043E+06        -0.29824E+06         0.00000E+00
    0.00000E+00         0.00000E+00         0.00000E+00
 
    0.17771E+06         0.16686E+06         0.00000E+00
    0.16686E+06        -0.29586E+06         0.00000E+00
    0.00000E+00         0.00000E+00         0.00000E+00
 
    0.17228E+06         0.17323E+06         0.00000E+00
    0.17323E+06        -0.29340E+06         0.00000E+00
    0.00000E+00         0.00000E+00         0.00000E+00
 
    0.16674E+06         0.17952E+06         0.00000E+00
    0.17952E+06        -0.29085E+06         0.00000E+00
    0.00000E+00         0.00000E+00         0.00000E+00
 
    0.16109E+06         0.18574E+06         0.00000E+00
    0.18574E+06        -0.28823E+06         0.00000E+00
    0.00000E+00         0.00000E+00         0.00000E+00
 
    0.15533E+06         0.19188E+06         0.00000E+00
    0.19188E+06        -0.28552E+06         0.00000E+00
    0.00000E+00         0.00000E+00         0.00000E+00
 
    0.14945E+06         0.19794E+06         0.00000E+00
    0.19794E+06        -0.28274E+06         0.00000E+00
    0.00000E+00         0.00000E+00         0.00000E+00
 
    0.14347E+06         0.20393E+06         0.00000E+00
    0.20393E+06        -0.27989E+06         0.00000E+00
    0.00000E+00         0.00000E+00         0.00000E+00
 
    0.13739E+06         0.20983E+06         0.00000E+00
    0.20983E+06        -0.27696E+06         0.00000E+00
    0.00000E+00         0.00000E+00         0.00000E+00
 
    0.13120E+06         0.21565E+06         0.00000E+00
    0.21565E+06        -0.27397E+06         0.00000E+00
    0.00000E+00         0.00000E+00         0.00000E+00
 
    0.12491E+06         0.22139E+06         0.00000E+00
    0.22139E+06        -0.27090E+06         0.00000E+00
    0.00000E+00         0.00000E+00         0.00000E+00
 
    0.11852E+06         0.22705E+06         0.00000E+00
    0.22705E+06        -0.26777E+06         0.00000E+00
    0.00000E+00         0.00000E+00         0.00000E+00
 
    0.11202E+06         0.23262E+06         0.00000E+00
    0.23262E+06        -0.26458E+06         0.00000E+00
    0.00000E+00         0.00000E+00         0.00000E+00
 
    0.10543E+06         0.23810E+06         0.00000E+00
    0.23810E+06        -0.26132E+06         0.00000E+00
    0.00000E+00         0.00000E+00         0.00000E+00
 
    0.98748E+05         0.24349E+06         0.00000E+00
    0.24349E+06        -0.25801E+06         0.00000E+00
    0.00000E+00         0.00000E+00         0.00000E+00
 
    0.91968E+05         0.24880E+06         0.00000E+00
    0.24880E+06        -0.25463E+06         0.00000E+00
    0.00000E+00         0.00000E+00         0.00000E+00
 
    0.85096E+05         0.25402E+06         0.00000E+00
    0.25402E+06        -0.25120E+06         0.00000E+00
    0.00000E+00         0.00000E+00         0.00000E+00
 
    0.78133E+05         0.25914E+06         0.00000E+00
    0.25914E+06        -0.24772E+06         0.00000E+00
    0.00000E+00         0.00000E+00         0.00000E+00
 
    0.71081E+05         0.26418E+06         0.00000E+00
    0.26418E+06        -0.24419E+06         0.00000E+00
    0.00000E+00         0.00000E+00         0.00000E+00
 
    0.63942E+05         0.26912E+06         0.00000E+00
    0.26912E+06        -0.24060E+06         0.00000E+00
    0.00000E+00         0.00000E+00         0.00000E+00
 
    0.56717E+05         0.27397E+06         0.00000E+00
    0.27397E+06        -0.23698E+06         0.00000E+00
    0.00000E+00         0.00000E+00         0.00000E+00
 
    0.49408E+05         0.27872E+06         0.00000E+00
    0.27872E+06        -0.23330E+06         0.00000E+00
    0.00000E+00         0.00000E+00         0.00000E+00
 
    0.42018E+05         0.28338E+06         0.00000E+00
    0.28338E+06        -0.22959E+06         0.00000E+00
    0.00000E+00         0.00000E+00         0.00000E+00
 
    0.34548E+05         0.28795E+06         0.00000E+00
    0.28795E+06        -0.22583E+06         0.00000E+00
    0.00000E+00         0.00000E+00         0.00000E+00
 
    0.27000E+05         0.29241E+06         0.00000E+00
    0.29241E+06        -0.22203E+06         0.00000E+00
    0.00000E+00         0.00000E+00         0.00000E+00
 
    0.19375E+05         0.29678E+06         0.00000E+00
    0.29678E+06        -0.21820E+06         0.00000E+00
    0.00000E+00         0.00000E+00         0.00000E+00
 
    0.11676E+05         0.30105E+06         0.00000E+00
    0.30105E+06        -0.21434E+06         0.00000E+00
    0.00000E+00         0.00000E+00         0.00000E+00
 
    0.39038E+04         0.30523E+06         0.00000E+00
    0.30523E+06        -0.21045E+06         0.00000E+00
    0.00000E+00         0.00000E+00         0.00000E+00
 
    0.28602E+06         0.40943E+04         0.00000E+00
    0.40943E+04        -0.34755E+06         0.00000E+00
    0.00000E+00         0.00000E+00         0.00000E+00
 
    0.28337E+06         0.12193E+05         0.00000E+00
    0.12193E+05        -0.34743E+06         0.00000E+00
    0.00000E+00         0.00000E+00         0.00000E+00
 
    0.28058E+06         0.20257E+05         0.00000E+00
    0.20257E+05        -0.34718E+06         0.00000E+00
    0.00000E+00         0.00000E+00         0.00000E+00
 
    0.27763E+06         0.28284E+05         0.00000E+00
    0.28284E+05        -0.34680E+06         0.00000E+00
    0.00000E+00         0.00000E+00         0.00000E+00
 
    0.27454E+06         0.36271E+05         0.00000E+00
    0.36271E+05        -0.34630E+06         0.00000E+00
    0.00000E+00         0.00000E+00         0.00000E+00
 
    0.27131E+06         0.44216E+05         0.00000E+00
    0.44216E+05        -0.34568E+06         0.00000E+00
    0.00000E+00         0.00000E+00         0.00000E+00
 
    0.26793E+06         0.52117E+05         0.00000E+00
    0.52117E+05        -0.34495E+06         0.00000E+00
    0.00000E+00         0.00000E+00         0.00000E+00
 
    0.26440E+06         0.59972E+05         0.00000E+00
    0.59972E+05        -0.34409E+06         0.00000E+00
    0.00000E+00         0.00000E+00         0.00000E+00
 
    0.26074E+06         0.67780E+05         0.00000E+00
    0.67780E+05        -0.34311E+06         0.00000E+00
    0.00000E+00         0.00000E+00         0.00000E+00
 
    0.25693E+06         0.75538E+05         0.00000E+00
    0.75538E+05        -0.34202E+06         0.00000E+00
    0.00000E+00         0.00000E+00         0.00000E+00
 
    0.25298E+06         0.83243E+05         0.00000E+00
    0.83243E+05        -0.34082E+06         0.00000E+00
    0.00000E+00         0.00000E+00         0.00000E+00
 
    0.24889E+06         0.90895E+05         0.00000E+00
    0.90895E+05        -0.33951E+06         0.00000E+00
    0.00000E+00         0.00000E+00         0.00000E+00
 
    0.24466E+06         0.98491E+05         0.00000E+00
    0.98491E+05        -0.33808E+06         0.00000E+00
    0.00000E+00         0.00000E+00         0.00000E+00
 
    0.24030E+06         0.10603E+06         0.00000E+00
    0.10603E+06        -0.33654E+06         0.00000E+00
    0.00000E+00         0.00000E+00         0.00000E+00
 
    0.23580E+06         0.11351E+06         0.00000E+00
    0.11351E+06        -0.33490E+06         0.00000E+00
    0.00000E+00         0.00000E+00         0.00000E+00
 
    0.23117E+06         0.12093E+06         0.00000E+00
    0.12093E+06        -0.33315E+06         0.00000E+00
    0.00000E+00         0.00000E+00         0.00000E+00
 
    0.22640E+06         0.12828E+06         0.00000E+00
    0.12828E+06        -0.33129E+06         0.00000E+00
    0.00000E+00         0.00000E+00         0.00000E+00
 
    0.22150E+06         0.13557E+06         0.00000E+00
    0.13557E+06        -0.32934E+06         0.00000E+00
    0.00000E+00         0.00000E+00         0.00000E+00
 
    0.21647E+06         0.14279E+06         0.00000E+00
    0.14279E+06        -0.32728E+06         0.00000E+00
    0.00000E+00         0.00000E+00         0.00000E+00
 
    0.21131E+06         0.14994E+06         0.00000E+00
    0.14994E+06        -0.32512E+06         0.00000E+00
    0.00000E+00         0.00000E+00         0.00000E+00
 
    0.20602E+06         0.15703E+06         0.00000E+00
    0.15703E+06        -0.32287E+06         0.00000E+00
    0.00000E+00         0.00000E+00         0.00000E+00
 
    0.20060E+06         0.16404E+06         0.00000E+00
    0.16404E+06        -0.32052E+06         0.00000E+00
    0.00000E+00         0.00000E+00         0.00000E+00
 
    0.19506E+06         0.17098E+06         0.00000E+00
    0.17098E+06        -0.31807E+06         0.00000E+00
    0.00000E+00         0.00000E+00         0.00000E+00
 
    0.18940E+06         0.17784E+06         0.00000E+00
    0.17784E+06        -0.31554E+06         0.00000E+00
    0.00000E+00         0.00000E+00         0.00000E+00
 
    0.18361E+06         0.18462E+06         0.00000E+00
    0.18462E+06        -0.31292E+06         0.00000E+00
    0.00000E+00         0.00000E+00         0.00000E+00
 
    0.17771E+06         0.19133E+06         0.00000E+00
    0.19133E+06        -0.31021E+06         0.00000E+00
    0.00000E+00         0.00000E+00         0.00000E+00
 
    0.17168E+06         0.19796E+06         0.00000E+00
    0.19796E+06        -0.30741E+06         0.00000E+00
    0.00000E+00         0.00000E+00         0.00000E+00
 
    0.16554E+06         0.20450E+06         0.00000E+00
    0.20450E+06        -0.30453E+06         0.00000E+00
    0.00000E+00         0.00000E+00         0.00000E+00
 
    0.15928E+06         0.21097E+06         0.00000E+00
    0.21097E+06        -0.30157E+06         0.00000E+00
    0.00000E+00         0.00000E+00         0.00000E+00
 
    0.15290E+06         0.21735E+06         0.00000E+00
    0.21735E+06        -0.29853E+06         0.00000E+00
    0.00000E+00         0.00000E+00         0.00000E+00
 
    0.14642E+06         0.22364E+06         0.00000E+00
    0.22364E+06        -0.29541E+06         0.00000E+00
    0.00000E+00         0.00000E+00         0.00000E+00
 
    0.13982E+06         0.22985E+06         0.00000E+00
    0.22985E+06        -0.29222E+06         0.00000E+00
    0.00000E+00         0.00000E+00         0.00000E+00
 
    0.13312E+06         0.23596E+06         0.00000E+00
    0.23596E+06        -0.28896E+06         0.00000E+00
    0.00000E+00         0.00000E+00         0.00000E+00
 
    0.12630E+06         0.24199E+06         0.00000E+00
    0.24199E+06        -0.28562E+06         0.00000E+00
    0.00000E+00         0.00000E+00         0.00000E+00
 
    0.11938E+06         0.24793E+06         0.00000E+00
    0.24793E+06        -0.28222E+06         0.00000E+00
    0.00000E+00         0.00000E+00         0.00000E+00
 
    0.11236E+06         0.25377E+06         0.00000E+00
    0.25377E+06        -0.27875E+06         0.00000E+00
    0.00000E+00         0.00000E+00         0.00000E+00
 
    0.10524E+06         0.25953E+06         0.00000E+00
    0.25953E+06        -0.27522E+06         0.00000E+00
    0.00000E+00         0.00000E+00         0.00000E+00
 
    0.98010E+05         0.26518E+06         0.00000E+00
    0.26518E+06        -0.27162E+06         0.00000E+00
    0.00000E+00         0.00000E+00         0.00000E+00
 
    0.90686E+05         0.27074E+06         0.00000E+00
    0.27074E+06        -0.26797E+06         0.00000E+00
    0.00000E+00         0.00000E+00         0.00000E+00
 
    0.83266E+05         0.27621E+06         0.00000E+00
    0.27621E+06        -0.26426E+06         0.00000E+00
    0.00000E+00         0.00000E+00         0.00000E+00
 
    0.75750E+05         0.28158E+06         0.00000E+00
    0.28158E+06        -0.26049E+06         0.00000E+00
    0.00000E+00         0.00000E+00         0.00000E+00
 
    0.68142E+05         0.28685E+06         0.00000E+00
    0.28685E+06        -0.25668E+06         0.00000E+00
    0.00000E+00         0.00000E+00         0.00000E+00
 
    0.60442E+05         0.29202E+06         0.00000E+00
    0.29202E+06        -0.25281E+06         0.00000E+00
    0.00000E+00         0.00000E+00         0.00000E+00
 
    0.52654E+05         0.29709E+06         0.00000E+00
    0.29709E+06        -0.24890E+06         0.00000E+00
    0.00000E+00         0.00000E+00         0.00000E+00
 
    0.44778E+05         0.30205E+06         0.00000E+00
    0.30205E+06        -0.24494E+06         0.00000E+00
    0.00000E+00         0.00000E+00         0.00000E+00
 
    0.36817E+05         0.30692E+06         0.00000E+00
    0.30692E+06        -0.24093E+06         0.00000E+00
    0.00000E+00         0.00000E+00         0.00000E+00
 
    0.28773E+05         0.31168E+06         0.00000E+00
    0.31168E+06        -0.23689E+06         0.00000E+00
    0.00000E+00         0.00000E+00         0.00000E+00
 
    0.20647E+05         0.31634E+06         0.00000E+00
    0.31634E+06        -0.23281E+06         0.00000E+00
    0.00000E+00         0.00000E+00         0.00000E+00
 
    0.12442E+05         0.32089E+06         0.00000E+00
    0.32089E+06        -0.22869E+06         0.00000E+00
    0.00000E+00         0.00000E+00         0.00000E+00
 
    0.41602E+04         0.32534E+06         0.00000E+00
    0.32534E+06        -0.22454E+06         0.00000E+00
    0.00000E+00         0.00000E+00         0.00000E+00
 
    0.30485E+06         0.43631E+04         0.00000E+00
    0.43631E+04        -0.37063E+06         0.00000E+00
    0.00000E+00         0.00000E+00         0.00000E+00
 
    0.30202E+06         0.12994E+05         0.00000E+00
    0.12994E+05        -0.37049E+06         0.00000E+00
    0.00000E+00         0.00000E+00         0.00000E+00
 
    0.29904E+06         0.21588E+05         0.00000E+00
    0.21588E+05        -0.37022E+06         0.00000E+00
    0.00000E+00         0.00000E+00         0.00000E+00
 
    0.29591E+06         0.30142E+05         0.00000E+00
    0.30142E+05        -0.36982E+06         0.00000E+00
    0.00000E+00         0.00000E+00         0.00000E+00
 
    0.29261E+06         0.38653E+05         0.00000E+00
    0.38653E+05        -0.36929E+06         0.00000E+00
    0.00000E+00         0.00000E+00         0.00000E+00
 
    0.28916E+06         0.47120E+05         0.00000E+00
    0.47120E+05        -0.36864E+06         0.00000E+00
    0.00000E+00         0.00000E+00         0.00000E+00
 
    0.28556E+06         0.55541E+05         0.00000E+00
    0.55541E+05        -0.36785E+06         0.00000E+00
    0.00000E+00         0.00000E+00         0.00000E+00
 
    0.28180E+06         0.63913E+05         0.00000E+00
    0.63913E+05        -0.36694E+06         0.00000E+00
    0.00000E+00         0.00000E+00         0.00000E+00
 
    0.27789E+06         0.72233E+05         0.00000E+00
    0.72233E+05        -0.36590E+06         0.00000E+00
    0.00000E+00         0.00000E+00         0.00000E+00
 
    0.27383E+06         0.80501E+05         0.00000E+00
    0.80501E+05        -0.36474E+06         0.00000E+00
    0.00000E+00         0.00000E+00         0.00000E+00
 
    0.26962E+06         0.88713E+05         0.00000E+00
    0.88713E+05        -0.36346E+06         0.00000E+00
    0.00000E+00         0.00000E+00         0.00000E+00
 
    0.26527E+06         0.96869E+05         0.00000E+00
    0.96869E+05        -0.36205E+06         0.00000E+00
    0.00000E+00         0.00000E+00         0.00000E+00
 
    0.26076E+06         0.10496E+06         0.00000E+00
    0.10496E+06        -0.36053E+06         0.00000E+00
    0.00000E+00         0.00000E+00         0.00000E+00
 
    0.25611E+06         0.11300E+06         0.00000E+00
    0.11300E+06        -0.35890E+06         0.00000E+00
    0.00000E+00         0.00000E+00         0.00000E+00
 
    0.25131E+06         0.12097E+06         0.00000E+00
    0.12097E+06        -0.35715E+06         0.00000E+00
    0.00000E+00         0.00000E+00         0.00000E+00
 
    0.24637E+06         0.12887E+06         0.00000E+00
    0.12887E+06        -0.35528E+06         0.00000E+00
    0.00000E+00         0.00000E+00         0.00000E+00
 
    0.24129E+06         0.13671E+06         0.00000E+00
    0.13671E+06        -0.35330E+06         0.00000E+00
    0.00000E+00         0.00000E+00         0.00000E+00
 
    0.23606E+06         0.14448E+06         0.00000E+00
    0.14448E+06        -0.35122E+06         0.00000E+00
    0.00000E+00         0.00000E+00         0.00000E+00
 
    0.23070E+06         0.15218E+06         0.00000E+00
    0.15218E+06        -0.34903E+06         0.00000E+00
    0.00000E+00         0.00000E+00         0.00000E+00
 
    0.22520E+06         0.15980E+06         0.00000E+00
    0.15980E+06        -0.34673E+06         0.00000E+00
    0.00000E+00         0.00000E+00         0.00000E+00
 
    0.21956E+06         0.16735E+06         0.00000E+00
    0.16735E+06        -0.34433E+06         0.00000E+00
    0.00000E+00         0.00000E+00         0.00000E+00
 
    0.21379E+06         0.17483E+06         0.00000E+00
    0.17483E+06        -0.34183E+06         0.00000E+00
    0.00000E+00         0.00000E+00         0.00000E+00
 
    0.20789E+06         0.18222E+06         0.00000E+00
    0.18222E+06        -0.33922E+06         0.00000E+00
    0.00000E+00         0.00000E+00         0.00000E+00
 
    0.20185E+06         0.18954E+06         0.00000E+00
    0.18954E+06        -0.33653E+06         0.00000E+00
    0.00000E+00         0.00000E+00         0.00000E+00
 
    0.19568E+06         0.19677E+06         0.00000E+00
    0.19677E+06        -0.33373E+06         0.00000E+00
    0.00000E+00         0.00000E+00         0.00000E+00
 
    0.18939E+06         0.20392E+06         0.00000E+00
    0.20392E+06        -0.33084E+06         0.00000E+00
    0.00000E+00         0.00000E+00         0.00000E+00
 
    0.18296E+06         0.21098E+06         0.00000E+00
    0.21098E+06        -0.32786E+06         0.00000E+00
    0.00000E+00         0.00000E+00         0.00000E+00
 
    0.17642E+06         0.21796E+06         0.00000E+00
    0.21796E+06        -0.32480E+06         0.00000E+00
    0.00000E+00         0.00000E+00         0.00000E+00
 
    0.16974E+06         0.22485E+06         0.00000E+00
    0.22485E+06        -0.32164E+06         0.00000E+00
    0.00000E+00         0.00000E+00         0.00000E+00
 
    0.16295E+06         0.23165E+06         0.00000E+00
    0.23165E+06        -0.31840E+06         0.00000E+00
    0.00000E+00         0.00000E+00         0.00000E+00
 
    0.15604E+06         0.23836E+06         0.00000E+00
    0.23836E+06        -0.31508E+06         0.00000E+00
    0.00000E+00         0.00000E+00         0.00000E+00
 
    0.14901E+06         0.24497E+06         0.00000E+00
    0.24497E+06        -0.31168E+06         0.00000E+00
    0.00000E+00         0.00000E+00         0.00000E+00
 
    0.14186E+06         0.25149E+06         0.00000E+00
    0.25149E+06        -0.30821E+06         0.00000E+00
    0.00000E+00         0.00000E+00         0.00000E+00
 
    0.13460E+06         0.25792E+06         0.00000E+00
    0.25792E+06        -0.30465E+06         0.00000E+00
    0.00000E+00         0.00000E+00         0.00000E+00
 
    0.12723E+06         0.26425E+06         0.00000E+00
    0.26425E+06        -0.30103E+06         0.00000E+00
    0.00000E+00         0.00000E+00         0.00000E+00
 
    0.11974E+06         0.27048E+06         0.00000E+00
    0.27048E+06        -0.29733E+06         0.00000E+00
    0.00000E+00         0.00000E+00         0.00000E+00
 
    0.11215E+06         0.27661E+06         0.00000E+00
    0.27661E+06        -0.29357E+06         0.00000E+00
    0.00000E+00         0.00000E+00         0.00000E+00
 
    0.10445E+06         0.28264E+06         0.00000E+00
    0.28264E+06        -0.28974E+06         0.00000E+00
    0.00000E+00         0.00000E+00         0.00000E+00
 
    0.96643E+05         0.28857E+06         0.00000E+00
    0.28857E+06        -0.28585E+06         0.00000E+00
    0.00000E+00         0.00000E+00         0.00000E+00
 
    0.88735E+05         0.29440E+06         0.00000E+00
    0.29440E+06        -0.28189E+06         0.00000E+00
    0.00000E+00         0.00000E+00         0.00000E+00
 
    0.80726E+05         0.30012E+06         0.00000E+00
    0.30012E+06        -0.27788E+06         0.00000E+00
    0.00000E+00         0.00000E+00         0.00000E+00
 
    0.72618E+05         0.30574E+06         0.00000E+00
    0.30574E+06        -0.27381E+06         0.00000E+00
    0.00000E+00         0.00000E+00         0.00000E+00
 
    0.64412E+05         0.31125E+06         0.00000E+00
    0.31125E+06        -0.26969E+06         0.00000E+00
    0.00000E+00         0.00000E+00         0.00000E+00
 
    0.56112E+05         0.31665E+06         0.00000E+00
    0.31665E+06        -0.26552E+06         0.00000E+00
    0.00000E+00         0.00000E+00         0.00000E+00
 
    0.47719E+05         0.32195E+06         0.00000E+00
    0.32195E+06        -0.26130E+06         0.00000E+00
    0.00000E+00         0.00000E+00         0.00000E+00
 
    0.39235E+05         0.32713E+06         0.00000E+00
    0.32713E+06        -0.25704E+06         0.00000E+00
    0.00000E+00         0.00000E+00         0.00000E+00
 
    0.30663E+05         0.33221E+06         0.00000E+00
    0.33221E+06        -0.25273E+06         0.00000E+00
    0.00000E+00         0.00000E+00         0.00000E+00
 
    0.22003E+05         0.33718E+06         0.00000E+00
    0.33718E+06        -0.24838E+06         0.00000E+00
    0.00000E+00         0.00000E+00         0.00000E+00
 
    0.13260E+05         0.34203E+06         0.00000E+00
    0.34203E+06        -0.24400E+06         0.00000E+00
    0.00000E+00         0.00000E+00         0.00000E+00
 
    0.44334E+04         0.34678E+06         0.00000E+00
    0.34678E+06        -0.23957E+06         0.00000E+00
    0.00000E+00         0.00000E+00         0.00000E+00
 
    0.32490E+06         0.46496E+04         0.00000E+00
    0.46496E+04        -0.39522E+06         0.00000E+00
    0.00000E+00         0.00000E+00         0.00000E+00
 
    0.32189E+06         0.13848E+05         0.00000E+00
    0.13848E+05        -0.39508E+06         0.00000E+00
    0.00000E+00         0.00000E+00         0.00000E+00
 
    0.31872E+06         0.23006E+05         0.00000E+00
    0.23006E+05        -0.39480E+06         0.00000E+00
    0.00000E+00         0.00000E+00         0.00000E+00
 
    0.31537E+06         0.32122E+05         0.00000E+00
    0.32122E+05        -0.39437E+06         0.00000E+00
    0.00000E+00         0.00000E+00         0.00000E+00
 
    0.31186E+06         0.41193E+05         0.00000E+00
    0.41193E+05        -0.39381E+06         0.00000E+00
    0.00000E+00         0.00000E+00         0.00000E+00
 
    0.30818E+06         0.50216E+05         0.00000E+00
    0.50216E+05        -0.39310E+06         0.00000E+00
    0.00000E+00         0.00000E+00         0.00000E+00
 
    0.30434E+06         0.59190E+05         0.00000E+00
    0.59190E+05        -0.39227E+06         0.00000E+00
    0.00000E+00         0.00000E+00         0.00000E+00
 
    0.30034E+06         0.68112E+05         0.00000E+00
    0.68112E+05        -0.39129E+06         0.00000E+00
    0.00000E+00         0.00000E+00         0.00000E+00
 
    0.29617E+06         0.76980E+05         0.00000E+00
    0.76980E+05        -0.39019E+06         0.00000E+00
    0.00000E+00         0.00000E+00         0.00000E+00
 
    0.29184E+06         0.85791E+05         0.00000E+00
    0.85791E+05        -0.38895E+06         0.00000E+00
    0.00000E+00         0.00000E+00         0.00000E+00
 
    0.28735E+06         0.94544E+05         0.00000E+00
    0.94544E+05        -0.38759E+06         0.00000E+00
    0.00000E+00         0.00000E+00         0.00000E+00
 
    0.28271E+06         0.10324E+06         0.00000E+00
    0.10324E+06        -0.38609E+06         0.00000E+00
    0.00000E+00         0.00000E+00         0.00000E+00
 
    0.27791E+06         0.11186E+06         0.00000E+00
    0.11186E+06        -0.38447E+06         0.00000E+00
    0.00000E+00         0.00000E+00         0.00000E+00
 
    0.27295E+06         0.12043E+06         0.00000E+00
    0.12043E+06        -0.38273E+06         0.00000E+00
    0.00000E+00         0.00000E+00         0.00000E+00
 
    0.26783E+06         0.12892E+06         0.00000E+00
    0.12892E+06        -0.38086E+06         0.00000E+00
    0.00000E+00         0.00000E+00         0.00000E+00
 
    0.26257E+06         0.13735E+06         0.00000E+00
    0.13735E+06        -0.37888E+06         0.00000E+00
    0.00000E+00         0.00000E+00         0.00000E+00
 
    0.25715E+06         0.14570E+06         0.00000E+00
    0.14570E+06        -0.37677E+06         0.00000E+00
    0.00000E+00         0.00000E+00         0.00000E+00
 
    0.25158E+06         0.15398E+06         0.00000E+00
    0.15398E+06        -0.37455E+06         0.00000E+00
    0.00000E+00         0.00000E+00         0.00000E+00
 
    0.24586E+06         0.16218E+06         0.00000E+00
    0.16218E+06        -0.37222E+06         0.00000E+00
    0.00000E+00         0.00000E+00         0.00000E+00
 
    0.24000E+06         0.17031E+06         0.00000E+00
    0.17031E+06        -0.36977E+06         0.00000E+00
    0.00000E+00         0.00000E+00         0.00000E+00
 
    0.23399E+06         0.17836E+06         0.00000E+00
    0.17836E+06        -0.36721E+06         0.00000E+00
    0.00000E+00         0.00000E+00         0.00000E+00
 
    0.22784E+06         0.18632E+06         0.00000E+00
    0.18632E+06        -0.36454E+06         0.00000E+00
    0.00000E+00         0.00000E+00         0.00000E+00
 
    0.22155E+06         0.19420E+06         0.00000E+00
    0.19420E+06        -0.36177E+06         0.00000E+00
    0.00000E+00         0.00000E+00         0.00000E+00
 
    0.21511E+06         0.20200E+06         0.00000E+00
    0.20200E+06        -0.35890E+06         0.00000E+00
    0.00000E+00         0.00000E+00         0.00000E+00
 
    0.20854E+06         0.20971E+06         0.00000E+00
    0.20971E+06        -0.35592E+06         0.00000E+00
    0.00000E+00         0.00000E+00         0.00000E+00
 
    0.20183E+06         0.21733E+06         0.00000E+00
    0.21733E+06        -0.35284E+06         0.00000E+00
    0.00000E+00         0.00000E+00         0.00000E+00
 
    0.19499E+06         0.22486E+06         0.00000E+00
    0.22486E+06        -0.34967E+06         0.00000E+00
    0.00000E+00         0.00000E+00         0.00000E+00
 
    0.18801E+06         0.23230E+06         0.00000E+00
    0.23230E+06        -0.34640E+06         0.00000E+00
    0.00000E+00         0.00000E+00         0.00000E+00
 
    0.18090E+06         0.23964E+06         0.00000E+00
    0.23964E+06        -0.34304E+06         0.00000E+00
    0.00000E+00         0.00000E+00         0.00000E+00
 
    0.17366E+06         0.24689E+06         0.00000E+00
    0.24689E+06        -0.33959E+06         0.00000E+00
    0.00000E+00         0.00000E+00         0.00000E+00
 
    0.16629E+06         0.25404E+06         0.00000E+00
    0.25404E+06        -0.33606E+06         0.00000E+00
    0.00000E+00         0.00000E+00         0.00000E+00
 
    0.15880E+06         0.26109E+06         0.00000E+00
    0.26109E+06        -0.33243E+06         0.00000E+00
    0.00000E+00         0.00000E+00         0.00000E+00
 
    0.15118E+06         0.26804E+06         0.00000E+00
    0.26804E+06        -0.32873E+06         0.00000E+00
    0.00000E+00         0.00000E+00         0.00000E+00
 
    0.14344E+06         0.27489E+06         0.00000E+00
    0.27489E+06        -0.32494E+06         0.00000E+00
    0.00000E+00         0.00000E+00         0.00000E+00
 
    0.13558E+06         0.28164E+06         0.00000E+00
    0.28164E+06        -0.32108E+06         0.00000E+00
    0.00000E+00         0.00000E+00         0.00000E+00
 
    0.12761E+06         0.28828E+06         0.00000E+00
    0.28828E+06        -0.31714E+06         0.00000E+00
    0.00000E+00         0.00000E+00         0.00000E+00
 
    0.11952E+06         0.29482E+06         0.00000E+00
    0.29482E+06        -0.31313E+06         0.00000E+00
    0.00000E+00         0.00000E+00         0.00000E+00
 
    0.11131E+06         0.30124E+06         0.00000E+00
    0.30124E+06        -0.30905E+06         0.00000E+00
    0.00000E+00         0.00000E+00         0.00000E+00
 
    0.10299E+06         0.30757E+06         0.00000E+00
    0.30757E+06        -0.30491E+06         0.00000E+00
    0.00000E+00         0.00000E+00         0.00000E+00
 
    0.94563E+05         0.31378E+06         0.00000E+00
    0.31378E+06        -0.30069E+06         0.00000E+00
    0.00000E+00         0.00000E+00         0.00000E+00
 
    0.86027E+05         0.31988E+06         0.00000E+00
    0.31988E+06        -0.29642E+06         0.00000E+00
    0.00000E+00         0.00000E+00         0.00000E+00
 
    0.77387E+05         0.32587E+06         0.00000E+00
    0.32587E+06        -0.29209E+06         0.00000E+00
    0.00000E+00         0.00000E+00         0.00000E+00
 
    0.68642E+05         0.33174E+06         0.00000E+00
    0.33174E+06        -0.28770E+06         0.00000E+00
    0.00000E+00         0.00000E+00         0.00000E+00
 
    0.59797E+05         0.33750E+06         0.00000E+00
    0.33750E+06        -0.28325E+06         0.00000E+00
    0.00000E+00         0.00000E+00         0.00000E+00
 
    0.50853E+05         0.34315E+06         0.00000E+00
    0.34315E+06        -0.27876E+06         0.00000E+00
    0.00000E+00         0.00000E+00         0.00000E+00
 
    0.41812E+05         0.34868E+06         0.00000E+00
    0.34868E+06        -0.27421E+06         0.00000E+00
    0.00000E+00         0.00000E+00         0.00000E+00
 
    0.32676E+05         0.35409E+06         0.00000E+00
    0.35409E+06        -0.26962E+06         0.00000E+00
    0.00000E+00         0.00000E+00         0.00000E+00
 
    0.23448E+05         0.35939E+06         0.00000E+00
    0.35939E+06        -0.26499E+06         0.00000E+00
    0.00000E+00         0.00000E+00         0.00000E+00
 
    0.14130E+05         0.36456E+06         0.00000E+00
    0.36456E+06        -0.26032E+06         0.00000E+00
    0.00000E+00         0.00000E+00         0.00000E+00
 
    0.47245E+04         0.36962E+06         0.00000E+00
    0.36962E+06        -0.25560E+06         0.00000E+00
    0.00000E+00         0.00000E+00         0.00000E+00
 
    0.34627E+06         0.49550E+04         0.00000E+00
    0.49550E+04        -0.42145E+06         0.00000E+00
    0.00000E+00         0.00000E+00         0.00000E+00
 
    0.34306E+06         0.14758E+05         0.00000E+00
    0.14758E+05        -0.42129E+06         0.00000E+00
    0.00000E+00         0.00000E+00         0.00000E+00
 
    0.33967E+06         0.24518E+05         0.00000E+00
    0.24518E+05        -0.42099E+06         0.00000E+00
    0.00000E+00         0.00000E+00         0.00000E+00
 
    0.33611E+06         0.34232E+05         0.00000E+00
    0.34232E+05        -0.42054E+06         0.00000E+00
    0.00000E+00         0.00000E+00         0.00000E+00
 
    0.33237E+06         0.43899E+05         0.00000E+00
    0.43899E+05        -0.41994E+06         0.00000E+00
    0.00000E+00         0.00000E+00         0.00000E+00
 
    0.32845E+06         0.53516E+05         0.00000E+00
    0.53516E+05        -0.41919E+06         0.00000E+00
    0.00000E+00         0.00000E+00         0.00000E+00
 
    0.32435E+06         0.63080E+05         0.00000E+00
    0.63080E+05        -0.41830E+06         0.00000E+00
    0.00000E+00         0.00000E+00         0.00000E+00
 
    0.32008E+06         0.72589E+05         0.00000E+00
    0.72589E+05        -0.41726E+06         0.00000E+00
    0.00000E+00         0.00000E+00         0.00000E+00
 
    0.31564E+06         0.82040E+05         0.00000E+00
    0.82040E+05        -0.41608E+06         0.00000E+00
    0.00000E+00         0.00000E+00         0.00000E+00
 
    0.31103E+06         0.91430E+05         0.00000E+00
    0.91430E+05        -0.41476E+06         0.00000E+00
    0.00000E+00         0.00000E+00         0.00000E+00
 
    0.30624E+06         0.10076E+06         0.00000E+00
    0.10076E+06        -0.41331E+06         0.00000E+00
    0.00000E+00         0.00000E+00         0.00000E+00
 
    0.30129E+06         0.11002E+06         0.00000E+00
    0.11002E+06        -0.41172E+06         0.00000E+00
    0.00000E+00         0.00000E+00         0.00000E+00
 
    0.29617E+06         0.11922E+06         0.00000E+00
    0.11922E+06        -0.40999E+06         0.00000E+00
    0.00000E+00         0.00000E+00         0.00000E+00
 
    0.29089E+06         0.12834E+06         0.00000E+00
    0.12834E+06        -0.40814E+06         0.00000E+00
    0.00000E+00         0.00000E+00         0.00000E+00
 
    0.28544E+06         0.13740E+06         0.00000E+00
    0.13740E+06        -0.40615E+06         0.00000E+00
    0.00000E+00         0.00000E+00         0.00000E+00
 
    0.27982E+06         0.14638E+06         0.00000E+00
    0.14638E+06        -0.40403E+06         0.00000E+00
    0.00000E+00         0.00000E+00         0.00000E+00
 
    0.27405E+06         0.15528E+06         0.00000E+00
    0.15528E+06        -0.40179E+06         0.00000E+00
    0.00000E+00         0.00000E+00         0.00000E+00
 
    0.26811E+06         0.16411E+06         0.00000E+00
    0.16411E+06        -0.39942E+06         0.00000E+00
    0.00000E+00         0.00000E+00         0.00000E+00
 
    0.26202E+06         0.17285E+06         0.00000E+00
    0.17285E+06        -0.39694E+06         0.00000E+00
    0.00000E+00         0.00000E+00         0.00000E+00
 
    0.25577E+06         0.18151E+06         0.00000E+00
    0.18151E+06        -0.39433E+06         0.00000E+00
    0.00000E+00         0.00000E+00         0.00000E+00
 
    0.24937E+06         0.19009E+06         0.00000E+00
    0.19009E+06        -0.39160E+06         0.00000E+00
    0.00000E+00         0.00000E+00         0.00000E+00
 
    0.24281E+06         0.19858E+06         0.00000E+00
    0.19858E+06        -0.38876E+06         0.00000E+00
    0.00000E+00         0.00000E+00         0.00000E+00
 
    0.23610E+06         0.20698E+06         0.00000E+00
    0.20698E+06        -0.38581E+06         0.00000E+00
    0.00000E+00         0.00000E+00         0.00000E+00
 
    0.22925E+06         0.21529E+06         0.00000E+00
    0.21529E+06        -0.38275E+06         0.00000E+00
    0.00000E+00         0.00000E+00         0.00000E+00
 
    0.22224E+06         0.22350E+06         0.00000E+00
    0.22350E+06        -0.37958E+06         0.00000E+00
    0.00000E+00         0.00000E+00         0.00000E+00
 
    0.21509E+06         0.23162E+06         0.00000E+00
    0.23162E+06        -0.37630E+06         0.00000E+00
    0.00000E+00         0.00000E+00         0.00000E+00
 
    0.20779E+06         0.23965E+06         0.00000E+00
    0.23965E+06        -0.37292E+06         0.00000E+00
    0.00000E+00         0.00000E+00         0.00000E+00
 
    0.20036E+06         0.24758E+06         0.00000E+00
    0.24758E+06        -0.36944E+06         0.00000E+00
    0.00000E+00         0.00000E+00         0.00000E+00
 
    0.19278E+06         0.25540E+06         0.00000E+00
    0.25540E+06        -0.36586E+06         0.00000E+00
    0.00000E+00         0.00000E+00         0.00000E+00
 
    0.18506E+06         0.26313E+06         0.00000E+00
    0.26313E+06        -0.36218E+06         0.00000E+00
    0.00000E+00         0.00000E+00         0.00000E+00
 
    0.17721E+06         0.27075E+06         0.00000E+00
    0.27075E+06        -0.35841E+06         0.00000E+00
    0.00000E+00         0.00000E+00         0.00000E+00
 
    0.16923E+06         0.27827E+06         0.00000E+00
    0.27827E+06        -0.35456E+06         0.00000E+00
    0.00000E+00         0.00000E+00         0.00000E+00
 
    0.16111E+06         0.28568E+06         0.00000E+00
    0.28568E+06        -0.35061E+06         0.00000E+00
    0.00000E+00         0.00000E+00         0.00000E+00
 
    0.15286E+06         0.29298E+06         0.00000E+00
    0.29298E+06        -0.34658E+06         0.00000E+00
    0.00000E+00         0.00000E+00         0.00000E+00
 
    0.14449E+06         0.30017E+06         0.00000E+00
    0.30017E+06        -0.34246E+06         0.00000E+00
    0.00000E+00         0.00000E+00         0.00000E+00
 
    0.13599E+06         0.30725E+06         0.00000E+00
    0.30725E+06        -0.33827E+06         0.00000E+00
    0.00000E+00         0.00000E+00         0.00000E+00
 
    0.12736E+06         0.31422E+06         0.00000E+00
    0.31422E+06        -0.33399E+06         0.00000E+00
    0.00000E+00         0.00000E+00         0.00000E+00
 
    0.11862E+06         0.32107E+06         0.00000E+00
    0.32107E+06        -0.32965E+06         0.00000E+00
    0.00000E+00         0.00000E+00         0.00000E+00
 
    0.10975E+06         0.32781E+06         0.00000E+00
    0.32781E+06        -0.32523E+06         0.00000E+00
    0.00000E+00         0.00000E+00         0.00000E+00
 
    0.10077E+06         0.33443E+06         0.00000E+00
    0.33443E+06        -0.32074E+06         0.00000E+00
    0.00000E+00         0.00000E+00         0.00000E+00
 
    0.91675E+05         0.34093E+06         0.00000E+00
    0.34093E+06        -0.31619E+06         0.00000E+00
    0.00000E+00         0.00000E+00         0.00000E+00
 
    0.82467E+05         0.34732E+06         0.00000E+00
    0.34732E+06        -0.31157E+06         0.00000E+00
    0.00000E+00         0.00000E+00         0.00000E+00
 
    0.73149E+05         0.35358E+06         0.00000E+00
    0.35358E+06        -0.30689E+06         0.00000E+00
    0.00000E+00         0.00000E+00         0.00000E+00
 
    0.63723E+05         0.35972E+06         0.00000E+00
    0.35972E+06        -0.30216E+06         0.00000E+00
    0.00000E+00         0.00000E+00         0.00000E+00
 
    0.54191E+05         0.36574E+06         0.00000E+00
    0.36574E+06        -0.29737E+06         0.00000E+00
    0.00000E+00         0.00000E+00         0.00000E+00
 
    0.44557E+05         0.37164E+06         0.00000E+00
    0.37164E+06        -0.29253E+06         0.00000E+00
    0.00000E+00         0.00000E+00         0.00000E+00
 
    0.34821E+05         0.37741E+06         0.00000E+00
    0.37741E+06        -0.28764E+06         0.00000E+00
    0.00000E+00         0.00000E+00         0.00000E+00
 
    0.24988E+05         0.38305E+06         0.00000E+00
    0.38305E+06        -0.28270E+06         0.00000E+00
    0.00000E+00         0.00000E+00         0.00000E+00
 
    0.15058E+05         0.38857E+06         0.00000E+00
    0.38857E+06        -0.27772E+06         0.00000E+00
    0.00000E+00         0.00000E+00         0.00000E+00
 
    0.50347E+04         0.39396E+06         0.00000E+00
    0.39396E+06        -0.27270E+06         0.00000E+00
    0.00000E+00         0.00000E+00         0.00000E+00
 
    0.36903E+06         0.52806E+04         0.00000E+00
    0.52806E+04        -0.44940E+06         0.00000E+00
    0.00000E+00         0.00000E+00         0.00000E+00
 
    0.36561E+06         0.15727E+05         0.00000E+00
    0.15727E+05        -0.44924E+06         0.00000E+00
    0.00000E+00         0.00000E+00         0.00000E+00
 
    0.36200E+06         0.26129E+05         0.00000E+00
    0.26129E+05        -0.44891E+06         0.00000E+00
    0.00000E+00         0.00000E+00         0.00000E+00
 
    0.35820E+06         0.36482E+05         0.00000E+00
    0.36482E+05        -0.44843E+06         0.00000E+00
    0.00000E+00         0.00000E+00         0.00000E+00
 
    0.35421E+06         0.46785E+05         0.00000E+00
    0.46785E+05        -0.44779E+06         0.00000E+00
    0.00000E+00         0.00000E+00         0.00000E+00
 
    0.35003E+06         0.57034E+05         0.00000E+00
    0.57034E+05        -0.44699E+06         0.00000E+00
    0.00000E+00         0.00000E+00         0.00000E+00
 
    0.34567E+06         0.67227E+05         0.00000E+00
    0.67227E+05        -0.44604E+06         0.00000E+00
    0.00000E+00         0.00000E+00         0.00000E+00
 
    0.34112E+06         0.77361E+05         0.00000E+00
    0.77361E+05        -0.44494E+06         0.00000E+00
    0.00000E+00         0.00000E+00         0.00000E+00
 
    0.33638E+06         0.87433E+05         0.00000E+00
    0.87433E+05        -0.44369E+06         0.00000E+00
    0.00000E+00         0.00000E+00         0.00000E+00
 
    0.33147E+06         0.97441E+05         0.00000E+00
    0.97441E+05        -0.44228E+06         0.00000E+00
    0.00000E+00         0.00000E+00         0.00000E+00
 
    0.32637E+06         0.10738E+06         0.00000E+00
    0.10738E+06        -0.44073E+06         0.00000E+00
    0.00000E+00         0.00000E+00         0.00000E+00
 
    0.32109E+06         0.11725E+06         0.00000E+00
    0.11725E+06        -0.43904E+06         0.00000E+00
    0.00000E+00         0.00000E+00         0.00000E+00
 
    0.31563E+06         0.12706E+06         0.00000E+00
    0.12706E+06        -0.43720E+06         0.00000E+00
    0.00000E+00         0.00000E+00         0.00000E+00
 
    0.31000E+06         0.13678E+06         0.00000E+00
    0.13678E+06        -0.43522E+06         0.00000E+00
    0.00000E+00         0.00000E+00         0.00000E+00
 
    0.30419E+06         0.14643E+06         0.00000E+00
    0.14643E+06        -0.43310E+06         0.00000E+00
    0.00000E+00         0.00000E+00         0.00000E+00
 
    0.29821E+06         0.15600E+06         0.00000E+00
    0.15600E+06        -0.43085E+06         0.00000E+00
    0.00000E+00         0.00000E+00         0.00000E+00
 
    0.29205E+06         0.16549E+06         0.00000E+00
    0.16549E+06        -0.42846E+06         0.00000E+00
    0.00000E+00         0.00000E+00         0.00000E+00
 
    0.28573E+06         0.17490E+06         0.00000E+00
    0.17490E+06        -0.42594E+06         0.00000E+00
    0.00000E+00         0.00000E+00         0.00000E+00
 
    0.27923E+06         0.18422E+06         0.00000E+00
    0.18422E+06        -0.42329E+06         0.00000E+00
    0.00000E+00         0.00000E+00         0.00000E+00
 
    0.27257E+06         0.19345E+06         0.00000E+00
    0.19345E+06        -0.42051E+06         0.00000E+00
    0.00000E+00         0.00000E+00         0.00000E+00
 
    0.26575E+06         0.20259E+06         0.00000E+00
    0.20259E+06        -0.41761E+06         0.00000E+00
    0.00000E+00         0.00000E+00         0.00000E+00
 
    0.25876E+06         0.21164E+06         0.00000E+00
    0.21164E+06        -0.41458E+06         0.00000E+00
    0.00000E+00         0.00000E+00         0.00000E+00
 
    0.25161E+06         0.22059E+06         0.00000E+00
    0.22059E+06        -0.41144E+06         0.00000E+00
    0.00000E+00         0.00000E+00         0.00000E+00
 
    0.24430E+06         0.22945E+06         0.00000E+00
    0.22945E+06        -0.40817E+06         0.00000E+00
    0.00000E+00         0.00000E+00         0.00000E+00
 
    0.23683E+06         0.23820E+06         0.00000E+00
    0.23820E+06        -0.40480E+06         0.00000E+00
    0.00000E+00         0.00000E+00         0.00000E+00
 
    0.22921E+06         0.24686E+06         0.00000E+00
    0.24686E+06        -0.40130E+06         0.00000E+00
    0.00000E+00         0.00000E+00         0.00000E+00
 
    0.22144E+06         0.25541E+06         0.00000E+00
    0.25541E+06        -0.39770E+06         0.00000E+00
    0.00000E+00         0.00000E+00         0.00000E+00
 
    0.21351E+06         0.26386E+06         0.00000E+00
    0.26386E+06        -0.39399E+06         0.00000E+00
    0.00000E+00         0.00000E+00         0.00000E+00
 
    0.20544E+06         0.27220E+06         0.00000E+00
    0.27220E+06        -0.39018E+06         0.00000E+00
    0.00000E+00         0.00000E+00         0.00000E+00
 
    0.19721E+06         0.28044E+06         0.00000E+00
    0.28044E+06        -0.38627E+06         0.00000E+00
    0.00000E+00         0.00000E+00         0.00000E+00
 
    0.18885E+06         0.28856E+06         0.00000E+00
    0.28856E+06        -0.38225E+06         0.00000E+00
    0.00000E+00         0.00000E+00         0.00000E+00
 
    0.18034E+06         0.29657E+06         0.00000E+00
    0.29657E+06        -0.37814E+06         0.00000E+00
    0.00000E+00         0.00000E+00         0.00000E+00
 
    0.17169E+06         0.30447E+06         0.00000E+00
    0.30447E+06        -0.37394E+06         0.00000E+00
    0.00000E+00         0.00000E+00         0.00000E+00
 
    0.16290E+06         0.31225E+06         0.00000E+00
    0.31225E+06        -0.36964E+06         0.00000E+00
    0.00000E+00         0.00000E+00         0.00000E+00
 
    0.15397E+06         0.31992E+06         0.00000E+00
    0.31992E+06        -0.36526E+06         0.00000E+00
    0.00000E+00         0.00000E+00         0.00000E+00
 
    0.14491E+06         0.32747E+06         0.00000E+00
    0.32747E+06        -0.36079E+06         0.00000E+00
    0.00000E+00         0.00000E+00         0.00000E+00
 
    0.13572E+06         0.33489E+06         0.00000E+00
    0.33489E+06        -0.35624E+06         0.00000E+00
    0.00000E+00         0.00000E+00         0.00000E+00
 
    0.12640E+06         0.34220E+06         0.00000E+00
    0.34220E+06        -0.35161E+06         0.00000E+00
    0.00000E+00         0.00000E+00         0.00000E+00
 
    0.11696E+06         0.34938E+06         0.00000E+00
    0.34938E+06        -0.34690E+06         0.00000E+00
    0.00000E+00         0.00000E+00         0.00000E+00
 
    0.10738E+06         0.35644E+06         0.00000E+00
    0.35644E+06        -0.34212E+06         0.00000E+00
    0.00000E+00         0.00000E+00         0.00000E+00
 
    0.97692E+05         0.36337E+06         0.00000E+00
    0.36337E+06        -0.33727E+06         0.00000E+00
    0.00000E+00         0.00000E+00         0.00000E+00
 
    0.87879E+05         0.37017E+06         0.00000E+00
    0.37017E+06        -0.33235E+06         0.00000E+00
    0.00000E+00         0.00000E+00         0.00000E+00
 
    0.77949E+05         0.37685E+06         0.00000E+00
    0.37685E+06        -0.32737E+06         0.00000E+00
    0.00000E+00         0.00000E+00         0.00000E+00
 
    0.67904E+05         0.38340E+06         0.00000E+00
    0.38340E+06        -0.32232E+06         0.00000E+00
    0.00000E+00         0.00000E+00         0.00000E+00
 
    0.57747E+05         0.38982E+06         0.00000E+00
    0.38982E+06        -0.31722E+06         0.00000E+00
    0.00000E+00         0.00000E+00         0.00000E+00
 
    0.47480E+05         0.39610E+06         0.00000E+00
    0.39610E+06        -0.31206E+06         0.00000E+00
    0.00000E+00         0.00000E+00         0.00000E+00
 
    0.37106E+05         0.40225E+06         0.00000E+00
    0.40225E+06        -0.30685E+06         0.00000E+00
    0.00000E+00         0.00000E+00         0.00000E+00
 
    0.26627E+05         0.40827E+06         0.00000E+00
    0.40827E+06        -0.30159E+06         0.00000E+00
    0.00000E+00         0.00000E+00         0.00000E+00
 
    0.16046E+05         0.41415E+06         0.00000E+00
    0.41415E+06        -0.29628E+06         0.00000E+00
    0.00000E+00         0.00000E+00         0.00000E+00
 
    0.53651E+04         0.41990E+06         0.00000E+00
    0.41990E+06        -0.29093E+06         0.00000E+00
    0.00000E+00         0.00000E+00         0.00000E+00
 
    0.39327E+06         0.56277E+04         0.00000E+00
    0.56277E+04        -0.47920E+06         0.00000E+00
    0.00000E+00         0.00000E+00         0.00000E+00
 
    0.38963E+06         0.16761E+05         0.00000E+00
    0.16761E+05        -0.47903E+06         0.00000E+00
    0.00000E+00         0.00000E+00         0.00000E+00
 
    0.38578E+06         0.27847E+05         0.00000E+00
    0.27847E+05        -0.47868E+06         0.00000E+00
    0.00000E+00         0.00000E+00         0.00000E+00
 
    0.38173E+06         0.38881E+05         0.00000E+00
    0.38881E+05        -0.47817E+06         0.00000E+00
    0.00000E+00         0.00000E+00         0.00000E+00
 
    0.37748E+06         0.49861E+05         0.00000E+00
    0.49861E+05        -0.47749E+06         0.00000E+00
    0.00000E+00         0.00000E+00         0.00000E+00
 
    0.37303E+06         0.60784E+05         0.00000E+00
    0.60784E+05        -0.47664E+06         0.00000E+00
    0.00000E+00         0.00000E+00         0.00000E+00
 
    0.36838E+06         0.71647E+05         0.00000E+00
    0.71647E+05        -0.47562E+06         0.00000E+00
    0.00000E+00         0.00000E+00         0.00000E+00
 
    0.36353E+06         0.82448E+05         0.00000E+00
    0.82448E+05        -0.47445E+06         0.00000E+00
    0.00000E+00         0.00000E+00         0.00000E+00
 
    0.35848E+06         0.93182E+05         0.00000E+00
    0.93182E+05        -0.47311E+06         0.00000E+00
    0.00000E+00         0.00000E+00         0.00000E+00
 
    0.35324E+06         0.10385E+06         0.00000E+00
    0.10385E+06        -0.47162E+06         0.00000E+00
    0.00000E+00         0.00000E+00         0.00000E+00
 
    0.34781E+06         0.11444E+06         0.00000E+00
    0.11444E+06        -0.46997E+06         0.00000E+00
    0.00000E+00         0.00000E+00         0.00000E+00
 
    0.34218E+06         0.12497E+06         0.00000E+00
    0.12497E+06        -0.46816E+06         0.00000E+00
    0.00000E+00         0.00000E+00         0.00000E+00
 
    0.33637E+06         0.13541E+06         0.00000E+00
    0.13541E+06        -0.46620E+06         0.00000E+00
    0.00000E+00         0.00000E+00         0.00000E+00
 
    0.33036E+06         0.14578E+06         0.00000E+00
    0.14578E+06        -0.46409E+06         0.00000E+00
    0.00000E+00         0.00000E+00         0.00000E+00
 
    0.32417E+06         0.15606E+06         0.00000E+00
    0.15606E+06        -0.46184E+06         0.00000E+00
    0.00000E+00         0.00000E+00         0.00000E+00
 
    0.31779E+06         0.16626E+06         0.00000E+00
    0.16626E+06        -0.45944E+06         0.00000E+00
    0.00000E+00         0.00000E+00         0.00000E+00
 
    0.31123E+06         0.17637E+06         0.00000E+00
    0.17637E+06        -0.45689E+06         0.00000E+00
    0.00000E+00         0.00000E+00         0.00000E+00
 
    0.30449E+06         0.18640E+06         0.00000E+00
    0.18640E+06        -0.45421E+06         0.00000E+00
    0.00000E+00         0.00000E+00         0.00000E+00
 
    0.29757E+06         0.19633E+06         0.00000E+00
    0.19633E+06        -0.45138E+06         0.00000E+00
    0.00000E+00         0.00000E+00         0.00000E+00
 
    0.29047E+06         0.20617E+06         0.00000E+00
    0.20617E+06        -0.44842E+06         0.00000E+00
    0.00000E+00         0.00000E+00         0.00000E+00
 
    0.28320E+06         0.21591E+06         0.00000E+00
    0.21591E+06        -0.44533E+06         0.00000E+00
    0.00000E+00         0.00000E+00         0.00000E+00
 
    0.27575E+06         0.22555E+06         0.00000E+00
    0.22555E+06        -0.44211E+06         0.00000E+00
    0.00000E+00         0.00000E+00         0.00000E+00
 
    0.26813E+06         0.23510E+06         0.00000E+00
    0.23510E+06        -0.43876E+06         0.00000E+00
    0.00000E+00         0.00000E+00         0.00000E+00
 
    0.26034E+06         0.24454E+06         0.00000E+00
    0.24454E+06        -0.43528E+06         0.00000E+00
    0.00000E+00         0.00000E+00         0.00000E+00
 
    0.25238E+06         0.25387E+06         0.00000E+00
    0.25387E+06        -0.43168E+06         0.00000E+00
    0.00000E+00         0.00000E+00         0.00000E+00
 
    0.24426E+06         0.26310E+06         0.00000E+00
    0.26310E+06        -0.42796E+06         0.00000E+00
    0.00000E+00         0.00000E+00         0.00000E+00
 
    0.23597E+06         0.27221E+06         0.00000E+00
    0.27221E+06        -0.42413E+06         0.00000E+00
    0.00000E+00         0.00000E+00         0.00000E+00
 
    0.22752E+06         0.28122E+06         0.00000E+00
    0.28122E+06        -0.42017E+06         0.00000E+00
    0.00000E+00         0.00000E+00         0.00000E+00
 
    0.21892E+06         0.29011E+06         0.00000E+00
    0.29011E+06        -0.41611E+06         0.00000E+00
    0.00000E+00         0.00000E+00         0.00000E+00
 
    0.21016E+06         0.29888E+06         0.00000E+00
    0.29888E+06        -0.41194E+06         0.00000E+00
    0.00000E+00         0.00000E+00         0.00000E+00
 
    0.20124E+06         0.30754E+06         0.00000E+00
    0.30754E+06        -0.40766E+06         0.00000E+00
    0.00000E+00         0.00000E+00         0.00000E+00
 
    0.19217E+06         0.31608E+06         0.00000E+00
    0.31608E+06        -0.40329E+06         0.00000E+00
    0.00000E+00         0.00000E+00         0.00000E+00
 
    0.18295E+06         0.32450E+06         0.00000E+00
    0.32450E+06        -0.39881E+06         0.00000E+00
    0.00000E+00         0.00000E+00         0.00000E+00
 
    0.17358E+06         0.33279E+06         0.00000E+00
    0.33279E+06        -0.39423E+06         0.00000E+00
    0.00000E+00         0.00000E+00         0.00000E+00
 
    0.16407E+06         0.34096E+06         0.00000E+00
    0.34096E+06        -0.38956E+06         0.00000E+00
    0.00000E+00         0.00000E+00         0.00000E+00
 
    0.15442E+06         0.34901E+06         0.00000E+00
    0.34901E+06        -0.38480E+06         0.00000E+00
    0.00000E+00         0.00000E+00         0.00000E+00
 
    0.14463E+06         0.35692E+06         0.00000E+00
    0.35692E+06        -0.37995E+06         0.00000E+00
    0.00000E+00         0.00000E+00         0.00000E+00
 
    0.13469E+06         0.36471E+06         0.00000E+00
    0.36471E+06        -0.37502E+06         0.00000E+00
    0.00000E+00         0.00000E+00         0.00000E+00
 
    0.12463E+06         0.37237E+06         0.00000E+00
    0.37237E+06        -0.37000E+06         0.00000E+00
    0.00000E+00         0.00000E+00         0.00000E+00
 
    0.11443E+06         0.37989E+06         0.00000E+00
    0.37989E+06        -0.36491E+06         0.00000E+00
    0.00000E+00         0.00000E+00         0.00000E+00
 
    0.10410E+06         0.38728E+06         0.00000E+00
    0.38728E+06        -0.35974E+06         0.00000E+00
    0.00000E+00         0.00000E+00         0.00000E+00
 
    0.93643E+05         0.39453E+06         0.00000E+00
    0.39453E+06        -0.35450E+06         0.00000E+00
    0.00000E+00         0.00000E+00         0.00000E+00
 
    0.83062E+05         0.40165E+06         0.00000E+00
    0.40165E+06        -0.34919E+06         0.00000E+00
    0.00000E+00         0.00000E+00         0.00000E+00
 
    0.72358E+05         0.40863E+06         0.00000E+00
    0.40863E+06        -0.34382E+06         0.00000E+00
    0.00000E+00         0.00000E+00         0.00000E+00
 
    0.61535E+05         0.41547E+06         0.00000E+00
    0.41547E+06        -0.33838E+06         0.00000E+00
    0.00000E+00         0.00000E+00         0.00000E+00
 
    0.50594E+05         0.42217E+06         0.00000E+00
    0.42217E+06        -0.33288E+06         0.00000E+00
    0.00000E+00         0.00000E+00         0.00000E+00
 
    0.39540E+05         0.42873E+06         0.00000E+00
    0.42873E+06        -0.32733E+06         0.00000E+00
    0.00000E+00         0.00000E+00         0.00000E+00
 
    0.28374E+05         0.43514E+06         0.00000E+00
    0.43514E+06        -0.32172E+06         0.00000E+00
    0.00000E+00         0.00000E+00         0.00000E+00
 
    0.17098E+05         0.44142E+06         0.00000E+00
    0.44142E+06        -0.31607E+06         0.00000E+00
    0.00000E+00         0.00000E+00         0.00000E+00
 
    0.57169E+04         0.44755E+06         0.00000E+00
    0.44755E+06        -0.31037E+06         0.00000E+00
    0.00000E+00         0.00000E+00         0.00000E+00
 
    0.41911E+06         0.59978E+04         0.00000E+00
    0.59978E+04        -0.51097E+06         0.00000E+00
    0.00000E+00         0.00000E+00         0.00000E+00
 
    0.41523E+06         0.17864E+05         0.00000E+00
    0.17864E+05        -0.51079E+06         0.00000E+00
    0.00000E+00         0.00000E+00         0.00000E+00
 
    0.41113E+06         0.29678E+05         0.00000E+00
    0.29678E+05        -0.51042E+06         0.00000E+00
    0.00000E+00         0.00000E+00         0.00000E+00
 
    0.40681E+06         0.41438E+05         0.00000E+00
    0.41438E+05        -0.50987E+06         0.00000E+00
    0.00000E+00         0.00000E+00         0.00000E+00
 
    0.40228E+06         0.53141E+05         0.00000E+00
    0.53141E+05        -0.50914E+06         0.00000E+00
    0.00000E+00         0.00000E+00         0.00000E+00
 
    0.39753E+06         0.64782E+05         0.00000E+00
    0.64782E+05        -0.50824E+06         0.00000E+00
    0.00000E+00         0.00000E+00         0.00000E+00
 
    0.39257E+06         0.76360E+05         0.00000E+00
    0.76360E+05        -0.50716E+06         0.00000E+00
    0.00000E+00         0.00000E+00         0.00000E+00
 
    0.38741E+06         0.87870E+05         0.00000E+00
    0.87870E+05        -0.50591E+06         0.00000E+00
    0.00000E+00         0.00000E+00         0.00000E+00
 
    0.38203E+06         0.99311E+05         0.00000E+00
    0.99311E+05        -0.50448E+06         0.00000E+00
    0.00000E+00         0.00000E+00         0.00000E+00
 
    0.37644E+06         0.11068E+06         0.00000E+00
    0.11068E+06        -0.50289E+06         0.00000E+00
    0.00000E+00         0.00000E+00         0.00000E+00
 
    0.37065E+06         0.12197E+06         0.00000E+00
    0.12197E+06        -0.50113E+06         0.00000E+00
    0.00000E+00         0.00000E+00         0.00000E+00
 
    0.36465E+06         0.13319E+06         0.00000E+00
    0.13319E+06        -0.49921E+06         0.00000E+00
    0.00000E+00         0.00000E+00         0.00000E+00
 
    0.35845E+06         0.14432E+06         0.00000E+00
    0.14432E+06        -0.49712E+06         0.00000E+00
    0.00000E+00         0.00000E+00         0.00000E+00
 
    0.35205E+06         0.15537E+06         0.00000E+00
    0.15537E+06        -0.49487E+06         0.00000E+00
    0.00000E+00         0.00000E+00         0.00000E+00
 
    0.34545E+06         0.16633E+06         0.00000E+00
    0.16633E+06        -0.49247E+06         0.00000E+00
    0.00000E+00         0.00000E+00         0.00000E+00
 
    0.33866E+06         0.17720E+06         0.00000E+00
    0.17720E+06        -0.48991E+06         0.00000E+00
    0.00000E+00         0.00000E+00         0.00000E+00
 
    0.33166E+06         0.18798E+06         0.00000E+00
    0.18798E+06        -0.48720E+06         0.00000E+00
    0.00000E+00         0.00000E+00         0.00000E+00
 
    0.32448E+06         0.19866E+06         0.00000E+00
    0.19866E+06        -0.48434E+06         0.00000E+00
    0.00000E+00         0.00000E+00         0.00000E+00
 
    0.31710E+06         0.20924E+06         0.00000E+00
    0.20924E+06        -0.48133E+06         0.00000E+00
    0.00000E+00         0.00000E+00         0.00000E+00
 
    0.30954E+06         0.21973E+06         0.00000E+00
    0.21973E+06        -0.47818E+06         0.00000E+00
    0.00000E+00         0.00000E+00         0.00000E+00
 
    0.30178E+06         0.23011E+06         0.00000E+00
    0.23011E+06        -0.47488E+06         0.00000E+00
    0.00000E+00         0.00000E+00         0.00000E+00
 
    0.29385E+06         0.24039E+06         0.00000E+00
    0.24039E+06        -0.47145E+06         0.00000E+00
    0.00000E+00         0.00000E+00         0.00000E+00
 
    0.28572E+06         0.25056E+06         0.00000E+00
    0.25056E+06        -0.46788E+06         0.00000E+00
    0.00000E+00         0.00000E+00         0.00000E+00
 
    0.27742E+06         0.26062E+06         0.00000E+00
    0.26062E+06        -0.46418E+06         0.00000E+00
    0.00000E+00         0.00000E+00         0.00000E+00
 
    0.26894E+06         0.27057E+06         0.00000E+00
    0.27057E+06        -0.46034E+06         0.00000E+00
    0.00000E+00         0.00000E+00         0.00000E+00
 
    0.26028E+06         0.28040E+06         0.00000E+00
    0.28040E+06        -0.45638E+06         0.00000E+00
    0.00000E+00         0.00000E+00         0.00000E+00
 
    0.25145E+06         0.29012E+06         0.00000E+00
    0.29012E+06        -0.45229E+06         0.00000E+00
    0.00000E+00         0.00000E+00         0.00000E+00
 
    0.24245E+06         0.29971E+06         0.00000E+00
    0.29971E+06        -0.44808E+06         0.00000E+00
    0.00000E+00         0.00000E+00         0.00000E+00
 
    0.23328E+06         0.30919E+06         0.00000E+00
    0.30919E+06        -0.44376E+06         0.00000E+00
    0.00000E+00         0.00000E+00         0.00000E+00
 
    0.22394E+06         0.31854E+06         0.00000E+00
    0.31854E+06        -0.43931E+06         0.00000E+00
    0.00000E+00         0.00000E+00         0.00000E+00
 
    0.21444E+06         0.32777E+06         0.00000E+00
    0.32777E+06        -0.43476E+06         0.00000E+00
    0.00000E+00         0.00000E+00         0.00000E+00
 
    0.20477E+06         0.33687E+06         0.00000E+00
    0.33687E+06        -0.43009E+06         0.00000E+00
    0.00000E+00         0.00000E+00         0.00000E+00
 
    0.19495E+06         0.34584E+06         0.00000E+00
    0.34584E+06        -0.42532E+06         0.00000E+00
    0.00000E+00         0.00000E+00         0.00000E+00
 
    0.18497E+06         0.35468E+06         0.00000E+00
    0.35468E+06        -0.42044E+06         0.00000E+00
    0.00000E+00         0.00000E+00         0.00000E+00
 
    0.17483E+06         0.36339E+06         0.00000E+00
    0.36339E+06        -0.41547E+06         0.00000E+00
    0.00000E+00         0.00000E+00         0.00000E+00
 
    0.16454E+06         0.37196E+06         0.00000E+00
    0.37196E+06        -0.41040E+06         0.00000E+00
    0.00000E+00         0.00000E+00         0.00000E+00
 
    0.15411E+06         0.38040E+06         0.00000E+00
    0.38040E+06        -0.40523E+06         0.00000E+00
    0.00000E+00         0.00000E+00         0.00000E+00
 
    0.14353E+06         0.38870E+06         0.00000E+00
    0.38870E+06        -0.39998E+06         0.00000E+00
    0.00000E+00         0.00000E+00         0.00000E+00
 
    0.13280E+06         0.39686E+06         0.00000E+00
    0.39686E+06        -0.39464E+06         0.00000E+00
    0.00000E+00         0.00000E+00         0.00000E+00
 
    0.12193E+06         0.40488E+06         0.00000E+00
    0.40488E+06        -0.38921E+06         0.00000E+00
    0.00000E+00         0.00000E+00         0.00000E+00
 
    0.11092E+06         0.41276E+06         0.00000E+00
    0.41276E+06        -0.38370E+06         0.00000E+00
    0.00000E+00         0.00000E+00         0.00000E+00
 
    0.99782E+05         0.42049E+06         0.00000E+00
    0.42049E+06        -0.37812E+06         0.00000E+00
    0.00000E+00         0.00000E+00         0.00000E+00
 
    0.88506E+05         0.42807E+06         0.00000E+00
    0.42807E+06        -0.37246E+06         0.00000E+00
    0.00000E+00         0.00000E+00         0.00000E+00
 
    0.77101E+05         0.43551E+06         0.00000E+00
    0.43551E+06        -0.36674E+06         0.00000E+00
    0.00000E+00         0.00000E+00         0.00000E+00
 
    0.65568E+05         0.44281E+06         0.00000E+00
    0.44281E+06        -0.36094E+06         0.00000E+00
    0.00000E+00         0.00000E+00         0.00000E+00
 
    0.53911E+05         0.44995E+06         0.00000E+00
    0.44995E+06        -0.35509E+06         0.00000E+00
    0.00000E+00         0.00000E+00         0.00000E+00
 
    0.42131E+05         0.45694E+06         0.00000E+00
    0.45694E+06        -0.34917E+06         0.00000E+00
    0.00000E+00         0.00000E+00         0.00000E+00
 
    0.30233E+05         0.46378E+06         0.00000E+00
    0.46378E+06        -0.34320E+06         0.00000E+00
    0.00000E+00         0.00000E+00         0.00000E+00
 
    0.18219E+05         0.47047E+06         0.00000E+00
    0.47047E+06        -0.33717E+06         0.00000E+00
    0.00000E+00         0.00000E+00         0.00000E+00
 
    0.60916E+04         0.47700E+06         0.00000E+00
    0.47700E+06        -0.33110E+06         0.00000E+00
    0.00000E+00         0.00000E+00         0.00000E+00
 
    0.44663E+06         0.63924E+04         0.00000E+00
    0.63924E+04        -0.54484E+06         0.00000E+00
    0.00000E+00         0.00000E+00         0.00000E+00
 
    0.44250E+06         0.19039E+05         0.00000E+00
    0.19039E+05        -0.54464E+06         0.00000E+00
    0.00000E+00         0.00000E+00         0.00000E+00
 
    0.43813E+06         0.31631E+05         0.00000E+00
    0.31631E+05        -0.54425E+06         0.00000E+00
    0.00000E+00         0.00000E+00         0.00000E+00
 
    0.43353E+06         0.44165E+05         0.00000E+00
    0.44165E+05        -0.54367E+06         0.00000E+00
    0.00000E+00         0.00000E+00         0.00000E+00
 
    0.42870E+06         0.56637E+05         0.00000E+00
    0.56637E+05        -0.54289E+06         0.00000E+00
    0.00000E+00         0.00000E+00         0.00000E+00
 
    0.42364E+06         0.69045E+05         0.00000E+00
    0.69045E+05        -0.54193E+06         0.00000E+00
    0.00000E+00         0.00000E+00         0.00000E+00
 
    0.41835E+06         0.81384E+05         0.00000E+00
    0.81384E+05        -0.54078E+06         0.00000E+00
    0.00000E+00         0.00000E+00         0.00000E+00
 
    0.41284E+06         0.93652E+05         0.00000E+00
    0.93652E+05        -0.53944E+06         0.00000E+00
    0.00000E+00         0.00000E+00         0.00000E+00
 
    0.40711E+06         0.10585E+06         0.00000E+00
    0.10585E+06        -0.53792E+06         0.00000E+00
    0.00000E+00         0.00000E+00         0.00000E+00
 
    0.40116E+06         0.11796E+06         0.00000E+00
    0.11796E+06        -0.53623E+06         0.00000E+00
    0.00000E+00         0.00000E+00         0.00000E+00
 
    0.39498E+06         0.13000E+06         0.00000E+00
    0.13000E+06        -0.53435E+06         0.00000E+00
    0.00000E+00         0.00000E+00         0.00000E+00
 
    0.38859E+06         0.14195E+06         0.00000E+00
    0.14195E+06        -0.53230E+06         0.00000E+00
    0.00000E+00         0.00000E+00         0.00000E+00
 
    0.38198E+06         0.15381E+06         0.00000E+00
    0.15381E+06        -0.53008E+06         0.00000E+00
    0.00000E+00         0.00000E+00         0.00000E+00
 
    0.37516E+06         0.16559E+06         0.00000E+00
    0.16559E+06        -0.52769E+06         0.00000E+00
    0.00000E+00         0.00000E+00         0.00000E+00
 
    0.36813E+06         0.17727E+06         0.00000E+00
    0.17727E+06        -0.52513E+06         0.00000E+00
    0.00000E+00         0.00000E+00         0.00000E+00
 
    0.36088E+06         0.18885E+06         0.00000E+00
    0.18885E+06        -0.52240E+06         0.00000E+00
    0.00000E+00         0.00000E+00         0.00000E+00
 
    0.35343E+06         0.20034E+06         0.00000E+00
    0.20034E+06        -0.51951E+06         0.00000E+00
    0.00000E+00         0.00000E+00         0.00000E+00
 
    0.34577E+06         0.21173E+06         0.00000E+00
    0.21173E+06        -0.51646E+06         0.00000E+00
    0.00000E+00         0.00000E+00         0.00000E+00
 
    0.33791E+06         0.22301E+06         0.00000E+00
    0.22301E+06        -0.51326E+06         0.00000E+00
    0.00000E+00         0.00000E+00         0.00000E+00
 
    0.32985E+06         0.23418E+06         0.00000E+00
    0.23418E+06        -0.50990E+06         0.00000E+00
    0.00000E+00         0.00000E+00         0.00000E+00
 
    0.32158E+06         0.24525E+06         0.00000E+00
    0.24525E+06        -0.50639E+06         0.00000E+00
    0.00000E+00         0.00000E+00         0.00000E+00
 
    0.31312E+06         0.25620E+06         0.00000E+00
    0.25620E+06        -0.50273E+06         0.00000E+00
    0.00000E+00         0.00000E+00         0.00000E+00
 
    0.30447E+06         0.26704E+06         0.00000E+00
    0.26704E+06        -0.49893E+06         0.00000E+00
    0.00000E+00         0.00000E+00         0.00000E+00
 
    0.29562E+06         0.27776E+06         0.00000E+00
    0.27776E+06        -0.49498E+06         0.00000E+00
    0.00000E+00         0.00000E+00         0.00000E+00
 
    0.28658E+06         0.28836E+06         0.00000E+00
    0.28836E+06        -0.49089E+06         0.00000E+00
    0.00000E+00         0.00000E+00         0.00000E+00
 
    0.27735E+06         0.29884E+06         0.00000E+00
    0.29884E+06        -0.48667E+06         0.00000E+00
    0.00000E+00         0.00000E+00         0.00000E+00
 
    0.26794E+06         0.30920E+06         0.00000E+00
    0.30920E+06        -0.48232E+06         0.00000E+00
    0.00000E+00         0.00000E+00         0.00000E+00
 
    0.25835E+06         0.31943E+06         0.00000E+00
    0.31943E+06        -0.47784E+06         0.00000E+00
    0.00000E+00         0.00000E+00         0.00000E+00
 
    0.24857E+06         0.32952E+06         0.00000E+00
    0.32952E+06        -0.47323E+06         0.00000E+00
    0.00000E+00         0.00000E+00         0.00000E+00
 
    0.23862E+06         0.33949E+06         0.00000E+00
    0.33949E+06        -0.46849E+06         0.00000E+00
    0.00000E+00         0.00000E+00         0.00000E+00
 
    0.22850E+06         0.34933E+06         0.00000E+00
    0.34933E+06        -0.46364E+06         0.00000E+00
    0.00000E+00         0.00000E+00         0.00000E+00
 
    0.21820E+06         0.35903E+06         0.00000E+00
    0.35903E+06        -0.45867E+06         0.00000E+00
    0.00000E+00         0.00000E+00         0.00000E+00
 
    0.20773E+06         0.36859E+06         0.00000E+00
    0.36859E+06        -0.45358E+06         0.00000E+00
    0.00000E+00         0.00000E+00         0.00000E+00
 
    0.19709E+06         0.37801E+06         0.00000E+00
    0.37801E+06        -0.44839E+06         0.00000E+00
    0.00000E+00         0.00000E+00         0.00000E+00
 
    0.18629E+06         0.38729E+06         0.00000E+00
    0.38729E+06        -0.44309E+06         0.00000E+00
    0.00000E+00         0.00000E+00         0.00000E+00
 
    0.17533E+06         0.39643E+06         0.00000E+00
    0.39643E+06        -0.43769E+06         0.00000E+00
    0.00000E+00         0.00000E+00         0.00000E+00
 
    0.16421E+06         0.40542E+06         0.00000E+00
    0.40542E+06        -0.43219E+06         0.00000E+00
    0.00000E+00         0.00000E+00         0.00000E+00
 
    0.15293E+06         0.41426E+06         0.00000E+00
    0.41426E+06        -0.42659E+06         0.00000E+00
    0.00000E+00         0.00000E+00         0.00000E+00
 
    0.14150E+06         0.42296E+06         0.00000E+00
    0.42296E+06        -0.42090E+06         0.00000E+00
    0.00000E+00         0.00000E+00         0.00000E+00
 
    0.12992E+06         0.43151E+06         0.00000E+00
    0.43151E+06        -0.41512E+06         0.00000E+00
    0.00000E+00         0.00000E+00         0.00000E+00
 
    0.11819E+06         0.43990E+06         0.00000E+00
    0.43990E+06        -0.40925E+06         0.00000E+00
    0.00000E+00         0.00000E+00         0.00000E+00
 
    0.10632E+06         0.44814E+06         0.00000E+00
    0.44814E+06        -0.40330E+06         0.00000E+00
    0.00000E+00         0.00000E+00         0.00000E+00
 
    0.94304E+05         0.45623E+06         0.00000E+00
    0.45623E+06        -0.39728E+06         0.00000E+00
    0.00000E+00         0.00000E+00         0.00000E+00
 
    0.82151E+05         0.46416E+06         0.00000E+00
    0.46416E+06        -0.39118E+06         0.00000E+00
    0.00000E+00         0.00000E+00         0.00000E+00
 
    0.69863E+05         0.47193E+06         0.00000E+00
    0.47193E+06        -0.38501E+06         0.00000E+00
    0.00000E+00         0.00000E+00         0.00000E+00
 
    0.57441E+05         0.47955E+06         0.00000E+00
    0.47955E+06        -0.37877E+06         0.00000E+00
    0.00000E+00         0.00000E+00         0.00000E+00
 
    0.44891E+05         0.48700E+06         0.00000E+00
    0.48700E+06        -0.37246E+06         0.00000E+00
    0.00000E+00         0.00000E+00         0.00000E+00
 
    0.32213E+05         0.49429E+06         0.00000E+00
    0.49429E+06        -0.36610E+06         0.00000E+00
    0.00000E+00         0.00000E+00         0.00000E+00
 
    0.19412E+05         0.50142E+06         0.00000E+00
    0.50142E+06        -0.35968E+06         0.00000E+00
    0.00000E+00         0.00000E+00         0.00000E+00
 
    0.64906E+04         0.50838E+06         0.00000E+00
    0.50838E+06        -0.35321E+06         0.00000E+00
    0.00000E+00         0.00000E+00         0.00000E+00
 
    0.47596E+06         0.68133E+04         0.00000E+00
    0.68133E+04        -0.58094E+06         0.00000E+00
    0.00000E+00         0.00000E+00         0.00000E+00
 
    0.47155E+06         0.20293E+05         0.00000E+00
    0.20293E+05        -0.58073E+06         0.00000E+00
    0.00000E+00         0.00000E+00         0.00000E+00
 
    0.46690E+06         0.33714E+05         0.00000E+00
    0.33714E+05        -0.58031E+06         0.00000E+00
    0.00000E+00         0.00000E+00         0.00000E+00
 
    0.46199E+06         0.47073E+05         0.00000E+00
    0.47073E+05        -0.57969E+06         0.00000E+00
    0.00000E+00         0.00000E+00         0.00000E+00
 
    0.45684E+06         0.60366E+05         0.00000E+00
    0.60366E+05        -0.57887E+06         0.00000E+00
    0.00000E+00         0.00000E+00         0.00000E+00
 
    0.45145E+06         0.73590E+05         0.00000E+00
    0.73590E+05        -0.57784E+06         0.00000E+00
    0.00000E+00         0.00000E+00         0.00000E+00
 
    0.44582E+06         0.86742E+05         0.00000E+00
    0.86742E+05        -0.57661E+06         0.00000E+00
    0.00000E+00         0.00000E+00         0.00000E+00
 
    0.43995E+06         0.99817E+05         0.00000E+00
    0.99817E+05        -0.57519E+06         0.00000E+00
    0.00000E+00         0.00000E+00         0.00000E+00
 
    0.43384E+06         0.11281E+06         0.00000E+00
    0.11281E+06        -0.57357E+06         0.00000E+00
    0.00000E+00         0.00000E+00         0.00000E+00
 
    0.42749E+06         0.12573E+06         0.00000E+00
    0.12573E+06        -0.57176E+06         0.00000E+00
    0.00000E+00         0.00000E+00         0.00000E+00
 
    0.42091E+06         0.13855E+06         0.00000E+00
    0.13855E+06        -0.56977E+06         0.00000E+00
    0.00000E+00         0.00000E+00         0.00000E+00
 
    0.41410E+06         0.15129E+06         0.00000E+00
    0.15129E+06        -0.56758E+06         0.00000E+00
    0.00000E+00         0.00000E+00         0.00000E+00
 
    0.40706E+06         0.16394E+06         0.00000E+00
    0.16394E+06        -0.56521E+06         0.00000E+00
    0.00000E+00         0.00000E+00         0.00000E+00
 
    0.39978E+06         0.17648E+06         0.00000E+00
    0.17648E+06        -0.56266E+06         0.00000E+00
    0.00000E+00         0.00000E+00         0.00000E+00
 
    0.39229E+06         0.18893E+06         0.00000E+00
    0.18893E+06        -0.55993E+06         0.00000E+00
    0.00000E+00         0.00000E+00         0.00000E+00
 
    0.38456E+06         0.20128E+06         0.00000E+00
    0.20128E+06        -0.55703E+06         0.00000E+00
    0.00000E+00         0.00000E+00         0.00000E+00
 
    0.37662E+06         0.21352E+06         0.00000E+00
    0.21352E+06        -0.55395E+06         0.00000E+00
    0.00000E+00         0.00000E+00         0.00000E+00
 
    0.36846E+06         0.22566E+06         0.00000E+00
    0.22566E+06        -0.55070E+06         0.00000E+00
    0.00000E+00         0.00000E+00         0.00000E+00
 
    0.36008E+06         0.23768E+06         0.00000E+00
    0.23768E+06        -0.54729E+06         0.00000E+00
    0.00000E+00         0.00000E+00         0.00000E+00
 
    0.35148E+06         0.24959E+06         0.00000E+00
    0.24959E+06        -0.54371E+06         0.00000E+00
    0.00000E+00         0.00000E+00         0.00000E+00
 
    0.34267E+06         0.26138E+06         0.00000E+00
    0.26138E+06        -0.53997E+06         0.00000E+00
    0.00000E+00         0.00000E+00         0.00000E+00
 
    0.33366E+06         0.27306E+06         0.00000E+00
    0.27306E+06        -0.53607E+06         0.00000E+00
    0.00000E+00         0.00000E+00         0.00000E+00
 
    0.32443E+06         0.28461E+06         0.00000E+00
    0.28461E+06        -0.53202E+06         0.00000E+00
    0.00000E+00         0.00000E+00         0.00000E+00
 
    0.31500E+06         0.29603E+06         0.00000E+00
    0.29603E+06        -0.52782E+06         0.00000E+00
    0.00000E+00         0.00000E+00         0.00000E+00
 
    0.30537E+06         0.30733E+06         0.00000E+00
    0.30733E+06        -0.52346E+06         0.00000E+00
    0.00000E+00         0.00000E+00         0.00000E+00
 
    0.29553E+06         0.31850E+06         0.00000E+00
    0.31850E+06        -0.51897E+06         0.00000E+00
    0.00000E+00         0.00000E+00         0.00000E+00
 
    0.28550E+06         0.32953E+06         0.00000E+00
    0.32953E+06        -0.51433E+06         0.00000E+00
    0.00000E+00         0.00000E+00         0.00000E+00
 
    0.27528E+06         0.34043E+06         0.00000E+00
    0.34043E+06        -0.50955E+06         0.00000E+00
    0.00000E+00         0.00000E+00         0.00000E+00
 
    0.26486E+06         0.35120E+06         0.00000E+00
    0.35120E+06        -0.50464E+06         0.00000E+00
    0.00000E+00         0.00000E+00         0.00000E+00
 
    0.25426E+06         0.36182E+06         0.00000E+00
    0.36182E+06        -0.49960E+06         0.00000E+00
    0.00000E+00         0.00000E+00         0.00000E+00
 
    0.24346E+06         0.37230E+06         0.00000E+00
    0.37230E+06        -0.49443E+06         0.00000E+00
    0.00000E+00         0.00000E+00         0.00000E+00
 
    0.23249E+06         0.38264E+06         0.00000E+00
    0.38264E+06        -0.48913E+06         0.00000E+00
    0.00000E+00         0.00000E+00         0.00000E+00
 
    0.22133E+06         0.39282E+06         0.00000E+00
    0.39282E+06        -0.48371E+06         0.00000E+00
    0.00000E+00         0.00000E+00         0.00000E+00
 
    0.21000E+06         0.40287E+06         0.00000E+00
    0.40287E+06        -0.47818E+06         0.00000E+00
    0.00000E+00         0.00000E+00         0.00000E+00
 
    0.19849E+06         0.41276E+06         0.00000E+00
    0.41276E+06        -0.47254E+06         0.00000E+00
    0.00000E+00         0.00000E+00         0.00000E+00
 
    0.18681E+06         0.42249E+06         0.00000E+00
    0.42249E+06        -0.46678E+06         0.00000E+00
    0.00000E+00         0.00000E+00         0.00000E+00
 
    0.17496E+06         0.43208E+06         0.00000E+00
    0.43208E+06        -0.46092E+06         0.00000E+00
    0.00000E+00         0.00000E+00         0.00000E+00
 
    0.16294E+06         0.44150E+06         0.00000E+00
    0.44150E+06        -0.45496E+06         0.00000E+00
    0.00000E+00         0.00000E+00         0.00000E+00
 
    0.15076E+06         0.45077E+06         0.00000E+00
    0.45077E+06        -0.44889E+06         0.00000E+00
    0.00000E+00         0.00000E+00         0.00000E+00
 
    0.13842E+06         0.45988E+06         0.00000E+00
    0.45988E+06        -0.44274E+06         0.00000E+00
    0.00000E+00         0.00000E+00         0.00000E+00
 
    0.12593E+06         0.46883E+06         0.00000E+00
    0.46883E+06        -0.43649E+06         0.00000E+00
    0.00000E+00         0.00000E+00         0.00000E+00
 
    0.11328E+06         0.47761E+06         0.00000E+00
    0.47761E+06        -0.43015E+06         0.00000E+00
    0.00000E+00         0.00000E+00         0.00000E+00
 
    0.10048E+06         0.48623E+06         0.00000E+00
    0.48623E+06        -0.42373E+06         0.00000E+00
    0.00000E+00         0.00000E+00         0.00000E+00
 
    0.87527E+05         0.49468E+06         0.00000E+00
    0.49468E+06        -0.41723E+06         0.00000E+00
    0.00000E+00         0.00000E+00         0.00000E+00
 
    0.74434E+05         0.50297E+06         0.00000E+00
    0.50297E+06        -0.41066E+06         0.00000E+00
    0.00000E+00         0.00000E+00         0.00000E+00
 
    0.61200E+05         0.51108E+06         0.00000E+00
    0.51108E+06        -0.40401E+06         0.00000E+00
    0.00000E+00         0.00000E+00         0.00000E+00
 
    0.47828E+05         0.51903E+06         0.00000E+00
    0.51903E+06        -0.39730E+06         0.00000E+00
    0.00000E+00         0.00000E+00         0.00000E+00
 
    0.34321E+05         0.52680E+06         0.00000E+00
    0.52680E+06        -0.39052E+06         0.00000E+00
    0.00000E+00         0.00000E+00         0.00000E+00
 
    0.20682E+05         0.53440E+06         0.00000E+00
    0.53440E+06        -0.38368E+06         0.00000E+00
    0.00000E+00         0.00000E+00         0.00000E+00
 
    0.69152E+04         0.54182E+06         0.00000E+00
    0.54182E+06        -0.37678E+06         0.00000E+00
    0.00000E+00         0.00000E+00         0.00000E+00
 
    0.50722E+06         0.72622E+04         0.00000E+00
    0.72622E+04        -0.61943E+06         0.00000E+00
    0.00000E+00         0.00000E+00         0.00000E+00
 
    0.50252E+06         0.21630E+05         0.00000E+00
    0.21630E+05        -0.61920E+06         0.00000E+00
    0.00000E+00         0.00000E+00         0.00000E+00
 
    0.49755E+06         0.35935E+05         0.00000E+00
    0.35935E+05        -0.61876E+06         0.00000E+00
    0.00000E+00         0.00000E+00         0.00000E+00
 
    0.49233E+06         0.50174E+05         0.00000E+00
    0.50174E+05        -0.61810E+06         0.00000E+00
    0.00000E+00         0.00000E+00         0.00000E+00
 
    0.48684E+06         0.64342E+05         0.00000E+00
    0.64342E+05        -0.61722E+06         0.00000E+00
    0.00000E+00         0.00000E+00         0.00000E+00
 
    0.48109E+06         0.78438E+05         0.00000E+00
    0.78438E+05        -0.61612E+06         0.00000E+00
    0.00000E+00         0.00000E+00         0.00000E+00
 
    0.47509E+06         0.92455E+05         0.00000E+00
    0.92455E+05        -0.61481E+06         0.00000E+00
    0.00000E+00         0.00000E+00         0.00000E+00
 
    0.46883E+06         0.10639E+06         0.00000E+00
    0.10639E+06        -0.61330E+06         0.00000E+00
    0.00000E+00         0.00000E+00         0.00000E+00
 
    0.46232E+06         0.12024E+06         0.00000E+00
    0.12024E+06        -0.61157E+06         0.00000E+00
    0.00000E+00         0.00000E+00         0.00000E+00
 
    0.45555E+06         0.13401E+06         0.00000E+00
    0.13401E+06        -0.60965E+06         0.00000E+00
    0.00000E+00         0.00000E+00         0.00000E+00
 
    0.44854E+06         0.14768E+06         0.00000E+00
    0.14768E+06        -0.60752E+06         0.00000E+00
    0.00000E+00         0.00000E+00         0.00000E+00
 
    0.44127E+06         0.16125E+06         0.00000E+00
    0.16125E+06        -0.60519E+06         0.00000E+00
    0.00000E+00         0.00000E+00         0.00000E+00
 
    0.43377E+06         0.17473E+06         0.00000E+00
    0.17473E+06        -0.60267E+06         0.00000E+00
    0.00000E+00         0.00000E+00         0.00000E+00
 
    0.42601E+06         0.18810E+06         0.00000E+00
    0.18810E+06        -0.59995E+06         0.00000E+00
    0.00000E+00         0.00000E+00         0.00000E+00
 
    0.41802E+06         0.20137E+06         0.00000E+00
    0.20137E+06        -0.59704E+06         0.00000E+00
    0.00000E+00         0.00000E+00         0.00000E+00
 
    0.40979E+06         0.21453E+06         0.00000E+00
    0.21453E+06        -0.59394E+06         0.00000E+00
    0.00000E+00         0.00000E+00         0.00000E+00
 
    0.40132E+06         0.22758E+06         0.00000E+00
    0.22758E+06        -0.59066E+06         0.00000E+00
    0.00000E+00         0.00000E+00         0.00000E+00
 
    0.39262E+06         0.24051E+06         0.00000E+00
    0.24051E+06        -0.58720E+06         0.00000E+00
    0.00000E+00         0.00000E+00         0.00000E+00
 
    0.38369E+06         0.25332E+06         0.00000E+00
    0.25332E+06        -0.58356E+06         0.00000E+00
    0.00000E+00         0.00000E+00         0.00000E+00
 
    0.37453E+06         0.26602E+06         0.00000E+00
    0.26602E+06        -0.57975E+06         0.00000E+00
    0.00000E+00         0.00000E+00         0.00000E+00
 
    0.36514E+06         0.27858E+06         0.00000E+00
    0.27858E+06        -0.57577E+06         0.00000E+00
    0.00000E+00         0.00000E+00         0.00000E+00
 
    0.35553E+06         0.29102E+06         0.00000E+00
    0.29102E+06        -0.57161E+06         0.00000E+00
    0.00000E+00         0.00000E+00         0.00000E+00
 
    0.34569E+06         0.30333E+06         0.00000E+00
    0.30333E+06        -0.56729E+06         0.00000E+00
    0.00000E+00         0.00000E+00         0.00000E+00
 
    0.33564E+06         0.31551E+06         0.00000E+00
    0.31551E+06        -0.56281E+06         0.00000E+00
    0.00000E+00         0.00000E+00         0.00000E+00
 
    0.32538E+06         0.32755E+06         0.00000E+00
    0.32755E+06        -0.55818E+06         0.00000E+00
    0.00000E+00         0.00000E+00         0.00000E+00
 
    0.31490E+06         0.33945E+06         0.00000E+00
    0.33945E+06        -0.55339E+06         0.00000E+00
    0.00000E+00         0.00000E+00         0.00000E+00
 
    0.30421E+06         0.35121E+06         0.00000E+00
    0.35121E+06        -0.54844E+06         0.00000E+00
    0.00000E+00         0.00000E+00         0.00000E+00
 
    0.29331E+06         0.36282E+06         0.00000E+00
    0.36282E+06        -0.54336E+06         0.00000E+00
    0.00000E+00         0.00000E+00         0.00000E+00
 
    0.28221E+06         0.37429E+06         0.00000E+00
    0.37429E+06        -0.53812E+06         0.00000E+00
    0.00000E+00         0.00000E+00         0.00000E+00
 
    0.27090E+06         0.38561E+06         0.00000E+00
    0.38561E+06        -0.53275E+06         0.00000E+00
    0.00000E+00         0.00000E+00         0.00000E+00
 
    0.25940E+06         0.39678E+06         0.00000E+00
    0.39678E+06        -0.52724E+06         0.00000E+00
    0.00000E+00         0.00000E+00         0.00000E+00
 
    0.24771E+06         0.40779E+06         0.00000E+00
    0.40779E+06        -0.52160E+06         0.00000E+00
    0.00000E+00         0.00000E+00         0.00000E+00
 
    0.23582E+06         0.41865E+06         0.00000E+00
    0.41865E+06        -0.51583E+06         0.00000E+00
    0.00000E+00         0.00000E+00         0.00000E+00
 
    0.22374E+06         0.42935E+06         0.00000E+00
    0.42935E+06        -0.50994E+06         0.00000E+00
    0.00000E+00         0.00000E+00         0.00000E+00
 
    0.21148E+06         0.43989E+06         0.00000E+00
    0.43989E+06        -0.50393E+06         0.00000E+00
    0.00000E+00         0.00000E+00         0.00000E+00
 
    0.19903E+06         0.45027E+06         0.00000E+00
    0.45027E+06        -0.49779E+06         0.00000E+00
    0.00000E+00         0.00000E+00         0.00000E+00
 
    0.18640E+06         0.46048E+06         0.00000E+00
    0.46048E+06        -0.49155E+06         0.00000E+00
    0.00000E+00         0.00000E+00         0.00000E+00
 
    0.17360E+06         0.47053E+06         0.00000E+00
    0.47053E+06        -0.48520E+06         0.00000E+00
    0.00000E+00         0.00000E+00         0.00000E+00
 
    0.16062E+06         0.48040E+06         0.00000E+00
    0.48040E+06        -0.47874E+06         0.00000E+00
    0.00000E+00         0.00000E+00         0.00000E+00
 
    0.14747E+06         0.49011E+06         0.00000E+00
    0.49011E+06        -0.47218E+06         0.00000E+00
    0.00000E+00         0.00000E+00         0.00000E+00
 
    0.13416E+06         0.49965E+06         0.00000E+00
    0.49965E+06        -0.46552E+06         0.00000E+00
    0.00000E+00         0.00000E+00         0.00000E+00
 
    0.12068E+06         0.50901E+06         0.00000E+00
    0.50901E+06        -0.45878E+06         0.00000E+00
    0.00000E+00         0.00000E+00         0.00000E+00
 
    0.10704E+06         0.51819E+06         0.00000E+00
    0.51819E+06        -0.45194E+06         0.00000E+00
    0.00000E+00         0.00000E+00         0.00000E+00
 
    0.93249E+05         0.52720E+06         0.00000E+00
    0.52720E+06        -0.44502E+06         0.00000E+00
    0.00000E+00         0.00000E+00         0.00000E+00
 
    0.79300E+05         0.53603E+06         0.00000E+00
    0.53603E+06        -0.43801E+06         0.00000E+00
    0.00000E+00         0.00000E+00         0.00000E+00
 
    0.65200E+05         0.54468E+06         0.00000E+00
    0.54468E+06        -0.43093E+06         0.00000E+00
    0.00000E+00         0.00000E+00         0.00000E+00
 
    0.50954E+05         0.55315E+06         0.00000E+00
    0.55315E+06        -0.42378E+06         0.00000E+00
    0.00000E+00         0.00000E+00         0.00000E+00
 
    0.36564E+05         0.56143E+06         0.00000E+00
    0.56143E+06        -0.41656E+06         0.00000E+00
    0.00000E+00         0.00000E+00         0.00000E+00
 
    0.22034E+05         0.56953E+06         0.00000E+00
    0.56953E+06        -0.40927E+06         0.00000E+00
    0.00000E+00         0.00000E+00         0.00000E+00
 
    0.73671E+04         0.57745E+06         0.00000E+00
    0.57745E+06        -0.40193E+06         0.00000E+00
    0.00000E+00         0.00000E+00         0.00000E+00
 
    0.54053E+06         0.77412E+04         0.00000E+00
    0.77412E+04        -0.66046E+06         0.00000E+00
    0.00000E+00         0.00000E+00         0.00000E+00
 
    0.53552E+06         0.23056E+05         0.00000E+00
    0.23056E+05        -0.66022E+06         0.00000E+00
    0.00000E+00         0.00000E+00         0.00000E+00
 
    0.53023E+06         0.38304E+05         0.00000E+00
    0.38304E+05        -0.65974E+06         0.00000E+00
    0.00000E+00         0.00000E+00         0.00000E+00
 
    0.52466E+06         0.53481E+05         0.00000E+00
    0.53481E+05        -0.65904E+06         0.00000E+00
    0.00000E+00         0.00000E+00         0.00000E+00
 
    0.51881E+06         0.68584E+05         0.00000E+00
    0.68584E+05        -0.65810E+06         0.00000E+00
    0.00000E+00         0.00000E+00         0.00000E+00
 
    0.51268E+06         0.83608E+05         0.00000E+00
    0.83608E+05        -0.65693E+06         0.00000E+00
    0.00000E+00         0.00000E+00         0.00000E+00
 
    0.50628E+06         0.98549E+05         0.00000E+00
    0.98549E+05        -0.65554E+06         0.00000E+00
    0.00000E+00         0.00000E+00         0.00000E+00
 
    0.49961E+06         0.11340E+06         0.00000E+00
    0.11340E+06        -0.65392E+06         0.00000E+00
    0.00000E+00         0.00000E+00         0.00000E+00
 
    0.49266E+06         0.12817E+06         0.00000E+00
    0.12817E+06        -0.65208E+06         0.00000E+00
    0.00000E+00         0.00000E+00         0.00000E+00
 
    0.48545E+06         0.14284E+06         0.00000E+00
    0.14284E+06        -0.65003E+06         0.00000E+00
    0.00000E+00         0.00000E+00         0.00000E+00
 
    0.47797E+06         0.15741E+06         0.00000E+00
    0.15741E+06        -0.64776E+06         0.00000E+00
    0.00000E+00         0.00000E+00         0.00000E+00
 
    0.47023E+06         0.17188E+06         0.00000E+00
    0.17188E+06        -0.64528E+06         0.00000E+00
    0.00000E+00         0.00000E+00         0.00000E+00
 
    0.46222E+06         0.18624E+06         0.00000E+00
    0.18624E+06        -0.64259E+06         0.00000E+00
    0.00000E+00         0.00000E+00         0.00000E+00
 
    0.45396E+06         0.20049E+06         0.00000E+00
    0.20049E+06        -0.63969E+06         0.00000E+00
    0.00000E+00         0.00000E+00         0.00000E+00
 
    0.44544E+06         0.21463E+06         0.00000E+00
    0.21463E+06        -0.63659E+06         0.00000E+00
    0.00000E+00         0.00000E+00         0.00000E+00
 
    0.43666E+06         0.22866E+06         0.00000E+00
    0.22866E+06        -0.63329E+06         0.00000E+00
    0.00000E+00         0.00000E+00         0.00000E+00
 
    0.42764E+06         0.24256E+06         0.00000E+00
    0.24256E+06        -0.62980E+06         0.00000E+00
    0.00000E+00         0.00000E+00         0.00000E+00
 
    0.41836E+06         0.25635E+06         0.00000E+00
    0.25635E+06        -0.62611E+06         0.00000E+00
    0.00000E+00         0.00000E+00         0.00000E+00
 
    0.40884E+06         0.27000E+06         0.00000E+00
    0.27000E+06        -0.62223E+06         0.00000E+00
    0.00000E+00         0.00000E+00         0.00000E+00
 
    0.39907E+06         0.28353E+06         0.00000E+00
    0.28353E+06        -0.61817E+06         0.00000E+00
    0.00000E+00         0.00000E+00         0.00000E+00
 
    0.38907E+06         0.29692E+06         0.00000E+00
    0.29692E+06        -0.61392E+06         0.00000E+00
    0.00000E+00         0.00000E+00         0.00000E+00
 
    0.37882E+06         0.31017E+06         0.00000E+00
    0.31017E+06        -0.60949E+06         0.00000E+00
    0.00000E+00         0.00000E+00         0.00000E+00
 
    0.36834E+06         0.32329E+06         0.00000E+00
    0.32329E+06        -0.60489E+06         0.00000E+00
    0.00000E+00         0.00000E+00         0.00000E+00
 
    0.35762E+06         0.33626E+06         0.00000E+00
    0.33626E+06        -0.60012E+06         0.00000E+00
    0.00000E+00         0.00000E+00         0.00000E+00
 
    0.34668E+06         0.34909E+06         0.00000E+00
    0.34909E+06        -0.59518E+06         0.00000E+00
    0.00000E+00         0.00000E+00         0.00000E+00
 
    0.33551E+06         0.36178E+06         0.00000E+00
    0.36178E+06        -0.59007E+06         0.00000E+00
    0.00000E+00         0.00000E+00         0.00000E+00
 
    0.32412E+06         0.37431E+06         0.00000E+00
    0.37431E+06        -0.58481E+06         0.00000E+00
    0.00000E+00         0.00000E+00         0.00000E+00
 
    0.31250E+06         0.38668E+06         0.00000E+00
    0.38668E+06        -0.57939E+06         0.00000E+00
    0.00000E+00         0.00000E+00         0.00000E+00
 
    0.30067E+06         0.39890E+06         0.00000E+00
    0.39890E+06        -0.57381E+06         0.00000E+00
    0.00000E+00         0.00000E+00         0.00000E+00
 
    0.28863E+06         0.41097E+06         0.00000E+00
    0.41097E+06        -0.56809E+06         0.00000E+00
    0.00000E+00         0.00000E+00         0.00000E+00
 
    0.27637E+06         0.42287E+06         0.00000E+00
    0.42287E+06        -0.56222E+06         0.00000E+00
    0.00000E+00         0.00000E+00         0.00000E+00
 
    0.26391E+06         0.43460E+06         0.00000E+00
    0.43460E+06        -0.55621E+06         0.00000E+00
    0.00000E+00         0.00000E+00         0.00000E+00
 
    0.25124E+06         0.44617E+06         0.00000E+00
    0.44617E+06        -0.55007E+06         0.00000E+00
    0.00000E+00         0.00000E+00         0.00000E+00
 
    0.23837E+06         0.45757E+06         0.00000E+00
    0.45757E+06        -0.54379E+06         0.00000E+00
    0.00000E+00         0.00000E+00         0.00000E+00
 
    0.22530E+06         0.46880E+06         0.00000E+00
    0.46880E+06        -0.53738E+06         0.00000E+00
    0.00000E+00         0.00000E+00         0.00000E+00
 
    0.21204E+06         0.47986E+06         0.00000E+00
    0.47986E+06        -0.53085E+06         0.00000E+00
    0.00000E+00         0.00000E+00         0.00000E+00
 
    0.19858E+06         0.49074E+06         0.00000E+00
    0.49074E+06        -0.52420E+06         0.00000E+00
    0.00000E+00         0.00000E+00         0.00000E+00
 
    0.18494E+06         0.50145E+06         0.00000E+00
    0.50145E+06        -0.51744E+06         0.00000E+00
    0.00000E+00         0.00000E+00         0.00000E+00
 
    0.17112E+06         0.51197E+06         0.00000E+00
    0.51197E+06        -0.51056E+06         0.00000E+00
    0.00000E+00         0.00000E+00         0.00000E+00
 
    0.15711E+06         0.52232E+06         0.00000E+00
    0.52232E+06        -0.50357E+06         0.00000E+00
    0.00000E+00         0.00000E+00         0.00000E+00
 
    0.14292E+06         0.53248E+06         0.00000E+00
    0.53248E+06        -0.49648E+06         0.00000E+00
    0.00000E+00         0.00000E+00         0.00000E+00
 
    0.12856E+06         0.54245E+06         0.00000E+00
    0.54245E+06        -0.48929E+06         0.00000E+00
    0.00000E+00         0.00000E+00         0.00000E+00
 
    0.11403E+06         0.55224E+06         0.00000E+00
    0.55224E+06        -0.48201E+06         0.00000E+00
    0.00000E+00         0.00000E+00         0.00000E+00
 
    0.99337E+05         0.56184E+06         0.00000E+00
    0.56184E+06        -0.47464E+06         0.00000E+00
    0.00000E+00         0.00000E+00         0.00000E+00
 
    0.84477E+05         0.57125E+06         0.00000E+00
    0.57125E+06        -0.46718E+06         0.00000E+00
    0.00000E+00         0.00000E+00         0.00000E+00
 
    0.69457E+05         0.58047E+06         0.00000E+00
    0.58047E+06        -0.45963E+06         0.00000E+00
    0.00000E+00         0.00000E+00         0.00000E+00
 
    0.54280E+05         0.58950E+06         0.00000E+00
    0.58950E+06        -0.45202E+06         0.00000E+00
    0.00000E+00         0.00000E+00         0.00000E+00
 
    0.38950E+05         0.59833E+06         0.00000E+00
    0.59833E+06        -0.44432E+06         0.00000E+00
    0.00000E+00         0.00000E+00         0.00000E+00
 
    0.23472E+05         0.60696E+06         0.00000E+00
    0.60696E+06        -0.43656E+06         0.00000E+00
    0.00000E+00         0.00000E+00         0.00000E+00
 
    0.78479E+04         0.61540E+06         0.00000E+00
    0.61540E+06        -0.42874E+06         0.00000E+00
    0.00000E+00         0.00000E+00         0.00000E+00
 
    0.57603E+06         0.82523E+04         0.00000E+00
    0.82523E+04        -0.70419E+06         0.00000E+00
    0.00000E+00         0.00000E+00         0.00000E+00
 
    0.57069E+06         0.24578E+05         0.00000E+00
    0.24578E+05        -0.70394E+06         0.00000E+00
    0.00000E+00         0.00000E+00         0.00000E+00
 
    0.56505E+06         0.40832E+05         0.00000E+00
    0.40832E+05        -0.70343E+06         0.00000E+00
    0.00000E+00         0.00000E+00         0.00000E+00
 
    0.55911E+06         0.57011E+05         0.00000E+00
    0.57011E+05        -0.70268E+06         0.00000E+00
    0.00000E+00         0.00000E+00         0.00000E+00
 
    0.55288E+06         0.73110E+05         0.00000E+00
    0.73110E+05        -0.70168E+06         0.00000E+00
    0.00000E+00         0.00000E+00         0.00000E+00
 
    0.54635E+06         0.89124E+05         0.00000E+00
    0.89124E+05        -0.70043E+06         0.00000E+00
    0.00000E+00         0.00000E+00         0.00000E+00
 
    0.53952E+06         0.10505E+06         0.00000E+00
    0.10505E+06        -0.69895E+06         0.00000E+00
    0.00000E+00         0.00000E+00         0.00000E+00
 
    0.53241E+06         0.12088E+06         0.00000E+00
    0.12088E+06        -0.69722E+06         0.00000E+00
    0.00000E+00         0.00000E+00         0.00000E+00
 
    0.52500E+06         0.13662E+06         0.00000E+00
    0.13662E+06        -0.69527E+06         0.00000E+00
    0.00000E+00         0.00000E+00         0.00000E+00
 
    0.51731E+06         0.15226E+06         0.00000E+00
    0.15226E+06        -0.69308E+06         0.00000E+00
    0.00000E+00         0.00000E+00         0.00000E+00
 
    0.50934E+06         0.16779E+06         0.00000E+00
    0.16779E+06        -0.69066E+06         0.00000E+00
    0.00000E+00         0.00000E+00         0.00000E+00
 
    0.50108E+06         0.18321E+06         0.00000E+00
    0.18321E+06        -0.68801E+06         0.00000E+00
    0.00000E+00         0.00000E+00         0.00000E+00
 
    0.49255E+06         0.19851E+06         0.00000E+00
    0.19851E+06        -0.68514E+06         0.00000E+00
    0.00000E+00         0.00000E+00         0.00000E+00
 
    0.48373E+06         0.21371E+06         0.00000E+00
    0.21371E+06        -0.68205E+06         0.00000E+00
    0.00000E+00         0.00000E+00         0.00000E+00
 
    0.47465E+06         0.22878E+06         0.00000E+00
    0.22878E+06        -0.67875E+06         0.00000E+00
    0.00000E+00         0.00000E+00         0.00000E+00
 
    0.46529E+06         0.24372E+06         0.00000E+00
    0.24372E+06        -0.67523E+06         0.00000E+00
    0.00000E+00         0.00000E+00         0.00000E+00
 
    0.45567E+06         0.25854E+06         0.00000E+00
    0.25854E+06        -0.67151E+06         0.00000E+00
    0.00000E+00         0.00000E+00         0.00000E+00
 
    0.44578E+06         0.27323E+06         0.00000E+00
    0.27323E+06        -0.66758E+06         0.00000E+00
    0.00000E+00         0.00000E+00         0.00000E+00
 
    0.43563E+06         0.28778E+06         0.00000E+00
    0.28778E+06        -0.66344E+06         0.00000E+00
    0.00000E+00         0.00000E+00         0.00000E+00
 
    0.42522E+06         0.30219E+06         0.00000E+00
    0.30219E+06        -0.65911E+06         0.00000E+00
    0.00000E+00         0.00000E+00         0.00000E+00
 
    0.41455E+06         0.31646E+06         0.00000E+00
    0.31646E+06        -0.65459E+06         0.00000E+00
    0.00000E+00         0.00000E+00         0.00000E+00
 
    0.40362E+06         0.33059E+06         0.00000E+00
    0.33059E+06        -0.64987E+06         0.00000E+00
    0.00000E+00         0.00000E+00         0.00000E+00
 
    0.39245E+06         0.34456E+06         0.00000E+00
    0.34456E+06        -0.64497E+06         0.00000E+00
    0.00000E+00         0.00000E+00         0.00000E+00
 
    0.38103E+06         0.35839E+06         0.00000E+00
    0.35839E+06        -0.63988E+06         0.00000E+00
    0.00000E+00         0.00000E+00         0.00000E+00
 
    0.36937E+06         0.37206E+06         0.00000E+00
    0.37206E+06        -0.63462E+06         0.00000E+00
    0.00000E+00         0.00000E+00         0.00000E+00
 
    0.35746E+06         0.38557E+06         0.00000E+00
    0.38557E+06        -0.62918E+06         0.00000E+00
    0.00000E+00         0.00000E+00         0.00000E+00
 
    0.34532E+06         0.39892E+06         0.00000E+00
    0.39892E+06        -0.62357E+06         0.00000E+00
    0.00000E+00         0.00000E+00         0.00000E+00
 
    0.33294E+06         0.41211E+06         0.00000E+00
    0.41211E+06        -0.61779E+06         0.00000E+00
    0.00000E+00         0.00000E+00         0.00000E+00
 
    0.32033E+06         0.42513E+06         0.00000E+00
    0.42513E+06        -0.61185E+06         0.00000E+00
    0.00000E+00         0.00000E+00         0.00000E+00
 
    0.30749E+06         0.43798E+06         0.00000E+00
    0.43798E+06        -0.60576E+06         0.00000E+00
    0.00000E+00         0.00000E+00         0.00000E+00
 
    0.29443E+06         0.45066E+06         0.00000E+00
    0.45066E+06        -0.59951E+06         0.00000E+00
    0.00000E+00         0.00000E+00         0.00000E+00
 
    0.28115E+06         0.46317E+06         0.00000E+00
    0.46317E+06        -0.59311E+06         0.00000E+00
    0.00000E+00         0.00000E+00         0.00000E+00
 
    0.26765E+06         0.47550E+06         0.00000E+00
    0.47550E+06        -0.58656E+06         0.00000E+00
    0.00000E+00         0.00000E+00         0.00000E+00
 
    0.25394E+06         0.48764E+06         0.00000E+00
    0.48764E+06        -0.57987E+06         0.00000E+00
    0.00000E+00         0.00000E+00         0.00000E+00
 
    0.24001E+06         0.49961E+06         0.00000E+00
    0.49961E+06        -0.57305E+06         0.00000E+00
    0.00000E+00         0.00000E+00         0.00000E+00
 
    0.22588E+06         0.51139E+06         0.00000E+00
    0.51139E+06        -0.56609E+06         0.00000E+00
    0.00000E+00         0.00000E+00         0.00000E+00
 
    0.21155E+06         0.52299E+06         0.00000E+00
    0.52299E+06        -0.55901E+06         0.00000E+00
    0.00000E+00         0.00000E+00         0.00000E+00
 
    0.19701E+06         0.53439E+06         0.00000E+00
    0.53439E+06        -0.55180E+06         0.00000E+00
    0.00000E+00         0.00000E+00         0.00000E+00
 
    0.18228E+06         0.54561E+06         0.00000E+00
    0.54561E+06        -0.54447E+06         0.00000E+00
    0.00000E+00         0.00000E+00         0.00000E+00
 
    0.16736E+06         0.55663E+06         0.00000E+00
    0.55663E+06        -0.53703E+06         0.00000E+00
    0.00000E+00         0.00000E+00         0.00000E+00
 
    0.15225E+06         0.56745E+06         0.00000E+00
    0.56745E+06        -0.52948E+06         0.00000E+00
    0.00000E+00         0.00000E+00         0.00000E+00
 
    0.13695E+06         0.57808E+06         0.00000E+00
    0.57808E+06        -0.52183E+06         0.00000E+00
    0.00000E+00         0.00000E+00         0.00000E+00
 
    0.12147E+06         0.58852E+06         0.00000E+00
    0.58852E+06        -0.51407E+06         0.00000E+00
    0.00000E+00         0.00000E+00         0.00000E+00
 
    0.10581E+06         0.59875E+06         0.00000E+00
    0.59875E+06        -0.50622E+06         0.00000E+00
    0.00000E+00         0.00000E+00         0.00000E+00
 
    0.89984E+05         0.60877E+06         0.00000E+00
    0.60877E+06        -0.49827E+06         0.00000E+00
    0.00000E+00         0.00000E+00         0.00000E+00
 
    0.73984E+05         0.61860E+06         0.00000E+00
    0.61860E+06        -0.49024E+06         0.00000E+00
    0.00000E+00         0.00000E+00         0.00000E+00
 
    0.57817E+05         0.62822E+06         0.00000E+00
    0.62822E+06        -0.48212E+06         0.00000E+00
    0.00000E+00         0.00000E+00         0.00000E+00
 
    0.41489E+05         0.63763E+06         0.00000E+00
    0.63763E+06        -0.47393E+06         0.00000E+00
    0.00000E+00         0.00000E+00         0.00000E+00
 
    0.25001E+05         0.64683E+06         0.00000E+00
    0.64683E+06        -0.46567E+06         0.00000E+00
    0.00000E+00         0.00000E+00         0.00000E+00
 
    0.83593E+04         0.65583E+06         0.00000E+00
    0.65583E+06        -0.45733E+06         0.00000E+00
    0.00000E+00         0.00000E+00         0.00000E+00
 
    0.61388E+06         0.87979E+04         0.00000E+00
    0.87979E+04        -0.75082E+06         0.00000E+00
    0.00000E+00         0.00000E+00         0.00000E+00
 
    0.60819E+06         0.26202E+05         0.00000E+00
    0.26202E+05        -0.75054E+06         0.00000E+00
    0.00000E+00         0.00000E+00         0.00000E+00
 
    0.60218E+06         0.43530E+05         0.00000E+00
    0.43530E+05        -0.75001E+06         0.00000E+00
    0.00000E+00         0.00000E+00         0.00000E+00
 
    0.59584E+06         0.60777E+05         0.00000E+00
    0.60777E+05        -0.74920E+06         0.00000E+00
    0.00000E+00         0.00000E+00         0.00000E+00
 
    0.58919E+06         0.77938E+05         0.00000E+00
    0.77938E+05        -0.74813E+06         0.00000E+00
    0.00000E+00         0.00000E+00         0.00000E+00
 
    0.58223E+06         0.95010E+05         0.00000E+00
    0.95010E+05        -0.74681E+06         0.00000E+00
    0.00000E+00         0.00000E+00         0.00000E+00
 
    0.57495E+06         0.11199E+06         0.00000E+00
    0.11199E+06        -0.74522E+06         0.00000E+00
    0.00000E+00         0.00000E+00         0.00000E+00
 
    0.56736E+06         0.12886E+06         0.00000E+00
    0.12886E+06        -0.74338E+06         0.00000E+00
    0.00000E+00         0.00000E+00         0.00000E+00
 
    0.55947E+06         0.14564E+06         0.00000E+00
    0.14564E+06        -0.74130E+06         0.00000E+00
    0.00000E+00         0.00000E+00         0.00000E+00
 
    0.55126E+06         0.16230E+06         0.00000E+00
    0.16230E+06        -0.73896E+06         0.00000E+00
    0.00000E+00         0.00000E+00         0.00000E+00
 
    0.54276E+06         0.17886E+06         0.00000E+00
    0.17886E+06        -0.73638E+06         0.00000E+00
    0.00000E+00         0.00000E+00         0.00000E+00
 
    0.53395E+06         0.19529E+06         0.00000E+00
    0.19529E+06        -0.73356E+06         0.00000E+00
    0.00000E+00         0.00000E+00         0.00000E+00
 
    0.52485E+06         0.21161E+06         0.00000E+00
    0.21161E+06        -0.73050E+06         0.00000E+00
    0.00000E+00         0.00000E+00         0.00000E+00
 
    0.51546E+06         0.22780E+06         0.00000E+00
    0.22780E+06        -0.72721E+06         0.00000E+00
    0.00000E+00         0.00000E+00         0.00000E+00
 
    0.50577E+06         0.24386E+06         0.00000E+00
    0.24386E+06        -0.72369E+06         0.00000E+00
    0.00000E+00         0.00000E+00         0.00000E+00
 
    0.49579E+06         0.25979E+06         0.00000E+00
    0.25979E+06        -0.71994E+06         0.00000E+00
    0.00000E+00         0.00000E+00         0.00000E+00
 
    0.48553E+06         0.27558E+06         0.00000E+00
    0.27558E+06        -0.71597E+06         0.00000E+00
    0.00000E+00         0.00000E+00         0.00000E+00
 
    0.47498E+06         0.29123E+06         0.00000E+00
    0.29123E+06        -0.71178E+06         0.00000E+00
    0.00000E+00         0.00000E+00         0.00000E+00
 
    0.46416E+06         0.30673E+06         0.00000E+00
    0.30673E+06        -0.70737E+06         0.00000E+00
    0.00000E+00         0.00000E+00         0.00000E+00
 
    0.45306E+06         0.32209E+06         0.00000E+00
    0.32209E+06        -0.70275E+06         0.00000E+00
    0.00000E+00         0.00000E+00         0.00000E+00
 
    0.44168E+06         0.33730E+06         0.00000E+00
    0.33730E+06        -0.69793E+06         0.00000E+00
    0.00000E+00         0.00000E+00         0.00000E+00
 
    0.43004E+06         0.35235E+06         0.00000E+00
    0.35235E+06        -0.69291E+06         0.00000E+00
    0.00000E+00         0.00000E+00         0.00000E+00
 
    0.41813E+06         0.36724E+06         0.00000E+00
    0.36724E+06        -0.68768E+06         0.00000E+00
    0.00000E+00         0.00000E+00         0.00000E+00
 
    0.40595E+06         0.38197E+06         0.00000E+00
    0.38197E+06        -0.68226E+06         0.00000E+00
    0.00000E+00         0.00000E+00         0.00000E+00
 
    0.39352E+06         0.39654E+06         0.00000E+00
    0.39654E+06        -0.67665E+06         0.00000E+00
    0.00000E+00         0.00000E+00         0.00000E+00
 
    0.38083E+06         0.41093E+06         0.00000E+00
    0.41093E+06        -0.67086E+06         0.00000E+00
    0.00000E+00         0.00000E+00         0.00000E+00
 
    0.36788E+06         0.42516E+06         0.00000E+00
    0.42516E+06        -0.66488E+06         0.00000E+00
    0.00000E+00         0.00000E+00         0.00000E+00
 
    0.35469E+06         0.43921E+06         0.00000E+00
    0.43921E+06        -0.65873E+06         0.00000E+00
    0.00000E+00         0.00000E+00         0.00000E+00
 
    0.34125E+06         0.45308E+06         0.00000E+00
    0.45308E+06        -0.65240E+06         0.00000E+00
    0.00000E+00         0.00000E+00         0.00000E+00
 
    0.32757E+06         0.46677E+06         0.00000E+00
    0.46677E+06        -0.64590E+06         0.00000E+00
    0.00000E+00         0.00000E+00         0.00000E+00
 
    0.31365E+06         0.48028E+06         0.00000E+00
    0.48028E+06        -0.63925E+06         0.00000E+00
    0.00000E+00         0.00000E+00         0.00000E+00
 
    0.29950E+06         0.49360E+06         0.00000E+00
    0.49360E+06        -0.63243E+06         0.00000E+00
    0.00000E+00         0.00000E+00         0.00000E+00
 
    0.28511E+06         0.50674E+06         0.00000E+00
    0.50674E+06        -0.62545E+06         0.00000E+00
    0.00000E+00         0.00000E+00         0.00000E+00
 
    0.27050E+06         0.51968E+06         0.00000E+00
    0.51968E+06        -0.61833E+06         0.00000E+00
    0.00000E+00         0.00000E+00         0.00000E+00
 
    0.25566E+06         0.53243E+06         0.00000E+00
    0.53243E+06        -0.61106E+06         0.00000E+00
    0.00000E+00         0.00000E+00         0.00000E+00
 
    0.24061E+06         0.54498E+06         0.00000E+00
    0.54498E+06        -0.60365E+06         0.00000E+00
    0.00000E+00         0.00000E+00         0.00000E+00
 
    0.22533E+06         0.55733E+06         0.00000E+00
    0.55733E+06        -0.59611E+06         0.00000E+00
    0.00000E+00         0.00000E+00         0.00000E+00
 
    0.20985E+06         0.56948E+06         0.00000E+00
    0.56948E+06        -0.58843E+06         0.00000E+00
    0.00000E+00         0.00000E+00         0.00000E+00
 
    0.19416E+06         0.58143E+06         0.00000E+00
    0.58143E+06        -0.58063E+06         0.00000E+00
    0.00000E+00         0.00000E+00         0.00000E+00
 
    0.17826E+06         0.59318E+06         0.00000E+00
    0.59318E+06        -0.57271E+06         0.00000E+00
    0.00000E+00         0.00000E+00         0.00000E+00
 
    0.16216E+06         0.60471E+06         0.00000E+00
    0.60471E+06        -0.56467E+06         0.00000E+00
    0.00000E+00         0.00000E+00         0.00000E+00
 
    0.14586E+06         0.61604E+06         0.00000E+00
    0.61604E+06        -0.55651E+06         0.00000E+00
    0.00000E+00         0.00000E+00         0.00000E+00
 
    0.12938E+06         0.62715E+06         0.00000E+00
    0.62715E+06        -0.54825E+06         0.00000E+00
    0.00000E+00         0.00000E+00         0.00000E+00
 
    0.11270E+06         0.63805E+06         0.00000E+00
    0.63805E+06        -0.53989E+06         0.00000E+00
    0.00000E+00         0.00000E+00         0.00000E+00
 
    0.95839E+05         0.64874E+06         0.00000E+00
    0.64874E+06        -0.53143E+06         0.00000E+00
    0.00000E+00         0.00000E+00         0.00000E+00
 
    0.78797E+05         0.65921E+06         0.00000E+00
    0.65921E+06        -0.52287E+06         0.00000E+00
    0.00000E+00         0.00000E+00         0.00000E+00
 
    0.61579E+05         0.66946E+06         0.00000E+00
    0.66946E+06        -0.51423E+06         0.00000E+00
    0.00000E+00         0.00000E+00         0.00000E+00
 
    0.44187E+05         0.67949E+06         0.00000E+00
    0.67949E+06        -0.50551E+06         0.00000E+00
    0.00000E+00         0.00000E+00         0.00000E+00
 
    0.26627E+05         0.68930E+06         0.00000E+00
    0.68930E+06        -0.49670E+06         0.00000E+00
    0.00000E+00         0.00000E+00         0.00000E+00
 
    0.89029E+04         0.69888E+06         0.00000E+00
    0.69888E+06        -0.48783E+06         0.00000E+00
    0.00000E+00         0.00000E+00         0.00000E+00
 
    0.65424E+06         0.93804E+04         0.00000E+00
    0.93804E+04        -0.80052E+06         0.00000E+00
    0.00000E+00         0.00000E+00         0.00000E+00
 
    0.64817E+06         0.27936E+05         0.00000E+00
    0.27936E+05        -0.80023E+06         0.00000E+00
    0.00000E+00         0.00000E+00         0.00000E+00
 
    0.64176E+06         0.46410E+05         0.00000E+00
    0.46410E+05        -0.79965E+06         0.00000E+00
    0.00000E+00         0.00000E+00         0.00000E+00
 
    0.63500E+06         0.64797E+05         0.00000E+00
    0.64797E+05        -0.79879E+06         0.00000E+00
    0.00000E+00         0.00000E+00         0.00000E+00
 
    0.62791E+06         0.83092E+05         0.00000E+00
    0.83092E+05        -0.79766E+06         0.00000E+00
    0.00000E+00         0.00000E+00         0.00000E+00
 
    0.62048E+06         0.10129E+06         0.00000E+00
    0.10129E+06        -0.79624E+06         0.00000E+00
    0.00000E+00         0.00000E+00         0.00000E+00
 
    0.61271E+06         0.11939E+06         0.00000E+00
    0.11939E+06        -0.79455E+06         0.00000E+00
    0.00000E+00         0.00000E+00         0.00000E+00
 
    0.60462E+06         0.13738E+06         0.00000E+00
    0.13738E+06        -0.79259E+06         0.00000E+00
    0.00000E+00         0.00000E+00         0.00000E+00
 
    0.59620E+06         0.15526E+06         0.00000E+00
    0.15526E+06        -0.79036E+06         0.00000E+00
    0.00000E+00         0.00000E+00         0.00000E+00
 
    0.58745E+06         0.17302E+06         0.00000E+00
    0.17302E+06        -0.78787E+06         0.00000E+00
    0.00000E+00         0.00000E+00         0.00000E+00
 
    0.57837E+06         0.19067E+06         0.00000E+00
    0.19067E+06        -0.78512E+06         0.00000E+00
    0.00000E+00         0.00000E+00         0.00000E+00
 
    0.56898E+06         0.20818E+06         0.00000E+00
    0.20818E+06        -0.78211E+06         0.00000E+00
    0.00000E+00         0.00000E+00         0.00000E+00
 
    0.55927E+06         0.22557E+06         0.00000E+00
    0.22557E+06        -0.77885E+06         0.00000E+00
    0.00000E+00         0.00000E+00         0.00000E+00
 
    0.54925E+06         0.24283E+06         0.00000E+00
    0.24283E+06        -0.77534E+06         0.00000E+00
    0.00000E+00         0.00000E+00         0.00000E+00
 
    0.53892E+06         0.25994E+06         0.00000E+00
    0.25994E+06        -0.77158E+06         0.00000E+00
    0.00000E+00         0.00000E+00         0.00000E+00
 
    0.52828E+06         0.27692E+06         0.00000E+00
    0.27692E+06        -0.76759E+06         0.00000E+00
    0.00000E+00         0.00000E+00         0.00000E+00
 
    0.51733E+06         0.29375E+06         0.00000E+00
    0.29375E+06        -0.76335E+06         0.00000E+00
    0.00000E+00         0.00000E+00         0.00000E+00
 
    0.50608E+06         0.31042E+06         0.00000E+00
    0.31042E+06        -0.75889E+06         0.00000E+00
    0.00000E+00         0.00000E+00         0.00000E+00
 
    0.49454E+06         0.32695E+06         0.00000E+00
    0.32695E+06        -0.75419E+06         0.00000E+00
    0.00000E+00         0.00000E+00         0.00000E+00
 
    0.48270E+06         0.34331E+06         0.00000E+00
    0.34331E+06        -0.74927E+06         0.00000E+00
    0.00000E+00         0.00000E+00         0.00000E+00
 
    0.47057E+06         0.35951E+06         0.00000E+00
    0.35951E+06        -0.74413E+06         0.00000E+00
    0.00000E+00         0.00000E+00         0.00000E+00
 
    0.45816E+06         0.37555E+06         0.00000E+00
    0.37555E+06        -0.73877E+06         0.00000E+00
    0.00000E+00         0.00000E+00         0.00000E+00
 
    0.44546E+06         0.39142E+06         0.00000E+00
    0.39142E+06        -0.73320E+06         0.00000E+00
    0.00000E+00         0.00000E+00         0.00000E+00
 
    0.43248E+06         0.40711E+06         0.00000E+00
    0.40711E+06        -0.72743E+06         0.00000E+00
    0.00000E+00         0.00000E+00         0.00000E+00
 
    0.41922E+06         0.42263E+06         0.00000E+00
    0.42263E+06        -0.72145E+06         0.00000E+00
    0.00000E+00         0.00000E+00         0.00000E+00
 
    0.40570E+06         0.43796E+06         0.00000E+00
    0.43796E+06        -0.71528E+06         0.00000E+00
    0.00000E+00         0.00000E+00         0.00000E+00
 
    0.39190E+06         0.45312E+06         0.00000E+00
    0.45312E+06        -0.70891E+06         0.00000E+00
    0.00000E+00         0.00000E+00         0.00000E+00
 
    0.37784E+06         0.46809E+06         0.00000E+00
    0.46809E+06        -0.70235E+06         0.00000E+00
    0.00000E+00         0.00000E+00         0.00000E+00
 
    0.36351E+06         0.48286E+06         0.00000E+00
    0.48286E+06        -0.69561E+06         0.00000E+00
    0.00000E+00         0.00000E+00         0.00000E+00
 
    0.34893E+06         0.49745E+06         0.00000E+00
    0.49745E+06        -0.68869E+06         0.00000E+00
    0.00000E+00         0.00000E+00         0.00000E+00
 
    0.33410E+06         0.51184E+06         0.00000E+00
    0.51184E+06        -0.68160E+06         0.00000E+00
    0.00000E+00         0.00000E+00         0.00000E+00
 
    0.31902E+06         0.52603E+06         0.00000E+00
    0.52603E+06        -0.67434E+06         0.00000E+00
    0.00000E+00         0.00000E+00         0.00000E+00
 
    0.30369E+06         0.54002E+06         0.00000E+00
    0.54002E+06        -0.66691E+06         0.00000E+00
    0.00000E+00         0.00000E+00         0.00000E+00
 
    0.28812E+06         0.55381E+06         0.00000E+00
    0.55381E+06        -0.65933E+06         0.00000E+00
    0.00000E+00         0.00000E+00         0.00000E+00
 
    0.27231E+06         0.56739E+06         0.00000E+00
    0.56739E+06        -0.65158E+06         0.00000E+00
    0.00000E+00         0.00000E+00         0.00000E+00
 
    0.25627E+06         0.58076E+06         0.00000E+00
    0.58076E+06        -0.64369E+06         0.00000E+00
    0.00000E+00         0.00000E+00         0.00000E+00
 
    0.24000E+06         0.59392E+06         0.00000E+00
    0.59392E+06        -0.63566E+06         0.00000E+00
    0.00000E+00         0.00000E+00         0.00000E+00
 
    0.22350E+06         0.60686E+06         0.00000E+00
    0.60686E+06        -0.62749E+06         0.00000E+00
    0.00000E+00         0.00000E+00         0.00000E+00
 
    0.20678E+06         0.61959E+06         0.00000E+00
    0.61959E+06        -0.61918E+06         0.00000E+00
    0.00000E+00         0.00000E+00         0.00000E+00
 
    0.18985E+06         0.63210E+06         0.00000E+00
    0.63210E+06        -0.61074E+06         0.00000E+00
    0.00000E+00         0.00000E+00         0.00000E+00
 
    0.17270E+06         0.64439E+06         0.00000E+00
    0.64439E+06        -0.60218E+06         0.00000E+00
    0.00000E+00         0.00000E+00         0.00000E+00
 
    0.15534E+06         0.65646E+06         0.00000E+00
    0.65646E+06        -0.59349E+06         0.00000E+00
    0.00000E+00         0.00000E+00         0.00000E+00
 
    0.13778E+06         0.66830E+06         0.00000E+00
    0.66830E+06        -0.58470E+06         0.00000E+00
    0.00000E+00         0.00000E+00         0.00000E+00
 
    0.12002E+06         0.67991E+06         0.00000E+00
    0.67991E+06        -0.57579E+06         0.00000E+00
    0.00000E+00         0.00000E+00         0.00000E+00
 
    0.10206E+06         0.69130E+06         0.00000E+00
    0.69130E+06        -0.56678E+06         0.00000E+00
    0.00000E+00         0.00000E+00         0.00000E+00
 
    0.83913E+05         0.70245E+06         0.00000E+00
    0.70245E+06        -0.55768E+06         0.00000E+00
    0.00000E+00         0.00000E+00         0.00000E+00
 
    0.65576E+05         0.71338E+06         0.00000E+00
    0.71338E+06        -0.54847E+06         0.00000E+00
    0.00000E+00         0.00000E+00         0.00000E+00
 
    0.47055E+05         0.72407E+06         0.00000E+00
    0.72407E+06        -0.53918E+06         0.00000E+00
    0.00000E+00         0.00000E+00         0.00000E+00
 
    0.28355E+05         0.73452E+06         0.00000E+00
    0.73452E+06        -0.52981E+06         0.00000E+00
    0.00000E+00         0.00000E+00         0.00000E+00
 
    0.94806E+04         0.74474E+06         0.00000E+00
    0.74474E+06        -0.52036E+06         0.00000E+00
    0.00000E+00         0.00000E+00         0.00000E+00
 
    0.69728E+06         0.10003E+05         0.00000E+00
    0.10003E+05        -0.85350E+06         0.00000E+00
    0.00000E+00         0.00000E+00         0.00000E+00
 
    0.69080E+06         0.29788E+05         0.00000E+00
    0.29788E+05        -0.85319E+06         0.00000E+00
    0.00000E+00         0.00000E+00         0.00000E+00
 
    0.68396E+06         0.49485E+05         0.00000E+00
    0.49485E+05        -0.85258E+06         0.00000E+00
    0.00000E+00         0.00000E+00         0.00000E+00
 
    0.67675E+06         0.69089E+05         0.00000E+00
    0.69089E+05        -0.85166E+06         0.00000E+00
    0.00000E+00         0.00000E+00         0.00000E+00
 
    0.66918E+06         0.88594E+05         0.00000E+00
    0.88594E+05        -0.85045E+06         0.00000E+00
    0.00000E+00         0.00000E+00         0.00000E+00
 
    0.66126E+06         0.10800E+06         0.00000E+00
    0.10800E+06        -0.84894E+06         0.00000E+00
    0.00000E+00         0.00000E+00         0.00000E+00
 
    0.65297E+06         0.12729E+06         0.00000E+00
    0.12729E+06        -0.84713E+06         0.00000E+00
    0.00000E+00         0.00000E+00         0.00000E+00
 
    0.64433E+06         0.14647E+06         0.00000E+00
    0.14647E+06        -0.84504E+06         0.00000E+00
    0.00000E+00         0.00000E+00         0.00000E+00
 
    0.63534E+06         0.16553E+06         0.00000E+00
    0.16553E+06        -0.84266E+06         0.00000E+00
    0.00000E+00         0.00000E+00         0.00000E+00
 
    0.62601E+06         0.18446E+06         0.00000E+00
    0.18446E+06        -0.84001E+06         0.00000E+00
    0.00000E+00         0.00000E+00         0.00000E+00
 
    0.61633E+06         0.20327E+06         0.00000E+00
    0.20327E+06        -0.83707E+06         0.00000E+00
    0.00000E+00         0.00000E+00         0.00000E+00
 
    0.60631E+06         0.22194E+06         0.00000E+00
    0.22194E+06        -0.83386E+06         0.00000E+00
    0.00000E+00         0.00000E+00         0.00000E+00
 
    0.59595E+06         0.24047E+06         0.00000E+00
    0.24047E+06        -0.83038E+06         0.00000E+00
    0.00000E+00         0.00000E+00         0.00000E+00
 
    0.58525E+06         0.25886E+06         0.00000E+00
    0.25886E+06        -0.82664E+06         0.00000E+00
    0.00000E+00         0.00000E+00         0.00000E+00
 
    0.57423E+06         0.27710E+06         0.00000E+00
    0.27710E+06        -0.82263E+06         0.00000E+00
    0.00000E+00         0.00000E+00         0.00000E+00
 
    0.56288E+06         0.29519E+06         0.00000E+00
    0.29519E+06        -0.81837E+06         0.00000E+00
    0.00000E+00         0.00000E+00         0.00000E+00
 
    0.55120E+06         0.31312E+06         0.00000E+00
    0.31312E+06        -0.81386E+06         0.00000E+00
    0.00000E+00         0.00000E+00         0.00000E+00
 
    0.53920E+06         0.33089E+06         0.00000E+00
    0.33089E+06        -0.80910E+06         0.00000E+00
    0.00000E+00         0.00000E+00         0.00000E+00
 
    0.52689E+06         0.34850E+06         0.00000E+00
    0.34850E+06        -0.80409E+06         0.00000E+00
    0.00000E+00         0.00000E+00         0.00000E+00
 
    0.51427E+06         0.36593E+06         0.00000E+00
    0.36593E+06        -0.79885E+06         0.00000E+00
    0.00000E+00         0.00000E+00         0.00000E+00
 
    0.50133E+06         0.38319E+06         0.00000E+00
    0.38319E+06        -0.79337E+06         0.00000E+00
    0.00000E+00         0.00000E+00         0.00000E+00
 
    0.48809E+06         0.40028E+06         0.00000E+00
    0.40028E+06        -0.78766E+06         0.00000E+00
    0.00000E+00         0.00000E+00         0.00000E+00
 
    0.47455E+06         0.41718E+06         0.00000E+00
    0.41718E+06        -0.78172E+06         0.00000E+00
    0.00000E+00         0.00000E+00         0.00000E+00
 
    0.46071E+06         0.43390E+06         0.00000E+00
    0.43390E+06        -0.77557E+06         0.00000E+00
    0.00000E+00         0.00000E+00         0.00000E+00
 
    0.44658E+06         0.45043E+06         0.00000E+00
    0.45043E+06        -0.76920E+06         0.00000E+00
    0.00000E+00         0.00000E+00         0.00000E+00
 
    0.43216E+06         0.46677E+06         0.00000E+00
    0.46677E+06        -0.76262E+06         0.00000E+00
    0.00000E+00         0.00000E+00         0.00000E+00
 
    0.41745E+06         0.48291E+06         0.00000E+00
    0.48291E+06        -0.75584E+06         0.00000E+00
    0.00000E+00         0.00000E+00         0.00000E+00
 
    0.40246E+06         0.49886E+06         0.00000E+00
    0.49886E+06        -0.74885E+06         0.00000E+00
    0.00000E+00         0.00000E+00         0.00000E+00
 
    0.38719E+06         0.51460E+06         0.00000E+00
    0.51460E+06        -0.74167E+06         0.00000E+00
    0.00000E+00         0.00000E+00         0.00000E+00
 
    0.37165E+06         0.53013E+06         0.00000E+00
    0.53013E+06        -0.73430E+06         0.00000E+00
    0.00000E+00         0.00000E+00         0.00000E+00
 
    0.35584E+06         0.54546E+06         0.00000E+00
    0.54546E+06        -0.72675E+06         0.00000E+00
    0.00000E+00         0.00000E+00         0.00000E+00
 
    0.33977E+06         0.56058E+06         0.00000E+00
    0.56058E+06        -0.71901E+06         0.00000E+00
    0.00000E+00         0.00000E+00         0.00000E+00
 
    0.32344E+06         0.57548E+06         0.00000E+00
    0.57548E+06        -0.71110E+06         0.00000E+00
    0.00000E+00         0.00000E+00         0.00000E+00
 
    0.30685E+06         0.59016E+06         0.00000E+00
    0.59016E+06        -0.70302E+06         0.00000E+00
    0.00000E+00         0.00000E+00         0.00000E+00
 
    0.29000E+06         0.60463E+06         0.00000E+00
    0.60463E+06        -0.69478E+06         0.00000E+00
    0.00000E+00         0.00000E+00         0.00000E+00
 
    0.27291E+06         0.61887E+06         0.00000E+00
    0.61887E+06        -0.68638E+06         0.00000E+00
    0.00000E+00         0.00000E+00         0.00000E+00
 
    0.25558E+06         0.63288E+06         0.00000E+00
    0.63288E+06        -0.67782E+06         0.00000E+00
    0.00000E+00         0.00000E+00         0.00000E+00
 
    0.23801E+06         0.64667E+06         0.00000E+00
    0.64667E+06        -0.66912E+06         0.00000E+00
    0.00000E+00         0.00000E+00         0.00000E+00
 
    0.22020E+06         0.66023E+06         0.00000E+00
    0.66023E+06        -0.66027E+06         0.00000E+00
    0.00000E+00         0.00000E+00         0.00000E+00
 
    0.20216E+06         0.67355E+06         0.00000E+00
    0.67355E+06        -0.65129E+06         0.00000E+00
    0.00000E+00         0.00000E+00         0.00000E+00
 
    0.18390E+06         0.68664E+06         0.00000E+00
    0.68664E+06        -0.64217E+06         0.00000E+00
    0.00000E+00         0.00000E+00         0.00000E+00
 
    0.16541E+06         0.69950E+06         0.00000E+00
    0.69950E+06        -0.63293E+06         0.00000E+00
    0.00000E+00         0.00000E+00         0.00000E+00
 
    0.14671E+06         0.71211E+06         0.00000E+00
    0.71211E+06        -0.62356E+06         0.00000E+00
    0.00000E+00         0.00000E+00         0.00000E+00
 
    0.12780E+06         0.72449E+06         0.00000E+00
    0.72449E+06        -0.61408E+06         0.00000E+00
    0.00000E+00         0.00000E+00         0.00000E+00
 
    0.10867E+06         0.73662E+06         0.00000E+00
    0.73662E+06        -0.60449E+06         0.00000E+00
    0.00000E+00         0.00000E+00         0.00000E+00
 
    0.89348E+05         0.74850E+06         0.00000E+00
    0.74850E+06        -0.59479E+06         0.00000E+00
    0.00000E+00         0.00000E+00         0.00000E+00
 
    0.69822E+05         0.76014E+06         0.00000E+00
    0.76014E+06        -0.58500E+06         0.00000E+00
    0.00000E+00         0.00000E+00         0.00000E+00
 
    0.50101E+05         0.77153E+06         0.00000E+00
    0.77153E+06        -0.57511E+06         0.00000E+00
    0.00000E+00         0.00000E+00         0.00000E+00
 
    0.30191E+05         0.78267E+06         0.00000E+00
    0.78267E+06        -0.56513E+06         0.00000E+00
    0.00000E+00         0.00000E+00         0.00000E+00
 
    0.10094E+05         0.79356E+06         0.00000E+00
    0.79356E+06        -0.55506E+06         0.00000E+00
    0.00000E+00         0.00000E+00         0.00000E+00
 
    0.74319E+06         0.10668E+05         0.00000E+00
    0.10668E+05        -0.90999E+06         0.00000E+00
    0.00000E+00         0.00000E+00         0.00000E+00
 
    0.73628E+06         0.31765E+05         0.00000E+00
    0.31765E+05        -0.90966E+06         0.00000E+00
    0.00000E+00         0.00000E+00         0.00000E+00
 
    0.72897E+06         0.52769E+05         0.00000E+00
    0.52769E+05        -0.90900E+06         0.00000E+00
    0.00000E+00         0.00000E+00         0.00000E+00
 
    0.72128E+06         0.73672E+05         0.00000E+00
    0.73672E+05        -0.90802E+06         0.00000E+00
    0.00000E+00         0.00000E+00         0.00000E+00
 
    0.71320E+06         0.94469E+05         0.00000E+00
    0.94469E+05        -0.90672E+06         0.00000E+00
    0.00000E+00         0.00000E+00         0.00000E+00
 
    0.70473E+06         0.11515E+06         0.00000E+00
    0.11515E+06        -0.90511E+06         0.00000E+00
    0.00000E+00         0.00000E+00         0.00000E+00
 
    0.69589E+06         0.13572E+06         0.00000E+00
    0.13572E+06        -0.90319E+06         0.00000E+00
    0.00000E+00         0.00000E+00         0.00000E+00
 
    0.68667E+06         0.15617E+06         0.00000E+00
    0.15617E+06        -0.90095E+06         0.00000E+00
    0.00000E+00         0.00000E+00         0.00000E+00
 
    0.67707E+06         0.17648E+06         0.00000E+00
    0.17648E+06        -0.89842E+06         0.00000E+00
    0.00000E+00         0.00000E+00         0.00000E+00
 
    0.66710E+06         0.19667E+06         0.00000E+00
    0.19667E+06        -0.89558E+06         0.00000E+00
    0.00000E+00         0.00000E+00         0.00000E+00
 
    0.65677E+06         0.21671E+06         0.00000E+00
    0.21671E+06        -0.89245E+06         0.00000E+00
    0.00000E+00         0.00000E+00         0.00000E+00
 
    0.64608E+06         0.23661E+06         0.00000E+00
    0.23661E+06        -0.88902E+06         0.00000E+00
    0.00000E+00         0.00000E+00         0.00000E+00
 
    0.63502E+06         0.25636E+06         0.00000E+00
    0.25636E+06        -0.88531E+06         0.00000E+00
    0.00000E+00         0.00000E+00         0.00000E+00
 
    0.62361E+06         0.27596E+06         0.00000E+00
    0.27596E+06        -0.88132E+06         0.00000E+00
    0.00000E+00         0.00000E+00         0.00000E+00
 
    0.61184E+06         0.29540E+06         0.00000E+00
    0.29540E+06        -0.87705E+06         0.00000E+00
    0.00000E+00         0.00000E+00         0.00000E+00
 
    0.59973E+06         0.31468E+06         0.00000E+00
    0.31468E+06        -0.87250E+06         0.00000E+00
    0.00000E+00         0.00000E+00         0.00000E+00
 
    0.58727E+06         0.33378E+06         0.00000E+00
    0.33378E+06        -0.86769E+06         0.00000E+00
    0.00000E+00         0.00000E+00         0.00000E+00
 
    0.57447E+06         0.35272E+06         0.00000E+00
    0.35272E+06        -0.86261E+06         0.00000E+00
    0.00000E+00         0.00000E+00         0.00000E+00
 
    0.56133E+06         0.37147E+06         0.00000E+00
    0.37147E+06        -0.85728E+06         0.00000E+00
    0.00000E+00         0.00000E+00         0.00000E+00
 
    0.54787E+06         0.39005E+06         0.00000E+00
    0.39005E+06        -0.85168E+06         0.00000E+00
    0.00000E+00         0.00000E+00         0.00000E+00
 
    0.53407E+06         0.40844E+06         0.00000E+00
    0.40844E+06        -0.84584E+06         0.00000E+00
    0.00000E+00         0.00000E+00         0.00000E+00
 
    0.51995E+06         0.42664E+06         0.00000E+00
    0.42664E+06        -0.83976E+06         0.00000E+00
    0.00000E+00         0.00000E+00         0.00000E+00
 
    0.50551E+06         0.44465E+06         0.00000E+00
    0.44465E+06        -0.83344E+06         0.00000E+00
    0.00000E+00         0.00000E+00         0.00000E+00
 
    0.49075E+06         0.46245E+06         0.00000E+00
    0.46245E+06        -0.82688E+06         0.00000E+00
    0.00000E+00         0.00000E+00         0.00000E+00
 
    0.47568E+06         0.48006E+06         0.00000E+00
    0.48006E+06        -0.82009E+06         0.00000E+00
    0.00000E+00         0.00000E+00         0.00000E+00
 
    0.46030E+06         0.49746E+06         0.00000E+00
    0.49746E+06        -0.81308E+06         0.00000E+00
    0.00000E+00         0.00000E+00         0.00000E+00
 
    0.44462E+06         0.51466E+06         0.00000E+00
    0.51466E+06        -0.80585E+06         0.00000E+00
    0.00000E+00         0.00000E+00         0.00000E+00
 
    0.42864E+06         0.53164E+06         0.00000E+00
    0.53164E+06        -0.79841E+06         0.00000E+00
    0.00000E+00         0.00000E+00         0.00000E+00
 
    0.41237E+06         0.54840E+06         0.00000E+00
    0.54840E+06        -0.79076E+06         0.00000E+00
    0.00000E+00         0.00000E+00         0.00000E+00
 
    0.39581E+06         0.56495E+06         0.00000E+00
    0.56495E+06        -0.78291E+06         0.00000E+00
    0.00000E+00         0.00000E+00         0.00000E+00
 
    0.37896E+06         0.58127E+06         0.00000E+00
    0.58127E+06        -0.77487E+06         0.00000E+00
    0.00000E+00         0.00000E+00         0.00000E+00
 
    0.36183E+06         0.59737E+06         0.00000E+00
    0.59737E+06        -0.76663E+06         0.00000E+00
    0.00000E+00         0.00000E+00         0.00000E+00
 
    0.34443E+06         0.61324E+06         0.00000E+00
    0.61324E+06        -0.75821E+06         0.00000E+00
    0.00000E+00         0.00000E+00         0.00000E+00
 
    0.32675E+06         0.62888E+06         0.00000E+00
    0.62888E+06        -0.74960E+06         0.00000E+00
    0.00000E+00         0.00000E+00         0.00000E+00
 
    0.30881E+06         0.64428E+06         0.00000E+00
    0.64428E+06        -0.74083E+06         0.00000E+00
    0.00000E+00         0.00000E+00         0.00000E+00
 
    0.29060E+06         0.65945E+06         0.00000E+00
    0.65945E+06        -0.73188E+06         0.00000E+00
    0.00000E+00         0.00000E+00         0.00000E+00
 
    0.27214E+06         0.67437E+06         0.00000E+00
    0.67437E+06        -0.72277E+06         0.00000E+00
    0.00000E+00         0.00000E+00         0.00000E+00
 
    0.25342E+06         0.68906E+06         0.00000E+00
    0.68906E+06        -0.71351E+06         0.00000E+00
    0.00000E+00         0.00000E+00         0.00000E+00
 
    0.23445E+06         0.70350E+06         0.00000E+00
    0.70350E+06        -0.70409E+06         0.00000E+00
    0.00000E+00         0.00000E+00         0.00000E+00
 
    0.21524E+06         0.71769E+06         0.00000E+00
    0.71769E+06        -0.69452E+06         0.00000E+00
    0.00000E+00         0.00000E+00         0.00000E+00
 
    0.19579E+06         0.73163E+06         0.00000E+00
    0.73163E+06        -0.68482E+06         0.00000E+00
    0.00000E+00         0.00000E+00         0.00000E+00
 
    0.17611E+06         0.74532E+06         0.00000E+00
    0.74532E+06        -0.67498E+06         0.00000E+00
    0.00000E+00         0.00000E+00         0.00000E+00
 
    0.15619E+06         0.75876E+06         0.00000E+00
    0.75876E+06        -0.66501E+06         0.00000E+00
    0.00000E+00         0.00000E+00         0.00000E+00
 
    0.13605E+06         0.77194E+06         0.00000E+00
    0.77194E+06        -0.65492E+06         0.00000E+00
    0.00000E+00         0.00000E+00         0.00000E+00
 
    0.11569E+06         0.78486E+06         0.00000E+00
    0.78486E+06        -0.64471E+06         0.00000E+00
    0.00000E+00         0.00000E+00         0.00000E+00
 
    0.95117E+05         0.79753E+06         0.00000E+00
    0.79753E+06        -0.63439E+06         0.00000E+00
    0.00000E+00         0.00000E+00         0.00000E+00
 
    0.74329E+05         0.80993E+06         0.00000E+00
    0.80993E+06        -0.62396E+06         0.00000E+00
    0.00000E+00         0.00000E+00         0.00000E+00
 
    0.53335E+05         0.82206E+06         0.00000E+00
    0.82206E+06        -0.61343E+06         0.00000E+00
    0.00000E+00         0.00000E+00         0.00000E+00
 
    0.32139E+05         0.83393E+06         0.00000E+00
    0.83393E+06        -0.60281E+06         0.00000E+00
    0.00000E+00         0.00000E+00         0.00000E+00
 
    0.10745E+05         0.84554E+06         0.00000E+00
    0.84554E+06        -0.59210E+06         0.00000E+00
    0.00000E+00         0.00000E+00         0.00000E+00
 
    0.79218E+06         0.11379E+05         0.00000E+00
    0.11379E+05        -0.97020E+06         0.00000E+00
    0.00000E+00         0.00000E+00         0.00000E+00
 
    0.78479E+06         0.33879E+05         0.00000E+00
    0.33879E+05        -0.96985E+06         0.00000E+00
    0.00000E+00         0.00000E+00         0.00000E+00
 
    0.77699E+06         0.56277E+05         0.00000E+00
    0.56277E+05        -0.96915E+06         0.00000E+00
    0.00000E+00         0.00000E+00         0.00000E+00
 
    0.76877E+06         0.78568E+05         0.00000E+00
    0.78568E+05        -0.96810E+06         0.00000E+00
    0.00000E+00         0.00000E+00         0.00000E+00
 
    0.76014E+06         0.10074E+06         0.00000E+00
    0.10074E+06        -0.96671E+06         0.00000E+00
    0.00000E+00         0.00000E+00         0.00000E+00
 
    0.75109E+06         0.12280E+06         0.00000E+00
    0.12280E+06        -0.96499E+06         0.00000E+00
    0.00000E+00         0.00000E+00         0.00000E+00
 
    0.74165E+06         0.14473E+06         0.00000E+00
    0.14473E+06        -0.96294E+06         0.00000E+00
    0.00000E+00         0.00000E+00         0.00000E+00
 
    0.73180E+06         0.16652E+06         0.00000E+00
    0.16652E+06        -0.96055E+06         0.00000E+00
    0.00000E+00         0.00000E+00         0.00000E+00
 
    0.72155E+06         0.18818E+06         0.00000E+00
    0.18818E+06        -0.95785E+06         0.00000E+00
    0.00000E+00         0.00000E+00         0.00000E+00
 
    0.71091E+06         0.20970E+06         0.00000E+00
    0.20970E+06        -0.95482E+06         0.00000E+00
    0.00000E+00         0.00000E+00         0.00000E+00
 
    0.69987E+06         0.23106E+06         0.00000E+00
    0.23106E+06        -0.95148E+06         0.00000E+00
    0.00000E+00         0.00000E+00         0.00000E+00
 
    0.68845E+06         0.25227E+06         0.00000E+00
    0.25227E+06        -0.94782E+06         0.00000E+00
    0.00000E+00         0.00000E+00         0.00000E+00
 
    0.67664E+06         0.27332E+06         0.00000E+00
    0.27332E+06        -0.94386E+06         0.00000E+00
    0.00000E+00         0.00000E+00         0.00000E+00
 
    0.66446E+06         0.29421E+06         0.00000E+00
    0.29421E+06        -0.93960E+06         0.00000E+00
    0.00000E+00         0.00000E+00         0.00000E+00
 
    0.65190E+06         0.31492E+06         0.00000E+00
    0.31492E+06        -0.93505E+06         0.00000E+00
    0.00000E+00         0.00000E+00         0.00000E+00
 
    0.63897E+06         0.33546E+06         0.00000E+00
    0.33546E+06        -0.93020E+06         0.00000E+00
    0.00000E+00         0.00000E+00         0.00000E+00
 
    0.62567E+06         0.35582E+06         0.00000E+00
    0.35582E+06        -0.92507E+06         0.00000E+00
    0.00000E+00         0.00000E+00         0.00000E+00
 
    0.61201E+06         0.37599E+06         0.00000E+00
    0.37599E+06        -0.91965E+06         0.00000E+00
    0.00000E+00         0.00000E+00         0.00000E+00
 
    0.59800E+06         0.39597E+06         0.00000E+00
    0.39597E+06        -0.91396E+06         0.00000E+00
    0.00000E+00         0.00000E+00         0.00000E+00
 
    0.58363E+06         0.41576E+06         0.00000E+00
    0.41576E+06        -0.90800E+06         0.00000E+00
    0.00000E+00         0.00000E+00         0.00000E+00
 
    0.56891E+06         0.43535E+06         0.00000E+00
    0.43535E+06        -0.90178E+06         0.00000E+00
    0.00000E+00         0.00000E+00         0.00000E+00
 
    0.55384E+06         0.45474E+06         0.00000E+00
    0.45474E+06        -0.89529E+06         0.00000E+00
    0.00000E+00         0.00000E+00         0.00000E+00
 
    0.53844E+06         0.47392E+06         0.00000E+00
    0.47392E+06        -0.88855E+06         0.00000E+00
    0.00000E+00         0.00000E+00         0.00000E+00
 
    0.52270E+06         0.49288E+06         0.00000E+00
    0.49288E+06        -0.88156E+06         0.00000E+00
    0.00000E+00         0.00000E+00         0.00000E+00
 
    0.50663E+06         0.51164E+06         0.00000E+00
    0.51164E+06        -0.87433E+06         0.00000E+00
    0.00000E+00         0.00000E+00         0.00000E+00
 
    0.49023E+06         0.53017E+06         0.00000E+00
    0.53017E+06        -0.86686E+06         0.00000E+00
    0.00000E+00         0.00000E+00         0.00000E+00
 
    0.47351E+06         0.54848E+06         0.00000E+00
    0.54848E+06        -0.85916E+06         0.00000E+00
    0.00000E+00         0.00000E+00         0.00000E+00
 
    0.45648E+06         0.56656E+06         0.00000E+00
    0.56656E+06        -0.85124E+06         0.00000E+00
    0.00000E+00         0.00000E+00         0.00000E+00
 
    0.43913E+06         0.58441E+06         0.00000E+00
    0.58441E+06        -0.84309E+06         0.00000E+00
    0.00000E+00         0.00000E+00         0.00000E+00
 
    0.42148E+06         0.60203E+06         0.00000E+00
    0.60203E+06        -0.83473E+06         0.00000E+00
    0.00000E+00         0.00000E+00         0.00000E+00
 
    0.40352E+06         0.61941E+06         0.00000E+00
    0.61941E+06        -0.82616E+06         0.00000E+00
    0.00000E+00         0.00000E+00         0.00000E+00
 
    0.38527E+06         0.63655E+06         0.00000E+00
    0.63655E+06        -0.81739E+06         0.00000E+00
    0.00000E+00         0.00000E+00         0.00000E+00
 
    0.36673E+06         0.65345E+06         0.00000E+00
    0.65345E+06        -0.80842E+06         0.00000E+00
    0.00000E+00         0.00000E+00         0.00000E+00
 
    0.34789E+06         0.67010E+06         0.00000E+00
    0.67010E+06        -0.79926E+06         0.00000E+00
    0.00000E+00         0.00000E+00         0.00000E+00
 
    0.32878E+06         0.68650E+06         0.00000E+00
    0.68650E+06        -0.78992E+06         0.00000E+00
    0.00000E+00         0.00000E+00         0.00000E+00
 
    0.30938E+06         0.70265E+06         0.00000E+00
    0.70265E+06        -0.78040E+06         0.00000E+00
    0.00000E+00         0.00000E+00         0.00000E+00
 
    0.28972E+06         0.71855E+06         0.00000E+00
    0.71855E+06        -0.77070E+06         0.00000E+00
    0.00000E+00         0.00000E+00         0.00000E+00
 
    0.26978E+06         0.73418E+06         0.00000E+00
    0.73418E+06        -0.76084E+06         0.00000E+00
    0.00000E+00         0.00000E+00         0.00000E+00
 
    0.24958E+06         0.74956E+06         0.00000E+00
    0.74956E+06        -0.75081E+06         0.00000E+00
    0.00000E+00         0.00000E+00         0.00000E+00
 
    0.22913E+06         0.76467E+06         0.00000E+00
    0.76467E+06        -0.74063E+06         0.00000E+00
    0.00000E+00         0.00000E+00         0.00000E+00
 
    0.20842E+06         0.77952E+06         0.00000E+00
    0.77952E+06        -0.73030E+06         0.00000E+00
    0.00000E+00         0.00000E+00         0.00000E+00
 
    0.18746E+06         0.79410E+06         0.00000E+00
    0.79410E+06        -0.71983E+06         0.00000E+00
    0.00000E+00         0.00000E+00         0.00000E+00
 
    0.16626E+06         0.80841E+06         0.00000E+00
    0.80841E+06        -0.70922E+06         0.00000E+00
    0.00000E+00         0.00000E+00         0.00000E+00
 
    0.14481E+06         0.82245E+06         0.00000E+00
    0.82245E+06        -0.69848E+06         0.00000E+00
    0.00000E+00         0.00000E+00         0.00000E+00
 
    0.12314E+06         0.83622E+06         0.00000E+00
    0.83622E+06        -0.68762E+06         0.00000E+00
    0.00000E+00         0.00000E+00         0.00000E+00
 
    0.10124E+06         0.84970E+06         0.00000E+00
    0.84970E+06        -0.67664E+06         0.00000E+00
    0.00000E+00         0.00000E+00         0.00000E+00
 
    0.79110E+05         0.86291E+06         0.00000E+00
    0.86291E+06        -0.66554E+06         0.00000E+00
    0.00000E+00         0.00000E+00         0.00000E+00
 
    0.56764E+05         0.87585E+06         0.00000E+00
    0.87585E+06        -0.65433E+06         0.00000E+00
    0.00000E+00         0.00000E+00         0.00000E+00
 
    0.34205E+05         0.88850E+06         0.00000E+00
    0.88850E+06        -0.64303E+06         0.00000E+00
    0.00000E+00         0.00000E+00         0.00000E+00
 
    0.11436E+05         0.90086E+06         0.00000E+00
    0.90086E+06        -0.63163E+06         0.00000E+00
    0.00000E+00         0.00000E+00         0.00000E+00
 
    0.84445E+06         0.12139E+05         0.00000E+00
    0.12139E+05        -0.10344E+07         0.00000E+00
    0.00000E+00         0.00000E+00         0.00000E+00
 
    0.83656E+06         0.36138E+05         0.00000E+00
    0.36138E+05        -0.10340E+07         0.00000E+00
    0.00000E+00         0.00000E+00         0.00000E+00
 
    0.82821E+06         0.60027E+05         0.00000E+00
    0.60027E+05        -0.10333E+07         0.00000E+00
    0.00000E+00         0.00000E+00         0.00000E+00
 
    0.81943E+06         0.83798E+05         0.00000E+00
    0.83798E+05        -0.10321E+07         0.00000E+00
    0.00000E+00         0.00000E+00         0.00000E+00
 
    0.81020E+06         0.10745E+06         0.00000E+00
    0.10745E+06        -0.10307E+07         0.00000E+00
    0.00000E+00         0.00000E+00         0.00000E+00
 
    0.80054E+06         0.13096E+06         0.00000E+00
    0.13096E+06        -0.10288E+07         0.00000E+00
    0.00000E+00         0.00000E+00         0.00000E+00
 
    0.79044E+06         0.15435E+06         0.00000E+00
    0.15435E+06        -0.10266E+07         0.00000E+00
    0.00000E+00         0.00000E+00         0.00000E+00
 
    0.77991E+06         0.17758E+06         0.00000E+00
    0.17758E+06        -0.10241E+07         0.00000E+00
    0.00000E+00         0.00000E+00         0.00000E+00
 
    0.76896E+06         0.20067E+06         0.00000E+00
    0.20067E+06        -0.10212E+07         0.00000E+00
    0.00000E+00         0.00000E+00         0.00000E+00
 
    0.75759E+06         0.22361E+06         0.00000E+00
    0.22361E+06        -0.10180E+07         0.00000E+00
    0.00000E+00         0.00000E+00         0.00000E+00
 
    0.74580E+06         0.24638E+06         0.00000E+00
    0.24638E+06        -0.10144E+07         0.00000E+00
    0.00000E+00         0.00000E+00         0.00000E+00
 
    0.73359E+06         0.26898E+06         0.00000E+00
    0.26898E+06        -0.10105E+07         0.00000E+00
    0.00000E+00         0.00000E+00         0.00000E+00
 
    0.72098E+06         0.29142E+06         0.00000E+00
    0.29142E+06        -0.10063E+07         0.00000E+00
    0.00000E+00         0.00000E+00         0.00000E+00
 
    0.70797E+06         0.31367E+06         0.00000E+00
    0.31367E+06        -0.10017E+07         0.00000E+00
    0.00000E+00         0.00000E+00         0.00000E+00
 
    0.69456E+06         0.33574E+06         0.00000E+00
    0.33574E+06        -0.99687E+06         0.00000E+00
    0.00000E+00         0.00000E+00         0.00000E+00
 
    0.68075E+06         0.35763E+06         0.00000E+00
    0.35763E+06        -0.99170E+06         0.00000E+00
    0.00000E+00         0.00000E+00         0.00000E+00
 
    0.66655E+06         0.37932E+06         0.00000E+00
    0.37932E+06        -0.98622E+06         0.00000E+00
    0.00000E+00         0.00000E+00         0.00000E+00
 
    0.65197E+06         0.40081E+06         0.00000E+00
    0.40081E+06        -0.98045E+06         0.00000E+00
    0.00000E+00         0.00000E+00         0.00000E+00
 
    0.63701E+06         0.42209E+06         0.00000E+00
    0.42209E+06        -0.97438E+06         0.00000E+00
    0.00000E+00         0.00000E+00         0.00000E+00
 
    0.62167E+06         0.44317E+06         0.00000E+00
    0.44317E+06        -0.96803E+06         0.00000E+00
    0.00000E+00         0.00000E+00         0.00000E+00
 
    0.60596E+06         0.46403E+06         0.00000E+00
    0.46403E+06        -0.96139E+06         0.00000E+00
    0.00000E+00         0.00000E+00         0.00000E+00
 
    0.58989E+06         0.48468E+06         0.00000E+00
    0.48468E+06        -0.95448E+06         0.00000E+00
    0.00000E+00         0.00000E+00         0.00000E+00
 
    0.57345E+06         0.50511E+06         0.00000E+00
    0.50511E+06        -0.94730E+06         0.00000E+00
    0.00000E+00         0.00000E+00         0.00000E+00
 
    0.55667E+06         0.52531E+06         0.00000E+00
    0.52531E+06        -0.93985E+06         0.00000E+00
    0.00000E+00         0.00000E+00         0.00000E+00
 
    0.53953E+06         0.54527E+06         0.00000E+00
    0.54527E+06        -0.93215E+06         0.00000E+00
    0.00000E+00         0.00000E+00         0.00000E+00
 
    0.52204E+06         0.56501E+06         0.00000E+00
    0.56501E+06        -0.92419E+06         0.00000E+00
    0.00000E+00         0.00000E+00         0.00000E+00
 
    0.50421E+06         0.58450E+06         0.00000E+00
    0.58450E+06        -0.91599E+06         0.00000E+00
    0.00000E+00         0.00000E+00         0.00000E+00
 
    0.48605E+06         0.60375E+06         0.00000E+00
    0.60375E+06        -0.90755E+06         0.00000E+00
    0.00000E+00         0.00000E+00         0.00000E+00
 
    0.46756E+06         0.62276E+06         0.00000E+00
    0.62276E+06        -0.89888E+06         0.00000E+00
    0.00000E+00         0.00000E+00         0.00000E+00
 
    0.44875E+06         0.64152E+06         0.00000E+00
    0.64152E+06        -0.88997E+06         0.00000E+00
    0.00000E+00         0.00000E+00         0.00000E+00
 
    0.42961E+06         0.66002E+06         0.00000E+00
    0.66002E+06        -0.88085E+06         0.00000E+00
    0.00000E+00         0.00000E+00         0.00000E+00
 
    0.41016E+06         0.67827E+06         0.00000E+00
    0.67827E+06        -0.87151E+06         0.00000E+00
    0.00000E+00         0.00000E+00         0.00000E+00
 
    0.39040E+06         0.69626E+06         0.00000E+00
    0.69626E+06        -0.86197E+06         0.00000E+00
    0.00000E+00         0.00000E+00         0.00000E+00
 
    0.37034E+06         0.71399E+06         0.00000E+00
    0.71399E+06        -0.85222E+06         0.00000E+00
    0.00000E+00         0.00000E+00         0.00000E+00
 
    0.34997E+06         0.73145E+06         0.00000E+00
    0.73145E+06        -0.84227E+06         0.00000E+00
    0.00000E+00         0.00000E+00         0.00000E+00
 
    0.32932E+06         0.74864E+06         0.00000E+00
    0.74864E+06        -0.83213E+06         0.00000E+00
    0.00000E+00         0.00000E+00         0.00000E+00
 
    0.30837E+06         0.76556E+06         0.00000E+00
    0.76556E+06        -0.82182E+06         0.00000E+00
    0.00000E+00         0.00000E+00         0.00000E+00
 
    0.28714E+06         0.78221E+06         0.00000E+00
    0.78221E+06        -0.81132E+06         0.00000E+00
    0.00000E+00         0.00000E+00         0.00000E+00
 
    0.26563E+06         0.79858E+06         0.00000E+00
    0.79858E+06        -0.80065E+06         0.00000E+00
    0.00000E+00         0.00000E+00         0.00000E+00
 
    0.24385E+06         0.81467E+06         0.00000E+00
    0.81467E+06        -0.78982E+06         0.00000E+00
    0.00000E+00         0.00000E+00         0.00000E+00
 
    0.22180E+06         0.83048E+06         0.00000E+00
    0.83048E+06        -0.77883E+06         0.00000E+00
    0.00000E+00         0.00000E+00         0.00000E+00
 
    0.19949E+06         0.84601E+06         0.00000E+00
    0.84601E+06        -0.76769E+06         0.00000E+00
    0.00000E+00         0.00000E+00         0.00000E+00
 
    0.17692E+06         0.86125E+06         0.00000E+00
    0.86125E+06        -0.75640E+06         0.00000E+00
    0.00000E+00         0.00000E+00         0.00000E+00
 
    0.15410E+06         0.87620E+06         0.00000E+00
    0.87620E+06        -0.74498E+06         0.00000E+00
    0.00000E+00         0.00000E+00         0.00000E+00
 
    0.13103E+06         0.89086E+06         0.00000E+00
    0.89086E+06        -0.73342E+06         0.00000E+00
    0.00000E+00         0.00000E+00         0.00000E+00
 
    0.10772E+06         0.90523E+06         0.00000E+00
    0.90523E+06        -0.72173E+06         0.00000E+00
    0.00000E+00         0.00000E+00         0.00000E+00
 
    0.84177E+05         0.91930E+06         0.00000E+00
    0.91930E+06        -0.70993E+06         0.00000E+00
    0.00000E+00         0.00000E+00         0.00000E+00
 
    0.60399E+05         0.93308E+06         0.00000E+00
    0.93308E+06        -0.69801E+06         0.00000E+00
    0.00000E+00         0.00000E+00         0.00000E+00
 
    0.36394E+05         0.94655E+06         0.00000E+00
    0.94655E+06        -0.68598E+06         0.00000E+00
    0.00000E+00         0.00000E+00         0.00000E+00
 
    0.12168E+05         0.95973E+06         0.00000E+00
    0.95973E+06        -0.67385E+06         0.00000E+00
    0.00000E+00         0.00000E+00         0.00000E+00
 
    0.90025E+06         0.12952E+05         0.00000E+00
    0.12952E+05        -0.11028E+07         0.00000E+00
    0.00000E+00         0.00000E+00         0.00000E+00
 
    0.89180E+06         0.38553E+05         0.00000E+00
    0.38553E+05        -0.11024E+07         0.00000E+00
    0.00000E+00         0.00000E+00         0.00000E+00
 
    0.88288E+06         0.64034E+05         0.00000E+00
    0.64034E+05        -0.11016E+07         0.00000E+00
    0.00000E+00         0.00000E+00         0.00000E+00
 
    0.87348E+06         0.89388E+05         0.00000E+00
    0.89388E+05        -0.11004E+07         0.00000E+00
    0.00000E+00         0.00000E+00         0.00000E+00
 
    0.86361E+06         0.11461E+06         0.00000E+00
    0.11461E+06        -0.10989E+07         0.00000E+00
    0.00000E+00         0.00000E+00         0.00000E+00
 
    0.85327E+06         0.13969E+06         0.00000E+00
    0.13969E+06        -0.10969E+07         0.00000E+00
    0.00000E+00         0.00000E+00         0.00000E+00
 
    0.84247E+06         0.16462E+06         0.00000E+00
    0.16462E+06        -0.10945E+07         0.00000E+00
    0.00000E+00         0.00000E+00         0.00000E+00
 
    0.83121E+06         0.18939E+06         0.00000E+00
    0.18939E+06        -0.10918E+07         0.00000E+00
    0.00000E+00         0.00000E+00         0.00000E+00
 
    0.81950E+06         0.21401E+06         0.00000E+00
    0.21401E+06        -0.10887E+07         0.00000E+00
    0.00000E+00         0.00000E+00         0.00000E+00
 
    0.80734E+06         0.23845E+06         0.00000E+00
    0.23845E+06        -0.10853E+07         0.00000E+00
    0.00000E+00         0.00000E+00         0.00000E+00
 
    0.79473E+06         0.26273E+06         0.00000E+00
    0.26273E+06        -0.10815E+07         0.00000E+00
    0.00000E+00         0.00000E+00         0.00000E+00
 
    0.78169E+06         0.28682E+06         0.00000E+00
    0.28682E+06        -0.10773E+07         0.00000E+00
    0.00000E+00         0.00000E+00         0.00000E+00
 
    0.76821E+06         0.31072E+06         0.00000E+00
    0.31072E+06        -0.10728E+07         0.00000E+00
    0.00000E+00         0.00000E+00         0.00000E+00
 
    0.75430E+06         0.33444E+06         0.00000E+00
    0.33444E+06        -0.10680E+07         0.00000E+00
    0.00000E+00         0.00000E+00         0.00000E+00
 
    0.73997E+06         0.35795E+06         0.00000E+00
    0.35795E+06        -0.10628E+07         0.00000E+00
    0.00000E+00         0.00000E+00         0.00000E+00
 
    0.72522E+06         0.38127E+06         0.00000E+00
    0.38127E+06        -0.10573E+07         0.00000E+00
    0.00000E+00         0.00000E+00         0.00000E+00
 
    0.71006E+06         0.40437E+06         0.00000E+00
    0.40437E+06        -0.10514E+07         0.00000E+00
    0.00000E+00         0.00000E+00         0.00000E+00
 
    0.69448E+06         0.42726E+06         0.00000E+00
    0.42726E+06        -0.10453E+07         0.00000E+00
    0.00000E+00         0.00000E+00         0.00000E+00
 
    0.67851E+06         0.44994E+06         0.00000E+00
    0.44994E+06        -0.10388E+07         0.00000E+00
    0.00000E+00         0.00000E+00         0.00000E+00
 
    0.66213E+06         0.47238E+06         0.00000E+00
    0.47238E+06        -0.10320E+07         0.00000E+00
    0.00000E+00         0.00000E+00         0.00000E+00
 
    0.64536E+06         0.49460E+06         0.00000E+00
    0.49460E+06        -0.10249E+07         0.00000E+00
    0.00000E+00         0.00000E+00         0.00000E+00
 
    0.62821E+06         0.51659E+06         0.00000E+00
    0.51659E+06        -0.10176E+07         0.00000E+00
    0.00000E+00         0.00000E+00         0.00000E+00
 
    0.61067E+06         0.53834E+06         0.00000E+00
    0.53834E+06        -0.10099E+07         0.00000E+00
    0.00000E+00         0.00000E+00         0.00000E+00
 
    0.59276E+06         0.55984E+06         0.00000E+00
    0.55984E+06        -0.10020E+07         0.00000E+00
    0.00000E+00         0.00000E+00         0.00000E+00
 
    0.57448E+06         0.58110E+06         0.00000E+00
    0.58110E+06        -0.99379E+06         0.00000E+00
    0.00000E+00         0.00000E+00         0.00000E+00
 
    0.55583E+06         0.60211E+06         0.00000E+00
    0.60211E+06        -0.98531E+06         0.00000E+00
    0.00000E+00         0.00000E+00         0.00000E+00
 
    0.53682E+06         0.62286E+06         0.00000E+00
    0.62286E+06        -0.97658E+06         0.00000E+00
    0.00000E+00         0.00000E+00         0.00000E+00
 
    0.51746E+06         0.64336E+06         0.00000E+00
    0.64336E+06        -0.96759E+06         0.00000E+00
    0.00000E+00         0.00000E+00         0.00000E+00
 
    0.49774E+06         0.66359E+06         0.00000E+00
    0.66359E+06        -0.95835E+06         0.00000E+00
    0.00000E+00         0.00000E+00         0.00000E+00
 
    0.47769E+06         0.68356E+06         0.00000E+00
    0.68356E+06        -0.94888E+06         0.00000E+00
    0.00000E+00         0.00000E+00         0.00000E+00
 
    0.45729E+06         0.70326E+06         0.00000E+00
    0.70326E+06        -0.93916E+06         0.00000E+00
    0.00000E+00         0.00000E+00         0.00000E+00
 
    0.43657E+06         0.72268E+06         0.00000E+00
    0.72268E+06        -0.92922E+06         0.00000E+00
    0.00000E+00         0.00000E+00         0.00000E+00
 
    0.41552E+06         0.74183E+06         0.00000E+00
    0.74183E+06        -0.91906E+06         0.00000E+00
    0.00000E+00         0.00000E+00         0.00000E+00
 
    0.39414E+06         0.76069E+06         0.00000E+00
    0.76069E+06        -0.90869E+06         0.00000E+00
    0.00000E+00         0.00000E+00         0.00000E+00
 
    0.37245E+06         0.77928E+06         0.00000E+00
    0.77928E+06        -0.89811E+06         0.00000E+00
    0.00000E+00         0.00000E+00         0.00000E+00
 
    0.35045E+06         0.79758E+06         0.00000E+00
    0.79758E+06        -0.88732E+06         0.00000E+00
    0.00000E+00         0.00000E+00         0.00000E+00
 
    0.32815E+06         0.81559E+06         0.00000E+00
    0.81559E+06        -0.87634E+06         0.00000E+00
    0.00000E+00         0.00000E+00         0.00000E+00
 
    0.30554E+06         0.83331E+06         0.00000E+00
    0.83331E+06        -0.86518E+06         0.00000E+00
    0.00000E+00         0.00000E+00         0.00000E+00
 
    0.28264E+06         0.85074E+06         0.00000E+00
    0.85074E+06        -0.85383E+06         0.00000E+00
    0.00000E+00         0.00000E+00         0.00000E+00
 
    0.25946E+06         0.86787E+06         0.00000E+00
    0.86787E+06        -0.84231E+06         0.00000E+00
    0.00000E+00         0.00000E+00         0.00000E+00
 
    0.23599E+06         0.88470E+06         0.00000E+00
    0.88470E+06        -0.83062E+06         0.00000E+00
    0.00000E+00         0.00000E+00         0.00000E+00
 
    0.21224E+06         0.90123E+06         0.00000E+00
    0.90123E+06        -0.81877E+06         0.00000E+00
    0.00000E+00         0.00000E+00         0.00000E+00
 
    0.18822E+06         0.91745E+06         0.00000E+00
    0.91745E+06        -0.80676E+06         0.00000E+00
    0.00000E+00         0.00000E+00         0.00000E+00
 
    0.16394E+06         0.93337E+06         0.00000E+00
    0.93337E+06        -0.79461E+06         0.00000E+00
    0.00000E+00         0.00000E+00         0.00000E+00
 
    0.13939E+06         0.94898E+06         0.00000E+00
    0.94898E+06        -0.78232E+06         0.00000E+00
    0.00000E+00         0.00000E+00         0.00000E+00
 
    0.11459E+06         0.96429E+06         0.00000E+00
    0.96429E+06        -0.76989E+06         0.00000E+00
    0.00000E+00         0.00000E+00         0.00000E+00
 
    0.89543E+05         0.97928E+06         0.00000E+00
    0.97928E+06        -0.75733E+06         0.00000E+00
    0.00000E+00         0.00000E+00         0.00000E+00
 
    0.64247E+05         0.99395E+06         0.00000E+00
    0.99395E+06        -0.74465E+06         0.00000E+00
    0.00000E+00         0.00000E+00         0.00000E+00
 
    0.38712E+05         0.10083E+07         0.00000E+00
    0.10083E+07        -0.73186E+06         0.00000E+00
    0.00000E+00         0.00000E+00         0.00000E+00
 
    0.12942E+05         0.10224E+07         0.00000E+00
    0.10224E+07        -0.71896E+06         0.00000E+00
    0.00000E+00         0.00000E+00         0.00000E+00
 
    0.95983E+06         0.13822E+05         0.00000E+00
    0.13822E+05        -0.11758E+07         0.00000E+00
    0.00000E+00         0.00000E+00         0.00000E+00
 
    0.95078E+06         0.41135E+05         0.00000E+00
    0.41135E+05        -0.11754E+07         0.00000E+00
    0.00000E+00         0.00000E+00         0.00000E+00
 
    0.94122E+06         0.68318E+05         0.00000E+00
    0.68318E+05        -0.11745E+07         0.00000E+00
    0.00000E+00         0.00000E+00         0.00000E+00
 
    0.93115E+06         0.95362E+05         0.00000E+00
    0.95362E+05        -0.11732E+07         0.00000E+00
    0.00000E+00         0.00000E+00         0.00000E+00
 
    0.92058E+06         0.12226E+06         0.00000E+00
    0.12226E+06        -0.11715E+07         0.00000E+00
    0.00000E+00         0.00000E+00         0.00000E+00
 
    0.90951E+06         0.14900E+06         0.00000E+00
    0.14900E+06        -0.11694E+07         0.00000E+00
    0.00000E+00         0.00000E+00         0.00000E+00
 
    0.89795E+06         0.17559E+06         0.00000E+00
    0.17559E+06        -0.11669E+07         0.00000E+00
    0.00000E+00         0.00000E+00         0.00000E+00
 
    0.88589E+06         0.20200E+06         0.00000E+00
    0.20200E+06        -0.11640E+07         0.00000E+00
    0.00000E+00         0.00000E+00         0.00000E+00
 
    0.87336E+06         0.22824E+06         0.00000E+00
    0.22824E+06        -0.11607E+07         0.00000E+00
    0.00000E+00         0.00000E+00         0.00000E+00
 
    0.86035E+06         0.25430E+06         0.00000E+00
    0.25430E+06        -0.11570E+07         0.00000E+00
    0.00000E+00         0.00000E+00         0.00000E+00
 
    0.84686E+06         0.28017E+06         0.00000E+00
    0.28017E+06        -0.11530E+07         0.00000E+00
    0.00000E+00         0.00000E+00         0.00000E+00
 
    0.83291E+06         0.30585E+06         0.00000E+00
    0.30585E+06        -0.11485E+07         0.00000E+00
    0.00000E+00         0.00000E+00         0.00000E+00
 
    0.81849E+06         0.33132E+06         0.00000E+00
    0.33132E+06        -0.11437E+07         0.00000E+00
    0.00000E+00         0.00000E+00         0.00000E+00
 
    0.80362E+06         0.35659E+06         0.00000E+00
    0.35659E+06        -0.11386E+07         0.00000E+00
    0.00000E+00         0.00000E+00         0.00000E+00
 
    0.78830E+06         0.38164E+06         0.00000E+00
    0.38164E+06        -0.11330E+07         0.00000E+00
    0.00000E+00         0.00000E+00         0.00000E+00
 
    0.77254E+06         0.40648E+06         0.00000E+00
    0.40648E+06        -0.11271E+07         0.00000E+00
    0.00000E+00         0.00000E+00         0.00000E+00
 
    0.75633E+06         0.43109E+06         0.00000E+00
    0.43109E+06        -0.11209E+07         0.00000E+00
    0.00000E+00         0.00000E+00         0.00000E+00
 
    0.73970E+06         0.45547E+06         0.00000E+00
    0.45547E+06        -0.11143E+07         0.00000E+00
    0.00000E+00         0.00000E+00         0.00000E+00
 
    0.72263E+06         0.47961E+06         0.00000E+00
    0.47961E+06        -0.11075E+07         0.00000E+00
    0.00000E+00         0.00000E+00         0.00000E+00
 
    0.70514E+06         0.50351E+06         0.00000E+00
    0.50351E+06        -0.11002E+07         0.00000E+00
    0.00000E+00         0.00000E+00         0.00000E+00
 
    0.68724E+06         0.52717E+06         0.00000E+00
    0.52717E+06        -0.10927E+07         0.00000E+00
    0.00000E+00         0.00000E+00         0.00000E+00
 
    0.66893E+06         0.55058E+06         0.00000E+00
    0.55058E+06        -0.10848E+07         0.00000E+00
    0.00000E+00         0.00000E+00         0.00000E+00
 
    0.65021E+06         0.57373E+06         0.00000E+00
    0.57373E+06        -0.10767E+07         0.00000E+00
    0.00000E+00         0.00000E+00         0.00000E+00
 
    0.63110E+06         0.59663E+06         0.00000E+00
    0.59663E+06        -0.10682E+07         0.00000E+00
    0.00000E+00         0.00000E+00         0.00000E+00
 
    0.61159E+06         0.61925E+06         0.00000E+00
    0.61925E+06        -0.10595E+07         0.00000E+00
    0.00000E+00         0.00000E+00         0.00000E+00
 
    0.59170E+06         0.64162E+06         0.00000E+00
    0.64162E+06        -0.10505E+07         0.00000E+00
    0.00000E+00         0.00000E+00         0.00000E+00
 
    0.57143E+06         0.66370E+06         0.00000E+00
    0.66370E+06        -0.10412E+07         0.00000E+00
    0.00000E+00         0.00000E+00         0.00000E+00
 
    0.55078E+06         0.68552E+06         0.00000E+00
    0.68552E+06        -0.10316E+07         0.00000E+00
    0.00000E+00         0.00000E+00         0.00000E+00
 
    0.52976E+06         0.70705E+06         0.00000E+00
    0.70705E+06        -0.10218E+07         0.00000E+00
    0.00000E+00         0.00000E+00         0.00000E+00
 
    0.50839E+06         0.72830E+06         0.00000E+00
    0.72830E+06        -0.10117E+07         0.00000E+00
    0.00000E+00         0.00000E+00         0.00000E+00
 
    0.48665E+06         0.74926E+06         0.00000E+00
    0.74926E+06        -0.10014E+07         0.00000E+00
    0.00000E+00         0.00000E+00         0.00000E+00
 
    0.46457E+06         0.76993E+06         0.00000E+00
    0.76993E+06        -0.99078E+06         0.00000E+00
    0.00000E+00         0.00000E+00         0.00000E+00
 
    0.44214E+06         0.79030E+06         0.00000E+00
    0.79030E+06        -0.97997E+06         0.00000E+00
    0.00000E+00         0.00000E+00         0.00000E+00
 
    0.41937E+06         0.81038E+06         0.00000E+00
    0.81038E+06        -0.96893E+06         0.00000E+00
    0.00000E+00         0.00000E+00         0.00000E+00
 
    0.39627E+06         0.83016E+06         0.00000E+00
    0.83016E+06        -0.95768E+06         0.00000E+00
    0.00000E+00         0.00000E+00         0.00000E+00
 
    0.37284E+06         0.84963E+06         0.00000E+00
    0.84963E+06        -0.94621E+06         0.00000E+00
    0.00000E+00         0.00000E+00         0.00000E+00
 
    0.34909E+06         0.86880E+06         0.00000E+00
    0.86880E+06        -0.93453E+06         0.00000E+00
    0.00000E+00         0.00000E+00         0.00000E+00
 
    0.32503E+06         0.88766E+06         0.00000E+00
    0.88766E+06        -0.92266E+06         0.00000E+00
    0.00000E+00         0.00000E+00         0.00000E+00
 
    0.30066E+06         0.90620E+06         0.00000E+00
    0.90620E+06        -0.91059E+06         0.00000E+00
    0.00000E+00         0.00000E+00         0.00000E+00
 
    0.27598E+06         0.92444E+06         0.00000E+00
    0.92444E+06        -0.89834E+06         0.00000E+00
    0.00000E+00         0.00000E+00         0.00000E+00
 
    0.25100E+06         0.94235E+06         0.00000E+00
    0.94235E+06        -0.88591E+06         0.00000E+00
    0.00000E+00         0.00000E+00         0.00000E+00
 
    0.22574E+06         0.95995E+06         0.00000E+00
    0.95995E+06        -0.87331E+06         0.00000E+00
    0.00000E+00         0.00000E+00         0.00000E+00
 
    0.20018E+06         0.97722E+06         0.00000E+00
    0.97722E+06        -0.86054E+06         0.00000E+00
    0.00000E+00         0.00000E+00         0.00000E+00
 
    0.17435E+06         0.99417E+06         0.00000E+00
    0.99417E+06        -0.84762E+06         0.00000E+00
    0.00000E+00         0.00000E+00         0.00000E+00
 
    0.14824E+06         0.10108E+07         0.00000E+00
    0.10108E+07        -0.83455E+06         0.00000E+00
    0.00000E+00         0.00000E+00         0.00000E+00
 
    0.12186E+06         0.10271E+07         0.00000E+00
    0.10271E+07        -0.82134E+06         0.00000E+00
    0.00000E+00         0.00000E+00         0.00000E+00
 
    0.95217E+05         0.10431E+07         0.00000E+00
    0.10431E+07        -0.80799E+06         0.00000E+00
    0.00000E+00         0.00000E+00         0.00000E+00
 
    0.68316E+05         0.10587E+07         0.00000E+00
    0.10587E+07        -0.79451E+06         0.00000E+00
    0.00000E+00         0.00000E+00         0.00000E+00
 
    0.41162E+05         0.10740E+07         0.00000E+00
    0.10740E+07        -0.78091E+06         0.00000E+00
    0.00000E+00         0.00000E+00         0.00000E+00
 
    0.13762E+05         0.10890E+07         0.00000E+00
    0.10890E+07        -0.76720E+06         0.00000E+00
    0.00000E+00         0.00000E+00         0.00000E+00
 
    0.10235E+07         0.14754E+05         0.00000E+00
    0.14754E+05        -0.12536E+07         0.00000E+00
    0.00000E+00         0.00000E+00         0.00000E+00
 
    0.10138E+07         0.43898E+05         0.00000E+00
    0.43898E+05        -0.12531E+07         0.00000E+00
    0.00000E+00         0.00000E+00         0.00000E+00
 
    0.10035E+07         0.72899E+05         0.00000E+00
    0.72899E+05        -0.12522E+07         0.00000E+00
    0.00000E+00         0.00000E+00         0.00000E+00
 
    0.99270E+06         0.10175E+06         0.00000E+00
    0.10175E+06        -0.12509E+07         0.00000E+00
    0.00000E+00         0.00000E+00         0.00000E+00
 
    0.98136E+06         0.13044E+06         0.00000E+00
    0.13044E+06        -0.12490E+07         0.00000E+00
    0.00000E+00         0.00000E+00         0.00000E+00
 
    0.96950E+06         0.15896E+06         0.00000E+00
    0.15896E+06        -0.12468E+07         0.00000E+00
    0.00000E+00         0.00000E+00         0.00000E+00
 
    0.95710E+06         0.18731E+06         0.00000E+00
    0.18731E+06        -0.12441E+07         0.00000E+00
    0.00000E+00         0.00000E+00         0.00000E+00
 
    0.94419E+06         0.21547E+06         0.00000E+00
    0.21547E+06        -0.12410E+07         0.00000E+00
    0.00000E+00         0.00000E+00         0.00000E+00
 
    0.93076E+06         0.24344E+06         0.00000E+00
    0.24344E+06        -0.12375E+07         0.00000E+00
    0.00000E+00         0.00000E+00         0.00000E+00
 
    0.91683E+06         0.27122E+06         0.00000E+00
    0.27122E+06        -0.12336E+07         0.00000E+00
    0.00000E+00         0.00000E+00         0.00000E+00
 
    0.90239E+06         0.29879E+06         0.00000E+00
    0.29879E+06        -0.12292E+07         0.00000E+00
    0.00000E+00         0.00000E+00         0.00000E+00
 
    0.88745E+06         0.32615E+06         0.00000E+00
    0.32615E+06        -0.12245E+07         0.00000E+00
    0.00000E+00         0.00000E+00         0.00000E+00
 
    0.87202E+06         0.35329E+06         0.00000E+00
    0.35329E+06        -0.12193E+07         0.00000E+00
    0.00000E+00         0.00000E+00         0.00000E+00
 
    0.85611E+06         0.38021E+06         0.00000E+00
    0.38021E+06        -0.12138E+07         0.00000E+00
    0.00000E+00         0.00000E+00         0.00000E+00
 
    0.83973E+06         0.40690E+06         0.00000E+00
    0.40690E+06        -0.12079E+07         0.00000E+00
    0.00000E+00         0.00000E+00         0.00000E+00
 
    0.82287E+06         0.43335E+06         0.00000E+00
    0.43335E+06        -0.12016E+07         0.00000E+00
    0.00000E+00         0.00000E+00         0.00000E+00
 
    0.80554E+06         0.45956E+06         0.00000E+00
    0.45956E+06        -0.11950E+07         0.00000E+00
    0.00000E+00         0.00000E+00         0.00000E+00
 
    0.78776E+06         0.48552E+06         0.00000E+00
    0.48552E+06        -0.11880E+07         0.00000E+00
    0.00000E+00         0.00000E+00         0.00000E+00
 
    0.76952E+06         0.51123E+06         0.00000E+00
    0.51123E+06        -0.11807E+07         0.00000E+00
    0.00000E+00         0.00000E+00         0.00000E+00
 
    0.75084E+06         0.53668E+06         0.00000E+00
    0.53668E+06        -0.11730E+07         0.00000E+00
    0.00000E+00         0.00000E+00         0.00000E+00
 
    0.73172E+06         0.56186E+06         0.00000E+00
    0.56186E+06        -0.11649E+07         0.00000E+00
    0.00000E+00         0.00000E+00         0.00000E+00
 
    0.71216E+06         0.58678E+06         0.00000E+00
    0.58678E+06        -0.11566E+07         0.00000E+00
    0.00000E+00         0.00000E+00         0.00000E+00
 
    0.69218E+06         0.61142E+06         0.00000E+00
    0.61142E+06        -0.11479E+07         0.00000E+00
    0.00000E+00         0.00000E+00         0.00000E+00
 
    0.67178E+06         0.63578E+06         0.00000E+00
    0.63578E+06        -0.11389E+07         0.00000E+00
    0.00000E+00         0.00000E+00         0.00000E+00
 
    0.65097E+06         0.65987E+06         0.00000E+00
    0.65987E+06        -0.11296E+07         0.00000E+00
    0.00000E+00         0.00000E+00         0.00000E+00
 
    0.62974E+06         0.68366E+06         0.00000E+00
    0.68366E+06        -0.11200E+07         0.00000E+00
    0.00000E+00         0.00000E+00         0.00000E+00
 
    0.60812E+06         0.70716E+06         0.00000E+00
    0.70716E+06        -0.11101E+07         0.00000E+00
    0.00000E+00         0.00000E+00         0.00000E+00
 
    0.58610E+06         0.73037E+06         0.00000E+00
    0.73037E+06        -0.10999E+07         0.00000E+00
    0.00000E+00         0.00000E+00         0.00000E+00
 
    0.56370E+06         0.75328E+06         0.00000E+00
    0.75328E+06        -0.10894E+07         0.00000E+00
    0.00000E+00         0.00000E+00         0.00000E+00
 
    0.54091E+06         0.77589E+06         0.00000E+00
    0.77589E+06        -0.10787E+07         0.00000E+00
    0.00000E+00         0.00000E+00         0.00000E+00
 
    0.51775E+06         0.79819E+06         0.00000E+00
    0.79819E+06        -0.10677E+07         0.00000E+00
    0.00000E+00         0.00000E+00         0.00000E+00
 
    0.49422E+06         0.82018E+06         0.00000E+00
    0.82018E+06        -0.10565E+07         0.00000E+00
    0.00000E+00         0.00000E+00         0.00000E+00
 
    0.47033E+06         0.84185E+06         0.00000E+00
    0.84185E+06        -0.10450E+07         0.00000E+00
    0.00000E+00         0.00000E+00         0.00000E+00
 
    0.44608E+06         0.86321E+06         0.00000E+00
    0.86321E+06        -0.10332E+07         0.00000E+00
    0.00000E+00         0.00000E+00         0.00000E+00
 
    0.42148E+06         0.88426E+06         0.00000E+00
    0.88426E+06        -0.10213E+07         0.00000E+00
    0.00000E+00         0.00000E+00         0.00000E+00
 
    0.39653E+06         0.90497E+06         0.00000E+00
    0.90497E+06        -0.10091E+07         0.00000E+00
    0.00000E+00         0.00000E+00         0.00000E+00
 
    0.37125E+06         0.92537E+06         0.00000E+00
    0.92537E+06        -0.99665E+06         0.00000E+00
    0.00000E+00         0.00000E+00         0.00000E+00
 
    0.34564E+06         0.94543E+06         0.00000E+00
    0.94543E+06        -0.98403E+06         0.00000E+00
    0.00000E+00         0.00000E+00         0.00000E+00
 
    0.31970E+06         0.96517E+06         0.00000E+00
    0.96517E+06        -0.97120E+06         0.00000E+00
    0.00000E+00         0.00000E+00         0.00000E+00
 
    0.29345E+06         0.98457E+06         0.00000E+00
    0.98457E+06        -0.95818E+06         0.00000E+00
    0.00000E+00         0.00000E+00         0.00000E+00
 
    0.26688E+06         0.10036E+07         0.00000E+00
    0.10036E+07        -0.94497E+06         0.00000E+00
    0.00000E+00         0.00000E+00         0.00000E+00
 
    0.24000E+06         0.10224E+07         0.00000E+00
    0.10224E+07        -0.93158E+06         0.00000E+00
    0.00000E+00         0.00000E+00         0.00000E+00
 
    0.21282E+06         0.10407E+07         0.00000E+00
    0.10407E+07        -0.91802E+06         0.00000E+00
    0.00000E+00         0.00000E+00         0.00000E+00
 
    0.18535E+06         0.10588E+07         0.00000E+00
    0.10588E+07        -0.90429E+06         0.00000E+00
    0.00000E+00         0.00000E+00         0.00000E+00
 
    0.15758E+06         0.10765E+07         0.00000E+00
    0.10765E+07        -0.89040E+06         0.00000E+00
    0.00000E+00         0.00000E+00         0.00000E+00
 
    0.12954E+06         0.10938E+07         0.00000E+00
    0.10938E+07        -0.87636E+06         0.00000E+00
    0.00000E+00         0.00000E+00         0.00000E+00
 
    0.10121E+06         0.11108E+07         0.00000E+00
    0.11108E+07        -0.86217E+06         0.00000E+00
    0.00000E+00         0.00000E+00         0.00000E+00
 
    0.72614E+05         0.11275E+07         0.00000E+00
    0.11275E+07        -0.84785E+06         0.00000E+00
    0.00000E+00         0.00000E+00         0.00000E+00
 
    0.43750E+05         0.11438E+07         0.00000E+00
    0.11438E+07        -0.83340E+06         0.00000E+00
    0.00000E+00         0.00000E+00         0.00000E+00
 
    0.14626E+05         0.11597E+07         0.00000E+00
    0.11597E+07        -0.81882E+06         0.00000E+00
    0.00000E+00         0.00000E+00         0.00000E+00
 
    0.10914E+07         0.15751E+05         0.00000E+00
    0.15751E+05        -0.13366E+07         0.00000E+00
    0.00000E+00         0.00000E+00         0.00000E+00
 
    0.10810E+07         0.46853E+05         0.00000E+00
    0.46853E+05        -0.13361E+07         0.00000E+00
    0.00000E+00         0.00000E+00         0.00000E+00
 
    0.10700E+07         0.77797E+05         0.00000E+00
    0.77797E+05        -0.13351E+07         0.00000E+00
    0.00000E+00         0.00000E+00         0.00000E+00
 
    0.10584E+07         0.10857E+06         0.00000E+00
    0.10857E+06        -0.13336E+07         0.00000E+00
    0.00000E+00         0.00000E+00         0.00000E+00
 
    0.10462E+07         0.13918E+06         0.00000E+00
    0.13918E+06        -0.13317E+07         0.00000E+00
    0.00000E+00         0.00000E+00         0.00000E+00
 
    0.10335E+07         0.16960E+06         0.00000E+00
    0.16960E+06        -0.13293E+07         0.00000E+00
    0.00000E+00         0.00000E+00         0.00000E+00
 
    0.10202E+07         0.19982E+06         0.00000E+00
    0.19982E+06        -0.13264E+07         0.00000E+00
    0.00000E+00         0.00000E+00         0.00000E+00
 
    0.10063E+07         0.22985E+06         0.00000E+00
    0.22985E+06        -0.13231E+07         0.00000E+00
    0.00000E+00         0.00000E+00         0.00000E+00
 
    0.99192E+06         0.25967E+06         0.00000E+00
    0.25967E+06        -0.13193E+07         0.00000E+00
    0.00000E+00         0.00000E+00         0.00000E+00
 
    0.97698E+06         0.28927E+06         0.00000E+00
    0.28927E+06        -0.13151E+07         0.00000E+00
    0.00000E+00         0.00000E+00         0.00000E+00
 
    0.96151E+06         0.31865E+06         0.00000E+00
    0.31865E+06        -0.13105E+07         0.00000E+00
    0.00000E+00         0.00000E+00         0.00000E+00
 
    0.94551E+06         0.34781E+06         0.00000E+00
    0.34781E+06        -0.13054E+07         0.00000E+00
    0.00000E+00         0.00000E+00         0.00000E+00
 
    0.92899E+06         0.37672E+06         0.00000E+00
    0.37672E+06        -0.13000E+07         0.00000E+00
    0.00000E+00         0.00000E+00         0.00000E+00
 
    0.91195E+06         0.40540E+06         0.00000E+00
    0.40540E+06        -0.12941E+07         0.00000E+00
    0.00000E+00         0.00000E+00         0.00000E+00
 
    0.89441E+06         0.43382E+06         0.00000E+00
    0.43382E+06        -0.12878E+07         0.00000E+00
    0.00000E+00         0.00000E+00         0.00000E+00
 
    0.87637E+06         0.46199E+06         0.00000E+00
    0.46199E+06        -0.12811E+07         0.00000E+00
    0.00000E+00         0.00000E+00         0.00000E+00
 
    0.85783E+06         0.48989E+06         0.00000E+00
    0.48989E+06        -0.12740E+07         0.00000E+00
    0.00000E+00         0.00000E+00         0.00000E+00
 
    0.83882E+06         0.51753E+06         0.00000E+00
    0.51753E+06        -0.12666E+07         0.00000E+00
    0.00000E+00         0.00000E+00         0.00000E+00
 
    0.81932E+06         0.54490E+06         0.00000E+00
    0.54490E+06        -0.12587E+07         0.00000E+00
    0.00000E+00         0.00000E+00         0.00000E+00
 
    0.79935E+06         0.57199E+06         0.00000E+00
    0.57199E+06        -0.12505E+07         0.00000E+00
    0.00000E+00         0.00000E+00         0.00000E+00
 
    0.77892E+06         0.59879E+06         0.00000E+00
    0.59879E+06        -0.12420E+07         0.00000E+00
    0.00000E+00         0.00000E+00         0.00000E+00
 
    0.75804E+06         0.62531E+06         0.00000E+00
    0.62531E+06        -0.12331E+07         0.00000E+00
    0.00000E+00         0.00000E+00         0.00000E+00
 
    0.73670E+06         0.65153E+06         0.00000E+00
    0.65153E+06        -0.12238E+07         0.00000E+00
    0.00000E+00         0.00000E+00         0.00000E+00
 
    0.71492E+06         0.67745E+06         0.00000E+00
    0.67745E+06        -0.12142E+07         0.00000E+00
    0.00000E+00         0.00000E+00         0.00000E+00
 
    0.69271E+06         0.70307E+06         0.00000E+00
    0.70307E+06        -0.12043E+07         0.00000E+00
    0.00000E+00         0.00000E+00         0.00000E+00
 
    0.67006E+06         0.72838E+06         0.00000E+00
    0.72838E+06        -0.11941E+07         0.00000E+00
    0.00000E+00         0.00000E+00         0.00000E+00
 
    0.64700E+06         0.75339E+06         0.00000E+00
    0.75339E+06        -0.11836E+07         0.00000E+00
    0.00000E+00         0.00000E+00         0.00000E+00
 
    0.62352E+06         0.77807E+06         0.00000E+00
    0.77807E+06        -0.11728E+07         0.00000E+00
    0.00000E+00         0.00000E+00         0.00000E+00
 
    0.59963E+06         0.80244E+06         0.00000E+00
    0.80244E+06        -0.11616E+07         0.00000E+00
    0.00000E+00         0.00000E+00         0.00000E+00
 
    0.57534E+06         0.82648E+06         0.00000E+00
    0.82648E+06        -0.11502E+07         0.00000E+00
    0.00000E+00         0.00000E+00         0.00000E+00
 
    0.55066E+06         0.85020E+06         0.00000E+00
    0.85020E+06        -0.11385E+07         0.00000E+00
    0.00000E+00         0.00000E+00         0.00000E+00
 
    0.52559E+06         0.87359E+06         0.00000E+00
    0.87359E+06        -0.11266E+07         0.00000E+00
    0.00000E+00         0.00000E+00         0.00000E+00
 
    0.50014E+06         0.89664E+06         0.00000E+00
    0.89664E+06        -0.11144E+07         0.00000E+00
    0.00000E+00         0.00000E+00         0.00000E+00
 
    0.47432E+06         0.91936E+06         0.00000E+00
    0.91936E+06        -0.11019E+07         0.00000E+00
    0.00000E+00         0.00000E+00         0.00000E+00
 
    0.44813E+06         0.94174E+06         0.00000E+00
    0.94174E+06        -0.10892E+07         0.00000E+00
    0.00000E+00         0.00000E+00         0.00000E+00
 
    0.42157E+06         0.96378E+06         0.00000E+00
    0.96378E+06        -0.10762E+07         0.00000E+00
    0.00000E+00         0.00000E+00         0.00000E+00
 
    0.39467E+06         0.98547E+06         0.00000E+00
    0.98547E+06        -0.10630E+07         0.00000E+00
    0.00000E+00         0.00000E+00         0.00000E+00
 
    0.36742E+06         0.10068E+07         0.00000E+00
    0.10068E+07        -0.10496E+07         0.00000E+00
    0.00000E+00         0.00000E+00         0.00000E+00
 
    0.33982E+06         0.10278E+07         0.00000E+00
    0.10278E+07        -0.10360E+07         0.00000E+00
    0.00000E+00         0.00000E+00         0.00000E+00
 
    0.31189E+06         0.10484E+07         0.00000E+00
    0.10484E+07        -0.10221E+07         0.00000E+00
    0.00000E+00         0.00000E+00         0.00000E+00
 
    0.28363E+06         0.10687E+07         0.00000E+00
    0.10687E+07        -0.10081E+07         0.00000E+00
    0.00000E+00         0.00000E+00         0.00000E+00
 
    0.25505E+06         0.10887E+07         0.00000E+00
    0.10887E+07        -0.99389E+06         0.00000E+00
    0.00000E+00         0.00000E+00         0.00000E+00
 
    0.22616E+06         0.11082E+07         0.00000E+00
    0.11082E+07        -0.97949E+06         0.00000E+00
    0.00000E+00         0.00000E+00         0.00000E+00
 
    0.19695E+06         0.11274E+07         0.00000E+00
    0.11274E+07        -0.96491E+06         0.00000E+00
    0.00000E+00         0.00000E+00         0.00000E+00
 
    0.16744E+06         0.11463E+07         0.00000E+00
    0.11463E+07        -0.95015E+06         0.00000E+00
    0.00000E+00         0.00000E+00         0.00000E+00
 
    0.13763E+06         0.11648E+07         0.00000E+00
    0.11648E+07        -0.93524E+06         0.00000E+00
    0.00000E+00         0.00000E+00         0.00000E+00
 
    0.10753E+06         0.11829E+07         0.00000E+00
    0.11829E+07        -0.92017E+06         0.00000E+00
    0.00000E+00         0.00000E+00         0.00000E+00
 
    0.77145E+05         0.12006E+07         0.00000E+00
    0.12006E+07        -0.90496E+06         0.00000E+00
    0.00000E+00         0.00000E+00         0.00000E+00
 
    0.46479E+05         0.12180E+07         0.00000E+00
    0.12180E+07        -0.88961E+06         0.00000E+00
    0.00000E+00         0.00000E+00         0.00000E+00
 
    0.15538E+05         0.12350E+07         0.00000E+00
    0.12350E+07        -0.87413E+06         0.00000E+00
    0.00000E+00         0.00000E+00         0.00000E+00
 
    0.11640E+07         0.16819E+05         0.00000E+00
    0.16819E+05        -0.14250E+07         0.00000E+00
    0.00000E+00         0.00000E+00         0.00000E+00
 
    0.11528E+07         0.50014E+05         0.00000E+00
    0.50014E+05        -0.14245E+07         0.00000E+00
    0.00000E+00         0.00000E+00         0.00000E+00
 
    0.11410E+07         0.83034E+05         0.00000E+00
    0.83034E+05        -0.14235E+07         0.00000E+00
    0.00000E+00         0.00000E+00         0.00000E+00
 
    0.11285E+07         0.11587E+06         0.00000E+00
    0.11587E+06        -0.14219E+07         0.00000E+00
    0.00000E+00         0.00000E+00         0.00000E+00
 
    0.11154E+07         0.14851E+06         0.00000E+00
    0.14851E+06        -0.14198E+07         0.00000E+00
    0.00000E+00         0.00000E+00         0.00000E+00
 
    0.11017E+07         0.18095E+06         0.00000E+00
    0.18095E+06        -0.14173E+07         0.00000E+00
    0.00000E+00         0.00000E+00         0.00000E+00
 
    0.10874E+07         0.21319E+06         0.00000E+00
    0.21319E+06        -0.14142E+07         0.00000E+00
    0.00000E+00         0.00000E+00         0.00000E+00
 
    0.10725E+07         0.24520E+06         0.00000E+00
    0.24520E+06        -0.14107E+07         0.00000E+00
    0.00000E+00         0.00000E+00         0.00000E+00
 
    0.10571E+07         0.27698E+06         0.00000E+00
    0.27698E+06        -0.14066E+07         0.00000E+00
    0.00000E+00         0.00000E+00         0.00000E+00
 
    0.10410E+07         0.30853E+06         0.00000E+00
    0.30853E+06        -0.14021E+07         0.00000E+00
    0.00000E+00         0.00000E+00         0.00000E+00
 
    0.10244E+07         0.33984E+06         0.00000E+00
    0.33984E+06        -0.13972E+07         0.00000E+00
    0.00000E+00         0.00000E+00         0.00000E+00
 
    0.10073E+07         0.37090E+06         0.00000E+00
    0.37090E+06        -0.13918E+07         0.00000E+00
    0.00000E+00         0.00000E+00         0.00000E+00
 
    0.98956E+06         0.40170E+06         0.00000E+00
    0.40170E+06        -0.13860E+07         0.00000E+00
    0.00000E+00         0.00000E+00         0.00000E+00
 
    0.97131E+06         0.43224E+06         0.00000E+00
    0.43224E+06        -0.13797E+07         0.00000E+00
    0.00000E+00         0.00000E+00         0.00000E+00
 
    0.95252E+06         0.46250E+06         0.00000E+00
    0.46250E+06        -0.13730E+07         0.00000E+00
    0.00000E+00         0.00000E+00         0.00000E+00
 
    0.93320E+06         0.49249E+06         0.00000E+00
    0.49249E+06        -0.13658E+07         0.00000E+00
    0.00000E+00         0.00000E+00         0.00000E+00
 
    0.91336E+06         0.52220E+06         0.00000E+00
    0.52220E+06        -0.13583E+07         0.00000E+00
    0.00000E+00         0.00000E+00         0.00000E+00
 
    0.89301E+06         0.55162E+06         0.00000E+00
    0.55162E+06        -0.13503E+07         0.00000E+00
    0.00000E+00         0.00000E+00         0.00000E+00
 
    0.87216E+06         0.58074E+06         0.00000E+00
    0.58074E+06        -0.13420E+07         0.00000E+00
    0.00000E+00         0.00000E+00         0.00000E+00
 
    0.85081E+06         0.60957E+06         0.00000E+00
    0.60957E+06        -0.13333E+07         0.00000E+00
    0.00000E+00         0.00000E+00         0.00000E+00
 
    0.82898E+06         0.63808E+06         0.00000E+00
    0.63808E+06        -0.13242E+07         0.00000E+00
    0.00000E+00         0.00000E+00         0.00000E+00
 
    0.80666E+06         0.66629E+06         0.00000E+00
    0.66629E+06        -0.13147E+07         0.00000E+00
    0.00000E+00         0.00000E+00         0.00000E+00
 
    0.78387E+06         0.69419E+06         0.00000E+00
    0.69419E+06        -0.13048E+07         0.00000E+00
    0.00000E+00         0.00000E+00         0.00000E+00
 
    0.76061E+06         0.72176E+06         0.00000E+00
    0.72176E+06        -0.12947E+07         0.00000E+00
    0.00000E+00         0.00000E+00         0.00000E+00
 
    0.73690E+06         0.74901E+06         0.00000E+00
    0.74901E+06        -0.12841E+07         0.00000E+00
    0.00000E+00         0.00000E+00         0.00000E+00
 
    0.71274E+06         0.77593E+06         0.00000E+00
    0.77593E+06        -0.12732E+07         0.00000E+00
    0.00000E+00         0.00000E+00         0.00000E+00
 
    0.68813E+06         0.80251E+06         0.00000E+00
    0.80251E+06        -0.12621E+07         0.00000E+00
    0.00000E+00         0.00000E+00         0.00000E+00
 
    0.66309E+06         0.82876E+06         0.00000E+00
    0.82876E+06        -0.12505E+07         0.00000E+00
    0.00000E+00         0.00000E+00         0.00000E+00
 
    0.63762E+06         0.85467E+06         0.00000E+00
    0.85467E+06        -0.12387E+07         0.00000E+00
    0.00000E+00         0.00000E+00         0.00000E+00
 
    0.61174E+06         0.88024E+06         0.00000E+00
    0.88024E+06        -0.12266E+07         0.00000E+00
    0.00000E+00         0.00000E+00         0.00000E+00
 
    0.58544E+06         0.90546E+06         0.00000E+00
    0.90546E+06        -0.12142E+07         0.00000E+00
    0.00000E+00         0.00000E+00         0.00000E+00
 
    0.55873E+06         0.93033E+06         0.00000E+00
    0.93033E+06        -0.12015E+07         0.00000E+00
    0.00000E+00         0.00000E+00         0.00000E+00
 
    0.53163E+06         0.95484E+06         0.00000E+00
    0.95484E+06        -0.11885E+07         0.00000E+00
    0.00000E+00         0.00000E+00         0.00000E+00
 
    0.50413E+06         0.97899E+06         0.00000E+00
    0.97899E+06        -0.11752E+07         0.00000E+00
    0.00000E+00         0.00000E+00         0.00000E+00
 
    0.47625E+06         0.10028E+07         0.00000E+00
    0.10028E+07        -0.11617E+07         0.00000E+00
    0.00000E+00         0.00000E+00         0.00000E+00
 
    0.44800E+06         0.10262E+07         0.00000E+00
    0.10262E+07        -0.11480E+07         0.00000E+00
    0.00000E+00         0.00000E+00         0.00000E+00
 
    0.41937E+06         0.10493E+07         0.00000E+00
    0.10493E+07        -0.11340E+07         0.00000E+00
    0.00000E+00         0.00000E+00         0.00000E+00
 
    0.39038E+06         0.10720E+07         0.00000E+00
    0.10720E+07        -0.11197E+07         0.00000E+00
    0.00000E+00         0.00000E+00         0.00000E+00
 
    0.36103E+06         0.10943E+07         0.00000E+00
    0.10943E+07        -0.11053E+07         0.00000E+00
    0.00000E+00         0.00000E+00         0.00000E+00
 
    0.33134E+06         0.11163E+07         0.00000E+00
    0.11163E+07        -0.10906E+07         0.00000E+00
    0.00000E+00         0.00000E+00         0.00000E+00
 
    0.30130E+06         0.11379E+07         0.00000E+00
    0.11379E+07        -0.10757E+07         0.00000E+00
    0.00000E+00         0.00000E+00         0.00000E+00
 
    0.27092E+06         0.11591E+07         0.00000E+00
    0.11591E+07        -0.10606E+07         0.00000E+00
    0.00000E+00         0.00000E+00         0.00000E+00
 
    0.24021E+06         0.11799E+07         0.00000E+00
    0.11799E+07        -0.10453E+07         0.00000E+00
    0.00000E+00         0.00000E+00         0.00000E+00
 
    0.20917E+06         0.12003E+07         0.00000E+00
    0.12003E+07        -0.10298E+07         0.00000E+00
    0.00000E+00         0.00000E+00         0.00000E+00
 
    0.17782E+06         0.12204E+07         0.00000E+00
    0.12204E+07        -0.10142E+07         0.00000E+00
    0.00000E+00         0.00000E+00         0.00000E+00
 
    0.14616E+06         0.12400E+07         0.00000E+00
    0.12400E+07        -0.99833E+06         0.00000E+00
    0.00000E+00         0.00000E+00         0.00000E+00
 
    0.11419E+06         0.12593E+07         0.00000E+00
    0.12593E+07        -0.98233E+06         0.00000E+00
    0.00000E+00         0.00000E+00         0.00000E+00
 
    0.81915E+05         0.12782E+07         0.00000E+00
    0.12782E+07        -0.96618E+06         0.00000E+00
    0.00000E+00         0.00000E+00         0.00000E+00
 
    0.49351E+05         0.12967E+07         0.00000E+00
    0.12967E+07        -0.94989E+06         0.00000E+00
    0.00000E+00         0.00000E+00         0.00000E+00
 
    0.16498E+05         0.13148E+07         0.00000E+00
    0.13148E+07        -0.93345E+06         0.00000E+00
    0.00000E+00         0.00000E+00         0.00000E+00
 
    0.12416E+07         0.17963E+05         0.00000E+00
    0.17963E+05        -0.15194E+07         0.00000E+00
    0.00000E+00         0.00000E+00         0.00000E+00
 
    0.12295E+07         0.53395E+05         0.00000E+00
    0.53395E+05        -0.15188E+07         0.00000E+00
    0.00000E+00         0.00000E+00         0.00000E+00
 
    0.12167E+07         0.88632E+05         0.00000E+00
    0.88632E+05        -0.15177E+07         0.00000E+00
    0.00000E+00         0.00000E+00         0.00000E+00
 
    0.12033E+07         0.12367E+06         0.00000E+00
    0.12367E+06        -0.15160E+07         0.00000E+00
    0.00000E+00         0.00000E+00         0.00000E+00
 
    0.11892E+07         0.15849E+06         0.00000E+00
    0.15849E+06        -0.15138E+07         0.00000E+00
    0.00000E+00         0.00000E+00         0.00000E+00
 
    0.11744E+07         0.19308E+06         0.00000E+00
    0.19308E+06        -0.15111E+07         0.00000E+00
    0.00000E+00         0.00000E+00         0.00000E+00
 
    0.11591E+07         0.22745E+06         0.00000E+00
    0.22745E+06        -0.15078E+07         0.00000E+00
    0.00000E+00         0.00000E+00         0.00000E+00
 
    0.11431E+07         0.26158E+06         0.00000E+00
    0.26158E+06        -0.15040E+07         0.00000E+00
    0.00000E+00         0.00000E+00         0.00000E+00
 
    0.11264E+07         0.29545E+06         0.00000E+00
    0.29545E+06        -0.14997E+07         0.00000E+00
    0.00000E+00         0.00000E+00         0.00000E+00
 
    0.11092E+07         0.32907E+06         0.00000E+00
    0.32907E+06        -0.14950E+07         0.00000E+00
    0.00000E+00         0.00000E+00         0.00000E+00
 
    0.10914E+07         0.36243E+06         0.00000E+00
    0.36243E+06        -0.14897E+07         0.00000E+00
    0.00000E+00         0.00000E+00         0.00000E+00
 
    0.10729E+07         0.39551E+06         0.00000E+00
    0.39551E+06        -0.14839E+07         0.00000E+00
    0.00000E+00         0.00000E+00         0.00000E+00
 
    0.10539E+07         0.42831E+06         0.00000E+00
    0.42831E+06        -0.14777E+07         0.00000E+00
    0.00000E+00         0.00000E+00         0.00000E+00
 
    0.10344E+07         0.46082E+06         0.00000E+00
    0.46082E+06        -0.14710E+07         0.00000E+00
    0.00000E+00         0.00000E+00         0.00000E+00
 
    0.10142E+07         0.49305E+06         0.00000E+00
    0.49305E+06        -0.14638E+07         0.00000E+00
    0.00000E+00         0.00000E+00         0.00000E+00
 
    0.99352E+06         0.52497E+06         0.00000E+00
    0.52497E+06        -0.14562E+07         0.00000E+00
    0.00000E+00         0.00000E+00         0.00000E+00
 
    0.97228E+06         0.55658E+06         0.00000E+00
    0.55658E+06        -0.14482E+07         0.00000E+00
    0.00000E+00         0.00000E+00         0.00000E+00
 
    0.95049E+06         0.58788E+06         0.00000E+00
    0.58788E+06        -0.14397E+07         0.00000E+00
    0.00000E+00         0.00000E+00         0.00000E+00
 
    0.92817E+06         0.61887E+06         0.00000E+00
    0.61887E+06        -0.14308E+07         0.00000E+00
    0.00000E+00         0.00000E+00         0.00000E+00
 
    0.90534E+06         0.64953E+06         0.00000E+00
    0.64953E+06        -0.14216E+07         0.00000E+00
    0.00000E+00         0.00000E+00         0.00000E+00
 
    0.88199E+06         0.67986E+06         0.00000E+00
    0.67986E+06        -0.14119E+07         0.00000E+00
    0.00000E+00         0.00000E+00         0.00000E+00
 
    0.85813E+06         0.70986E+06         0.00000E+00
    0.70986E+06        -0.14018E+07         0.00000E+00
    0.00000E+00         0.00000E+00         0.00000E+00
 
    0.83378E+06         0.73952E+06         0.00000E+00
    0.73952E+06        -0.13913E+07         0.00000E+00
    0.00000E+00         0.00000E+00         0.00000E+00
 
    0.80895E+06         0.76884E+06         0.00000E+00
    0.76884E+06        -0.13805E+07         0.00000E+00
    0.00000E+00         0.00000E+00         0.00000E+00
 
    0.78363E+06         0.79781E+06         0.00000E+00
    0.79781E+06        -0.13693E+07         0.00000E+00
    0.00000E+00         0.00000E+00         0.00000E+00
 
    0.75784E+06         0.82643E+06         0.00000E+00
    0.82643E+06        -0.13577E+07         0.00000E+00
    0.00000E+00         0.00000E+00         0.00000E+00
 
    0.73159E+06         0.85469E+06         0.00000E+00
    0.85469E+06        -0.13458E+07         0.00000E+00
    0.00000E+00         0.00000E+00         0.00000E+00
 
    0.70489E+06         0.88259E+06         0.00000E+00
    0.88259E+06        -0.13336E+07         0.00000E+00
    0.00000E+00         0.00000E+00         0.00000E+00
 
    0.67774E+06         0.91013E+06         0.00000E+00
    0.91013E+06        -0.13210E+07         0.00000E+00
    0.00000E+00         0.00000E+00         0.00000E+00
 
    0.65015E+06         0.93731E+06         0.00000E+00
    0.93731E+06        -0.13082E+07         0.00000E+00
    0.00000E+00         0.00000E+00         0.00000E+00
 
    0.62213E+06         0.96411E+06         0.00000E+00
    0.96411E+06        -0.12950E+07         0.00000E+00
    0.00000E+00         0.00000E+00         0.00000E+00
 
    0.59368E+06         0.99054E+06         0.00000E+00
    0.99054E+06        -0.12815E+07         0.00000E+00
    0.00000E+00         0.00000E+00         0.00000E+00
 
    0.56483E+06         0.10166E+07         0.00000E+00
    0.10166E+07        -0.12677E+07         0.00000E+00
    0.00000E+00         0.00000E+00         0.00000E+00
 
    0.53556E+06         0.10423E+07         0.00000E+00
    0.10423E+07        -0.12537E+07         0.00000E+00
    0.00000E+00         0.00000E+00         0.00000E+00
 
    0.50589E+06         0.10676E+07         0.00000E+00
    0.10676E+07        -0.12393E+07         0.00000E+00
    0.00000E+00         0.00000E+00         0.00000E+00
 
    0.47583E+06         0.10925E+07         0.00000E+00
    0.10925E+07        -0.12247E+07         0.00000E+00
    0.00000E+00         0.00000E+00         0.00000E+00
 
    0.44538E+06         0.11170E+07         0.00000E+00
    0.11170E+07        -0.12099E+07         0.00000E+00
    0.00000E+00         0.00000E+00         0.00000E+00
 
    0.41456E+06         0.11411E+07         0.00000E+00
    0.11411E+07        -0.11948E+07         0.00000E+00
    0.00000E+00         0.00000E+00         0.00000E+00
 
    0.38336E+06         0.11649E+07         0.00000E+00
    0.11649E+07        -0.11794E+07         0.00000E+00
    0.00000E+00         0.00000E+00         0.00000E+00
 
    0.35180E+06         0.11882E+07         0.00000E+00
    0.11882E+07        -0.11638E+07         0.00000E+00
    0.00000E+00         0.00000E+00         0.00000E+00
 
    0.31987E+06         0.12112E+07         0.00000E+00
    0.12112E+07        -0.11480E+07         0.00000E+00
    0.00000E+00         0.00000E+00         0.00000E+00
 
    0.28760E+06         0.12337E+07         0.00000E+00
    0.12337E+07        -0.11320E+07         0.00000E+00
    0.00000E+00         0.00000E+00         0.00000E+00
 
    0.25498E+06         0.12559E+07         0.00000E+00
    0.12559E+07        -0.11158E+07         0.00000E+00
    0.00000E+00         0.00000E+00         0.00000E+00
 
    0.22202E+06         0.12776E+07         0.00000E+00
    0.12776E+07        -0.10994E+07         0.00000E+00
    0.00000E+00         0.00000E+00         0.00000E+00
 
    0.18873E+06         0.12990E+07         0.00000E+00
    0.12990E+07        -0.10828E+07         0.00000E+00
    0.00000E+00         0.00000E+00         0.00000E+00
 
    0.15511E+06         0.13199E+07         0.00000E+00
    0.13199E+07        -0.10660E+07         0.00000E+00
    0.00000E+00         0.00000E+00         0.00000E+00
 
    0.12118E+06         0.13405E+07         0.00000E+00
    0.13405E+07        -0.10490E+07         0.00000E+00
    0.00000E+00         0.00000E+00         0.00000E+00
 
    0.86926E+05         0.13606E+07         0.00000E+00
    0.13606E+07        -0.10319E+07         0.00000E+00
    0.00000E+00         0.00000E+00         0.00000E+00
 
    0.52366E+05         0.13803E+07         0.00000E+00
    0.13803E+07        -0.10146E+07         0.00000E+00
    0.00000E+00         0.00000E+00         0.00000E+00
 
    0.17505E+05         0.13996E+07         0.00000E+00
    0.13996E+07        -0.99718E+06         0.00000E+00
    0.00000E+00         0.00000E+00         0.00000E+00
 
    0.13245E+07         0.19188E+05         0.00000E+00
    0.19188E+05        -0.16201E+07         0.00000E+00
    0.00000E+00         0.00000E+00         0.00000E+00
 
    0.13114E+07         0.57010E+05         0.00000E+00
    0.57010E+05        -0.16195E+07         0.00000E+00
    0.00000E+00         0.00000E+00         0.00000E+00
 
    0.12976E+07         0.94615E+05         0.00000E+00
    0.94615E+05        -0.16183E+07         0.00000E+00
    0.00000E+00         0.00000E+00         0.00000E+00
 
    0.12831E+07         0.13199E+06         0.00000E+00
    0.13199E+06        -0.16165E+07         0.00000E+00
    0.00000E+00         0.00000E+00         0.00000E+00
 
    0.12679E+07         0.16914E+06         0.00000E+00
    0.16914E+06        -0.16141E+07         0.00000E+00
    0.00000E+00         0.00000E+00         0.00000E+00
 
    0.12520E+07         0.20603E+06         0.00000E+00
    0.20603E+06        -0.16112E+07         0.00000E+00
    0.00000E+00         0.00000E+00         0.00000E+00
 
    0.12354E+07         0.24267E+06         0.00000E+00
    0.24267E+06        -0.16077E+07         0.00000E+00
    0.00000E+00         0.00000E+00         0.00000E+00
 
    0.12181E+07         0.27904E+06         0.00000E+00
    0.27904E+06        -0.16037E+07         0.00000E+00
    0.00000E+00         0.00000E+00         0.00000E+00
 
    0.12002E+07         0.31514E+06         0.00000E+00
    0.31514E+06        -0.15991E+07         0.00000E+00
    0.00000E+00         0.00000E+00         0.00000E+00
 
    0.11817E+07         0.35096E+06         0.00000E+00
    0.35096E+06        -0.15940E+07         0.00000E+00
    0.00000E+00         0.00000E+00         0.00000E+00
 
    0.11625E+07         0.38649E+06         0.00000E+00
    0.38649E+06        -0.15883E+07         0.00000E+00
    0.00000E+00         0.00000E+00         0.00000E+00
 
    0.11427E+07         0.42171E+06         0.00000E+00
    0.42171E+06        -0.15822E+07         0.00000E+00
    0.00000E+00         0.00000E+00         0.00000E+00
 
    0.11223E+07         0.45664E+06         0.00000E+00
    0.45664E+06        -0.15755E+07         0.00000E+00
    0.00000E+00         0.00000E+00         0.00000E+00
 
    0.11013E+07         0.49125E+06         0.00000E+00
    0.49125E+06        -0.15684E+07         0.00000E+00
    0.00000E+00         0.00000E+00         0.00000E+00
 
    0.10797E+07         0.52554E+06         0.00000E+00
    0.52554E+06        -0.15608E+07         0.00000E+00
    0.00000E+00         0.00000E+00         0.00000E+00
 
    0.10575E+07         0.55951E+06         0.00000E+00
    0.55951E+06        -0.15527E+07         0.00000E+00
    0.00000E+00         0.00000E+00         0.00000E+00
 
    0.10347E+07         0.59314E+06         0.00000E+00
    0.59314E+06        -0.15441E+07         0.00000E+00
    0.00000E+00         0.00000E+00         0.00000E+00
 
    0.10114E+07         0.62644E+06         0.00000E+00
    0.62644E+06        -0.15351E+07         0.00000E+00
    0.00000E+00         0.00000E+00         0.00000E+00
 
    0.98747E+06         0.65939E+06         0.00000E+00
    0.65939E+06        -0.15257E+07         0.00000E+00
    0.00000E+00         0.00000E+00         0.00000E+00
 
    0.96303E+06         0.69199E+06         0.00000E+00
    0.69199E+06        -0.15158E+07         0.00000E+00
    0.00000E+00         0.00000E+00         0.00000E+00
 
    0.93805E+06         0.72424E+06         0.00000E+00
    0.72424E+06        -0.15055E+07         0.00000E+00
    0.00000E+00         0.00000E+00         0.00000E+00
 
    0.91255E+06         0.75613E+06         0.00000E+00
    0.75613E+06        -0.14948E+07         0.00000E+00
    0.00000E+00         0.00000E+00         0.00000E+00
 
    0.88653E+06         0.78766E+06         0.00000E+00
    0.78766E+06        -0.14837E+07         0.00000E+00
    0.00000E+00         0.00000E+00         0.00000E+00
 
    0.86000E+06         0.81882E+06         0.00000E+00
    0.81882E+06        -0.14722E+07         0.00000E+00
    0.00000E+00         0.00000E+00         0.00000E+00
 
    0.83296E+06         0.84961E+06         0.00000E+00
    0.84961E+06        -0.14603E+07         0.00000E+00
    0.00000E+00         0.00000E+00         0.00000E+00
 
    0.80544E+06         0.88002E+06         0.00000E+00
    0.88002E+06        -0.14480E+07         0.00000E+00
    0.00000E+00         0.00000E+00         0.00000E+00
 
    0.77744E+06         0.91005E+06         0.00000E+00
    0.91005E+06        -0.14354E+07         0.00000E+00
    0.00000E+00         0.00000E+00         0.00000E+00
 
    0.74896E+06         0.93970E+06         0.00000E+00
    0.93970E+06        -0.14224E+07         0.00000E+00
    0.00000E+00         0.00000E+00         0.00000E+00
 
    0.72002E+06         0.96896E+06         0.00000E+00
    0.96896E+06        -0.14091E+07         0.00000E+00
    0.00000E+00         0.00000E+00         0.00000E+00
 
    0.69062E+06         0.99783E+06         0.00000E+00
    0.99783E+06        -0.13954E+07         0.00000E+00
    0.00000E+00         0.00000E+00         0.00000E+00
 
    0.66077E+06         0.10263E+07         0.00000E+00
    0.10263E+07        -0.13814E+07         0.00000E+00
    0.00000E+00         0.00000E+00         0.00000E+00
 
    0.63048E+06         0.10544E+07         0.00000E+00
    0.10544E+07        -0.13671E+07         0.00000E+00
    0.00000E+00         0.00000E+00         0.00000E+00
 
    0.59976E+06         0.10821E+07         0.00000E+00
    0.10821E+07        -0.13525E+07         0.00000E+00
    0.00000E+00         0.00000E+00         0.00000E+00
 
    0.56862E+06         0.11094E+07         0.00000E+00
    0.11094E+07        -0.13376E+07         0.00000E+00
    0.00000E+00         0.00000E+00         0.00000E+00
 
    0.53706E+06         0.11362E+07         0.00000E+00
    0.11362E+07        -0.13224E+07         0.00000E+00
    0.00000E+00         0.00000E+00         0.00000E+00
 
    0.50509E+06         0.11627E+07         0.00000E+00
    0.11627E+07        -0.13069E+07         0.00000E+00
    0.00000E+00         0.00000E+00         0.00000E+00
 
    0.47272E+06         0.11888E+07         0.00000E+00
    0.11888E+07        -0.12912E+07         0.00000E+00
    0.00000E+00         0.00000E+00         0.00000E+00
 
    0.43996E+06         0.12144E+07         0.00000E+00
    0.12144E+07        -0.12752E+07         0.00000E+00
    0.00000E+00         0.00000E+00         0.00000E+00
 
    0.40681E+06         0.12397E+07         0.00000E+00
    0.12397E+07        -0.12589E+07         0.00000E+00
    0.00000E+00         0.00000E+00         0.00000E+00
 
    0.37328E+06         0.12645E+07         0.00000E+00
    0.12645E+07        -0.12424E+07         0.00000E+00
    0.00000E+00         0.00000E+00         0.00000E+00
 
    0.33937E+06         0.12889E+07         0.00000E+00
    0.12889E+07        -0.12257E+07         0.00000E+00
    0.00000E+00         0.00000E+00         0.00000E+00
 
    0.30511E+06         0.13129E+07         0.00000E+00
    0.13129E+07        -0.12087E+07         0.00000E+00
    0.00000E+00         0.00000E+00         0.00000E+00
 
    0.27048E+06         0.13364E+07         0.00000E+00
    0.13364E+07        -0.11915E+07         0.00000E+00
    0.00000E+00         0.00000E+00         0.00000E+00
 
    0.23550E+06         0.13596E+07         0.00000E+00
    0.13596E+07        -0.11741E+07         0.00000E+00
    0.00000E+00         0.00000E+00         0.00000E+00
 
    0.20017E+06         0.13823E+07         0.00000E+00
    0.13823E+07        -0.11565E+07         0.00000E+00
    0.00000E+00         0.00000E+00         0.00000E+00
 
    0.16450E+06         0.14046E+07         0.00000E+00
    0.14046E+07        -0.11387E+07         0.00000E+00
    0.00000E+00         0.00000E+00         0.00000E+00
 
    0.12850E+06         0.14265E+07         0.00000E+00
    0.14265E+07        -0.11207E+07         0.00000E+00
    0.00000E+00         0.00000E+00         0.00000E+00
 
    0.92176E+05         0.14479E+07         0.00000E+00
    0.14479E+07        -0.11026E+07         0.00000E+00
    0.00000E+00         0.00000E+00         0.00000E+00
 
    0.55526E+05         0.14690E+07         0.00000E+00
    0.14690E+07        -0.10843E+07         0.00000E+00
    0.00000E+00         0.00000E+00         0.00000E+00
 
    0.18561E+05         0.14895E+07         0.00000E+00
    0.14895E+07        -0.10658E+07         0.00000E+00
    0.00000E+00         0.00000E+00         0.00000E+00
 
    0.14131E+07         0.20500E+05         0.00000E+00
    0.20500E+05        -0.17275E+07         0.00000E+00
    0.00000E+00         0.00000E+00         0.00000E+00
 
    0.13989E+07         0.60874E+05         0.00000E+00
    0.60874E+05        -0.17269E+07         0.00000E+00
    0.00000E+00         0.00000E+00         0.00000E+00
 
    0.13839E+07         0.10100E+06         0.00000E+00
    0.10100E+06        -0.17256E+07         0.00000E+00
    0.00000E+00         0.00000E+00         0.00000E+00
 
    0.13682E+07         0.14088E+06         0.00000E+00
    0.14088E+06        -0.17237E+07         0.00000E+00
    0.00000E+00         0.00000E+00         0.00000E+00
 
    0.13517E+07         0.18050E+06         0.00000E+00
    0.18050E+06        -0.17211E+07         0.00000E+00
    0.00000E+00         0.00000E+00         0.00000E+00
 
    0.13345E+07         0.21984E+06         0.00000E+00
    0.21984E+06        -0.17180E+07         0.00000E+00
    0.00000E+00         0.00000E+00         0.00000E+00
 
    0.13166E+07         0.25889E+06         0.00000E+00
    0.25889E+06        -0.17143E+07         0.00000E+00
    0.00000E+00         0.00000E+00         0.00000E+00
 
    0.12980E+07         0.29765E+06         0.00000E+00
    0.29765E+06        -0.17100E+07         0.00000E+00
    0.00000E+00         0.00000E+00         0.00000E+00
 
    0.12787E+07         0.33611E+06         0.00000E+00
    0.33611E+06        -0.17051E+07         0.00000E+00
    0.00000E+00         0.00000E+00         0.00000E+00
 
    0.12587E+07         0.37426E+06         0.00000E+00
    0.37426E+06        -0.16996E+07         0.00000E+00
    0.00000E+00         0.00000E+00         0.00000E+00
 
    0.12381E+07         0.41209E+06         0.00000E+00
    0.41209E+06        -0.16936E+07         0.00000E+00
    0.00000E+00         0.00000E+00         0.00000E+00
 
    0.12168E+07         0.44960E+06         0.00000E+00
    0.44960E+06        -0.16871E+07         0.00000E+00
    0.00000E+00         0.00000E+00         0.00000E+00
 
    0.11948E+07         0.48677E+06         0.00000E+00
    0.48677E+06        -0.16800E+07         0.00000E+00
    0.00000E+00         0.00000E+00         0.00000E+00
 
    0.11722E+07         0.52359E+06         0.00000E+00
    0.52359E+06        -0.16724E+07         0.00000E+00
    0.00000E+00         0.00000E+00         0.00000E+00
 
    0.11490E+07         0.56008E+06         0.00000E+00
    0.56008E+06        -0.16643E+07         0.00000E+00
    0.00000E+00         0.00000E+00         0.00000E+00
 
    0.11252E+07         0.59620E+06         0.00000E+00
    0.59620E+06        -0.16557E+07         0.00000E+00
    0.00000E+00         0.00000E+00         0.00000E+00
 
    0.11008E+07         0.63197E+06         0.00000E+00
    0.63197E+06        -0.16466E+07         0.00000E+00
    0.00000E+00         0.00000E+00         0.00000E+00
 
    0.10758E+07         0.66737E+06         0.00000E+00
    0.66737E+06        -0.16370E+07         0.00000E+00
    0.00000E+00         0.00000E+00         0.00000E+00
 
    0.10502E+07         0.70240E+06         0.00000E+00
    0.70240E+06        -0.16270E+07         0.00000E+00
    0.00000E+00         0.00000E+00         0.00000E+00
 
    0.10240E+07         0.73706E+06         0.00000E+00
    0.73706E+06        -0.16165E+07         0.00000E+00
    0.00000E+00         0.00000E+00         0.00000E+00
 
    0.99726E+06         0.77133E+06         0.00000E+00
    0.77133E+06        -0.16055E+07         0.00000E+00
    0.00000E+00         0.00000E+00         0.00000E+00
 
    0.96998E+06         0.80522E+06         0.00000E+00
    0.80522E+06        -0.15942E+07         0.00000E+00
    0.00000E+00         0.00000E+00         0.00000E+00
 
    0.94216E+06         0.83871E+06         0.00000E+00
    0.83871E+06        -0.15824E+07         0.00000E+00
    0.00000E+00         0.00000E+00         0.00000E+00
 
    0.91382E+06         0.87181E+06         0.00000E+00
    0.87181E+06        -0.15701E+07         0.00000E+00
    0.00000E+00         0.00000E+00         0.00000E+00
 
    0.88495E+06         0.90452E+06         0.00000E+00
    0.90452E+06        -0.15575E+07         0.00000E+00
    0.00000E+00         0.00000E+00         0.00000E+00
 
    0.85557E+06         0.93682E+06         0.00000E+00
    0.93682E+06        -0.15445E+07         0.00000E+00
    0.00000E+00         0.00000E+00         0.00000E+00
 
    0.82570E+06         0.96872E+06         0.00000E+00
    0.96872E+06        -0.15311E+07         0.00000E+00
    0.00000E+00         0.00000E+00         0.00000E+00
 
    0.79533E+06         0.10002E+07         0.00000E+00
    0.10002E+07        -0.15174E+07         0.00000E+00
    0.00000E+00         0.00000E+00         0.00000E+00
 
    0.76448E+06         0.10313E+07         0.00000E+00
    0.10313E+07        -0.15032E+07         0.00000E+00
    0.00000E+00         0.00000E+00         0.00000E+00
 
    0.73316E+06         0.10619E+07         0.00000E+00
    0.10619E+07        -0.14888E+07         0.00000E+00
    0.00000E+00         0.00000E+00         0.00000E+00
 
    0.70137E+06         0.10922E+07         0.00000E+00
    0.10922E+07        -0.14739E+07         0.00000E+00
    0.00000E+00         0.00000E+00         0.00000E+00
 
    0.66913E+06         0.11220E+07         0.00000E+00
    0.11220E+07        -0.14588E+07         0.00000E+00
    0.00000E+00         0.00000E+00         0.00000E+00
 
    0.63644E+06         0.11514E+07         0.00000E+00
    0.11514E+07        -0.14433E+07         0.00000E+00
    0.00000E+00         0.00000E+00         0.00000E+00
 
    0.60331E+06         0.11804E+07         0.00000E+00
    0.11804E+07        -0.14275E+07         0.00000E+00
    0.00000E+00         0.00000E+00         0.00000E+00
 
    0.56975E+06         0.12089E+07         0.00000E+00
    0.12089E+07        -0.14114E+07         0.00000E+00
    0.00000E+00         0.00000E+00         0.00000E+00
 
    0.53577E+06         0.12371E+07         0.00000E+00
    0.12371E+07        -0.13950E+07         0.00000E+00
    0.00000E+00         0.00000E+00         0.00000E+00
 
    0.50138E+06         0.12648E+07         0.00000E+00
    0.12648E+07        -0.13784E+07         0.00000E+00
    0.00000E+00         0.00000E+00         0.00000E+00
 
    0.46657E+06         0.12920E+07         0.00000E+00
    0.12920E+07        -0.13614E+07         0.00000E+00
    0.00000E+00         0.00000E+00         0.00000E+00
 
    0.43137E+06         0.13188E+07         0.00000E+00
    0.13188E+07        -0.13442E+07         0.00000E+00
    0.00000E+00         0.00000E+00         0.00000E+00
 
    0.39577E+06         0.13452E+07         0.00000E+00
    0.13452E+07        -0.13267E+07         0.00000E+00
    0.00000E+00         0.00000E+00         0.00000E+00
 
    0.35979E+06         0.13712E+07         0.00000E+00
    0.13712E+07        -0.13090E+07         0.00000E+00
    0.00000E+00         0.00000E+00         0.00000E+00
 
    0.32343E+06         0.13967E+07         0.00000E+00
    0.13967E+07        -0.12910E+07         0.00000E+00
    0.00000E+00         0.00000E+00         0.00000E+00
 
    0.28669E+06         0.14218E+07         0.00000E+00
    0.14218E+07        -0.12729E+07         0.00000E+00
    0.00000E+00         0.00000E+00         0.00000E+00
 
    0.24959E+06         0.14464E+07         0.00000E+00
    0.14464E+07        -0.12544E+07         0.00000E+00
    0.00000E+00         0.00000E+00         0.00000E+00
 
    0.21213E+06         0.14706E+07         0.00000E+00
    0.14706E+07        -0.12358E+07         0.00000E+00
    0.00000E+00         0.00000E+00         0.00000E+00
 
    0.17432E+06         0.14943E+07         0.00000E+00
    0.14943E+07        -0.12170E+07         0.00000E+00
    0.00000E+00         0.00000E+00         0.00000E+00
 
    0.13616E+06         0.15176E+07         0.00000E+00
    0.15176E+07        -0.11979E+07         0.00000E+00
    0.00000E+00         0.00000E+00         0.00000E+00
 
    0.97662E+05         0.15405E+07         0.00000E+00
    0.15405E+07        -0.11787E+07         0.00000E+00
    0.00000E+00         0.00000E+00         0.00000E+00
 
    0.58828E+05         0.15629E+07         0.00000E+00
    0.15629E+07        -0.11593E+07         0.00000E+00
    0.00000E+00         0.00000E+00         0.00000E+00
 
    0.19664E+05         0.15848E+07         0.00000E+00
    0.15848E+07        -0.11397E+07         0.00000E+00
    0.00000E+00         0.00000E+00         0.00000E+00
 
    0.15077E+07         0.21903E+05         0.00000E+00
    0.21903E+05        -0.18422E+07         0.00000E+00
    0.00000E+00         0.00000E+00         0.00000E+00
 
    0.14922E+07         0.65000E+05         0.00000E+00
    0.65000E+05        -0.18415E+07         0.00000E+00
    0.00000E+00         0.00000E+00         0.00000E+00
 
    0.14759E+07         0.10782E+06         0.00000E+00
    0.10782E+06        -0.18401E+07         0.00000E+00
    0.00000E+00         0.00000E+00         0.00000E+00
 
    0.14589E+07         0.15036E+06         0.00000E+00
    0.15036E+06        -0.18381E+07         0.00000E+00
    0.00000E+00         0.00000E+00         0.00000E+00
 
    0.14410E+07         0.19261E+06         0.00000E+00
    0.19261E+06        -0.18354E+07         0.00000E+00
    0.00000E+00         0.00000E+00         0.00000E+00
 
    0.14224E+07         0.23454E+06         0.00000E+00
    0.23454E+06        -0.18320E+07         0.00000E+00
    0.00000E+00         0.00000E+00         0.00000E+00
 
    0.14030E+07         0.27616E+06         0.00000E+00
    0.27616E+06        -0.18280E+07         0.00000E+00
    0.00000E+00         0.00000E+00         0.00000E+00
 
    0.13829E+07         0.31746E+06         0.00000E+00
    0.31746E+06        -0.18234E+07         0.00000E+00
    0.00000E+00         0.00000E+00         0.00000E+00
 
    0.13620E+07         0.35842E+06         0.00000E+00
    0.35842E+06        -0.18182E+07         0.00000E+00
    0.00000E+00         0.00000E+00         0.00000E+00
 
    0.13405E+07         0.39904E+06         0.00000E+00
    0.39904E+06        -0.18124E+07         0.00000E+00
    0.00000E+00         0.00000E+00         0.00000E+00
 
    0.13182E+07         0.43931E+06         0.00000E+00
    0.43931E+06        -0.18060E+07         0.00000E+00
    0.00000E+00         0.00000E+00         0.00000E+00
 
    0.12953E+07         0.47922E+06         0.00000E+00
    0.47922E+06        -0.17991E+07         0.00000E+00
    0.00000E+00         0.00000E+00         0.00000E+00
 
    0.12716E+07         0.51877E+06         0.00000E+00
    0.51877E+06        -0.17915E+07         0.00000E+00
    0.00000E+00         0.00000E+00         0.00000E+00
 
    0.12473E+07         0.55794E+06         0.00000E+00
    0.55794E+06        -0.17834E+07         0.00000E+00
    0.00000E+00         0.00000E+00         0.00000E+00
 
    0.12224E+07         0.59673E+06         0.00000E+00
    0.59673E+06        -0.17748E+07         0.00000E+00
    0.00000E+00         0.00000E+00         0.00000E+00
 
    0.11968E+07         0.63514E+06         0.00000E+00
    0.63514E+06        -0.17657E+07         0.00000E+00
    0.00000E+00         0.00000E+00         0.00000E+00
 
    0.11706E+07         0.67316E+06         0.00000E+00
    0.67316E+06        -0.17560E+07         0.00000E+00
    0.00000E+00         0.00000E+00         0.00000E+00
 
    0.11437E+07         0.71078E+06         0.00000E+00
    0.71078E+06        -0.17459E+07         0.00000E+00
    0.00000E+00         0.00000E+00         0.00000E+00
 
    0.11163E+07         0.74800E+06         0.00000E+00
    0.74800E+06        -0.17352E+07         0.00000E+00
    0.00000E+00         0.00000E+00         0.00000E+00
 
    0.10883E+07         0.78481E+06         0.00000E+00
    0.78481E+06        -0.17241E+07         0.00000E+00
    0.00000E+00         0.00000E+00         0.00000E+00
 
    0.10596E+07         0.82122E+06         0.00000E+00
    0.82122E+06        -0.17125E+07         0.00000E+00
    0.00000E+00         0.00000E+00         0.00000E+00
 
    0.10305E+07         0.85721E+06         0.00000E+00
    0.85721E+06        -0.17004E+07         0.00000E+00
    0.00000E+00         0.00000E+00         0.00000E+00
 
    0.10007E+07         0.89278E+06         0.00000E+00
    0.89278E+06        -0.16879E+07         0.00000E+00
    0.00000E+00         0.00000E+00         0.00000E+00
 
    0.97043E+06         0.92792E+06         0.00000E+00
    0.92792E+06        -0.16750E+07         0.00000E+00
    0.00000E+00         0.00000E+00         0.00000E+00
 
    0.93961E+06         0.96264E+06         0.00000E+00
    0.96264E+06        -0.16616E+07         0.00000E+00
    0.00000E+00         0.00000E+00         0.00000E+00
 
    0.90825E+06         0.99694E+06         0.00000E+00
    0.99694E+06        -0.16478E+07         0.00000E+00
    0.00000E+00         0.00000E+00         0.00000E+00
 
    0.87638E+06         0.10308E+07         0.00000E+00
    0.10308E+07        -0.16336E+07         0.00000E+00
    0.00000E+00         0.00000E+00         0.00000E+00
 
    0.84400E+06         0.10642E+07         0.00000E+00
    0.10642E+07        -0.16191E+07         0.00000E+00
    0.00000E+00         0.00000E+00         0.00000E+00
 
    0.81113E+06         0.10972E+07         0.00000E+00
    0.10972E+07        -0.16041E+07         0.00000E+00
    0.00000E+00         0.00000E+00         0.00000E+00
 
    0.77777E+06         0.11298E+07         0.00000E+00
    0.11298E+07        -0.15888E+07         0.00000E+00
    0.00000E+00         0.00000E+00         0.00000E+00
 
    0.74393E+06         0.11619E+07         0.00000E+00
    0.11619E+07        -0.15731E+07         0.00000E+00
    0.00000E+00         0.00000E+00         0.00000E+00
 
    0.70962E+06         0.11935E+07         0.00000E+00
    0.11935E+07        -0.15571E+07         0.00000E+00
    0.00000E+00         0.00000E+00         0.00000E+00
 
    0.67485E+06         0.12247E+07         0.00000E+00
    0.12247E+07        -0.15407E+07         0.00000E+00
    0.00000E+00         0.00000E+00         0.00000E+00
 
    0.63962E+06         0.12555E+07         0.00000E+00
    0.12555E+07        -0.15240E+07         0.00000E+00
    0.00000E+00         0.00000E+00         0.00000E+00
 
    0.60396E+06         0.12858E+07         0.00000E+00
    0.12858E+07        -0.15070E+07         0.00000E+00
    0.00000E+00         0.00000E+00         0.00000E+00
 
    0.56786E+06         0.13157E+07         0.00000E+00
    0.13157E+07        -0.14897E+07         0.00000E+00
    0.00000E+00         0.00000E+00         0.00000E+00
 
    0.53133E+06         0.13451E+07         0.00000E+00
    0.13451E+07        -0.14720E+07         0.00000E+00
    0.00000E+00         0.00000E+00         0.00000E+00
 
    0.49438E+06         0.13741E+07         0.00000E+00
    0.13741E+07        -0.14541E+07         0.00000E+00
    0.00000E+00         0.00000E+00         0.00000E+00
 
    0.45702E+06         0.14026E+07         0.00000E+00
    0.14026E+07        -0.14359E+07         0.00000E+00
    0.00000E+00         0.00000E+00         0.00000E+00
 
    0.41926E+06         0.14306E+07         0.00000E+00
    0.14306E+07        -0.14174E+07         0.00000E+00
    0.00000E+00         0.00000E+00         0.00000E+00
 
    0.38109E+06         0.14582E+07         0.00000E+00
    0.14582E+07        -0.13987E+07         0.00000E+00
    0.00000E+00         0.00000E+00         0.00000E+00
 
    0.34254E+06         0.14853E+07         0.00000E+00
    0.14853E+07        -0.13797E+07         0.00000E+00
    0.00000E+00         0.00000E+00         0.00000E+00
 
    0.30360E+06         0.15120E+07         0.00000E+00
    0.15120E+07        -0.13605E+07         0.00000E+00
    0.00000E+00         0.00000E+00         0.00000E+00
 
    0.26429E+06         0.15382E+07         0.00000E+00
    0.15382E+07        -0.13410E+07         0.00000E+00
    0.00000E+00         0.00000E+00         0.00000E+00
 
    0.22460E+06         0.15639E+07         0.00000E+00
    0.15639E+07        -0.13213E+07         0.00000E+00
    0.00000E+00         0.00000E+00         0.00000E+00
 
    0.18455E+06         0.15892E+07         0.00000E+00
    0.15892E+07        -0.13014E+07         0.00000E+00
    0.00000E+00         0.00000E+00         0.00000E+00
 
    0.14414E+06         0.16140E+07         0.00000E+00
    0.16140E+07        -0.12813E+07         0.00000E+00
    0.00000E+00         0.00000E+00         0.00000E+00
 
    0.10338E+06         0.16384E+07         0.00000E+00
    0.16384E+07        -0.12609E+07         0.00000E+00
    0.00000E+00         0.00000E+00         0.00000E+00
 
    0.62266E+05         0.16623E+07         0.00000E+00
    0.16623E+07        -0.12404E+07         0.00000E+00
    0.00000E+00         0.00000E+00         0.00000E+00
 
    0.20812E+05         0.16857E+07         0.00000E+00
    0.16857E+07        -0.12197E+07         0.00000E+00
    0.00000E+00         0.00000E+00         0.00000E+00
 
    0.16086E+07         0.23402E+05         0.00000E+00
    0.23402E+05        -0.19646E+07         0.00000E+00
    0.00000E+00         0.00000E+00         0.00000E+00
 
    0.15917E+07         0.69401E+05         0.00000E+00
    0.69401E+05        -0.19638E+07         0.00000E+00
    0.00000E+00         0.00000E+00         0.00000E+00
 
    0.15740E+07         0.11509E+06         0.00000E+00
    0.11509E+06        -0.19624E+07         0.00000E+00
    0.00000E+00         0.00000E+00         0.00000E+00
 
    0.15554E+07         0.16046E+06         0.00000E+00
    0.16046E+06        -0.19602E+07         0.00000E+00
    0.00000E+00         0.00000E+00         0.00000E+00
 
    0.15360E+07         0.20550E+06         0.00000E+00
    0.20550E+06        -0.19573E+07         0.00000E+00
    0.00000E+00         0.00000E+00         0.00000E+00
 
    0.15158E+07         0.25019E+06         0.00000E+00
    0.25019E+06        -0.19538E+07         0.00000E+00
    0.00000E+00         0.00000E+00         0.00000E+00
 
    0.14948E+07         0.29453E+06         0.00000E+00
    0.29453E+06        -0.19495E+07         0.00000E+00
    0.00000E+00         0.00000E+00         0.00000E+00
 
    0.14730E+07         0.33851E+06         0.00000E+00
    0.33851E+06        -0.19446E+07         0.00000E+00
    0.00000E+00         0.00000E+00         0.00000E+00
 
    0.14504E+07         0.38213E+06         0.00000E+00
    0.38213E+06        -0.19391E+07         0.00000E+00
    0.00000E+00         0.00000E+00         0.00000E+00
 
    0.14271E+07         0.42536E+06         0.00000E+00
    0.42536E+06        -0.19329E+07         0.00000E+00
    0.00000E+00         0.00000E+00         0.00000E+00
 
    0.14031E+07         0.46820E+06         0.00000E+00
    0.46820E+06        -0.19261E+07         0.00000E+00
    0.00000E+00         0.00000E+00         0.00000E+00
 
    0.13783E+07         0.51065E+06         0.00000E+00
    0.51065E+06        -0.19187E+07         0.00000E+00
    0.00000E+00         0.00000E+00         0.00000E+00
 
    0.13528E+07         0.55270E+06         0.00000E+00
    0.55270E+06        -0.19107E+07         0.00000E+00
    0.00000E+00         0.00000E+00         0.00000E+00
 
    0.13267E+07         0.59435E+06         0.00000E+00
    0.59435E+06        -0.19021E+07         0.00000E+00
    0.00000E+00         0.00000E+00         0.00000E+00
 
    0.12998E+07         0.63558E+06         0.00000E+00
    0.63558E+06        -0.18930E+07         0.00000E+00
    0.00000E+00         0.00000E+00         0.00000E+00
 
    0.12723E+07         0.67639E+06         0.00000E+00
    0.67639E+06        -0.18833E+07         0.00000E+00
    0.00000E+00         0.00000E+00         0.00000E+00
 
    0.12441E+07         0.71678E+06         0.00000E+00
    0.71678E+06        -0.18730E+07         0.00000E+00
    0.00000E+00         0.00000E+00         0.00000E+00
 
    0.12153E+07         0.75673E+06         0.00000E+00
    0.75673E+06        -0.18622E+07         0.00000E+00
    0.00000E+00         0.00000E+00         0.00000E+00
 
    0.11859E+07         0.79626E+06         0.00000E+00
    0.79626E+06        -0.18510E+07         0.00000E+00
    0.00000E+00         0.00000E+00         0.00000E+00
 
    0.11559E+07         0.83534E+06         0.00000E+00
    0.83534E+06        -0.18392E+07         0.00000E+00
    0.00000E+00         0.00000E+00         0.00000E+00
 
    0.11252E+07         0.87398E+06         0.00000E+00
    0.87398E+06        -0.18269E+07         0.00000E+00
    0.00000E+00         0.00000E+00         0.00000E+00
 
    0.10940E+07         0.91218E+06         0.00000E+00
    0.91218E+06        -0.18141E+07         0.00000E+00
    0.00000E+00         0.00000E+00         0.00000E+00
 
    0.10622E+07         0.94993E+06         0.00000E+00
    0.94993E+06        -0.18009E+07         0.00000E+00
    0.00000E+00         0.00000E+00         0.00000E+00
 
    0.10298E+07         0.98723E+06         0.00000E+00
    0.98723E+06        -0.17872E+07         0.00000E+00
    0.00000E+00         0.00000E+00         0.00000E+00
 
    0.99692E+06         0.10241E+07         0.00000E+00
    0.10241E+07        -0.17730E+07         0.00000E+00
    0.00000E+00         0.00000E+00         0.00000E+00
 
    0.96345E+06         0.10604E+07         0.00000E+00
    0.10604E+07        -0.17585E+07         0.00000E+00
    0.00000E+00         0.00000E+00         0.00000E+00
 
    0.92946E+06         0.10964E+07         0.00000E+00
    0.10964E+07        -0.17435E+07         0.00000E+00
    0.00000E+00         0.00000E+00         0.00000E+00
 
    0.89495E+06         0.11318E+07         0.00000E+00
    0.11318E+07        -0.17281E+07         0.00000E+00
    0.00000E+00         0.00000E+00         0.00000E+00
 
    0.85993E+06         0.11668E+07         0.00000E+00
    0.11668E+07        -0.17123E+07         0.00000E+00
    0.00000E+00         0.00000E+00         0.00000E+00
 
    0.82440E+06         0.12014E+07         0.00000E+00
    0.12014E+07        -0.16961E+07         0.00000E+00
    0.00000E+00         0.00000E+00         0.00000E+00
 
    0.78839E+06         0.12354E+07         0.00000E+00
    0.12354E+07        -0.16795E+07         0.00000E+00
    0.00000E+00         0.00000E+00         0.00000E+00
 
    0.75190E+06         0.12690E+07         0.00000E+00
    0.12690E+07        -0.16626E+07         0.00000E+00
    0.00000E+00         0.00000E+00         0.00000E+00
 
    0.71493E+06         0.13021E+07         0.00000E+00
    0.13021E+07        -0.16453E+07         0.00000E+00
    0.00000E+00         0.00000E+00         0.00000E+00
 
    0.67751E+06         0.13348E+07         0.00000E+00
    0.13348E+07        -0.16277E+07         0.00000E+00
    0.00000E+00         0.00000E+00         0.00000E+00
 
    0.63962E+06         0.13670E+07         0.00000E+00
    0.13670E+07        -0.16097E+07         0.00000E+00
    0.00000E+00         0.00000E+00         0.00000E+00
 
    0.60130E+06         0.13987E+07         0.00000E+00
    0.13987E+07        -0.15914E+07         0.00000E+00
    0.00000E+00         0.00000E+00         0.00000E+00
 
    0.56253E+06         0.14299E+07         0.00000E+00
    0.14299E+07        -0.15728E+07         0.00000E+00
    0.00000E+00         0.00000E+00         0.00000E+00
 
    0.52334E+06         0.14607E+07         0.00000E+00
    0.14607E+07        -0.15539E+07         0.00000E+00
    0.00000E+00         0.00000E+00         0.00000E+00
 
    0.48372E+06         0.14909E+07         0.00000E+00
    0.14909E+07        -0.15347E+07         0.00000E+00
    0.00000E+00         0.00000E+00         0.00000E+00
 
    0.44369E+06         0.15208E+07         0.00000E+00
    0.15208E+07        -0.15152E+07         0.00000E+00
    0.00000E+00         0.00000E+00         0.00000E+00
 
    0.40325E+06         0.15501E+07         0.00000E+00
    0.15501E+07        -0.14954E+07         0.00000E+00
    0.00000E+00         0.00000E+00         0.00000E+00
 
    0.36242E+06         0.15789E+07         0.00000E+00
    0.15789E+07        -0.14754E+07         0.00000E+00
    0.00000E+00         0.00000E+00         0.00000E+00
 
    0.32118E+06         0.16073E+07         0.00000E+00
    0.16073E+07        -0.14550E+07         0.00000E+00
    0.00000E+00         0.00000E+00         0.00000E+00
 
    0.27956E+06         0.16352E+07         0.00000E+00
    0.16352E+07        -0.14345E+07         0.00000E+00
    0.00000E+00         0.00000E+00         0.00000E+00
 
    0.23756E+06         0.16626E+07         0.00000E+00
    0.16626E+07        -0.14137E+07         0.00000E+00
    0.00000E+00         0.00000E+00         0.00000E+00
 
    0.19518E+06         0.16895E+07         0.00000E+00
    0.16895E+07        -0.13926E+07         0.00000E+00
    0.00000E+00         0.00000E+00         0.00000E+00
 
    0.15242E+06         0.17159E+07         0.00000E+00
    0.17159E+07        -0.13714E+07         0.00000E+00
    0.00000E+00         0.00000E+00         0.00000E+00
 
    0.10931E+06         0.17419E+07         0.00000E+00
    0.17419E+07        -0.13499E+07         0.00000E+00
    0.00000E+00         0.00000E+00         0.00000E+00
 
    0.65833E+05         0.17674E+07         0.00000E+00
    0.17674E+07        -0.13282E+07         0.00000E+00
    0.00000E+00         0.00000E+00         0.00000E+00
 
    0.22003E+05         0.17924E+07         0.00000E+00
    0.17924E+07        -0.13063E+07         0.00000E+00
    0.00000E+00         0.00000E+00         0.00000E+00
 
    0.17163E+07         0.25003E+05         0.00000E+00
    0.25003E+05        -0.20954E+07         0.00000E+00
    0.00000E+00         0.00000E+00         0.00000E+00
 
    0.16978E+07         0.74090E+05         0.00000E+00
    0.74090E+05        -0.20946E+07         0.00000E+00
    0.00000E+00         0.00000E+00         0.00000E+00
 
    0.16784E+07         0.12283E+06         0.00000E+00
    0.12283E+06        -0.20930E+07         0.00000E+00
    0.00000E+00         0.00000E+00         0.00000E+00
 
    0.16581E+07         0.17120E+06         0.00000E+00
    0.17120E+06        -0.20907E+07         0.00000E+00
    0.00000E+00         0.00000E+00         0.00000E+00
 
    0.16370E+07         0.21920E+06         0.00000E+00
    0.21920E+06        -0.20876E+07         0.00000E+00
    0.00000E+00         0.00000E+00         0.00000E+00
 
    0.16150E+07         0.26681E+06         0.00000E+00
    0.26681E+06        -0.20838E+07         0.00000E+00
    0.00000E+00         0.00000E+00         0.00000E+00
 
    0.15921E+07         0.31403E+06         0.00000E+00
    0.31403E+06        -0.20793E+07         0.00000E+00
    0.00000E+00         0.00000E+00         0.00000E+00
 
    0.15685E+07         0.36085E+06         0.00000E+00
    0.36085E+06        -0.20741E+07         0.00000E+00
    0.00000E+00         0.00000E+00         0.00000E+00
 
    0.15440E+07         0.40726E+06         0.00000E+00
    0.40726E+06        -0.20682E+07         0.00000E+00
    0.00000E+00         0.00000E+00         0.00000E+00
 
    0.15188E+07         0.45325E+06         0.00000E+00
    0.45325E+06        -0.20616E+07         0.00000E+00
    0.00000E+00         0.00000E+00         0.00000E+00
 
    0.14928E+07         0.49881E+06         0.00000E+00
    0.49881E+06        -0.20544E+07         0.00000E+00
    0.00000E+00         0.00000E+00         0.00000E+00
 
    0.14660E+07         0.54394E+06         0.00000E+00
    0.54394E+06        -0.20466E+07         0.00000E+00
    0.00000E+00         0.00000E+00         0.00000E+00
 
    0.14385E+07         0.58862E+06         0.00000E+00
    0.58862E+06        -0.20381E+07         0.00000E+00
    0.00000E+00         0.00000E+00         0.00000E+00
 
    0.14103E+07         0.63287E+06         0.00000E+00
    0.63287E+06        -0.20290E+07         0.00000E+00
    0.00000E+00         0.00000E+00         0.00000E+00
 
    0.13814E+07         0.67666E+06         0.00000E+00
    0.67666E+06        -0.20193E+07         0.00000E+00
    0.00000E+00         0.00000E+00         0.00000E+00
 
    0.13518E+07         0.71999E+06         0.00000E+00
    0.71999E+06        -0.20090E+07         0.00000E+00
    0.00000E+00         0.00000E+00         0.00000E+00
 
    0.13215E+07         0.76287E+06         0.00000E+00
    0.76287E+06        -0.19982E+07         0.00000E+00
    0.00000E+00         0.00000E+00         0.00000E+00
 
    0.12906E+07         0.80528E+06         0.00000E+00
    0.80528E+06        -0.19868E+07         0.00000E+00
    0.00000E+00         0.00000E+00         0.00000E+00
 
    0.12590E+07         0.84722E+06         0.00000E+00
    0.84722E+06        -0.19748E+07         0.00000E+00
    0.00000E+00         0.00000E+00         0.00000E+00
 
    0.12268E+07         0.88868E+06         0.00000E+00
    0.88868E+06        -0.19624E+07         0.00000E+00
    0.00000E+00         0.00000E+00         0.00000E+00
 
    0.11940E+07         0.92968E+06         0.00000E+00
    0.92968E+06        -0.19494E+07         0.00000E+00
    0.00000E+00         0.00000E+00         0.00000E+00
 
    0.11606E+07         0.97019E+06         0.00000E+00
    0.97019E+06        -0.19359E+07         0.00000E+00
    0.00000E+00         0.00000E+00         0.00000E+00
 
    0.11266E+07         0.10102E+07         0.00000E+00
    0.10102E+07        -0.19219E+07         0.00000E+00
    0.00000E+00         0.00000E+00         0.00000E+00
 
    0.10920E+07         0.10498E+07         0.00000E+00
    0.10498E+07        -0.19075E+07         0.00000E+00
    0.00000E+00         0.00000E+00         0.00000E+00
 
    0.10568E+07         0.10888E+07         0.00000E+00
    0.10888E+07        -0.18925E+07         0.00000E+00
    0.00000E+00         0.00000E+00         0.00000E+00
 
    0.10211E+07         0.11274E+07         0.00000E+00
    0.11274E+07        -0.18772E+07         0.00000E+00
    0.00000E+00         0.00000E+00         0.00000E+00
 
    0.98486E+06         0.11655E+07         0.00000E+00
    0.11655E+07        -0.18613E+07         0.00000E+00
    0.00000E+00         0.00000E+00         0.00000E+00
 
    0.94809E+06         0.12031E+07         0.00000E+00
    0.12031E+07        -0.18451E+07         0.00000E+00
    0.00000E+00         0.00000E+00         0.00000E+00
 
    0.91079E+06         0.12402E+07         0.00000E+00
    0.12402E+07        -0.18284E+07         0.00000E+00
    0.00000E+00         0.00000E+00         0.00000E+00
 
    0.87298E+06         0.12768E+07         0.00000E+00
    0.12768E+07        -0.18114E+07         0.00000E+00
    0.00000E+00         0.00000E+00         0.00000E+00
 
    0.83468E+06         0.13129E+07         0.00000E+00
    0.13129E+07        -0.17939E+07         0.00000E+00
    0.00000E+00         0.00000E+00         0.00000E+00
 
    0.79589E+06         0.13486E+07         0.00000E+00
    0.13486E+07        -0.17761E+07         0.00000E+00
    0.00000E+00         0.00000E+00         0.00000E+00
 
    0.75662E+06         0.13837E+07         0.00000E+00
    0.13837E+07        -0.17578E+07         0.00000E+00
    0.00000E+00         0.00000E+00         0.00000E+00
 
    0.71687E+06         0.14184E+07         0.00000E+00
    0.14184E+07        -0.17393E+07         0.00000E+00
    0.00000E+00         0.00000E+00         0.00000E+00
 
    0.67667E+06         0.14525E+07         0.00000E+00
    0.14525E+07        -0.17203E+07         0.00000E+00
    0.00000E+00         0.00000E+00         0.00000E+00
 
    0.63601E+06         0.14861E+07         0.00000E+00
    0.14861E+07        -0.17011E+07         0.00000E+00
    0.00000E+00         0.00000E+00         0.00000E+00
 
    0.59491E+06         0.15193E+07         0.00000E+00
    0.15193E+07        -0.16814E+07         0.00000E+00
    0.00000E+00         0.00000E+00         0.00000E+00
 
    0.55337E+06         0.15520E+07         0.00000E+00
    0.15520E+07        -0.16615E+07         0.00000E+00
    0.00000E+00         0.00000E+00         0.00000E+00
 
    0.51141E+06         0.15841E+07         0.00000E+00
    0.15841E+07        -0.16413E+07         0.00000E+00
    0.00000E+00         0.00000E+00         0.00000E+00
 
    0.46902E+06         0.16158E+07         0.00000E+00
    0.16158E+07        -0.16207E+07         0.00000E+00
    0.00000E+00         0.00000E+00         0.00000E+00
 
    0.42621E+06         0.16469E+07         0.00000E+00
    0.16469E+07        -0.15999E+07         0.00000E+00
    0.00000E+00         0.00000E+00         0.00000E+00
 
    0.38299E+06         0.16776E+07         0.00000E+00
    0.16776E+07        -0.15788E+07         0.00000E+00
    0.00000E+00         0.00000E+00         0.00000E+00
 
    0.33937E+06         0.17078E+07         0.00000E+00
    0.17078E+07        -0.15574E+07         0.00000E+00
    0.00000E+00         0.00000E+00         0.00000E+00
 
    0.29536E+06         0.17375E+07         0.00000E+00
    0.17375E+07        -0.15357E+07         0.00000E+00
    0.00000E+00         0.00000E+00         0.00000E+00
 
    0.25095E+06         0.17666E+07         0.00000E+00
    0.17666E+07        -0.15137E+07         0.00000E+00
    0.00000E+00         0.00000E+00         0.00000E+00
 
    0.20616E+06         0.17953E+07         0.00000E+00
    0.17953E+07        -0.14916E+07         0.00000E+00
    0.00000E+00         0.00000E+00         0.00000E+00
 
    0.16099E+06         0.18235E+07         0.00000E+00
    0.18235E+07        -0.14691E+07         0.00000E+00
    0.00000E+00         0.00000E+00         0.00000E+00
 
    0.11544E+06         0.18512E+07         0.00000E+00
    0.18512E+07        -0.14465E+07         0.00000E+00
    0.00000E+00         0.00000E+00         0.00000E+00
 
    0.69519E+05         0.18784E+07         0.00000E+00
    0.18784E+07        -0.14236E+07         0.00000E+00
    0.00000E+00         0.00000E+00         0.00000E+00
 
    0.23234E+05         0.19051E+07         0.00000E+00
    0.19051E+07        -0.14005E+07         0.00000E+00
    0.00000E+00         0.00000E+00         0.00000E+00
 
    0.18311E+07         0.26710E+05         0.00000E+00
    0.26710E+05        -0.22351E+07         0.00000E+00
    0.00000E+00         0.00000E+00         0.00000E+00
 
    0.18107E+07         0.79075E+05         0.00000E+00
    0.79075E+05        -0.22343E+07         0.00000E+00
    0.00000E+00         0.00000E+00         0.00000E+00
 
    0.17895E+07         0.13104E+06         0.00000E+00
    0.13104E+06        -0.22326E+07         0.00000E+00
    0.00000E+00         0.00000E+00         0.00000E+00
 
    0.17672E+07         0.18259E+06         0.00000E+00
    0.18259E+06        -0.22301E+07         0.00000E+00
    0.00000E+00         0.00000E+00         0.00000E+00
 
    0.17441E+07         0.23373E+06         0.00000E+00
    0.23373E+06        -0.22269E+07         0.00000E+00
    0.00000E+00         0.00000E+00         0.00000E+00
 
    0.17201E+07         0.28443E+06         0.00000E+00
    0.28443E+06        -0.22228E+07         0.00000E+00
    0.00000E+00         0.00000E+00         0.00000E+00
 
    0.16952E+07         0.33468E+06         0.00000E+00
    0.33468E+06        -0.22180E+07         0.00000E+00
    0.00000E+00         0.00000E+00         0.00000E+00
 
    0.16695E+07         0.38449E+06         0.00000E+00
    0.38449E+06        -0.22125E+07         0.00000E+00
    0.00000E+00         0.00000E+00         0.00000E+00
 
    0.16429E+07         0.43385E+06         0.00000E+00
    0.43385E+06        -0.22063E+07         0.00000E+00
    0.00000E+00         0.00000E+00         0.00000E+00
 
    0.16155E+07         0.48273E+06         0.00000E+00
    0.48273E+06        -0.21993E+07         0.00000E+00
    0.00000E+00         0.00000E+00         0.00000E+00
 
    0.15874E+07         0.53115E+06         0.00000E+00
    0.53115E+06        -0.21917E+07         0.00000E+00
    0.00000E+00         0.00000E+00         0.00000E+00
 
    0.15584E+07         0.57909E+06         0.00000E+00
    0.57909E+06        -0.21833E+07         0.00000E+00
    0.00000E+00         0.00000E+00         0.00000E+00
 
    0.15287E+07         0.62655E+06         0.00000E+00
    0.62655E+06        -0.21744E+07         0.00000E+00
    0.00000E+00         0.00000E+00         0.00000E+00
 
    0.14983E+07         0.67351E+06         0.00000E+00
    0.67351E+06        -0.21648E+07         0.00000E+00
    0.00000E+00         0.00000E+00         0.00000E+00
 
    0.14671E+07         0.71999E+06         0.00000E+00
    0.71999E+06        -0.21545E+07         0.00000E+00
    0.00000E+00         0.00000E+00         0.00000E+00
 
    0.14352E+07         0.76597E+06         0.00000E+00
    0.76597E+06        -0.21437E+07         0.00000E+00
    0.00000E+00         0.00000E+00         0.00000E+00
 
    0.14027E+07         0.81145E+06         0.00000E+00
    0.81145E+06        -0.21322E+07         0.00000E+00
    0.00000E+00         0.00000E+00         0.00000E+00
 
    0.13694E+07         0.85643E+06         0.00000E+00
    0.85643E+06        -0.21202E+07         0.00000E+00
    0.00000E+00         0.00000E+00         0.00000E+00
 
    0.13355E+07         0.90090E+06         0.00000E+00
    0.90090E+06        -0.21076E+07         0.00000E+00
    0.00000E+00         0.00000E+00         0.00000E+00
 
    0.13010E+07         0.94486E+06         0.00000E+00
    0.94486E+06        -0.20944E+07         0.00000E+00
    0.00000E+00         0.00000E+00         0.00000E+00
 
    0.12658E+07         0.98831E+06         0.00000E+00
    0.98831E+06        -0.20807E+07         0.00000E+00
    0.00000E+00         0.00000E+00         0.00000E+00
 
    0.12300E+07         0.10312E+07         0.00000E+00
    0.10312E+07        -0.20665E+07         0.00000E+00
    0.00000E+00         0.00000E+00         0.00000E+00
 
    0.11937E+07         0.10737E+07         0.00000E+00
    0.10737E+07        -0.20518E+07         0.00000E+00
    0.00000E+00         0.00000E+00         0.00000E+00
 
    0.11567E+07         0.11156E+07         0.00000E+00
    0.11156E+07        -0.20366E+07         0.00000E+00
    0.00000E+00         0.00000E+00         0.00000E+00
 
    0.11192E+07         0.11570E+07         0.00000E+00
    0.11570E+07        -0.20209E+07         0.00000E+00
    0.00000E+00         0.00000E+00         0.00000E+00
 
    0.10811E+07         0.11978E+07         0.00000E+00
    0.11978E+07        -0.20047E+07         0.00000E+00
    0.00000E+00         0.00000E+00         0.00000E+00
 
    0.10425E+07         0.12382E+07         0.00000E+00
    0.12382E+07        -0.19880E+07         0.00000E+00
    0.00000E+00         0.00000E+00         0.00000E+00
 
    0.10033E+07         0.12780E+07         0.00000E+00
    0.12780E+07        -0.19709E+07         0.00000E+00
    0.00000E+00         0.00000E+00         0.00000E+00
 
    0.96359E+06         0.13174E+07         0.00000E+00
    0.13174E+07        -0.19534E+07         0.00000E+00
    0.00000E+00         0.00000E+00         0.00000E+00
 
    0.92338E+06         0.13562E+07         0.00000E+00
    0.13562E+07        -0.19355E+07         0.00000E+00
    0.00000E+00         0.00000E+00         0.00000E+00
 
    0.88267E+06         0.13944E+07         0.00000E+00
    0.13944E+07        -0.19171E+07         0.00000E+00
    0.00000E+00         0.00000E+00         0.00000E+00
 
    0.84146E+06         0.14322E+07         0.00000E+00
    0.14322E+07        -0.18983E+07         0.00000E+00
    0.00000E+00         0.00000E+00         0.00000E+00
 
    0.79977E+06         0.14695E+07         0.00000E+00
    0.14695E+07        -0.18792E+07         0.00000E+00
    0.00000E+00         0.00000E+00         0.00000E+00
 
    0.75761E+06         0.15062E+07         0.00000E+00
    0.15062E+07        -0.18596E+07         0.00000E+00
    0.00000E+00         0.00000E+00         0.00000E+00
 
    0.71498E+06         0.15424E+07         0.00000E+00
    0.15424E+07        -0.18397E+07         0.00000E+00
    0.00000E+00         0.00000E+00         0.00000E+00
 
    0.67189E+06         0.15781E+07         0.00000E+00
    0.15781E+07        -0.18195E+07         0.00000E+00
    0.00000E+00         0.00000E+00         0.00000E+00
 
    0.62836E+06         0.16133E+07         0.00000E+00
    0.16133E+07        -0.17988E+07         0.00000E+00
    0.00000E+00         0.00000E+00         0.00000E+00
 
    0.58438E+06         0.16480E+07         0.00000E+00
    0.16480E+07        -0.17779E+07         0.00000E+00
    0.00000E+00         0.00000E+00         0.00000E+00
 
    0.53997E+06         0.16821E+07         0.00000E+00
    0.16821E+07        -0.17566E+07         0.00000E+00
    0.00000E+00         0.00000E+00         0.00000E+00
 
    0.49513E+06         0.17158E+07         0.00000E+00
    0.17158E+07        -0.17350E+07         0.00000E+00
    0.00000E+00         0.00000E+00         0.00000E+00
 
    0.44987E+06         0.17489E+07         0.00000E+00
    0.17489E+07        -0.17131E+07         0.00000E+00
    0.00000E+00         0.00000E+00         0.00000E+00
 
    0.40419E+06         0.17815E+07         0.00000E+00
    0.17815E+07        -0.16909E+07         0.00000E+00
    0.00000E+00         0.00000E+00         0.00000E+00
 
    0.35811E+06         0.18136E+07         0.00000E+00
    0.18136E+07        -0.16683E+07         0.00000E+00
    0.00000E+00         0.00000E+00         0.00000E+00
 
    0.31162E+06         0.18452E+07         0.00000E+00
    0.18452E+07        -0.16455E+07         0.00000E+00
    0.00000E+00         0.00000E+00         0.00000E+00
 
    0.26474E+06         0.18762E+07         0.00000E+00
    0.18762E+07        -0.16225E+07         0.00000E+00
    0.00000E+00         0.00000E+00         0.00000E+00
 
    0.21746E+06         0.19068E+07         0.00000E+00
    0.19068E+07        -0.15991E+07         0.00000E+00
    0.00000E+00         0.00000E+00         0.00000E+00
 
    0.16979E+06         0.19369E+07         0.00000E+00
    0.19369E+07        -0.15755E+07         0.00000E+00
    0.00000E+00         0.00000E+00         0.00000E+00
 
    0.12174E+06         0.19664E+07         0.00000E+00
    0.19664E+07        -0.15516E+07         0.00000E+00
    0.00000E+00         0.00000E+00         0.00000E+00
 
    0.73308E+05         0.19954E+07         0.00000E+00
    0.19954E+07        -0.15275E+07         0.00000E+00
    0.00000E+00         0.00000E+00         0.00000E+00
 
    0.24498E+05         0.20239E+07         0.00000E+00
    0.20239E+07        -0.15031E+07         0.00000E+00
    0.00000E+00         0.00000E+00         0.00000E+00
 
    0.19531E+07         0.28525E+05         0.00000E+00
    0.28525E+05        -0.23845E+07         0.00000E+00
    0.00000E+00         0.00000E+00         0.00000E+00
 
    0.19307E+07         0.84362E+05         0.00000E+00
    0.84362E+05        -0.23836E+07         0.00000E+00
    0.00000E+00         0.00000E+00         0.00000E+00
 
    0.19073E+07         0.13974E+06         0.00000E+00
    0.13974E+06        -0.23819E+07         0.00000E+00
    0.00000E+00         0.00000E+00         0.00000E+00
 
    0.18829E+07         0.19466E+06         0.00000E+00
    0.19466E+06        -0.23792E+07         0.00000E+00
    0.00000E+00         0.00000E+00         0.00000E+00
 
    0.18576E+07         0.24909E+06         0.00000E+00
    0.24909E+06        -0.23758E+07         0.00000E+00
    0.00000E+00         0.00000E+00         0.00000E+00
 
    0.18313E+07         0.30304E+06         0.00000E+00
    0.30304E+06        -0.23715E+07         0.00000E+00
    0.00000E+00         0.00000E+00         0.00000E+00
 
    0.18041E+07         0.35650E+06         0.00000E+00
    0.35650E+06        -0.23664E+07         0.00000E+00
    0.00000E+00         0.00000E+00         0.00000E+00
 
    0.17761E+07         0.40945E+06         0.00000E+00
    0.40945E+06        -0.23606E+07         0.00000E+00
    0.00000E+00         0.00000E+00         0.00000E+00
 
    0.17471E+07         0.46189E+06         0.00000E+00
    0.46189E+06        -0.23540E+07         0.00000E+00
    0.00000E+00         0.00000E+00         0.00000E+00
 
    0.17174E+07         0.51382E+06         0.00000E+00
    0.51382E+06        -0.23466E+07         0.00000E+00
    0.00000E+00         0.00000E+00         0.00000E+00
 
    0.16868E+07         0.56523E+06         0.00000E+00
    0.56523E+06        -0.23385E+07         0.00000E+00
    0.00000E+00         0.00000E+00         0.00000E+00
 
    0.16555E+07         0.61611E+06         0.00000E+00
    0.61611E+06        -0.23298E+07         0.00000E+00
    0.00000E+00         0.00000E+00         0.00000E+00
 
    0.16233E+07         0.66646E+06         0.00000E+00
    0.66646E+06        -0.23203E+07         0.00000E+00
    0.00000E+00         0.00000E+00         0.00000E+00
 
    0.15904E+07         0.71628E+06         0.00000E+00
    0.71628E+06        -0.23102E+07         0.00000E+00
    0.00000E+00         0.00000E+00         0.00000E+00
 
    0.15568E+07         0.76556E+06         0.00000E+00
    0.76556E+06        -0.22994E+07         0.00000E+00
    0.00000E+00         0.00000E+00         0.00000E+00
 
    0.15224E+07         0.81430E+06         0.00000E+00
    0.81430E+06        -0.22879E+07         0.00000E+00
    0.00000E+00         0.00000E+00         0.00000E+00
 
    0.14874E+07         0.86250E+06         0.00000E+00
    0.86250E+06        -0.22759E+07         0.00000E+00
    0.00000E+00         0.00000E+00         0.00000E+00
 
    0.14517E+07         0.91016E+06         0.00000E+00
    0.91016E+06        -0.22632E+07         0.00000E+00
    0.00000E+00         0.00000E+00         0.00000E+00
 
    0.14153E+07         0.95727E+06         0.00000E+00
    0.95727E+06        -0.22500E+07         0.00000E+00
    0.00000E+00         0.00000E+00         0.00000E+00
 
    0.13782E+07         0.10038E+07         0.00000E+00
    0.10038E+07        -0.22361E+07         0.00000E+00
    0.00000E+00         0.00000E+00         0.00000E+00
 
    0.13405E+07         0.10498E+07         0.00000E+00
    0.10498E+07        -0.22217E+07         0.00000E+00
    0.00000E+00         0.00000E+00         0.00000E+00
 
    0.13023E+07         0.10953E+07         0.00000E+00
    0.10953E+07        -0.22068E+07         0.00000E+00
    0.00000E+00         0.00000E+00         0.00000E+00
 
    0.12634E+07         0.11402E+07         0.00000E+00
    0.11402E+07        -0.21913E+07         0.00000E+00
    0.00000E+00         0.00000E+00         0.00000E+00
 
    0.12239E+07         0.11846E+07         0.00000E+00
    0.11846E+07        -0.21753E+07         0.00000E+00
    0.00000E+00         0.00000E+00         0.00000E+00
 
    0.11838E+07         0.12284E+07         0.00000E+00
    0.12284E+07        -0.21589E+07         0.00000E+00
    0.00000E+00         0.00000E+00         0.00000E+00
 
    0.11432E+07         0.12717E+07         0.00000E+00
    0.12717E+07        -0.21419E+07         0.00000E+00
    0.00000E+00         0.00000E+00         0.00000E+00
 
    0.11021E+07         0.13144E+07         0.00000E+00
    0.13144E+07        -0.21244E+07         0.00000E+00
    0.00000E+00         0.00000E+00         0.00000E+00
 
    0.10604E+07         0.13566E+07         0.00000E+00
    0.13566E+07        -0.21065E+07         0.00000E+00
    0.00000E+00         0.00000E+00         0.00000E+00
 
    0.10181E+07         0.13982E+07         0.00000E+00
    0.13982E+07        -0.20881E+07         0.00000E+00
    0.00000E+00         0.00000E+00         0.00000E+00
 
    0.97540E+06         0.14393E+07         0.00000E+00
    0.14393E+07        -0.20693E+07         0.00000E+00
    0.00000E+00         0.00000E+00         0.00000E+00
 
    0.93216E+06         0.14799E+07         0.00000E+00
    0.14799E+07        -0.20500E+07         0.00000E+00
    0.00000E+00         0.00000E+00         0.00000E+00
 
    0.88843E+06         0.15199E+07         0.00000E+00
    0.15199E+07        -0.20303E+07         0.00000E+00
    0.00000E+00         0.00000E+00         0.00000E+00
 
    0.84422E+06         0.15594E+07         0.00000E+00
    0.15594E+07        -0.20102E+07         0.00000E+00
    0.00000E+00         0.00000E+00         0.00000E+00
 
    0.79953E+06         0.15983E+07         0.00000E+00
    0.15983E+07        -0.19898E+07         0.00000E+00
    0.00000E+00         0.00000E+00         0.00000E+00
 
    0.75438E+06         0.16367E+07         0.00000E+00
    0.16367E+07        -0.19689E+07         0.00000E+00
    0.00000E+00         0.00000E+00         0.00000E+00
 
    0.70877E+06         0.16746E+07         0.00000E+00
    0.16746E+07        -0.19476E+07         0.00000E+00
    0.00000E+00         0.00000E+00         0.00000E+00
 
    0.66271E+06         0.17119E+07         0.00000E+00
    0.17119E+07        -0.19260E+07         0.00000E+00
    0.00000E+00         0.00000E+00         0.00000E+00
 
    0.61621E+06         0.17487E+07         0.00000E+00
    0.17487E+07        -0.19040E+07         0.00000E+00
    0.00000E+00         0.00000E+00         0.00000E+00
 
    0.56927E+06         0.17850E+07         0.00000E+00
    0.17850E+07        -0.18817E+07         0.00000E+00
    0.00000E+00         0.00000E+00         0.00000E+00
 
    0.52191E+06         0.18207E+07         0.00000E+00
    0.18207E+07        -0.18590E+07         0.00000E+00
    0.00000E+00         0.00000E+00         0.00000E+00
 
    0.47412E+06         0.18559E+07         0.00000E+00
    0.18559E+07        -0.18360E+07         0.00000E+00
    0.00000E+00         0.00000E+00         0.00000E+00
 
    0.42592E+06         0.18906E+07         0.00000E+00
    0.18906E+07        -0.18127E+07         0.00000E+00
    0.00000E+00         0.00000E+00         0.00000E+00
 
    0.37730E+06         0.19247E+07         0.00000E+00
    0.19247E+07        -0.17891E+07         0.00000E+00
    0.00000E+00         0.00000E+00         0.00000E+00
 
    0.32827E+06         0.19584E+07         0.00000E+00
    0.19584E+07        -0.17652E+07         0.00000E+00
    0.00000E+00         0.00000E+00         0.00000E+00
 
    0.27884E+06         0.19915E+07         0.00000E+00
    0.19915E+07        -0.17409E+07         0.00000E+00
    0.00000E+00         0.00000E+00         0.00000E+00
 
    0.22902E+06         0.20240E+07         0.00000E+00
    0.20240E+07        -0.17164E+07         0.00000E+00
    0.00000E+00         0.00000E+00         0.00000E+00
 
    0.17880E+06         0.20561E+07         0.00000E+00
    0.20561E+07        -0.16916E+07         0.00000E+00
    0.00000E+00         0.00000E+00         0.00000E+00
 
    0.12818E+06         0.20876E+07         0.00000E+00
    0.20876E+07        -0.16665E+07         0.00000E+00
    0.00000E+00         0.00000E+00         0.00000E+00
 
    0.77179E+05         0.21187E+07         0.00000E+00
    0.21187E+07        -0.16411E+07         0.00000E+00
    0.00000E+00         0.00000E+00         0.00000E+00
 
    0.25790E+05         0.21492E+07         0.00000E+00
    0.21492E+07        -0.16155E+07         0.00000E+00
    0.00000E+00         0.00000E+00         0.00000E+00
 
    0.20827E+07         0.30449E+05         0.00000E+00
    0.30449E+05        -0.25444E+07         0.00000E+00
    0.00000E+00         0.00000E+00         0.00000E+00
 
    0.20579E+07         0.89952E+05         0.00000E+00
    0.89952E+05        -0.25435E+07         0.00000E+00
    0.00000E+00         0.00000E+00         0.00000E+00
 
    0.20321E+07         0.14893E+06         0.00000E+00
    0.14893E+06        -0.25416E+07         0.00000E+00
    0.00000E+00         0.00000E+00         0.00000E+00
 
    0.20052E+07         0.20738E+06         0.00000E+00
    0.20738E+06        -0.25388E+07         0.00000E+00
    0.00000E+00         0.00000E+00         0.00000E+00
 
    0.19773E+07         0.26529E+06         0.00000E+00
    0.26529E+06        -0.25351E+07         0.00000E+00
    0.00000E+00         0.00000E+00         0.00000E+00
 
    0.19485E+07         0.32265E+06         0.00000E+00
    0.32265E+06        -0.25306E+07         0.00000E+00
    0.00000E+00         0.00000E+00         0.00000E+00
 
    0.19188E+07         0.37946E+06         0.00000E+00
    0.37946E+06        -0.25253E+07         0.00000E+00
    0.00000E+00         0.00000E+00         0.00000E+00
 
    0.18881E+07         0.43570E+06         0.00000E+00
    0.43570E+06        -0.25191E+07         0.00000E+00
    0.00000E+00         0.00000E+00         0.00000E+00
 
    0.18566E+07         0.49138E+06         0.00000E+00
    0.49138E+06        -0.25121E+07         0.00000E+00
    0.00000E+00         0.00000E+00         0.00000E+00
 
    0.18242E+07         0.54648E+06         0.00000E+00
    0.54648E+06        -0.25044E+07         0.00000E+00
    0.00000E+00         0.00000E+00         0.00000E+00
 
    0.17910E+07         0.60101E+06         0.00000E+00
    0.60101E+06        -0.24959E+07         0.00000E+00
    0.00000E+00         0.00000E+00         0.00000E+00
 
    0.17570E+07         0.65496E+06         0.00000E+00
    0.65496E+06        -0.24867E+07         0.00000E+00
    0.00000E+00         0.00000E+00         0.00000E+00
 
    0.17222E+07         0.70833E+06         0.00000E+00
    0.70833E+06        -0.24767E+07         0.00000E+00
    0.00000E+00         0.00000E+00         0.00000E+00
 
    0.16866E+07         0.76112E+06         0.00000E+00
    0.76112E+06        -0.24661E+07         0.00000E+00
    0.00000E+00         0.00000E+00         0.00000E+00
 
    0.16503E+07         0.81332E+06         0.00000E+00
    0.81332E+06        -0.24547E+07         0.00000E+00
    0.00000E+00         0.00000E+00         0.00000E+00
 
    0.16133E+07         0.86493E+06         0.00000E+00
    0.86493E+06        -0.24427E+07         0.00000E+00
    0.00000E+00         0.00000E+00         0.00000E+00
 
    0.15755E+07         0.91596E+06         0.00000E+00
    0.91596E+06        -0.24301E+07         0.00000E+00
    0.00000E+00         0.00000E+00         0.00000E+00
 
    0.15371E+07         0.96640E+06         0.00000E+00
    0.96640E+06        -0.24168E+07         0.00000E+00
    0.00000E+00         0.00000E+00         0.00000E+00
 
    0.14980E+07         0.10162E+07         0.00000E+00
    0.10162E+07        -0.24029E+07         0.00000E+00
    0.00000E+00         0.00000E+00         0.00000E+00
 
    0.14583E+07         0.10655E+07         0.00000E+00
    0.10655E+07        -0.23884E+07         0.00000E+00
    0.00000E+00         0.00000E+00         0.00000E+00
 
    0.14179E+07         0.11142E+07         0.00000E+00
    0.11142E+07        -0.23734E+07         0.00000E+00
    0.00000E+00         0.00000E+00         0.00000E+00
 
    0.13769E+07         0.11623E+07         0.00000E+00
    0.11623E+07        -0.23577E+07         0.00000E+00
    0.00000E+00         0.00000E+00         0.00000E+00
 
    0.13354E+07         0.12098E+07         0.00000E+00
    0.12098E+07        -0.23415E+07         0.00000E+00
    0.00000E+00         0.00000E+00         0.00000E+00
 
    0.12932E+07         0.12567E+07         0.00000E+00
    0.12567E+07        -0.23248E+07         0.00000E+00
    0.00000E+00         0.00000E+00         0.00000E+00
 
    0.12505E+07         0.13031E+07         0.00000E+00
    0.13031E+07        -0.23075E+07         0.00000E+00
    0.00000E+00         0.00000E+00         0.00000E+00
 
    0.12072E+07         0.13489E+07         0.00000E+00
    0.13489E+07        -0.22898E+07         0.00000E+00
    0.00000E+00         0.00000E+00         0.00000E+00
 
    0.11634E+07         0.13941E+07         0.00000E+00
    0.13941E+07        -0.22715E+07         0.00000E+00
    0.00000E+00         0.00000E+00         0.00000E+00
 
    0.11190E+07         0.14387E+07         0.00000E+00
    0.14387E+07        -0.22528E+07         0.00000E+00
    0.00000E+00         0.00000E+00         0.00000E+00
 
    0.10741E+07         0.14828E+07         0.00000E+00
    0.14828E+07        -0.22336E+07         0.00000E+00
    0.00000E+00         0.00000E+00         0.00000E+00
 
    0.10288E+07         0.15262E+07         0.00000E+00
    0.15262E+07        -0.22139E+07         0.00000E+00
    0.00000E+00         0.00000E+00         0.00000E+00
 
    0.98289E+06         0.15692E+07         0.00000E+00
    0.15692E+07        -0.21937E+07         0.00000E+00
    0.00000E+00         0.00000E+00         0.00000E+00
 
    0.93654E+06         0.16115E+07         0.00000E+00
    0.16115E+07        -0.21732E+07         0.00000E+00
    0.00000E+00         0.00000E+00         0.00000E+00
 
    0.88970E+06         0.16533E+07         0.00000E+00
    0.16533E+07        -0.21522E+07         0.00000E+00
    0.00000E+00         0.00000E+00         0.00000E+00
 
    0.84240E+06         0.16946E+07         0.00000E+00
    0.16946E+07        -0.21308E+07         0.00000E+00
    0.00000E+00         0.00000E+00         0.00000E+00
 
    0.79464E+06         0.17353E+07         0.00000E+00
    0.17353E+07        -0.21090E+07         0.00000E+00
    0.00000E+00         0.00000E+00         0.00000E+00
 
    0.74642E+06         0.17754E+07         0.00000E+00
    0.17754E+07        -0.20867E+07         0.00000E+00
    0.00000E+00         0.00000E+00         0.00000E+00
 
    0.69776E+06         0.18150E+07         0.00000E+00
    0.18150E+07        -0.20641E+07         0.00000E+00
    0.00000E+00         0.00000E+00         0.00000E+00
 
    0.64867E+06         0.18541E+07         0.00000E+00
    0.18541E+07        -0.20412E+07         0.00000E+00
    0.00000E+00         0.00000E+00         0.00000E+00
 
    0.59914E+06         0.18926E+07         0.00000E+00
    0.18926E+07        -0.20178E+07         0.00000E+00
    0.00000E+00         0.00000E+00         0.00000E+00
 
    0.54918E+06         0.19305E+07         0.00000E+00
    0.19305E+07        -0.19941E+07         0.00000E+00
    0.00000E+00         0.00000E+00         0.00000E+00
 
    0.49881E+06         0.19680E+07         0.00000E+00
    0.19680E+07        -0.19700E+07         0.00000E+00
    0.00000E+00         0.00000E+00         0.00000E+00
 
    0.44802E+06         0.20049E+07         0.00000E+00
    0.20049E+07        -0.19456E+07         0.00000E+00
    0.00000E+00         0.00000E+00         0.00000E+00
 
    0.39681E+06         0.20412E+07         0.00000E+00
    0.20412E+07        -0.19209E+07         0.00000E+00
    0.00000E+00         0.00000E+00         0.00000E+00
 
    0.34520E+06         0.20770E+07         0.00000E+00
    0.20770E+07        -0.18958E+07         0.00000E+00
    0.00000E+00         0.00000E+00         0.00000E+00
 
    0.29318E+06         0.21123E+07         0.00000E+00
    0.21123E+07        -0.18704E+07         0.00000E+00
    0.00000E+00         0.00000E+00         0.00000E+00
 
    0.24076E+06         0.21471E+07         0.00000E+00
    0.21471E+07        -0.18447E+07         0.00000E+00
    0.00000E+00         0.00000E+00         0.00000E+00
 
    0.18794E+06         0.21813E+07         0.00000E+00
    0.21813E+07        -0.18187E+07         0.00000E+00
    0.00000E+00         0.00000E+00         0.00000E+00
 
    0.13472E+06         0.22150E+07         0.00000E+00
    0.22150E+07        -0.17923E+07         0.00000E+00
    0.00000E+00         0.00000E+00         0.00000E+00
 
    0.81107E+05         0.22482E+07         0.00000E+00
    0.22482E+07        -0.17657E+07         0.00000E+00
    0.00000E+00         0.00000E+00         0.00000E+00
 
    0.27101E+05         0.22808E+07         0.00000E+00
    0.22808E+07        -0.17388E+07         0.00000E+00
    0.00000E+00         0.00000E+00         0.00000E+00
 
    0.22200E+07         0.32482E+05         0.00000E+00
    0.32482E+05        -0.27156E+07         0.00000E+00
    0.00000E+00         0.00000E+00         0.00000E+00
 
    0.21924E+07         0.95839E+05         0.00000E+00
    0.95839E+05        -0.27146E+07         0.00000E+00
    0.00000E+00         0.00000E+00         0.00000E+00
 
    0.21638E+07         0.15860E+06         0.00000E+00
    0.15860E+06        -0.27126E+07         0.00000E+00
    0.00000E+00         0.00000E+00         0.00000E+00
 
    0.21341E+07         0.22075E+06         0.00000E+00
    0.22075E+06        -0.27097E+07         0.00000E+00
    0.00000E+00         0.00000E+00         0.00000E+00
 
    0.21034E+07         0.28229E+06         0.00000E+00
    0.28229E+06        -0.27059E+07         0.00000E+00
    0.00000E+00         0.00000E+00         0.00000E+00
 
    0.20717E+07         0.34322E+06         0.00000E+00
    0.34322E+06        -0.27011E+07         0.00000E+00
    0.00000E+00         0.00000E+00         0.00000E+00
 
    0.20391E+07         0.40352E+06         0.00000E+00
    0.40352E+06        -0.26955E+07         0.00000E+00
    0.00000E+00         0.00000E+00         0.00000E+00
 
    0.20055E+07         0.46319E+06         0.00000E+00
    0.46319E+06        -0.26890E+07         0.00000E+00
    0.00000E+00         0.00000E+00         0.00000E+00
 
    0.19711E+07         0.52223E+06         0.00000E+00
    0.52223E+06        -0.26817E+07         0.00000E+00
    0.00000E+00         0.00000E+00         0.00000E+00
 
    0.19358E+07         0.58064E+06         0.00000E+00
    0.58064E+06        -0.26736E+07         0.00000E+00
    0.00000E+00         0.00000E+00         0.00000E+00
 
    0.18997E+07         0.63841E+06         0.00000E+00
    0.63841E+06        -0.26647E+07         0.00000E+00
    0.00000E+00         0.00000E+00         0.00000E+00
 
    0.18627E+07         0.69554E+06         0.00000E+00
    0.69554E+06        -0.26550E+07         0.00000E+00
    0.00000E+00         0.00000E+00         0.00000E+00
 
    0.18250E+07         0.75204E+06         0.00000E+00
    0.75204E+06        -0.26446E+07         0.00000E+00
    0.00000E+00         0.00000E+00         0.00000E+00
 
    0.17865E+07         0.80790E+06         0.00000E+00
    0.80790E+06        -0.26334E+07         0.00000E+00
    0.00000E+00         0.00000E+00         0.00000E+00
 
    0.17473E+07         0.86313E+06         0.00000E+00
    0.86313E+06        -0.26216E+07         0.00000E+00
    0.00000E+00         0.00000E+00         0.00000E+00
 
    0.17073E+07         0.91771E+06         0.00000E+00
    0.91771E+06        -0.26090E+07         0.00000E+00
    0.00000E+00         0.00000E+00         0.00000E+00
 
    0.16667E+07         0.97167E+06         0.00000E+00
    0.97167E+06        -0.25958E+07         0.00000E+00
    0.00000E+00         0.00000E+00         0.00000E+00
 
    0.16253E+07         0.10250E+07         0.00000E+00
    0.10250E+07        -0.25820E+07         0.00000E+00
    0.00000E+00         0.00000E+00         0.00000E+00
 
    0.15833E+07         0.10777E+07         0.00000E+00
    0.10777E+07        -0.25675E+07         0.00000E+00
    0.00000E+00         0.00000E+00         0.00000E+00
 
    0.15407E+07         0.11297E+07         0.00000E+00
    0.11297E+07        -0.25523E+07         0.00000E+00
    0.00000E+00         0.00000E+00         0.00000E+00
 
    0.14975E+07         0.11812E+07         0.00000E+00
    0.11812E+07        -0.25366E+07         0.00000E+00
    0.00000E+00         0.00000E+00         0.00000E+00
 
    0.14537E+07         0.12320E+07         0.00000E+00
    0.12320E+07        -0.25203E+07         0.00000E+00
    0.00000E+00         0.00000E+00         0.00000E+00
 
    0.14092E+07         0.12822E+07         0.00000E+00
    0.12822E+07        -0.25035E+07         0.00000E+00
    0.00000E+00         0.00000E+00         0.00000E+00
 
    0.13642E+07         0.13318E+07         0.00000E+00
    0.13318E+07        -0.24860E+07         0.00000E+00
    0.00000E+00         0.00000E+00         0.00000E+00
 
    0.13187E+07         0.13808E+07         0.00000E+00
    0.13808E+07        -0.24681E+07         0.00000E+00
    0.00000E+00         0.00000E+00         0.00000E+00
 
    0.12726E+07         0.14292E+07         0.00000E+00
    0.14292E+07        -0.24496E+07         0.00000E+00
    0.00000E+00         0.00000E+00         0.00000E+00
 
    0.12260E+07         0.14769E+07         0.00000E+00
    0.14769E+07        -0.24305E+07         0.00000E+00
    0.00000E+00         0.00000E+00         0.00000E+00
 
    0.11789E+07         0.15241E+07         0.00000E+00
    0.15241E+07        -0.24110E+07         0.00000E+00
    0.00000E+00         0.00000E+00         0.00000E+00
 
    0.11312E+07         0.15707E+07         0.00000E+00
    0.15707E+07        -0.23910E+07         0.00000E+00
    0.00000E+00         0.00000E+00         0.00000E+00
 
    0.10831E+07         0.16167E+07         0.00000E+00
    0.16167E+07        -0.23705E+07         0.00000E+00
    0.00000E+00         0.00000E+00         0.00000E+00
 
    0.10345E+07         0.16621E+07         0.00000E+00
    0.16621E+07        -0.23496E+07         0.00000E+00
    0.00000E+00         0.00000E+00         0.00000E+00
 
    0.98544E+06         0.17069E+07         0.00000E+00
    0.17069E+07        -0.23282E+07         0.00000E+00
    0.00000E+00         0.00000E+00         0.00000E+00
 
    0.93590E+06         0.17512E+07         0.00000E+00
    0.17512E+07        -0.23063E+07         0.00000E+00
    0.00000E+00         0.00000E+00         0.00000E+00
 
    0.88591E+06         0.17949E+07         0.00000E+00
    0.17949E+07        -0.22840E+07         0.00000E+00
    0.00000E+00         0.00000E+00         0.00000E+00
 
    0.83546E+06         0.18380E+07         0.00000E+00
    0.18380E+07        -0.22613E+07         0.00000E+00
    0.00000E+00         0.00000E+00         0.00000E+00
 
    0.78458E+06         0.18805E+07         0.00000E+00
    0.18805E+07        -0.22382E+07         0.00000E+00
    0.00000E+00         0.00000E+00         0.00000E+00
 
    0.73326E+06         0.19225E+07         0.00000E+00
    0.19225E+07        -0.22146E+07         0.00000E+00
    0.00000E+00         0.00000E+00         0.00000E+00
 
    0.68151E+06         0.19640E+07         0.00000E+00
    0.19640E+07        -0.21907E+07         0.00000E+00
    0.00000E+00         0.00000E+00         0.00000E+00
 
    0.62934E+06         0.20049E+07         0.00000E+00
    0.20049E+07        -0.21663E+07         0.00000E+00
    0.00000E+00         0.00000E+00         0.00000E+00
 
    0.57675E+06         0.20452E+07         0.00000E+00
    0.20452E+07        -0.21416E+07         0.00000E+00
    0.00000E+00         0.00000E+00         0.00000E+00
 
    0.52374E+06         0.20850E+07         0.00000E+00
    0.20850E+07        -0.21165E+07         0.00000E+00
    0.00000E+00         0.00000E+00         0.00000E+00
 
    0.47032E+06         0.21242E+07         0.00000E+00
    0.21242E+07        -0.20910E+07         0.00000E+00
    0.00000E+00         0.00000E+00         0.00000E+00
 
    0.41649E+06         0.21629E+07         0.00000E+00
    0.21629E+07        -0.20652E+07         0.00000E+00
    0.00000E+00         0.00000E+00         0.00000E+00
 
    0.36226E+06         0.22011E+07         0.00000E+00
    0.22011E+07        -0.20390E+07         0.00000E+00
    0.00000E+00         0.00000E+00         0.00000E+00
 
    0.30762E+06         0.22387E+07         0.00000E+00
    0.22387E+07        -0.20125E+07         0.00000E+00
    0.00000E+00         0.00000E+00         0.00000E+00
 
    0.25258E+06         0.22758E+07         0.00000E+00
    0.22758E+07        -0.19856E+07         0.00000E+00
    0.00000E+00         0.00000E+00         0.00000E+00
 
    0.19714E+06         0.23124E+07         0.00000E+00
    0.23124E+07        -0.19584E+07         0.00000E+00
    0.00000E+00         0.00000E+00         0.00000E+00
 
    0.14130E+06         0.23484E+07         0.00000E+00
    0.23484E+07        -0.19308E+07         0.00000E+00
    0.00000E+00         0.00000E+00         0.00000E+00
 
    0.85061E+05         0.23839E+07         0.00000E+00
    0.23839E+07        -0.19030E+07         0.00000E+00
    0.00000E+00         0.00000E+00         0.00000E+00
 
    0.28420E+05         0.24189E+07         0.00000E+00
    0.24189E+07        -0.18748E+07         0.00000E+00
    0.00000E+00         0.00000E+00         0.00000E+00
 
    0.23649E+07         0.34621E+05         0.00000E+00
    0.34621E+05        -0.28991E+07         0.00000E+00
    0.00000E+00         0.00000E+00         0.00000E+00
 
    0.23342E+07         0.10201E+06         0.00000E+00
    0.10201E+06        -0.28981E+07         0.00000E+00
    0.00000E+00         0.00000E+00         0.00000E+00
 
    0.23023E+07         0.16871E+06         0.00000E+00
    0.16871E+06        -0.28960E+07         0.00000E+00
    0.00000E+00         0.00000E+00         0.00000E+00
 
    0.22694E+07         0.23473E+06         0.00000E+00
    0.23473E+06        -0.28929E+07         0.00000E+00
    0.00000E+00         0.00000E+00         0.00000E+00
 
    0.22355E+07         0.30005E+06         0.00000E+00
    0.30005E+06        -0.28889E+07         0.00000E+00
    0.00000E+00         0.00000E+00         0.00000E+00
 
    0.22006E+07         0.36468E+06         0.00000E+00
    0.36468E+06        -0.28839E+07         0.00000E+00
    0.00000E+00         0.00000E+00         0.00000E+00
 
    0.21648E+07         0.42860E+06         0.00000E+00
    0.42860E+06        -0.28780E+07         0.00000E+00
    0.00000E+00         0.00000E+00         0.00000E+00
 
    0.21280E+07         0.49183E+06         0.00000E+00
    0.49183E+06        -0.28713E+07         0.00000E+00
    0.00000E+00         0.00000E+00         0.00000E+00
 
    0.20903E+07         0.55435E+06         0.00000E+00
    0.55435E+06        -0.28636E+07         0.00000E+00
    0.00000E+00         0.00000E+00         0.00000E+00
 
    0.20518E+07         0.61617E+06         0.00000E+00
    0.61617E+06        -0.28551E+07         0.00000E+00
    0.00000E+00         0.00000E+00         0.00000E+00
 
    0.20124E+07         0.67729E+06         0.00000E+00
    0.67729E+06        -0.28459E+07         0.00000E+00
    0.00000E+00         0.00000E+00         0.00000E+00
 
    0.19722E+07         0.73771E+06         0.00000E+00
    0.73771E+06        -0.28358E+07         0.00000E+00
    0.00000E+00         0.00000E+00         0.00000E+00
 
    0.19313E+07         0.79744E+06         0.00000E+00
    0.79744E+06        -0.28249E+07         0.00000E+00
    0.00000E+00         0.00000E+00         0.00000E+00
 
    0.18896E+07         0.85647E+06         0.00000E+00
    0.85647E+06        -0.28133E+07         0.00000E+00
    0.00000E+00         0.00000E+00         0.00000E+00
 
    0.18472E+07         0.91480E+06         0.00000E+00
    0.91480E+06        -0.28010E+07         0.00000E+00
    0.00000E+00         0.00000E+00         0.00000E+00
 
    0.18041E+07         0.97246E+06         0.00000E+00
    0.97246E+06        -0.27880E+07         0.00000E+00
    0.00000E+00         0.00000E+00         0.00000E+00
 
    0.17603E+07         0.10294E+07         0.00000E+00
    0.10294E+07        -0.27742E+07         0.00000E+00
    0.00000E+00         0.00000E+00         0.00000E+00
 
    0.17159E+07         0.10857E+07         0.00000E+00
    0.10857E+07        -0.27598E+07         0.00000E+00
    0.00000E+00         0.00000E+00         0.00000E+00
 
    0.16708E+07         0.11413E+07         0.00000E+00
    0.11413E+07        -0.27448E+07         0.00000E+00
    0.00000E+00         0.00000E+00         0.00000E+00
 
    0.16251E+07         0.11963E+07         0.00000E+00
    0.11963E+07        -0.27291E+07         0.00000E+00
    0.00000E+00         0.00000E+00         0.00000E+00
 
    0.15788E+07         0.12506E+07         0.00000E+00
    0.12506E+07        -0.27128E+07         0.00000E+00
    0.00000E+00         0.00000E+00         0.00000E+00
 
    0.15319E+07         0.13042E+07         0.00000E+00
    0.13042E+07        -0.26959E+07         0.00000E+00
    0.00000E+00         0.00000E+00         0.00000E+00
 
    0.14845E+07         0.13572E+07         0.00000E+00
    0.13572E+07        -0.26784E+07         0.00000E+00
    0.00000E+00         0.00000E+00         0.00000E+00
 
    0.14365E+07         0.14095E+07         0.00000E+00
    0.14095E+07        -0.26604E+07         0.00000E+00
    0.00000E+00         0.00000E+00         0.00000E+00
 
    0.13880E+07         0.14612E+07         0.00000E+00
    0.14612E+07        -0.26417E+07         0.00000E+00
    0.00000E+00         0.00000E+00         0.00000E+00
 
    0.13390E+07         0.15123E+07         0.00000E+00
    0.15123E+07        -0.26226E+07         0.00000E+00
    0.00000E+00         0.00000E+00         0.00000E+00
 
    0.12895E+07         0.15627E+07         0.00000E+00
    0.15627E+07        -0.26029E+07         0.00000E+00
    0.00000E+00         0.00000E+00         0.00000E+00
 
    0.12395E+07         0.16126E+07         0.00000E+00
    0.16126E+07        -0.25827E+07         0.00000E+00
    0.00000E+00         0.00000E+00         0.00000E+00
 
    0.11890E+07         0.16618E+07         0.00000E+00
    0.16618E+07        -0.25619E+07         0.00000E+00
    0.00000E+00         0.00000E+00         0.00000E+00
 
    0.11380E+07         0.17104E+07         0.00000E+00
    0.17104E+07        -0.25407E+07         0.00000E+00
    0.00000E+00         0.00000E+00         0.00000E+00
 
    0.10866E+07         0.17584E+07         0.00000E+00
    0.17584E+07        -0.25190E+07         0.00000E+00
    0.00000E+00         0.00000E+00         0.00000E+00
 
    0.10347E+07         0.18058E+07         0.00000E+00
    0.18058E+07        -0.24968E+07         0.00000E+00
    0.00000E+00         0.00000E+00         0.00000E+00
 
    0.98240E+06         0.18526E+07         0.00000E+00
    0.18526E+07        -0.24742E+07         0.00000E+00
    0.00000E+00         0.00000E+00         0.00000E+00
 
    0.92965E+06         0.18989E+07         0.00000E+00
    0.18989E+07        -0.24510E+07         0.00000E+00
    0.00000E+00         0.00000E+00         0.00000E+00
 
    0.87647E+06         0.19446E+07         0.00000E+00
    0.19446E+07        -0.24275E+07         0.00000E+00
    0.00000E+00         0.00000E+00         0.00000E+00
 
    0.82287E+06         0.19897E+07         0.00000E+00
    0.19897E+07        -0.24035E+07         0.00000E+00
    0.00000E+00         0.00000E+00         0.00000E+00
 
    0.76885E+06         0.20342E+07         0.00000E+00
    0.20342E+07        -0.23791E+07         0.00000E+00
    0.00000E+00         0.00000E+00         0.00000E+00
 
    0.71442E+06         0.20782E+07         0.00000E+00
    0.20782E+07        -0.23542E+07         0.00000E+00
    0.00000E+00         0.00000E+00         0.00000E+00
 
    0.65957E+06         0.21216E+07         0.00000E+00
    0.21216E+07        -0.23289E+07         0.00000E+00
    0.00000E+00         0.00000E+00         0.00000E+00
 
    0.60432E+06         0.21644E+07         0.00000E+00
    0.21644E+07        -0.23033E+07         0.00000E+00
    0.00000E+00         0.00000E+00         0.00000E+00
 
    0.54867E+06         0.22068E+07         0.00000E+00
    0.22068E+07        -0.22772E+07         0.00000E+00
    0.00000E+00         0.00000E+00         0.00000E+00
 
    0.49261E+06         0.22485E+07         0.00000E+00
    0.22485E+07        -0.22507E+07         0.00000E+00
    0.00000E+00         0.00000E+00         0.00000E+00
 
    0.43615E+06         0.22898E+07         0.00000E+00
    0.22898E+07        -0.22238E+07         0.00000E+00
    0.00000E+00         0.00000E+00         0.00000E+00
 
    0.37929E+06         0.23305E+07         0.00000E+00
    0.23305E+07        -0.21966E+07         0.00000E+00
    0.00000E+00         0.00000E+00         0.00000E+00
 
    0.32203E+06         0.23706E+07         0.00000E+00
    0.23706E+07        -0.21689E+07         0.00000E+00
    0.00000E+00         0.00000E+00         0.00000E+00
 
    0.26438E+06         0.24103E+07         0.00000E+00
    0.24103E+07        -0.21409E+07         0.00000E+00
    0.00000E+00         0.00000E+00         0.00000E+00
 
    0.20632E+06         0.24494E+07         0.00000E+00
    0.24494E+07        -0.21125E+07         0.00000E+00
    0.00000E+00         0.00000E+00         0.00000E+00
 
    0.14786E+06         0.24880E+07         0.00000E+00
    0.24880E+07        -0.20838E+07         0.00000E+00
    0.00000E+00         0.00000E+00         0.00000E+00
 
    0.88999E+05         0.25260E+07         0.00000E+00
    0.25260E+07        -0.20547E+07         0.00000E+00
    0.00000E+00         0.00000E+00         0.00000E+00
 
    0.29734E+05         0.25635E+07         0.00000E+00
    0.25635E+07        -0.20252E+07         0.00000E+00
    0.00000E+00         0.00000E+00         0.00000E+00
 
    0.25172E+07         0.36858E+05         0.00000E+00
    0.36858E+05        -0.30960E+07         0.00000E+00
    0.00000E+00         0.00000E+00         0.00000E+00
 
    0.24829E+07         0.10844E+06         0.00000E+00
    0.10844E+06        -0.30949E+07         0.00000E+00
    0.00000E+00         0.00000E+00         0.00000E+00
 
    0.24474E+07         0.17924E+06         0.00000E+00
    0.17924E+06        -0.30928E+07         0.00000E+00
    0.00000E+00         0.00000E+00         0.00000E+00
 
    0.24109E+07         0.24925E+06         0.00000E+00
    0.24925E+06        -0.30896E+07         0.00000E+00
    0.00000E+00         0.00000E+00         0.00000E+00
 
    0.23733E+07         0.31849E+06         0.00000E+00
    0.31849E+06        -0.30853E+07         0.00000E+00
    0.00000E+00         0.00000E+00         0.00000E+00
 
    0.23348E+07         0.38693E+06         0.00000E+00
    0.38693E+06        -0.30802E+07         0.00000E+00
    0.00000E+00         0.00000E+00         0.00000E+00
 
    0.22953E+07         0.45459E+06         0.00000E+00
    0.45459E+06        -0.30740E+07         0.00000E+00
    0.00000E+00         0.00000E+00         0.00000E+00
 
    0.22549E+07         0.52147E+06         0.00000E+00
    0.52147E+06        -0.30670E+07         0.00000E+00
    0.00000E+00         0.00000E+00         0.00000E+00
 
    0.22136E+07         0.58757E+06         0.00000E+00
    0.58757E+06        -0.30591E+07         0.00000E+00
    0.00000E+00         0.00000E+00         0.00000E+00
 
    0.21715E+07         0.65290E+06         0.00000E+00
    0.65290E+06        -0.30503E+07         0.00000E+00
    0.00000E+00         0.00000E+00         0.00000E+00
 
    0.21286E+07         0.71745E+06         0.00000E+00
    0.71745E+06        -0.30407E+07         0.00000E+00
    0.00000E+00         0.00000E+00         0.00000E+00
 
    0.20849E+07         0.78124E+06         0.00000E+00
    0.78124E+06        -0.30302E+07         0.00000E+00
    0.00000E+00         0.00000E+00         0.00000E+00
 
    0.20404E+07         0.84427E+06         0.00000E+00
    0.84427E+06        -0.30190E+07         0.00000E+00
    0.00000E+00         0.00000E+00         0.00000E+00
 
    0.19953E+07         0.90654E+06         0.00000E+00
    0.90654E+06        -0.30070E+07         0.00000E+00
    0.00000E+00         0.00000E+00         0.00000E+00
 
    0.19494E+07         0.96807E+06         0.00000E+00
    0.96807E+06        -0.29943E+07         0.00000E+00
    0.00000E+00         0.00000E+00         0.00000E+00
 
    0.19029E+07         0.10289E+07         0.00000E+00
    0.10289E+07        -0.29808E+07         0.00000E+00
    0.00000E+00         0.00000E+00         0.00000E+00
 
    0.18557E+07         0.10889E+07         0.00000E+00
    0.10889E+07        -0.29667E+07         0.00000E+00
    0.00000E+00         0.00000E+00         0.00000E+00
 
    0.18079E+07         0.11482E+07         0.00000E+00
    0.11482E+07        -0.29518E+07         0.00000E+00
    0.00000E+00         0.00000E+00         0.00000E+00
 
    0.17596E+07         0.12069E+07         0.00000E+00
    0.12069E+07        -0.29363E+07         0.00000E+00
    0.00000E+00         0.00000E+00         0.00000E+00
 
    0.17106E+07         0.12648E+07         0.00000E+00
    0.12648E+07        -0.29201E+07         0.00000E+00
    0.00000E+00         0.00000E+00         0.00000E+00
 
    0.16611E+07         0.13220E+07         0.00000E+00
    0.13220E+07        -0.29033E+07         0.00000E+00
    0.00000E+00         0.00000E+00         0.00000E+00
 
    0.16110E+07         0.13785E+07         0.00000E+00
    0.13785E+07        -0.28859E+07         0.00000E+00
    0.00000E+00         0.00000E+00         0.00000E+00
 
    0.15604E+07         0.14343E+07         0.00000E+00
    0.14343E+07        -0.28679E+07         0.00000E+00
    0.00000E+00         0.00000E+00         0.00000E+00
 
    0.15093E+07         0.14895E+07         0.00000E+00
    0.14895E+07        -0.28493E+07         0.00000E+00
    0.00000E+00         0.00000E+00         0.00000E+00
 
    0.14577E+07         0.15440E+07         0.00000E+00
    0.15440E+07        -0.28301E+07         0.00000E+00
    0.00000E+00         0.00000E+00         0.00000E+00
 
    0.14057E+07         0.15979E+07         0.00000E+00
    0.15979E+07        -0.28104E+07         0.00000E+00
    0.00000E+00         0.00000E+00         0.00000E+00
 
    0.13531E+07         0.16511E+07         0.00000E+00
    0.16511E+07        -0.27901E+07         0.00000E+00
    0.00000E+00         0.00000E+00         0.00000E+00
 
    0.13001E+07         0.17037E+07         0.00000E+00
    0.17037E+07        -0.27693E+07         0.00000E+00
    0.00000E+00         0.00000E+00         0.00000E+00
 
    0.12467E+07         0.17556E+07         0.00000E+00
    0.17556E+07        -0.27479E+07         0.00000E+00
    0.00000E+00         0.00000E+00         0.00000E+00
 
    0.11928E+07         0.18069E+07         0.00000E+00
    0.18069E+07        -0.27260E+07         0.00000E+00
    0.00000E+00         0.00000E+00         0.00000E+00
 
    0.11385E+07         0.18577E+07         0.00000E+00
    0.18577E+07        -0.27037E+07         0.00000E+00
    0.00000E+00         0.00000E+00         0.00000E+00
 
    0.10838E+07         0.19078E+07         0.00000E+00
    0.19078E+07        -0.26808E+07         0.00000E+00
    0.00000E+00         0.00000E+00         0.00000E+00
 
    0.10287E+07         0.19573E+07         0.00000E+00
    0.19573E+07        -0.26575E+07         0.00000E+00
    0.00000E+00         0.00000E+00         0.00000E+00
 
    0.97314E+06         0.20062E+07         0.00000E+00
    0.20062E+07        -0.26336E+07         0.00000E+00
    0.00000E+00         0.00000E+00         0.00000E+00
 
    0.91720E+06         0.20546E+07         0.00000E+00
    0.20546E+07        -0.26093E+07         0.00000E+00
    0.00000E+00         0.00000E+00         0.00000E+00
 
    0.86086E+06         0.21024E+07         0.00000E+00
    0.21024E+07        -0.25846E+07         0.00000E+00
    0.00000E+00         0.00000E+00         0.00000E+00
 
    0.80413E+06         0.21496E+07         0.00000E+00
    0.21496E+07        -0.25594E+07         0.00000E+00
    0.00000E+00         0.00000E+00         0.00000E+00
 
    0.74700E+06         0.21963E+07         0.00000E+00
    0.21963E+07        -0.25337E+07         0.00000E+00
    0.00000E+00         0.00000E+00         0.00000E+00
 
    0.68949E+06         0.22424E+07         0.00000E+00
    0.22424E+07        -0.25076E+07         0.00000E+00
    0.00000E+00         0.00000E+00         0.00000E+00
 
    0.63158E+06         0.22880E+07         0.00000E+00
    0.22880E+07        -0.24810E+07         0.00000E+00
    0.00000E+00         0.00000E+00         0.00000E+00
 
    0.57329E+06         0.23330E+07         0.00000E+00
    0.23330E+07        -0.24540E+07         0.00000E+00
    0.00000E+00         0.00000E+00         0.00000E+00
 
    0.51461E+06         0.23775E+07         0.00000E+00
    0.23775E+07        -0.24266E+07         0.00000E+00
    0.00000E+00         0.00000E+00         0.00000E+00
 
    0.45554E+06         0.24214E+07         0.00000E+00
    0.24214E+07        -0.23988E+07         0.00000E+00
    0.00000E+00         0.00000E+00         0.00000E+00
 
    0.39608E+06         0.24649E+07         0.00000E+00
    0.24649E+07        -0.23705E+07         0.00000E+00
    0.00000E+00         0.00000E+00         0.00000E+00
 
    0.33624E+06         0.25078E+07         0.00000E+00
    0.25078E+07        -0.23418E+07         0.00000E+00
    0.00000E+00         0.00000E+00         0.00000E+00
 
    0.27599E+06         0.25502E+07         0.00000E+00
    0.25502E+07        -0.23127E+07         0.00000E+00
    0.00000E+00         0.00000E+00         0.00000E+00
 
    0.21535E+06         0.25920E+07         0.00000E+00
    0.25920E+07        -0.22832E+07         0.00000E+00
    0.00000E+00         0.00000E+00         0.00000E+00
 
    0.15432E+06         0.26334E+07         0.00000E+00
    0.26334E+07        -0.22533E+07         0.00000E+00
    0.00000E+00         0.00000E+00         0.00000E+00
 
    0.92874E+05         0.26742E+07         0.00000E+00
    0.26742E+07        -0.22230E+07         0.00000E+00
    0.00000E+00         0.00000E+00         0.00000E+00
 
    0.31026E+05         0.27145E+07         0.00000E+00
    0.27145E+07        -0.21922E+07         0.00000E+00
    0.00000E+00         0.00000E+00         0.00000E+00
 
    0.26766E+07         0.39181E+05         0.00000E+00
    0.39181E+05        -0.33075E+07         0.00000E+00
    0.00000E+00         0.00000E+00         0.00000E+00
 
    0.26380E+07         0.11509E+06         0.00000E+00
    0.11509E+06        -0.33064E+07         0.00000E+00
    0.00000E+00         0.00000E+00         0.00000E+00
 
    0.25984E+07         0.19010E+06         0.00000E+00
    0.19010E+06        -0.33041E+07         0.00000E+00
    0.00000E+00         0.00000E+00         0.00000E+00
 
    0.25577E+07         0.26423E+06         0.00000E+00
    0.26423E+06        -0.33008E+07         0.00000E+00
    0.00000E+00         0.00000E+00         0.00000E+00
 
    0.25161E+07         0.33747E+06         0.00000E+00
    0.33747E+06        -0.32965E+07         0.00000E+00
    0.00000E+00         0.00000E+00         0.00000E+00
 
    0.24734E+07         0.40982E+06         0.00000E+00
    0.40982E+06        -0.32911E+07         0.00000E+00
    0.00000E+00         0.00000E+00         0.00000E+00
 
    0.24299E+07         0.48130E+06         0.00000E+00
    0.48130E+06        -0.32848E+07         0.00000E+00
    0.00000E+00         0.00000E+00         0.00000E+00
 
    0.23855E+07         0.55191E+06         0.00000E+00
    0.55191E+06        -0.32776E+07         0.00000E+00
    0.00000E+00         0.00000E+00         0.00000E+00
 
    0.23402E+07         0.62166E+06         0.00000E+00
    0.62166E+06        -0.32694E+07         0.00000E+00
    0.00000E+00         0.00000E+00         0.00000E+00
 
    0.22941E+07         0.69055E+06         0.00000E+00
    0.69055E+06        -0.32604E+07         0.00000E+00
    0.00000E+00         0.00000E+00         0.00000E+00
 
    0.22473E+07         0.75859E+06         0.00000E+00
    0.75859E+06        -0.32505E+07         0.00000E+00
    0.00000E+00         0.00000E+00         0.00000E+00
 
    0.21997E+07         0.82580E+06         0.00000E+00
    0.82580E+06        -0.32397E+07         0.00000E+00
    0.00000E+00         0.00000E+00         0.00000E+00
 
    0.21515E+07         0.89219E+06         0.00000E+00
    0.89219E+06        -0.32282E+07         0.00000E+00
    0.00000E+00         0.00000E+00         0.00000E+00
 
    0.21025E+07         0.95776E+06         0.00000E+00
    0.95776E+06        -0.32159E+07         0.00000E+00
    0.00000E+00         0.00000E+00         0.00000E+00
 
    0.20530E+07         0.10225E+07         0.00000E+00
    0.10225E+07        -0.32029E+07         0.00000E+00
    0.00000E+00         0.00000E+00         0.00000E+00
 
    0.20028E+07         0.10865E+07         0.00000E+00
    0.10865E+07        -0.31891E+07         0.00000E+00
    0.00000E+00         0.00000E+00         0.00000E+00
 
    0.19520E+07         0.11497E+07         0.00000E+00
    0.11497E+07        -0.31746E+07         0.00000E+00
    0.00000E+00         0.00000E+00         0.00000E+00
 
    0.19006E+07         0.12121E+07         0.00000E+00
    0.12121E+07        -0.31594E+07         0.00000E+00
    0.00000E+00         0.00000E+00         0.00000E+00
 
    0.18487E+07         0.12738E+07         0.00000E+00
    0.12738E+07        -0.31435E+07         0.00000E+00
    0.00000E+00         0.00000E+00         0.00000E+00
 
    0.17963E+07         0.13347E+07         0.00000E+00
    0.13347E+07        -0.31269E+07         0.00000E+00
    0.00000E+00         0.00000E+00         0.00000E+00
 
    0.17434E+07         0.13949E+07         0.00000E+00
    0.13949E+07        -0.31098E+07         0.00000E+00
    0.00000E+00         0.00000E+00         0.00000E+00
 
    0.16900E+07         0.14544E+07         0.00000E+00
    0.14544E+07        -0.30920E+07         0.00000E+00
    0.00000E+00         0.00000E+00         0.00000E+00
 
    0.16361E+07         0.15131E+07         0.00000E+00
    0.15131E+07        -0.30735E+07         0.00000E+00
    0.00000E+00         0.00000E+00         0.00000E+00
 
    0.15818E+07         0.15712E+07         0.00000E+00
    0.15712E+07        -0.30545E+07         0.00000E+00
    0.00000E+00         0.00000E+00         0.00000E+00
 
    0.15270E+07         0.16286E+07         0.00000E+00
    0.16286E+07        -0.30349E+07         0.00000E+00
    0.00000E+00         0.00000E+00         0.00000E+00
 
    0.14718E+07         0.16853E+07         0.00000E+00
    0.16853E+07        -0.30147E+07         0.00000E+00
    0.00000E+00         0.00000E+00         0.00000E+00
 
    0.14161E+07         0.17414E+07         0.00000E+00
    0.17414E+07        -0.29940E+07         0.00000E+00
    0.00000E+00         0.00000E+00         0.00000E+00
 
    0.13601E+07         0.17968E+07         0.00000E+00
    0.17968E+07        -0.29727E+07         0.00000E+00
    0.00000E+00         0.00000E+00         0.00000E+00
 
    0.13037E+07         0.18516E+07         0.00000E+00
    0.18516E+07        -0.29509E+07         0.00000E+00
    0.00000E+00         0.00000E+00         0.00000E+00
 
    0.12468E+07         0.19057E+07         0.00000E+00
    0.19057E+07        -0.29285E+07         0.00000E+00
    0.00000E+00         0.00000E+00         0.00000E+00
 
    0.11896E+07         0.19593E+07         0.00000E+00
    0.19593E+07        -0.29056E+07         0.00000E+00
    0.00000E+00         0.00000E+00         0.00000E+00
 
    0.11320E+07         0.20122E+07         0.00000E+00
    0.20122E+07        -0.28822E+07         0.00000E+00
    0.00000E+00         0.00000E+00         0.00000E+00
 
    0.10741E+07         0.20646E+07         0.00000E+00
    0.20646E+07        -0.28583E+07         0.00000E+00
    0.00000E+00         0.00000E+00         0.00000E+00
 
    0.10158E+07         0.21164E+07         0.00000E+00
    0.21164E+07        -0.28339E+07         0.00000E+00
    0.00000E+00         0.00000E+00         0.00000E+00
 
    0.95706E+06         0.21676E+07         0.00000E+00
    0.21676E+07        -0.28090E+07         0.00000E+00
    0.00000E+00         0.00000E+00         0.00000E+00
 
    0.89800E+06         0.22182E+07         0.00000E+00
    0.22182E+07        -0.27836E+07         0.00000E+00
    0.00000E+00         0.00000E+00         0.00000E+00
 
    0.83857E+06         0.22683E+07         0.00000E+00
    0.22683E+07        -0.27577E+07         0.00000E+00
    0.00000E+00         0.00000E+00         0.00000E+00
 
    0.77879E+06         0.23178E+07         0.00000E+00
    0.23178E+07        -0.27313E+07         0.00000E+00
    0.00000E+00         0.00000E+00         0.00000E+00
 
    0.71864E+06         0.23668E+07         0.00000E+00
    0.23668E+07        -0.27045E+07         0.00000E+00
    0.00000E+00         0.00000E+00         0.00000E+00
 
    0.65813E+06         0.24153E+07         0.00000E+00
    0.24153E+07        -0.26771E+07         0.00000E+00
    0.00000E+00         0.00000E+00         0.00000E+00
 
    0.59725E+06         0.24632E+07         0.00000E+00
    0.24632E+07        -0.26494E+07         0.00000E+00
    0.00000E+00         0.00000E+00         0.00000E+00
 
    0.53600E+06         0.25106E+07         0.00000E+00
    0.25106E+07        -0.26211E+07         0.00000E+00
    0.00000E+00         0.00000E+00         0.00000E+00
 
    0.47438E+06         0.25575E+07         0.00000E+00
    0.25575E+07        -0.25924E+07         0.00000E+00
    0.00000E+00         0.00000E+00         0.00000E+00
 
    0.41239E+06         0.26039E+07         0.00000E+00
    0.26039E+07        -0.25632E+07         0.00000E+00
    0.00000E+00         0.00000E+00         0.00000E+00
 
    0.35002E+06         0.26498E+07         0.00000E+00
    0.26498E+07        -0.25335E+07         0.00000E+00
    0.00000E+00         0.00000E+00         0.00000E+00
 
    0.28726E+06         0.26952E+07         0.00000E+00
    0.26952E+07        -0.25034E+07         0.00000E+00
    0.00000E+00         0.00000E+00         0.00000E+00
 
    0.22411E+06         0.27401E+07         0.00000E+00
    0.27401E+07        -0.24729E+07         0.00000E+00
    0.00000E+00         0.00000E+00         0.00000E+00
 
    0.16057E+06         0.27845E+07         0.00000E+00
    0.27845E+07        -0.24419E+07         0.00000E+00
    0.00000E+00         0.00000E+00         0.00000E+00
 
    0.96629E+05         0.28284E+07         0.00000E+00
    0.28284E+07        -0.24104E+07         0.00000E+00
    0.00000E+00         0.00000E+00         0.00000E+00
 
    0.32278E+05         0.28718E+07         0.00000E+00
    0.28718E+07        -0.23785E+07         0.00000E+00
    0.00000E+00         0.00000E+00         0.00000E+00
 
    0.28421E+07         0.41573E+05         0.00000E+00
    0.41573E+05        -0.35350E+07         0.00000E+00
    0.00000E+00         0.00000E+00         0.00000E+00
 
    0.27988E+07         0.12190E+06         0.00000E+00
    0.12190E+06        -0.35339E+07         0.00000E+00
    0.00000E+00         0.00000E+00         0.00000E+00
 
    0.27544E+07         0.20122E+06         0.00000E+00
    0.20122E+06        -0.35315E+07         0.00000E+00
    0.00000E+00         0.00000E+00         0.00000E+00
 
    0.27091E+07         0.27952E+06         0.00000E+00
    0.27952E+06        -0.35281E+07         0.00000E+00
    0.00000E+00         0.00000E+00         0.00000E+00
 
    0.26628E+07         0.35683E+06         0.00000E+00
    0.35683E+06        -0.35237E+07         0.00000E+00
    0.00000E+00         0.00000E+00         0.00000E+00
 
    0.26155E+07         0.43314E+06         0.00000E+00
    0.43314E+06        -0.35182E+07         0.00000E+00
    0.00000E+00         0.00000E+00         0.00000E+00
 
    0.25675E+07         0.50848E+06         0.00000E+00
    0.50848E+06        -0.35118E+07         0.00000E+00
    0.00000E+00         0.00000E+00         0.00000E+00
 
    0.25186E+07         0.58286E+06         0.00000E+00
    0.58286E+06        -0.35044E+07         0.00000E+00
    0.00000E+00         0.00000E+00         0.00000E+00
 
    0.24689E+07         0.65628E+06         0.00000E+00
    0.65628E+06        -0.34960E+07         0.00000E+00
    0.00000E+00         0.00000E+00         0.00000E+00
 
    0.24185E+07         0.72876E+06         0.00000E+00
    0.72876E+06        -0.34868E+07         0.00000E+00
    0.00000E+00         0.00000E+00         0.00000E+00
 
    0.23674E+07         0.80032E+06         0.00000E+00
    0.80032E+06        -0.34767E+07         0.00000E+00
    0.00000E+00         0.00000E+00         0.00000E+00
 
    0.23156E+07         0.87097E+06         0.00000E+00
    0.87097E+06        -0.34658E+07         0.00000E+00
    0.00000E+00         0.00000E+00         0.00000E+00
 
    0.22632E+07         0.94073E+06         0.00000E+00
    0.94073E+06        -0.34541E+07         0.00000E+00
    0.00000E+00         0.00000E+00         0.00000E+00
 
    0.22102E+07         0.10096E+07         0.00000E+00
    0.10096E+07        -0.34416E+07         0.00000E+00
    0.00000E+00         0.00000E+00         0.00000E+00
 
    0.21566E+07         0.10776E+07         0.00000E+00
    0.10776E+07        -0.34284E+07         0.00000E+00
    0.00000E+00         0.00000E+00         0.00000E+00
 
    0.21025E+07         0.11448E+07         0.00000E+00
    0.11448E+07        -0.34144E+07         0.00000E+00
    0.00000E+00         0.00000E+00         0.00000E+00
 
    0.20479E+07         0.12112E+07         0.00000E+00
    0.12112E+07        -0.33997E+07         0.00000E+00
    0.00000E+00         0.00000E+00         0.00000E+00
 
    0.19927E+07         0.12767E+07         0.00000E+00
    0.12767E+07        -0.33843E+07         0.00000E+00
    0.00000E+00         0.00000E+00         0.00000E+00
 
    0.19371E+07         0.13415E+07         0.00000E+00
    0.13415E+07        -0.33682E+07         0.00000E+00
    0.00000E+00         0.00000E+00         0.00000E+00
 
    0.18811E+07         0.14054E+07         0.00000E+00
    0.14054E+07        -0.33514E+07         0.00000E+00
    0.00000E+00         0.00000E+00         0.00000E+00
 
    0.18246E+07         0.14687E+07         0.00000E+00
    0.14687E+07        -0.33340E+07         0.00000E+00
    0.00000E+00         0.00000E+00         0.00000E+00
 
    0.17677E+07         0.15311E+07         0.00000E+00
    0.15311E+07        -0.33160E+07         0.00000E+00
    0.00000E+00         0.00000E+00         0.00000E+00
 
    0.17104E+07         0.15929E+07         0.00000E+00
    0.15929E+07        -0.32973E+07         0.00000E+00
    0.00000E+00         0.00000E+00         0.00000E+00
 
    0.16527E+07         0.16539E+07         0.00000E+00
    0.16539E+07        -0.32781E+07         0.00000E+00
    0.00000E+00         0.00000E+00         0.00000E+00
 
    0.15947E+07         0.17142E+07         0.00000E+00
    0.17142E+07        -0.32582E+07         0.00000E+00
    0.00000E+00         0.00000E+00         0.00000E+00
 
    0.15363E+07         0.17739E+07         0.00000E+00
    0.17739E+07        -0.32378E+07         0.00000E+00
    0.00000E+00         0.00000E+00         0.00000E+00
 
    0.14775E+07         0.18329E+07         0.00000E+00
    0.18329E+07        -0.32168E+07         0.00000E+00
    0.00000E+00         0.00000E+00         0.00000E+00
 
    0.14184E+07         0.18913E+07         0.00000E+00
    0.18913E+07        -0.31952E+07         0.00000E+00
    0.00000E+00         0.00000E+00         0.00000E+00
 
    0.13589E+07         0.19490E+07         0.00000E+00
    0.19490E+07        -0.31730E+07         0.00000E+00
    0.00000E+00         0.00000E+00         0.00000E+00
 
    0.12991E+07         0.20061E+07         0.00000E+00
    0.20061E+07        -0.31503E+07         0.00000E+00
    0.00000E+00         0.00000E+00         0.00000E+00
 
    0.12390E+07         0.20626E+07         0.00000E+00
    0.20626E+07        -0.31271E+07         0.00000E+00
    0.00000E+00         0.00000E+00         0.00000E+00
 
    0.11786E+07         0.21185E+07         0.00000E+00
    0.21185E+07        -0.31033E+07         0.00000E+00
    0.00000E+00         0.00000E+00         0.00000E+00
 
    0.11178E+07         0.21738E+07         0.00000E+00
    0.21738E+07        -0.30790E+07         0.00000E+00
    0.00000E+00         0.00000E+00         0.00000E+00
 
    0.10567E+07         0.22286E+07         0.00000E+00
    0.22286E+07        -0.30542E+07         0.00000E+00
    0.00000E+00         0.00000E+00         0.00000E+00
 
    0.99534E+06         0.22828E+07         0.00000E+00
    0.22828E+07        -0.30288E+07         0.00000E+00
    0.00000E+00         0.00000E+00         0.00000E+00
 
    0.93362E+06         0.23365E+07         0.00000E+00
    0.23365E+07        -0.30030E+07         0.00000E+00
    0.00000E+00         0.00000E+00         0.00000E+00
 
    0.87157E+06         0.23896E+07         0.00000E+00
    0.23896E+07        -0.29766E+07         0.00000E+00
    0.00000E+00         0.00000E+00         0.00000E+00
 
    0.80920E+06         0.24422E+07         0.00000E+00
    0.24422E+07        -0.29497E+07         0.00000E+00
    0.00000E+00         0.00000E+00         0.00000E+00
 
    0.74650E+06         0.24943E+07         0.00000E+00
    0.24943E+07        -0.29222E+07         0.00000E+00
    0.00000E+00         0.00000E+00         0.00000E+00
 
    0.68347E+06         0.25458E+07         0.00000E+00
    0.25458E+07        -0.28943E+07         0.00000E+00
    0.00000E+00         0.00000E+00         0.00000E+00
 
    0.62010E+06         0.25969E+07         0.00000E+00
    0.25969E+07        -0.28658E+07         0.00000E+00
    0.00000E+00         0.00000E+00         0.00000E+00
 
    0.55639E+06         0.26475E+07         0.00000E+00
    0.26475E+07        -0.28369E+07         0.00000E+00
    0.00000E+00         0.00000E+00         0.00000E+00
 
    0.49233E+06         0.26976E+07         0.00000E+00
    0.26976E+07        -0.28074E+07         0.00000E+00
    0.00000E+00         0.00000E+00         0.00000E+00
 
    0.42791E+06         0.27472E+07         0.00000E+00
    0.27472E+07        -0.27774E+07         0.00000E+00
    0.00000E+00         0.00000E+00         0.00000E+00
 
    0.36313E+06         0.27963E+07         0.00000E+00
    0.27963E+07        -0.27470E+07         0.00000E+00
    0.00000E+00         0.00000E+00         0.00000E+00
 
    0.29797E+06         0.28450E+07         0.00000E+00
    0.28450E+07        -0.27160E+07         0.00000E+00
    0.00000E+00         0.00000E+00         0.00000E+00
 
    0.23244E+06         0.28932E+07         0.00000E+00
    0.28932E+07        -0.26844E+07         0.00000E+00
    0.00000E+00         0.00000E+00         0.00000E+00
 
    0.16652E+06         0.29409E+07         0.00000E+00
    0.29409E+07        -0.26524E+07         0.00000E+00
    0.00000E+00         0.00000E+00         0.00000E+00
 
    0.10020E+06         0.29882E+07         0.00000E+00
    0.29882E+07        -0.26199E+07         0.00000E+00
    0.00000E+00         0.00000E+00         0.00000E+00
 
    0.33468E+05         0.30350E+07         0.00000E+00
    0.30350E+07        -0.25868E+07         0.00000E+00
    0.00000E+00         0.00000E+00         0.00000E+00
 
    0.30126E+07         0.44009E+05         0.00000E+00
    0.44009E+05        -0.37801E+07         0.00000E+00
    0.00000E+00         0.00000E+00         0.00000E+00
 
    0.29639E+07         0.12880E+06         0.00000E+00
    0.12880E+06        -0.37789E+07         0.00000E+00
    0.00000E+00         0.00000E+00         0.00000E+00
 
    0.29142E+07         0.21245E+06         0.00000E+00
    0.21245E+06        -0.37765E+07         0.00000E+00
    0.00000E+00         0.00000E+00         0.00000E+00
 
    0.28635E+07         0.29495E+06         0.00000E+00
    0.29495E+06        -0.37731E+07         0.00000E+00
    0.00000E+00         0.00000E+00         0.00000E+00
 
    0.28120E+07         0.37633E+06         0.00000E+00
    0.37633E+06        -0.37686E+07         0.00000E+00
    0.00000E+00         0.00000E+00         0.00000E+00
 
    0.27597E+07         0.45661E+06         0.00000E+00
    0.45661E+06        -0.37630E+07         0.00000E+00
    0.00000E+00         0.00000E+00         0.00000E+00
 
    0.27065E+07         0.53580E+06         0.00000E+00
    0.53580E+06        -0.37565E+07         0.00000E+00
    0.00000E+00         0.00000E+00         0.00000E+00
 
    0.26527E+07         0.61393E+06         0.00000E+00
    0.61393E+06        -0.37491E+07         0.00000E+00
    0.00000E+00         0.00000E+00         0.00000E+00
 
    0.25982E+07         0.69101E+06         0.00000E+00
    0.69101E+06        -0.37407E+07         0.00000E+00
    0.00000E+00         0.00000E+00         0.00000E+00
 
    0.25430E+07         0.76706E+06         0.00000E+00
    0.76706E+06        -0.37314E+07         0.00000E+00
    0.00000E+00         0.00000E+00         0.00000E+00
 
    0.24872E+07         0.84211E+06         0.00000E+00
    0.84211E+06        -0.37213E+07         0.00000E+00
    0.00000E+00         0.00000E+00         0.00000E+00
 
    0.24309E+07         0.91619E+06         0.00000E+00
    0.91619E+06        -0.37103E+07         0.00000E+00
    0.00000E+00         0.00000E+00         0.00000E+00
 
    0.23740E+07         0.98930E+06         0.00000E+00
    0.98930E+06        -0.36986E+07         0.00000E+00
    0.00000E+00         0.00000E+00         0.00000E+00
 
    0.23166E+07         0.10615E+07         0.00000E+00
    0.10615E+07        -0.36860E+07         0.00000E+00
    0.00000E+00         0.00000E+00         0.00000E+00
 
    0.22588E+07         0.11327E+07         0.00000E+00
    0.11327E+07        -0.36727E+07         0.00000E+00
    0.00000E+00         0.00000E+00         0.00000E+00
 
    0.22005E+07         0.12031E+07         0.00000E+00
    0.12031E+07        -0.36587E+07         0.00000E+00
    0.00000E+00         0.00000E+00         0.00000E+00
 
    0.21418E+07         0.12726E+07         0.00000E+00
    0.12726E+07        -0.36440E+07         0.00000E+00
    0.00000E+00         0.00000E+00         0.00000E+00
 
    0.20827E+07         0.13413E+07         0.00000E+00
    0.13413E+07        -0.36286E+07         0.00000E+00
    0.00000E+00         0.00000E+00         0.00000E+00
 
    0.20232E+07         0.14091E+07         0.00000E+00
    0.14091E+07        -0.36125E+07         0.00000E+00
    0.00000E+00         0.00000E+00         0.00000E+00
 
    0.19634E+07         0.14761E+07         0.00000E+00
    0.14761E+07        -0.35957E+07         0.00000E+00
    0.00000E+00         0.00000E+00         0.00000E+00
 
    0.19032E+07         0.15424E+07         0.00000E+00
    0.15424E+07        -0.35783E+07         0.00000E+00
    0.00000E+00         0.00000E+00         0.00000E+00
 
    0.18428E+07         0.16079E+07         0.00000E+00
    0.16079E+07        -0.35602E+07         0.00000E+00
    0.00000E+00         0.00000E+00         0.00000E+00
 
    0.17820E+07         0.16727E+07         0.00000E+00
    0.16727E+07        -0.35415E+07         0.00000E+00
    0.00000E+00         0.00000E+00         0.00000E+00
 
    0.17209E+07         0.17367E+07         0.00000E+00
    0.17367E+07        -0.35222E+07         0.00000E+00
    0.00000E+00         0.00000E+00         0.00000E+00
 
    0.16595E+07         0.18001E+07         0.00000E+00
    0.18001E+07        -0.35024E+07         0.00000E+00
    0.00000E+00         0.00000E+00         0.00000E+00
 
    0.15979E+07         0.18627E+07         0.00000E+00
    0.18627E+07        -0.34819E+07         0.00000E+00
    0.00000E+00         0.00000E+00         0.00000E+00
 
    0.15359E+07         0.19247E+07         0.00000E+00
    0.19247E+07        -0.34608E+07         0.00000E+00
    0.00000E+00         0.00000E+00         0.00000E+00
 
    0.14738E+07         0.19861E+07         0.00000E+00
    0.19861E+07        -0.34392E+07         0.00000E+00
    0.00000E+00         0.00000E+00         0.00000E+00
 
    0.14113E+07         0.20469E+07         0.00000E+00
    0.20469E+07        -0.34169E+07         0.00000E+00
    0.00000E+00         0.00000E+00         0.00000E+00
 
    0.13486E+07         0.21071E+07         0.00000E+00
    0.21071E+07        -0.33941E+07         0.00000E+00
    0.00000E+00         0.00000E+00         0.00000E+00
 
    0.12856E+07         0.21666E+07         0.00000E+00
    0.21666E+07        -0.33708E+07         0.00000E+00
    0.00000E+00         0.00000E+00         0.00000E+00
 
    0.12224E+07         0.22256E+07         0.00000E+00
    0.22256E+07        -0.33469E+07         0.00000E+00
    0.00000E+00         0.00000E+00         0.00000E+00
 
    0.11590E+07         0.22841E+07         0.00000E+00
    0.22841E+07        -0.33224E+07         0.00000E+00
    0.00000E+00         0.00000E+00         0.00000E+00
 
    0.10952E+07         0.23420E+07         0.00000E+00
    0.23420E+07        -0.32974E+07         0.00000E+00
    0.00000E+00         0.00000E+00         0.00000E+00
 
    0.10312E+07         0.23994E+07         0.00000E+00
    0.23994E+07        -0.32718E+07         0.00000E+00
    0.00000E+00         0.00000E+00         0.00000E+00
 
    0.96694E+06         0.24563E+07         0.00000E+00
    0.24563E+07        -0.32456E+07         0.00000E+00
    0.00000E+00         0.00000E+00         0.00000E+00
 
    0.90239E+06         0.25126E+07         0.00000E+00
    0.25126E+07        -0.32189E+07         0.00000E+00
    0.00000E+00         0.00000E+00         0.00000E+00
 
    0.83757E+06         0.25685E+07         0.00000E+00
    0.25685E+07        -0.31917E+07         0.00000E+00
    0.00000E+00         0.00000E+00         0.00000E+00
 
    0.77246E+06         0.26239E+07         0.00000E+00
    0.26239E+07        -0.31639E+07         0.00000E+00
    0.00000E+00         0.00000E+00         0.00000E+00
 
    0.70705E+06         0.26788E+07         0.00000E+00
    0.26788E+07        -0.31355E+07         0.00000E+00
    0.00000E+00         0.00000E+00         0.00000E+00
 
    0.64134E+06         0.27333E+07         0.00000E+00
    0.27333E+07        -0.31066E+07         0.00000E+00
    0.00000E+00         0.00000E+00         0.00000E+00
 
    0.57532E+06         0.27873E+07         0.00000E+00
    0.27873E+07        -0.30771E+07         0.00000E+00
    0.00000E+00         0.00000E+00         0.00000E+00
 
    0.50897E+06         0.28408E+07         0.00000E+00
    0.28408E+07        -0.30471E+07         0.00000E+00
    0.00000E+00         0.00000E+00         0.00000E+00
 
    0.44230E+06         0.28940E+07         0.00000E+00
    0.28940E+07        -0.30164E+07         0.00000E+00
    0.00000E+00         0.00000E+00         0.00000E+00
 
    0.37527E+06         0.29467E+07         0.00000E+00
    0.29467E+07        -0.29853E+07         0.00000E+00
    0.00000E+00         0.00000E+00         0.00000E+00
 
    0.30789E+06         0.29989E+07         0.00000E+00
    0.29989E+07        -0.29535E+07         0.00000E+00
    0.00000E+00         0.00000E+00         0.00000E+00
 
    0.24015E+06         0.30507E+07         0.00000E+00
    0.30507E+07        -0.29212E+07         0.00000E+00
    0.00000E+00         0.00000E+00         0.00000E+00
 
    0.17202E+06         0.31021E+07         0.00000E+00
    0.31021E+07        -0.28883E+07         0.00000E+00
    0.00000E+00         0.00000E+00         0.00000E+00
 
    0.10350E+06         0.31531E+07         0.00000E+00
    0.31531E+07        -0.28548E+07         0.00000E+00
    0.00000E+00         0.00000E+00         0.00000E+00
 
    0.34568E+05         0.32037E+07         0.00000E+00
    0.32037E+07        -0.28207E+07         0.00000E+00
    0.00000E+00         0.00000E+00         0.00000E+00
 
    0.31865E+07         0.46454E+05         0.00000E+00
    0.46454E+05        -0.40445E+07         0.00000E+00
    0.00000E+00         0.00000E+00         0.00000E+00
 
    0.31316E+07         0.13569E+06         0.00000E+00
    0.13569E+06        -0.40433E+07         0.00000E+00
    0.00000E+00         0.00000E+00         0.00000E+00
 
    0.30758E+07         0.22362E+06         0.00000E+00
    0.22362E+06        -0.40409E+07         0.00000E+00
    0.00000E+00         0.00000E+00         0.00000E+00
 
    0.30192E+07         0.31027E+06         0.00000E+00
    0.31027E+06        -0.40375E+07         0.00000E+00
    0.00000E+00         0.00000E+00         0.00000E+00
 
    0.29619E+07         0.39567E+06         0.00000E+00
    0.39567E+06        -0.40330E+07         0.00000E+00
    0.00000E+00         0.00000E+00         0.00000E+00
 
    0.29038E+07         0.47984E+06         0.00000E+00
    0.47984E+06        -0.40275E+07         0.00000E+00
    0.00000E+00         0.00000E+00         0.00000E+00
 
    0.28451E+07         0.56282E+06         0.00000E+00
    0.56282E+06        -0.40210E+07         0.00000E+00
    0.00000E+00         0.00000E+00         0.00000E+00
 
    0.27858E+07         0.64462E+06         0.00000E+00
    0.64462E+06        -0.40136E+07         0.00000E+00
    0.00000E+00         0.00000E+00         0.00000E+00
 
    0.27260E+07         0.72528E+06         0.00000E+00
    0.72528E+06        -0.40053E+07         0.00000E+00
    0.00000E+00         0.00000E+00         0.00000E+00
 
    0.26656E+07         0.80483E+06         0.00000E+00
    0.80483E+06        -0.39961E+07         0.00000E+00
    0.00000E+00         0.00000E+00         0.00000E+00
 
    0.26047E+07         0.88329E+06         0.00000E+00
    0.88329E+06        -0.39861E+07         0.00000E+00
    0.00000E+00         0.00000E+00         0.00000E+00
 
    0.25435E+07         0.96071E+06         0.00000E+00
    0.96071E+06        -0.39752E+07         0.00000E+00
    0.00000E+00         0.00000E+00         0.00000E+00
 
    0.24818E+07         0.10371E+07         0.00000E+00
    0.10371E+07        -0.39636E+07         0.00000E+00
    0.00000E+00         0.00000E+00         0.00000E+00
 
    0.24198E+07         0.11125E+07         0.00000E+00
    0.11125E+07        -0.39512E+07         0.00000E+00
    0.00000E+00         0.00000E+00         0.00000E+00
 
    0.23574E+07         0.11869E+07         0.00000E+00
    0.11869E+07        -0.39381E+07         0.00000E+00
    0.00000E+00         0.00000E+00         0.00000E+00
 
    0.22947E+07         0.12604E+07         0.00000E+00
    0.12604E+07        -0.39243E+07         0.00000E+00
    0.00000E+00         0.00000E+00         0.00000E+00
 
    0.22318E+07         0.13331E+07         0.00000E+00
    0.13331E+07        -0.39098E+07         0.00000E+00
    0.00000E+00         0.00000E+00         0.00000E+00
 
    0.21685E+07         0.14048E+07         0.00000E+00
    0.14048E+07        -0.38945E+07         0.00000E+00
    0.00000E+00         0.00000E+00         0.00000E+00
 
    0.21051E+07         0.14757E+07         0.00000E+00
    0.14757E+07        -0.38787E+07         0.00000E+00
    0.00000E+00         0.00000E+00         0.00000E+00
 
    0.20414E+07         0.15458E+07         0.00000E+00
    0.15458E+07        -0.38621E+07         0.00000E+00
    0.00000E+00         0.00000E+00         0.00000E+00
 
    0.19774E+07         0.16150E+07         0.00000E+00
    0.16150E+07        -0.38450E+07         0.00000E+00
    0.00000E+00         0.00000E+00         0.00000E+00
 
    0.19133E+07         0.16836E+07         0.00000E+00
    0.16836E+07        -0.38271E+07         0.00000E+00
    0.00000E+00         0.00000E+00         0.00000E+00
 
    0.18490E+07         0.17514E+07         0.00000E+00
    0.17514E+07        -0.38087E+07         0.00000E+00
    0.00000E+00         0.00000E+00         0.00000E+00
 
    0.17845E+07         0.18184E+07         0.00000E+00
    0.18184E+07        -0.37897E+07         0.00000E+00
    0.00000E+00         0.00000E+00         0.00000E+00
 
    0.17198E+07         0.18849E+07         0.00000E+00
    0.18849E+07        -0.37700E+07         0.00000E+00
    0.00000E+00         0.00000E+00         0.00000E+00
 
    0.16550E+07         0.19506E+07         0.00000E+00
    0.19506E+07        -0.37498E+07         0.00000E+00
    0.00000E+00         0.00000E+00         0.00000E+00
 
    0.15900E+07         0.20157E+07         0.00000E+00
    0.20157E+07        -0.37290E+07         0.00000E+00
    0.00000E+00         0.00000E+00         0.00000E+00
 
    0.15248E+07         0.20802E+07         0.00000E+00
    0.20802E+07        -0.37075E+07         0.00000E+00
    0.00000E+00         0.00000E+00         0.00000E+00
 
    0.14595E+07         0.21441E+07         0.00000E+00
    0.21441E+07        -0.36855E+07         0.00000E+00
    0.00000E+00         0.00000E+00         0.00000E+00
 
    0.13939E+07         0.22074E+07         0.00000E+00
    0.22074E+07        -0.36629E+07         0.00000E+00
    0.00000E+00         0.00000E+00         0.00000E+00
 
    0.13283E+07         0.22702E+07         0.00000E+00
    0.22702E+07        -0.36397E+07         0.00000E+00
    0.00000E+00         0.00000E+00         0.00000E+00
 
    0.12624E+07         0.23325E+07         0.00000E+00
    0.23325E+07        -0.36159E+07         0.00000E+00
    0.00000E+00         0.00000E+00         0.00000E+00
 
    0.11963E+07         0.23942E+07         0.00000E+00
    0.23942E+07        -0.35915E+07         0.00000E+00
    0.00000E+00         0.00000E+00         0.00000E+00
 
    0.11301E+07         0.24555E+07         0.00000E+00
    0.24555E+07        -0.35666E+07         0.00000E+00
    0.00000E+00         0.00000E+00         0.00000E+00
 
    0.10637E+07         0.25162E+07         0.00000E+00
    0.25162E+07        -0.35410E+07         0.00000E+00
    0.00000E+00         0.00000E+00         0.00000E+00
 
    0.99703E+06         0.25765E+07         0.00000E+00
    0.25765E+07        -0.35149E+07         0.00000E+00
    0.00000E+00         0.00000E+00         0.00000E+00
 
    0.93017E+06         0.26363E+07         0.00000E+00
    0.26363E+07        -0.34882E+07         0.00000E+00
    0.00000E+00         0.00000E+00         0.00000E+00
 
    0.86309E+06         0.26957E+07         0.00000E+00
    0.26957E+07        -0.34608E+07         0.00000E+00
    0.00000E+00         0.00000E+00         0.00000E+00
 
    0.79577E+06         0.27547E+07         0.00000E+00
    0.27547E+07        -0.34329E+07         0.00000E+00
    0.00000E+00         0.00000E+00         0.00000E+00
 
    0.72820E+06         0.28133E+07         0.00000E+00
    0.28133E+07        -0.34043E+07         0.00000E+00
    0.00000E+00         0.00000E+00         0.00000E+00
 
    0.66037E+06         0.28714E+07         0.00000E+00
    0.28714E+07        -0.33751E+07         0.00000E+00
    0.00000E+00         0.00000E+00         0.00000E+00
 
    0.59226E+06         0.29291E+07         0.00000E+00
    0.29291E+07        -0.33453E+07         0.00000E+00
    0.00000E+00         0.00000E+00         0.00000E+00
 
    0.52386E+06         0.29865E+07         0.00000E+00
    0.29865E+07        -0.33149E+07         0.00000E+00
    0.00000E+00         0.00000E+00         0.00000E+00
 
    0.45515E+06         0.30435E+07         0.00000E+00
    0.30435E+07        -0.32839E+07         0.00000E+00
    0.00000E+00         0.00000E+00         0.00000E+00
 
    0.38612E+06         0.31000E+07         0.00000E+00
    0.31000E+07        -0.32522E+07         0.00000E+00
    0.00000E+00         0.00000E+00         0.00000E+00
 
    0.31675E+06         0.31563E+07         0.00000E+00
    0.31563E+07        -0.32199E+07         0.00000E+00
    0.00000E+00         0.00000E+00         0.00000E+00
 
    0.24702E+06         0.32121E+07         0.00000E+00
    0.32121E+07        -0.31869E+07         0.00000E+00
    0.00000E+00         0.00000E+00         0.00000E+00
 
    0.17693E+06         0.32676E+07         0.00000E+00
    0.32676E+07        -0.31532E+07         0.00000E+00
    0.00000E+00         0.00000E+00         0.00000E+00
 
    0.10644E+06         0.33227E+07         0.00000E+00
    0.33227E+07        -0.31189E+07         0.00000E+00
    0.00000E+00         0.00000E+00         0.00000E+00
 
    0.35550E+05         0.33774E+07         0.00000E+00
    0.33774E+07        -0.30840E+07         0.00000E+00
    0.00000E+00         0.00000E+00         0.00000E+00
 
    0.33614E+07         0.48862E+05         0.00000E+00
    0.48862E+05        -0.43303E+07         0.00000E+00
    0.00000E+00         0.00000E+00         0.00000E+00
 
    0.32996E+07         0.14242E+06         0.00000E+00
    0.14242E+06        -0.43291E+07         0.00000E+00
    0.00000E+00         0.00000E+00         0.00000E+00
 
    0.32369E+07         0.23452E+06         0.00000E+00
    0.23452E+06        -0.43268E+07         0.00000E+00
    0.00000E+00         0.00000E+00         0.00000E+00
 
    0.31737E+07         0.32518E+06         0.00000E+00
    0.32518E+06        -0.43234E+07         0.00000E+00
    0.00000E+00         0.00000E+00         0.00000E+00
 
    0.31098E+07         0.41446E+06         0.00000E+00
    0.41446E+06        -0.43190E+07         0.00000E+00
    0.00000E+00         0.00000E+00         0.00000E+00
 
    0.30454E+07         0.50237E+06         0.00000E+00
    0.50237E+06        -0.43136E+07         0.00000E+00
    0.00000E+00         0.00000E+00         0.00000E+00
 
    0.29806E+07         0.58897E+06         0.00000E+00
    0.58897E+06        -0.43073E+07         0.00000E+00
    0.00000E+00         0.00000E+00         0.00000E+00
 
    0.29153E+07         0.67430E+06         0.00000E+00
    0.67430E+06        -0.43001E+07         0.00000E+00
    0.00000E+00         0.00000E+00         0.00000E+00
 
    0.28497E+07         0.75838E+06         0.00000E+00
    0.75838E+06        -0.42920E+07         0.00000E+00
    0.00000E+00         0.00000E+00         0.00000E+00
 
    0.27837E+07         0.84127E+06         0.00000E+00
    0.84127E+06        -0.42831E+07         0.00000E+00
    0.00000E+00         0.00000E+00         0.00000E+00
 
    0.27174E+07         0.92300E+06         0.00000E+00
    0.92300E+06        -0.42734E+07         0.00000E+00
    0.00000E+00         0.00000E+00         0.00000E+00
 
    0.26508E+07         0.10036E+07         0.00000E+00
    0.10036E+07        -0.42629E+07         0.00000E+00
    0.00000E+00         0.00000E+00         0.00000E+00
 
    0.25841E+07         0.10832E+07         0.00000E+00
    0.10832E+07        -0.42516E+07         0.00000E+00
    0.00000E+00         0.00000E+00         0.00000E+00
 
    0.25171E+07         0.11617E+07         0.00000E+00
    0.11617E+07        -0.42397E+07         0.00000E+00
    0.00000E+00         0.00000E+00         0.00000E+00
 
    0.24500E+07         0.12392E+07         0.00000E+00
    0.12392E+07        -0.42270E+07         0.00000E+00
    0.00000E+00         0.00000E+00         0.00000E+00
 
    0.23828E+07         0.13157E+07         0.00000E+00
    0.13157E+07        -0.42136E+07         0.00000E+00
    0.00000E+00         0.00000E+00         0.00000E+00
 
    0.23154E+07         0.13913E+07         0.00000E+00
    0.13913E+07        -0.41996E+07         0.00000E+00
    0.00000E+00         0.00000E+00         0.00000E+00
 
    0.22479E+07         0.14660E+07         0.00000E+00
    0.14660E+07        -0.41849E+07         0.00000E+00
    0.00000E+00         0.00000E+00         0.00000E+00
 
    0.21804E+07         0.15399E+07         0.00000E+00
    0.15399E+07        -0.41695E+07         0.00000E+00
    0.00000E+00         0.00000E+00         0.00000E+00
 
    0.21127E+07         0.16130E+07         0.00000E+00
    0.16130E+07        -0.41535E+07         0.00000E+00
    0.00000E+00         0.00000E+00         0.00000E+00
 
    0.20450E+07         0.16853E+07         0.00000E+00
    0.16853E+07        -0.41369E+07         0.00000E+00
    0.00000E+00         0.00000E+00         0.00000E+00
 
    0.19773E+07         0.17568E+07         0.00000E+00
    0.17568E+07        -0.41197E+07         0.00000E+00
    0.00000E+00         0.00000E+00         0.00000E+00
 
    0.19095E+07         0.18276E+07         0.00000E+00
    0.18276E+07        -0.41018E+07         0.00000E+00
    0.00000E+00         0.00000E+00         0.00000E+00
 
    0.18416E+07         0.18977E+07         0.00000E+00
    0.18977E+07        -0.40834E+07         0.00000E+00
    0.00000E+00         0.00000E+00         0.00000E+00
 
    0.17737E+07         0.19672E+07         0.00000E+00
    0.19672E+07        -0.40643E+07         0.00000E+00
    0.00000E+00         0.00000E+00         0.00000E+00
 
    0.17058E+07         0.20361E+07         0.00000E+00
    0.20361E+07        -0.40447E+07         0.00000E+00
    0.00000E+00         0.00000E+00         0.00000E+00
 
    0.16378E+07         0.21044E+07         0.00000E+00
    0.21044E+07        -0.40244E+07         0.00000E+00
    0.00000E+00         0.00000E+00         0.00000E+00
 
    0.15698E+07         0.21720E+07         0.00000E+00
    0.21720E+07        -0.40035E+07         0.00000E+00
    0.00000E+00         0.00000E+00         0.00000E+00
 
    0.15017E+07         0.22392E+07         0.00000E+00
    0.22392E+07        -0.39821E+07         0.00000E+00
    0.00000E+00         0.00000E+00         0.00000E+00
 
    0.14336E+07         0.23058E+07         0.00000E+00
    0.23058E+07        -0.39600E+07         0.00000E+00
    0.00000E+00         0.00000E+00         0.00000E+00
 
    0.13653E+07         0.23720E+07         0.00000E+00
    0.23720E+07        -0.39373E+07         0.00000E+00
    0.00000E+00         0.00000E+00         0.00000E+00
 
    0.12970E+07         0.24376E+07         0.00000E+00
    0.24376E+07        -0.39140E+07         0.00000E+00
    0.00000E+00         0.00000E+00         0.00000E+00
 
    0.12287E+07         0.25028E+07         0.00000E+00
    0.25028E+07        -0.38901E+07         0.00000E+00
    0.00000E+00         0.00000E+00         0.00000E+00
 
    0.11602E+07         0.25676E+07         0.00000E+00
    0.25676E+07        -0.38655E+07         0.00000E+00
    0.00000E+00         0.00000E+00         0.00000E+00
 
    0.10915E+07         0.26319E+07         0.00000E+00
    0.26319E+07        -0.38403E+07         0.00000E+00
    0.00000E+00         0.00000E+00         0.00000E+00
 
    0.10228E+07         0.26959E+07         0.00000E+00
    0.26959E+07        -0.38145E+07         0.00000E+00
    0.00000E+00         0.00000E+00         0.00000E+00
 
    0.95390E+06         0.27595E+07         0.00000E+00
    0.27595E+07        -0.37880E+07         0.00000E+00
    0.00000E+00         0.00000E+00         0.00000E+00
 
    0.88484E+06         0.28226E+07         0.00000E+00
    0.28226E+07        -0.37609E+07         0.00000E+00
    0.00000E+00         0.00000E+00         0.00000E+00
 
    0.81560E+06         0.28855E+07         0.00000E+00
    0.28855E+07        -0.37331E+07         0.00000E+00
    0.00000E+00         0.00000E+00         0.00000E+00
 
    0.74616E+06         0.29480E+07         0.00000E+00
    0.29480E+07        -0.37047E+07         0.00000E+00
    0.00000E+00         0.00000E+00         0.00000E+00
 
    0.67650E+06         0.30101E+07         0.00000E+00
    0.30101E+07        -0.36755E+07         0.00000E+00
    0.00000E+00         0.00000E+00         0.00000E+00
 
    0.60660E+06         0.30719E+07         0.00000E+00
    0.30719E+07        -0.36457E+07         0.00000E+00
    0.00000E+00         0.00000E+00         0.00000E+00
 
    0.53644E+06         0.31334E+07         0.00000E+00
    0.31334E+07        -0.36152E+07         0.00000E+00
    0.00000E+00         0.00000E+00         0.00000E+00
 
    0.46600E+06         0.31946E+07         0.00000E+00
    0.31946E+07        -0.35839E+07         0.00000E+00
    0.00000E+00         0.00000E+00         0.00000E+00
 
    0.39527E+06         0.32555E+07         0.00000E+00
    0.32555E+07        -0.35520E+07         0.00000E+00
    0.00000E+00         0.00000E+00         0.00000E+00
 
    0.32422E+06         0.33161E+07         0.00000E+00
    0.33161E+07        -0.35193E+07         0.00000E+00
    0.00000E+00         0.00000E+00         0.00000E+00
 
    0.25282E+06         0.33764E+07         0.00000E+00
    0.33764E+07        -0.34859E+07         0.00000E+00
    0.00000E+00         0.00000E+00         0.00000E+00
 
    0.18107E+06         0.34363E+07         0.00000E+00
    0.34363E+07        -0.34517E+07         0.00000E+00
    0.00000E+00         0.00000E+00         0.00000E+00
 
    0.10893E+06         0.34960E+07         0.00000E+00
    0.34960E+07        -0.34168E+07         0.00000E+00
    0.00000E+00         0.00000E+00         0.00000E+00
 
    0.36379E+05         0.35554E+07         0.00000E+00
    0.35554E+07        -0.33811E+07         0.00000E+00
    0.00000E+00         0.00000E+00         0.00000E+00
 
    0.35343E+07         0.51176E+05         0.00000E+00
    0.51176E+05        -0.46397E+07         0.00000E+00
    0.00000E+00         0.00000E+00         0.00000E+00
 
    0.34645E+07         0.14884E+06         0.00000E+00
    0.14884E+06        -0.46385E+07         0.00000E+00
    0.00000E+00         0.00000E+00         0.00000E+00
 
    0.33943E+07         0.24486E+06         0.00000E+00
    0.24486E+06        -0.46363E+07         0.00000E+00
    0.00000E+00         0.00000E+00         0.00000E+00
 
    0.33236E+07         0.33929E+06         0.00000E+00
    0.33929E+06        -0.46331E+07         0.00000E+00
    0.00000E+00         0.00000E+00         0.00000E+00
 
    0.32526E+07         0.43218E+06         0.00000E+00
    0.43218E+06        -0.46289E+07         0.00000E+00
    0.00000E+00         0.00000E+00         0.00000E+00
 
    0.31812E+07         0.52359E+06         0.00000E+00
    0.52359E+06        -0.46238E+07         0.00000E+00
    0.00000E+00         0.00000E+00         0.00000E+00
 
    0.31096E+07         0.61357E+06         0.00000E+00
    0.61357E+06        -0.46178E+07         0.00000E+00
    0.00000E+00         0.00000E+00         0.00000E+00
 
    0.30379E+07         0.70216E+06         0.00000E+00
    0.70216E+06        -0.46110E+07         0.00000E+00
    0.00000E+00         0.00000E+00         0.00000E+00
 
    0.29660E+07         0.78943E+06         0.00000E+00
    0.78943E+06        -0.46034E+07         0.00000E+00
    0.00000E+00         0.00000E+00         0.00000E+00
 
    0.28939E+07         0.87542E+06         0.00000E+00
    0.87542E+06        -0.45950E+07         0.00000E+00
    0.00000E+00         0.00000E+00         0.00000E+00
 
    0.28219E+07         0.96019E+06         0.00000E+00
    0.96019E+06        -0.45858E+07         0.00000E+00
    0.00000E+00         0.00000E+00         0.00000E+00
 
    0.27497E+07         0.10438E+07         0.00000E+00
    0.10438E+07        -0.45759E+07         0.00000E+00
    0.00000E+00         0.00000E+00         0.00000E+00
 
    0.26776E+07         0.11263E+07         0.00000E+00
    0.11263E+07        -0.45653E+07         0.00000E+00
    0.00000E+00         0.00000E+00         0.00000E+00
 
    0.26056E+07         0.12077E+07         0.00000E+00
    0.12077E+07        -0.45541E+07         0.00000E+00
    0.00000E+00         0.00000E+00         0.00000E+00
 
    0.25335E+07         0.12880E+07         0.00000E+00
    0.12880E+07        -0.45422E+07         0.00000E+00
    0.00000E+00         0.00000E+00         0.00000E+00
 
    0.24616E+07         0.13674E+07         0.00000E+00
    0.13674E+07        -0.45296E+07         0.00000E+00
    0.00000E+00         0.00000E+00         0.00000E+00
 
    0.23897E+07         0.14459E+07         0.00000E+00
    0.14459E+07        -0.45164E+07         0.00000E+00
    0.00000E+00         0.00000E+00         0.00000E+00
 
    0.23179E+07         0.15235E+07         0.00000E+00
    0.15235E+07        -0.45026E+07         0.00000E+00
    0.00000E+00         0.00000E+00         0.00000E+00
 
    0.22463E+07         0.16002E+07         0.00000E+00
    0.16002E+07        -0.44881E+07         0.00000E+00
    0.00000E+00         0.00000E+00         0.00000E+00
 
    0.21747E+07         0.16762E+07         0.00000E+00
    0.16762E+07        -0.44731E+07         0.00000E+00
    0.00000E+00         0.00000E+00         0.00000E+00
 
    0.21033E+07         0.17514E+07         0.00000E+00
    0.17514E+07        -0.44574E+07         0.00000E+00
    0.00000E+00         0.00000E+00         0.00000E+00
 
    0.20320E+07         0.18259E+07         0.00000E+00
    0.18259E+07        -0.44412E+07         0.00000E+00
    0.00000E+00         0.00000E+00         0.00000E+00
 
    0.19609E+07         0.18997E+07         0.00000E+00
    0.18997E+07        -0.44243E+07         0.00000E+00
    0.00000E+00         0.00000E+00         0.00000E+00
 
    0.18898E+07         0.19729E+07         0.00000E+00
    0.19729E+07        -0.44069E+07         0.00000E+00
    0.00000E+00         0.00000E+00         0.00000E+00
 
    0.18189E+07         0.20455E+07         0.00000E+00
    0.20455E+07        -0.43888E+07         0.00000E+00
    0.00000E+00         0.00000E+00         0.00000E+00
 
    0.17481E+07         0.21175E+07         0.00000E+00
    0.21175E+07        -0.43701E+07         0.00000E+00
    0.00000E+00         0.00000E+00         0.00000E+00
 
    0.16773E+07         0.21890E+07         0.00000E+00
    0.21890E+07        -0.43509E+07         0.00000E+00
    0.00000E+00         0.00000E+00         0.00000E+00
 
    0.16067E+07         0.22599E+07         0.00000E+00
    0.22599E+07        -0.43310E+07         0.00000E+00
    0.00000E+00         0.00000E+00         0.00000E+00
 
    0.15362E+07         0.23304E+07         0.00000E+00
    0.23304E+07        -0.43105E+07         0.00000E+00
    0.00000E+00         0.00000E+00         0.00000E+00
 
    0.14657E+07         0.24005E+07         0.00000E+00
    0.24005E+07        -0.42893E+07         0.00000E+00
    0.00000E+00         0.00000E+00         0.00000E+00
 
    0.13952E+07         0.24701E+07         0.00000E+00
    0.24701E+07        -0.42676E+07         0.00000E+00
    0.00000E+00         0.00000E+00         0.00000E+00
 
    0.13248E+07         0.25394E+07         0.00000E+00
    0.25394E+07        -0.42452E+07         0.00000E+00
    0.00000E+00         0.00000E+00         0.00000E+00
 
    0.12544E+07         0.26082E+07         0.00000E+00
    0.26082E+07        -0.42221E+07         0.00000E+00
    0.00000E+00         0.00000E+00         0.00000E+00
 
    0.11840E+07         0.26767E+07         0.00000E+00
    0.26767E+07        -0.41983E+07         0.00000E+00
    0.00000E+00         0.00000E+00         0.00000E+00
 
    0.11135E+07         0.27449E+07         0.00000E+00
    0.27449E+07        -0.41739E+07         0.00000E+00
    0.00000E+00         0.00000E+00         0.00000E+00
 
    0.10430E+07         0.28128E+07         0.00000E+00
    0.28128E+07        -0.41488E+07         0.00000E+00
    0.00000E+00         0.00000E+00         0.00000E+00
 
    0.97244E+06         0.28804E+07         0.00000E+00
    0.28804E+07        -0.41229E+07         0.00000E+00
    0.00000E+00         0.00000E+00         0.00000E+00
 
    0.90177E+06         0.29477E+07         0.00000E+00
    0.29477E+07        -0.40964E+07         0.00000E+00
    0.00000E+00         0.00000E+00         0.00000E+00
 
    0.83098E+06         0.30147E+07         0.00000E+00
    0.30147E+07        -0.40691E+07         0.00000E+00
    0.00000E+00         0.00000E+00         0.00000E+00
 
    0.76004E+06         0.30815E+07         0.00000E+00
    0.30815E+07        -0.40411E+07         0.00000E+00
    0.00000E+00         0.00000E+00         0.00000E+00
 
    0.68894E+06         0.31480E+07         0.00000E+00
    0.31480E+07        -0.40123E+07         0.00000E+00
    0.00000E+00         0.00000E+00         0.00000E+00
 
    0.61764E+06         0.32143E+07         0.00000E+00
    0.32143E+07        -0.39828E+07         0.00000E+00
    0.00000E+00         0.00000E+00         0.00000E+00
 
    0.54612E+06         0.32804E+07         0.00000E+00
    0.32804E+07        -0.39525E+07         0.00000E+00
    0.00000E+00         0.00000E+00         0.00000E+00
 
    0.47435E+06         0.33462E+07         0.00000E+00
    0.33462E+07        -0.39213E+07         0.00000E+00
    0.00000E+00         0.00000E+00         0.00000E+00
 
    0.40230E+06         0.34118E+07         0.00000E+00
    0.34118E+07        -0.38894E+07         0.00000E+00
    0.00000E+00         0.00000E+00         0.00000E+00
 
    0.32996E+06         0.34773E+07         0.00000E+00
    0.34773E+07        -0.38566E+07         0.00000E+00
    0.00000E+00         0.00000E+00         0.00000E+00
 
    0.25728E+06         0.35425E+07         0.00000E+00
    0.35425E+07        -0.38230E+07         0.00000E+00
    0.00000E+00         0.00000E+00         0.00000E+00
 
    0.18425E+06         0.36075E+07         0.00000E+00
    0.36075E+07        -0.37885E+07         0.00000E+00
    0.00000E+00         0.00000E+00         0.00000E+00
 
    0.11084E+06         0.36723E+07         0.00000E+00
    0.36723E+07        -0.37532E+07         0.00000E+00
    0.00000E+00         0.00000E+00         0.00000E+00
 
    0.37018E+05         0.37368E+07         0.00000E+00
    0.37368E+07        -0.37170E+07         0.00000E+00
    0.00000E+00         0.00000E+00         0.00000E+00
 
    0.37010E+07         0.53318E+05         0.00000E+00
    0.53318E+05        -0.49754E+07         0.00000E+00
    0.00000E+00         0.00000E+00         0.00000E+00
 
    0.36224E+07         0.15471E+06         0.00000E+00
    0.15471E+06        -0.49743E+07         0.00000E+00
    0.00000E+00         0.00000E+00         0.00000E+00
 
    0.35437E+07         0.25427E+06         0.00000E+00
    0.25427E+06        -0.49723E+07         0.00000E+00
    0.00000E+00         0.00000E+00         0.00000E+00
 
    0.34648E+07         0.35209E+06         0.00000E+00
    0.35209E+06        -0.49693E+07         0.00000E+00
    0.00000E+00         0.00000E+00         0.00000E+00
 
    0.33859E+07         0.44823E+06         0.00000E+00
    0.44823E+06        -0.49655E+07         0.00000E+00
    0.00000E+00         0.00000E+00         0.00000E+00
 
    0.33070E+07         0.54275E+06         0.00000E+00
    0.54275E+06        -0.49608E+07         0.00000E+00
    0.00000E+00         0.00000E+00         0.00000E+00
 
    0.32281E+07         0.63572E+06         0.00000E+00
    0.63572E+06        -0.49554E+07         0.00000E+00
    0.00000E+00         0.00000E+00         0.00000E+00
 
    0.31493E+07         0.72723E+06         0.00000E+00
    0.72723E+06        -0.49492E+07         0.00000E+00
    0.00000E+00         0.00000E+00         0.00000E+00
 
    0.30707E+07         0.81732E+06         0.00000E+00
    0.81732E+06        -0.49422E+07         0.00000E+00
    0.00000E+00         0.00000E+00         0.00000E+00
 
    0.29923E+07         0.90607E+06         0.00000E+00
    0.90607E+06        -0.49346E+07         0.00000E+00
    0.00000E+00         0.00000E+00         0.00000E+00
 
    0.29141E+07         0.99354E+06         0.00000E+00
    0.99354E+06        -0.49263E+07         0.00000E+00
    0.00000E+00         0.00000E+00         0.00000E+00
 
    0.28362E+07         0.10798E+07         0.00000E+00
    0.10798E+07        -0.49174E+07         0.00000E+00
    0.00000E+00         0.00000E+00         0.00000E+00
 
    0.27586E+07         0.11649E+07         0.00000E+00
    0.11649E+07        -0.49078E+07         0.00000E+00
    0.00000E+00         0.00000E+00         0.00000E+00
 
    0.26812E+07         0.12489E+07         0.00000E+00
    0.12489E+07        -0.48977E+07         0.00000E+00
    0.00000E+00         0.00000E+00         0.00000E+00
 
    0.26042E+07         0.13319E+07         0.00000E+00
    0.13319E+07        -0.48869E+07         0.00000E+00
    0.00000E+00         0.00000E+00         0.00000E+00
 
    0.25275E+07         0.14140E+07         0.00000E+00
    0.14140E+07        -0.48755E+07         0.00000E+00
    0.00000E+00         0.00000E+00         0.00000E+00
 
    0.24511E+07         0.14951E+07         0.00000E+00
    0.14951E+07        -0.48636E+07         0.00000E+00
    0.00000E+00         0.00000E+00         0.00000E+00
 
    0.23751E+07         0.15753E+07         0.00000E+00
    0.15753E+07        -0.48511E+07         0.00000E+00
    0.00000E+00         0.00000E+00         0.00000E+00
 
    0.22995E+07         0.16548E+07         0.00000E+00
    0.16548E+07        -0.48380E+07         0.00000E+00
    0.00000E+00         0.00000E+00         0.00000E+00
 
    0.22242E+07         0.17335E+07         0.00000E+00
    0.17335E+07        -0.48244E+07         0.00000E+00
    0.00000E+00         0.00000E+00         0.00000E+00
 
    0.21492E+07         0.18115E+07         0.00000E+00
    0.18115E+07        -0.48101E+07         0.00000E+00
    0.00000E+00         0.00000E+00         0.00000E+00
 
    0.20746E+07         0.18889E+07         0.00000E+00
    0.18889E+07        -0.47953E+07         0.00000E+00
    0.00000E+00         0.00000E+00         0.00000E+00
 
    0.20003E+07         0.19656E+07         0.00000E+00
    0.19656E+07        -0.47800E+07         0.00000E+00
    0.00000E+00         0.00000E+00         0.00000E+00
 
    0.19263E+07         0.20418E+07         0.00000E+00
    0.20418E+07        -0.47640E+07         0.00000E+00
    0.00000E+00         0.00000E+00         0.00000E+00
 
    0.18526E+07         0.21175E+07         0.00000E+00
    0.21175E+07        -0.47474E+07         0.00000E+00
    0.00000E+00         0.00000E+00         0.00000E+00
 
    0.17792E+07         0.21927E+07         0.00000E+00
    0.21927E+07        -0.47303E+07         0.00000E+00
    0.00000E+00         0.00000E+00         0.00000E+00
 
    0.17061E+07         0.22674E+07         0.00000E+00
    0.22674E+07        -0.47125E+07         0.00000E+00
    0.00000E+00         0.00000E+00         0.00000E+00
 
    0.16332E+07         0.23418E+07         0.00000E+00
    0.23418E+07        -0.46941E+07         0.00000E+00
    0.00000E+00         0.00000E+00         0.00000E+00
 
    0.15606E+07         0.24157E+07         0.00000E+00
    0.24157E+07        -0.46750E+07         0.00000E+00
    0.00000E+00         0.00000E+00         0.00000E+00
 
    0.14881E+07         0.24894E+07         0.00000E+00
    0.24894E+07        -0.46553E+07         0.00000E+00
    0.00000E+00         0.00000E+00         0.00000E+00
 
    0.14158E+07         0.25627E+07         0.00000E+00
    0.25627E+07        -0.46350E+07         0.00000E+00
    0.00000E+00         0.00000E+00         0.00000E+00
 
    0.13437E+07         0.26357E+07         0.00000E+00
    0.26357E+07        -0.46139E+07         0.00000E+00
    0.00000E+00         0.00000E+00         0.00000E+00
 
    0.12717E+07         0.27084E+07         0.00000E+00
    0.27084E+07        -0.45922E+07         0.00000E+00
    0.00000E+00         0.00000E+00         0.00000E+00
 
    0.11999E+07         0.27810E+07         0.00000E+00
    0.27810E+07        -0.45697E+07         0.00000E+00
    0.00000E+00         0.00000E+00         0.00000E+00
 
    0.11280E+07         0.28533E+07         0.00000E+00
    0.28533E+07        -0.45465E+07         0.00000E+00
    0.00000E+00         0.00000E+00         0.00000E+00
 
    0.10562E+07         0.29254E+07         0.00000E+00
    0.29254E+07        -0.45225E+07         0.00000E+00
    0.00000E+00         0.00000E+00         0.00000E+00
 
    0.98447E+06         0.29973E+07         0.00000E+00
    0.29973E+07        -0.44978E+07         0.00000E+00
    0.00000E+00         0.00000E+00         0.00000E+00
 
    0.91267E+06         0.30690E+07         0.00000E+00
    0.30690E+07        -0.44722E+07         0.00000E+00
    0.00000E+00         0.00000E+00         0.00000E+00
 
    0.84082E+06         0.31406E+07         0.00000E+00
    0.31406E+07        -0.44459E+07         0.00000E+00
    0.00000E+00         0.00000E+00         0.00000E+00
 
    0.76888E+06         0.32121E+07         0.00000E+00
    0.32121E+07        -0.44187E+07         0.00000E+00
    0.00000E+00         0.00000E+00         0.00000E+00
 
    0.69682E+06         0.32834E+07         0.00000E+00
    0.32834E+07        -0.43907E+07         0.00000E+00
    0.00000E+00         0.00000E+00         0.00000E+00
 
    0.62461E+06         0.33547E+07         0.00000E+00
    0.33547E+07        -0.43618E+07         0.00000E+00
    0.00000E+00         0.00000E+00         0.00000E+00
 
    0.55221E+06         0.34258E+07         0.00000E+00
    0.34258E+07        -0.43321E+07         0.00000E+00
    0.00000E+00         0.00000E+00         0.00000E+00
 
    0.47960E+06         0.34968E+07         0.00000E+00
    0.34968E+07        -0.43014E+07         0.00000E+00
    0.00000E+00         0.00000E+00         0.00000E+00
 
    0.40673E+06         0.35676E+07         0.00000E+00
    0.35676E+07        -0.42698E+07         0.00000E+00
    0.00000E+00         0.00000E+00         0.00000E+00
 
    0.33357E+06         0.36384E+07         0.00000E+00
    0.36384E+07        -0.42373E+07         0.00000E+00
    0.00000E+00         0.00000E+00         0.00000E+00
 
    0.26010E+06         0.37091E+07         0.00000E+00
    0.37091E+07        -0.42038E+07         0.00000E+00
    0.00000E+00         0.00000E+00         0.00000E+00
 
    0.18627E+06         0.37797E+07         0.00000E+00
    0.37797E+07        -0.41693E+07         0.00000E+00
    0.00000E+00         0.00000E+00         0.00000E+00
 
    0.11206E+06         0.38502E+07         0.00000E+00
    0.38502E+07        -0.41338E+07         0.00000E+00
    0.00000E+00         0.00000E+00         0.00000E+00
 
    0.37425E+05         0.39206E+07         0.00000E+00
    0.39206E+07        -0.40973E+07         0.00000E+00
    0.00000E+00         0.00000E+00         0.00000E+00
 
    0.38562E+07         0.55196E+05         0.00000E+00
    0.55196E+05        -0.53404E+07         0.00000E+00
    0.00000E+00         0.00000E+00         0.00000E+00
 
    0.37679E+07         0.15976E+06         0.00000E+00
    0.15976E+06        -0.53394E+07         0.00000E+00
    0.00000E+00         0.00000E+00         0.00000E+00
 
    0.36798E+07         0.26233E+06         0.00000E+00
    0.26233E+06        -0.53377E+07         0.00000E+00
    0.00000E+00         0.00000E+00         0.00000E+00
 
    0.35920E+07         0.36298E+06         0.00000E+00
    0.36298E+06        -0.53351E+07         0.00000E+00
    0.00000E+00         0.00000E+00         0.00000E+00
 
    0.35045E+07         0.46182E+06         0.00000E+00
    0.46182E+06        -0.53318E+07         0.00000E+00
    0.00000E+00         0.00000E+00         0.00000E+00
 
    0.34174E+07         0.55892E+06         0.00000E+00
    0.55892E+06        -0.53278E+07         0.00000E+00
    0.00000E+00         0.00000E+00         0.00000E+00
 
    0.33307E+07         0.65438E+06         0.00000E+00
    0.65438E+06        -0.53231E+07         0.00000E+00
    0.00000E+00         0.00000E+00         0.00000E+00
 
    0.32446E+07         0.74828E+06         0.00000E+00
    0.74828E+06        -0.53178E+07         0.00000E+00
    0.00000E+00         0.00000E+00         0.00000E+00
 
    0.31589E+07         0.84071E+06         0.00000E+00
    0.84071E+06        -0.53119E+07         0.00000E+00
    0.00000E+00         0.00000E+00         0.00000E+00
 
    0.30738E+07         0.93175E+06         0.00000E+00
    0.93175E+06        -0.53054E+07         0.00000E+00
    0.00000E+00         0.00000E+00         0.00000E+00
 
    0.29893E+07         0.10215E+07         0.00000E+00
    0.10215E+07        -0.52983E+07         0.00000E+00
    0.00000E+00         0.00000E+00         0.00000E+00
 
    0.29054E+07         0.11100E+07         0.00000E+00
    0.11100E+07        -0.52907E+07         0.00000E+00
    0.00000E+00         0.00000E+00         0.00000E+00
 
    0.28221E+07         0.11973E+07         0.00000E+00
    0.11973E+07        -0.52826E+07         0.00000E+00
    0.00000E+00         0.00000E+00         0.00000E+00
 
    0.27395E+07         0.12836E+07         0.00000E+00
    0.12836E+07        -0.52740E+07         0.00000E+00
    0.00000E+00         0.00000E+00         0.00000E+00
 
    0.26575E+07         0.13689E+07         0.00000E+00
    0.13689E+07        -0.52649E+07         0.00000E+00
    0.00000E+00         0.00000E+00         0.00000E+00
 
    0.25762E+07         0.14532E+07         0.00000E+00
    0.14532E+07        -0.52552E+07         0.00000E+00
    0.00000E+00         0.00000E+00         0.00000E+00
 
    0.24955E+07         0.15367E+07         0.00000E+00
    0.15367E+07        -0.52450E+07         0.00000E+00
    0.00000E+00         0.00000E+00         0.00000E+00
 
    0.24154E+07         0.16194E+07         0.00000E+00
    0.16194E+07        -0.52344E+07         0.00000E+00
    0.00000E+00         0.00000E+00         0.00000E+00
 
    0.23360E+07         0.17014E+07         0.00000E+00
    0.17014E+07        -0.52232E+07         0.00000E+00
    0.00000E+00         0.00000E+00         0.00000E+00
 
    0.22571E+07         0.17826E+07         0.00000E+00
    0.17826E+07        -0.52115E+07         0.00000E+00
    0.00000E+00         0.00000E+00         0.00000E+00
 
    0.21789E+07         0.18633E+07         0.00000E+00
    0.18633E+07        -0.51993E+07         0.00000E+00
    0.00000E+00         0.00000E+00         0.00000E+00
 
    0.21013E+07         0.19434E+07         0.00000E+00
    0.19434E+07        -0.51865E+07         0.00000E+00
    0.00000E+00         0.00000E+00         0.00000E+00
 
    0.20243E+07         0.20230E+07         0.00000E+00
    0.20230E+07        -0.51732E+07         0.00000E+00
    0.00000E+00         0.00000E+00         0.00000E+00
 
    0.19477E+07         0.21022E+07         0.00000E+00
    0.21022E+07        -0.51593E+07         0.00000E+00
    0.00000E+00         0.00000E+00         0.00000E+00
 
    0.18717E+07         0.21809E+07         0.00000E+00
    0.21809E+07        -0.51448E+07         0.00000E+00
    0.00000E+00         0.00000E+00         0.00000E+00
 
    0.17962E+07         0.22593E+07         0.00000E+00
    0.22593E+07        -0.51297E+07         0.00000E+00
    0.00000E+00         0.00000E+00         0.00000E+00
 
    0.17212E+07         0.23374E+07         0.00000E+00
    0.23374E+07        -0.51140E+07         0.00000E+00
    0.00000E+00         0.00000E+00         0.00000E+00
 
    0.16466E+07         0.24152E+07         0.00000E+00
    0.24152E+07        -0.50976E+07         0.00000E+00
    0.00000E+00         0.00000E+00         0.00000E+00
 
    0.15724E+07         0.24927E+07         0.00000E+00
    0.24927E+07        -0.50806E+07         0.00000E+00
    0.00000E+00         0.00000E+00         0.00000E+00
 
    0.14985E+07         0.25701E+07         0.00000E+00
    0.25701E+07        -0.50629E+07         0.00000E+00
    0.00000E+00         0.00000E+00         0.00000E+00
 
    0.14250E+07         0.26472E+07         0.00000E+00
    0.26472E+07        -0.50445E+07         0.00000E+00
    0.00000E+00         0.00000E+00         0.00000E+00
 
    0.13517E+07         0.27243E+07         0.00000E+00
    0.27243E+07        -0.50254E+07         0.00000E+00
    0.00000E+00         0.00000E+00         0.00000E+00
 
    0.12788E+07         0.28012E+07         0.00000E+00
    0.28012E+07        -0.50055E+07         0.00000E+00
    0.00000E+00         0.00000E+00         0.00000E+00
 
    0.12060E+07         0.28780E+07         0.00000E+00
    0.28780E+07        -0.49849E+07         0.00000E+00
    0.00000E+00         0.00000E+00         0.00000E+00
 
    0.11334E+07         0.29547E+07         0.00000E+00
    0.29547E+07        -0.49634E+07         0.00000E+00
    0.00000E+00         0.00000E+00         0.00000E+00
 
    0.10609E+07         0.30314E+07         0.00000E+00
    0.30314E+07        -0.49411E+07         0.00000E+00
    0.00000E+00         0.00000E+00         0.00000E+00
 
    0.98854E+06         0.31080E+07         0.00000E+00
    0.31080E+07        -0.49180E+07         0.00000E+00
    0.00000E+00         0.00000E+00         0.00000E+00
 
    0.91622E+06         0.31846E+07         0.00000E+00
    0.31846E+07        -0.48940E+07         0.00000E+00
    0.00000E+00         0.00000E+00         0.00000E+00
 
    0.84391E+06         0.32612E+07         0.00000E+00
    0.32612E+07        -0.48691E+07         0.00000E+00
    0.00000E+00         0.00000E+00         0.00000E+00
 
    0.77158E+06         0.33378E+07         0.00000E+00
    0.33378E+07        -0.48432E+07         0.00000E+00
    0.00000E+00         0.00000E+00         0.00000E+00
 
    0.69917E+06         0.34145E+07         0.00000E+00
    0.34145E+07        -0.48164E+07         0.00000E+00
    0.00000E+00         0.00000E+00         0.00000E+00
 
    0.62665E+06         0.34911E+07         0.00000E+00
    0.34911E+07        -0.47887E+07         0.00000E+00
    0.00000E+00         0.00000E+00         0.00000E+00
 
    0.55398E+06         0.35678E+07         0.00000E+00
    0.35678E+07        -0.47599E+07         0.00000E+00
    0.00000E+00         0.00000E+00         0.00000E+00
 
    0.48112E+06         0.36445E+07         0.00000E+00
    0.36445E+07        -0.47301E+07         0.00000E+00
    0.00000E+00         0.00000E+00         0.00000E+00
 
    0.40801E+06         0.37212E+07         0.00000E+00
    0.37212E+07        -0.46992E+07         0.00000E+00
    0.00000E+00         0.00000E+00         0.00000E+00
 
    0.33464E+06         0.37980E+07         0.00000E+00
    0.37980E+07        -0.46673E+07         0.00000E+00
    0.00000E+00         0.00000E+00         0.00000E+00
 
    0.26094E+06         0.38748E+07         0.00000E+00
    0.38748E+07        -0.46343E+07         0.00000E+00
    0.00000E+00         0.00000E+00         0.00000E+00
 
    0.18689E+06         0.39516E+07         0.00000E+00
    0.39516E+07        -0.46001E+07         0.00000E+00
    0.00000E+00         0.00000E+00         0.00000E+00
 
    0.11244E+06         0.40285E+07         0.00000E+00
    0.40285E+07        -0.45648E+07         0.00000E+00
    0.00000E+00         0.00000E+00         0.00000E+00
 
    0.37556E+05         0.41053E+07         0.00000E+00
    0.41053E+07        -0.45283E+07         0.00000E+00
    0.00000E+00         0.00000E+00         0.00000E+00
 
    0.39935E+07         0.56690E+05         0.00000E+00
    0.56690E+05        -0.57380E+07         0.00000E+00
    0.00000E+00         0.00000E+00         0.00000E+00
 
    0.38945E+07         0.16367E+06         0.00000E+00
    0.16367E+06        -0.57372E+07         0.00000E+00
    0.00000E+00         0.00000E+00         0.00000E+00
 
    0.37962E+07         0.26847E+06         0.00000E+00
    0.26847E+06        -0.57358E+07         0.00000E+00
    0.00000E+00         0.00000E+00         0.00000E+00
 
    0.36986E+07         0.37122E+06         0.00000E+00
    0.37122E+06        -0.57338E+07         0.00000E+00
    0.00000E+00         0.00000E+00         0.00000E+00
 
    0.36019E+07         0.47202E+06         0.00000E+00
    0.47202E+06        -0.57312E+07         0.00000E+00
    0.00000E+00         0.00000E+00         0.00000E+00
 
    0.35061E+07         0.57099E+06         0.00000E+00
    0.57099E+06        -0.57281E+07         0.00000E+00
    0.00000E+00         0.00000E+00         0.00000E+00
 
    0.34112E+07         0.66823E+06         0.00000E+00
    0.66823E+06        -0.57245E+07         0.00000E+00
    0.00000E+00         0.00000E+00         0.00000E+00
 
    0.33173E+07         0.76386E+06         0.00000E+00
    0.76386E+06        -0.57205E+07         0.00000E+00
    0.00000E+00         0.00000E+00         0.00000E+00
 
    0.32243E+07         0.85798E+06         0.00000E+00
    0.85798E+06        -0.57159E+07         0.00000E+00
    0.00000E+00         0.00000E+00         0.00000E+00
 
    0.31324E+07         0.95070E+06         0.00000E+00
    0.95070E+06        -0.57110E+07         0.00000E+00
    0.00000E+00         0.00000E+00         0.00000E+00
 
    0.30415E+07         0.10421E+07         0.00000E+00
    0.10421E+07        -0.57057E+07         0.00000E+00
    0.00000E+00         0.00000E+00         0.00000E+00
 
    0.29516E+07         0.11323E+07         0.00000E+00
    0.11323E+07        -0.56999E+07         0.00000E+00
    0.00000E+00         0.00000E+00         0.00000E+00
 
    0.28627E+07         0.12214E+07         0.00000E+00
    0.12214E+07        -0.56937E+07         0.00000E+00
    0.00000E+00         0.00000E+00         0.00000E+00
 
    0.27749E+07         0.13094E+07         0.00000E+00
    0.13094E+07        -0.56872E+07         0.00000E+00
    0.00000E+00         0.00000E+00         0.00000E+00
 
    0.26881E+07         0.13966E+07         0.00000E+00
    0.13966E+07        -0.56802E+07         0.00000E+00
    0.00000E+00         0.00000E+00         0.00000E+00
 
    0.26024E+07         0.14828E+07         0.00000E+00
    0.14828E+07        -0.56729E+07         0.00000E+00
    0.00000E+00         0.00000E+00         0.00000E+00
 
    0.25176E+07         0.15683E+07         0.00000E+00
    0.15683E+07        -0.56651E+07         0.00000E+00
    0.00000E+00         0.00000E+00         0.00000E+00
 
    0.24339E+07         0.16531E+07         0.00000E+00
    0.16531E+07        -0.56569E+07         0.00000E+00
    0.00000E+00         0.00000E+00         0.00000E+00
 
    0.23511E+07         0.17373E+07         0.00000E+00
    0.17373E+07        -0.56482E+07         0.00000E+00
    0.00000E+00         0.00000E+00         0.00000E+00
 
    0.22692E+07         0.18209E+07         0.00000E+00
    0.18209E+07        -0.56391E+07         0.00000E+00
    0.00000E+00         0.00000E+00         0.00000E+00
 
    0.21882E+07         0.19040E+07         0.00000E+00
    0.19040E+07        -0.56295E+07         0.00000E+00
    0.00000E+00         0.00000E+00         0.00000E+00
 
    0.21081E+07         0.19868E+07         0.00000E+00
    0.19868E+07        -0.56194E+07         0.00000E+00
    0.00000E+00         0.00000E+00         0.00000E+00
 
    0.20289E+07         0.20691E+07         0.00000E+00
    0.20691E+07        -0.56088E+07         0.00000E+00
    0.00000E+00         0.00000E+00         0.00000E+00
 
    0.19504E+07         0.21512E+07         0.00000E+00
    0.21512E+07        -0.55976E+07         0.00000E+00
    0.00000E+00         0.00000E+00         0.00000E+00
 
    0.18727E+07         0.22330E+07         0.00000E+00
    0.22330E+07        -0.55859E+07         0.00000E+00
    0.00000E+00         0.00000E+00         0.00000E+00
 
    0.17958E+07         0.23146E+07         0.00000E+00
    0.23146E+07        -0.55736E+07         0.00000E+00
    0.00000E+00         0.00000E+00         0.00000E+00
 
    0.17195E+07         0.23960E+07         0.00000E+00
    0.23960E+07        -0.55606E+07         0.00000E+00
    0.00000E+00         0.00000E+00         0.00000E+00
 
    0.16438E+07         0.24774E+07         0.00000E+00
    0.24774E+07        -0.55470E+07         0.00000E+00
    0.00000E+00         0.00000E+00         0.00000E+00
 
    0.15687E+07         0.25587E+07         0.00000E+00
    0.25587E+07        -0.55327E+07         0.00000E+00
    0.00000E+00         0.00000E+00         0.00000E+00
 
    0.14941E+07         0.26399E+07         0.00000E+00
    0.26399E+07        -0.55176E+07         0.00000E+00
    0.00000E+00         0.00000E+00         0.00000E+00
 
    0.14201E+07         0.27211E+07         0.00000E+00
    0.27211E+07        -0.55019E+07         0.00000E+00
    0.00000E+00         0.00000E+00         0.00000E+00
 
    0.13464E+07         0.28024E+07         0.00000E+00
    0.28024E+07        -0.54853E+07         0.00000E+00
    0.00000E+00         0.00000E+00         0.00000E+00
 
    0.12732E+07         0.28837E+07         0.00000E+00
    0.28837E+07        -0.54679E+07         0.00000E+00
    0.00000E+00         0.00000E+00         0.00000E+00
 
    0.12003E+07         0.29651E+07         0.00000E+00
    0.29651E+07        -0.54497E+07         0.00000E+00
    0.00000E+00         0.00000E+00         0.00000E+00
 
    0.11277E+07         0.30466E+07         0.00000E+00
    0.30466E+07        -0.54306E+07         0.00000E+00
    0.00000E+00         0.00000E+00         0.00000E+00
 
    0.10553E+07         0.31283E+07         0.00000E+00
    0.31283E+07        -0.54106E+07         0.00000E+00
    0.00000E+00         0.00000E+00         0.00000E+00
 
    0.98304E+06         0.32101E+07         0.00000E+00
    0.32101E+07        -0.53896E+07         0.00000E+00
    0.00000E+00         0.00000E+00         0.00000E+00
 
    0.91094E+06         0.32920E+07         0.00000E+00
    0.32920E+07        -0.53677E+07         0.00000E+00
    0.00000E+00         0.00000E+00         0.00000E+00
 
    0.83893E+06         0.33741E+07         0.00000E+00
    0.33741E+07        -0.53448E+07         0.00000E+00
    0.00000E+00         0.00000E+00         0.00000E+00
 
    0.76694E+06         0.34564E+07         0.00000E+00
    0.34564E+07        -0.53208E+07         0.00000E+00
    0.00000E+00         0.00000E+00         0.00000E+00
 
    0.69493E+06         0.35389E+07         0.00000E+00
    0.35389E+07        -0.52957E+07         0.00000E+00
    0.00000E+00         0.00000E+00         0.00000E+00
 
    0.62283E+06         0.36215E+07         0.00000E+00
    0.36215E+07        -0.52696E+07         0.00000E+00
    0.00000E+00         0.00000E+00         0.00000E+00
 
    0.55061E+06         0.37044E+07         0.00000E+00
    0.37044E+07        -0.52423E+07         0.00000E+00
    0.00000E+00         0.00000E+00         0.00000E+00
 
    0.47822E+06         0.37874E+07         0.00000E+00
    0.37874E+07        -0.52138E+07         0.00000E+00
    0.00000E+00         0.00000E+00         0.00000E+00
 
    0.40559E+06         0.38707E+07         0.00000E+00
    0.38707E+07        -0.51841E+07         0.00000E+00
    0.00000E+00         0.00000E+00         0.00000E+00
 
    0.33269E+06         0.39541E+07         0.00000E+00
    0.39541E+07        -0.51532E+07         0.00000E+00
    0.00000E+00         0.00000E+00         0.00000E+00
 
    0.25946E+06         0.40377E+07         0.00000E+00
    0.40377E+07        -0.51211E+07         0.00000E+00
    0.00000E+00         0.00000E+00         0.00000E+00
 
    0.18586E+06         0.41215E+07         0.00000E+00
    0.41215E+07        -0.50876E+07         0.00000E+00
    0.00000E+00         0.00000E+00         0.00000E+00
 
    0.11185E+06         0.42055E+07         0.00000E+00
    0.42055E+07        -0.50529E+07         0.00000E+00
    0.00000E+00         0.00000E+00         0.00000E+00
 
    0.37363E+05         0.42896E+07         0.00000E+00
    0.42896E+07        -0.50168E+07         0.00000E+00
    0.00000E+00         0.00000E+00         0.00000E+00
 
    0.41043E+07         0.57654E+05         0.00000E+00
    0.57654E+05        -0.61720E+07         0.00000E+00
    0.00000E+00         0.00000E+00         0.00000E+00
 
    0.39937E+07         0.16601E+06         0.00000E+00
    0.16601E+06        -0.61715E+07         0.00000E+00
    0.00000E+00         0.00000E+00         0.00000E+00
 
    0.38845E+07         0.27204E+06         0.00000E+00
    0.27204E+06        -0.61706E+07         0.00000E+00
    0.00000E+00         0.00000E+00         0.00000E+00
 
    0.37766E+07         0.37589E+06         0.00000E+00
    0.37589E+06        -0.61694E+07         0.00000E+00
    0.00000E+00         0.00000E+00         0.00000E+00
 
    0.36702E+07         0.47769E+06         0.00000E+00
    0.47769E+06        -0.61678E+07         0.00000E+00
    0.00000E+00         0.00000E+00         0.00000E+00
 
    0.35652E+07         0.57759E+06         0.00000E+00
    0.57759E+06        -0.61659E+07         0.00000E+00
    0.00000E+00         0.00000E+00         0.00000E+00
 
    0.34618E+07         0.67573E+06         0.00000E+00
    0.67573E+06        -0.61637E+07         0.00000E+00
    0.00000E+00         0.00000E+00         0.00000E+00
 
    0.33599E+07         0.77223E+06         0.00000E+00
    0.77223E+06        -0.61613E+07         0.00000E+00
    0.00000E+00         0.00000E+00         0.00000E+00
 
    0.32596E+07         0.86722E+06         0.00000E+00
    0.86722E+06        -0.61587E+07         0.00000E+00
    0.00000E+00         0.00000E+00         0.00000E+00
 
    0.31608E+07         0.96082E+06         0.00000E+00
    0.96082E+06        -0.61558E+07         0.00000E+00
    0.00000E+00         0.00000E+00         0.00000E+00
 
    0.30635E+07         0.10532E+07         0.00000E+00
    0.10532E+07        -0.61526E+07         0.00000E+00
    0.00000E+00         0.00000E+00         0.00000E+00
 
    0.29678E+07         0.11444E+07         0.00000E+00
    0.11444E+07        -0.61493E+07         0.00000E+00
    0.00000E+00         0.00000E+00         0.00000E+00
 
    0.28737E+07         0.12345E+07         0.00000E+00
    0.12345E+07        -0.61457E+07         0.00000E+00
    0.00000E+00         0.00000E+00         0.00000E+00
 
    0.27810E+07         0.13238E+07         0.00000E+00
    0.13238E+07        -0.61418E+07         0.00000E+00
    0.00000E+00         0.00000E+00         0.00000E+00
 
    0.26899E+07         0.14122E+07         0.00000E+00
    0.14122E+07        -0.61377E+07         0.00000E+00
    0.00000E+00         0.00000E+00         0.00000E+00
 
    0.26002E+07         0.14999E+07         0.00000E+00
    0.14999E+07        -0.61333E+07         0.00000E+00
    0.00000E+00         0.00000E+00         0.00000E+00
 
    0.25119E+07         0.15869E+07         0.00000E+00
    0.15869E+07        -0.61286E+07         0.00000E+00
    0.00000E+00         0.00000E+00         0.00000E+00
 
    0.24250E+07         0.16735E+07         0.00000E+00
    0.16735E+07        -0.61236E+07         0.00000E+00
    0.00000E+00         0.00000E+00         0.00000E+00
 
    0.23394E+07         0.17595E+07         0.00000E+00
    0.17595E+07        -0.61181E+07         0.00000E+00
    0.00000E+00         0.00000E+00         0.00000E+00
 
    0.22552E+07         0.18452E+07         0.00000E+00
    0.18452E+07        -0.61124E+07         0.00000E+00
    0.00000E+00         0.00000E+00         0.00000E+00
 
    0.21722E+07         0.19306E+07         0.00000E+00
    0.19306E+07        -0.61062E+07         0.00000E+00
    0.00000E+00         0.00000E+00         0.00000E+00
 
    0.20903E+07         0.20157E+07         0.00000E+00
    0.20157E+07        -0.60995E+07         0.00000E+00
    0.00000E+00         0.00000E+00         0.00000E+00
 
    0.20097E+07         0.21007E+07         0.00000E+00
    0.21007E+07        -0.60923E+07         0.00000E+00
    0.00000E+00         0.00000E+00         0.00000E+00
 
    0.19301E+07         0.21856E+07         0.00000E+00
    0.21856E+07        -0.60847E+07         0.00000E+00
    0.00000E+00         0.00000E+00         0.00000E+00
 
    0.18515E+07         0.22704E+07         0.00000E+00
    0.22704E+07        -0.60765E+07         0.00000E+00
    0.00000E+00         0.00000E+00         0.00000E+00
 
    0.17739E+07         0.23553E+07         0.00000E+00
    0.23553E+07        -0.60676E+07         0.00000E+00
    0.00000E+00         0.00000E+00         0.00000E+00
 
    0.16973E+07         0.24402E+07         0.00000E+00
    0.24402E+07        -0.60582E+07         0.00000E+00
    0.00000E+00         0.00000E+00         0.00000E+00
 
    0.16214E+07         0.25252E+07         0.00000E+00
    0.25252E+07        -0.60480E+07         0.00000E+00
    0.00000E+00         0.00000E+00         0.00000E+00
 
    0.15464E+07         0.26103E+07         0.00000E+00
    0.26103E+07        -0.60372E+07         0.00000E+00
    0.00000E+00         0.00000E+00         0.00000E+00
 
    0.14720E+07         0.26957E+07         0.00000E+00
    0.26957E+07        -0.60255E+07         0.00000E+00
    0.00000E+00         0.00000E+00         0.00000E+00
 
    0.13983E+07         0.27812E+07         0.00000E+00
    0.27812E+07        -0.60131E+07         0.00000E+00
    0.00000E+00         0.00000E+00         0.00000E+00
 
    0.13252E+07         0.28670E+07         0.00000E+00
    0.28670E+07        -0.59998E+07         0.00000E+00
    0.00000E+00         0.00000E+00         0.00000E+00
 
    0.12526E+07         0.29531E+07         0.00000E+00
    0.29531E+07        -0.59857E+07         0.00000E+00
    0.00000E+00         0.00000E+00         0.00000E+00
 
    0.11805E+07         0.30395E+07         0.00000E+00
    0.30395E+07        -0.59706E+07         0.00000E+00
    0.00000E+00         0.00000E+00         0.00000E+00
 
    0.11088E+07         0.31262E+07         0.00000E+00
    0.31262E+07        -0.59545E+07         0.00000E+00
    0.00000E+00         0.00000E+00         0.00000E+00
 
    0.10373E+07         0.32133E+07         0.00000E+00
    0.32133E+07        -0.59374E+07         0.00000E+00
    0.00000E+00         0.00000E+00         0.00000E+00
 
    0.96620E+06         0.33007E+07         0.00000E+00
    0.33007E+07        -0.59193E+07         0.00000E+00
    0.00000E+00         0.00000E+00         0.00000E+00
 
    0.89525E+06         0.33885E+07         0.00000E+00
    0.33885E+07        -0.59001E+07         0.00000E+00
    0.00000E+00         0.00000E+00         0.00000E+00
 
    0.82443E+06         0.34766E+07         0.00000E+00
    0.34766E+07        -0.58798E+07         0.00000E+00
    0.00000E+00         0.00000E+00         0.00000E+00
 
    0.75368E+06         0.35652E+07         0.00000E+00
    0.35652E+07        -0.58582E+07         0.00000E+00
    0.00000E+00         0.00000E+00         0.00000E+00
 
    0.68294E+06         0.36541E+07         0.00000E+00
    0.36541E+07        -0.58355E+07         0.00000E+00
    0.00000E+00         0.00000E+00         0.00000E+00
 
    0.61215E+06         0.37434E+07         0.00000E+00
    0.37434E+07        -0.58115E+07         0.00000E+00
    0.00000E+00         0.00000E+00         0.00000E+00
 
    0.54124E+06         0.38332E+07         0.00000E+00
    0.38332E+07        -0.57862E+07         0.00000E+00
    0.00000E+00         0.00000E+00         0.00000E+00
 
    0.47016E+06         0.39233E+07         0.00000E+00
    0.39233E+07        -0.57596E+07         0.00000E+00
    0.00000E+00         0.00000E+00         0.00000E+00
 
    0.39884E+06         0.40137E+07         0.00000E+00
    0.40137E+07        -0.57316E+07         0.00000E+00
    0.00000E+00         0.00000E+00         0.00000E+00
 
    0.32724E+06         0.41046E+07         0.00000E+00
    0.41046E+07        -0.57022E+07         0.00000E+00
    0.00000E+00         0.00000E+00         0.00000E+00
 
    0.25528E+06         0.41958E+07         0.00000E+00
    0.41958E+07        -0.56714E+07         0.00000E+00
    0.00000E+00         0.00000E+00         0.00000E+00
 
    0.18293E+06         0.42874E+07         0.00000E+00
    0.42874E+07        -0.56391E+07         0.00000E+00
    0.00000E+00         0.00000E+00         0.00000E+00
 
    0.11012E+06         0.43793E+07         0.00000E+00
    0.43793E+07        -0.56053E+07         0.00000E+00
    0.00000E+00         0.00000E+00         0.00000E+00
 
    0.36795E+05         0.44715E+07         0.00000E+00
    0.44715E+07        -0.55700E+07         0.00000E+00
    0.00000E+00         0.00000E+00         0.00000E+00
 
    0.41786E+07         0.57908E+05         0.00000E+00
    0.57908E+05        -0.66468E+07         0.00000E+00
    0.00000E+00         0.00000E+00         0.00000E+00
 
    0.40556E+07         0.16630E+06         0.00000E+00
    0.16630E+06        -0.66467E+07         0.00000E+00
    0.00000E+00         0.00000E+00         0.00000E+00
 
    0.39347E+07         0.27225E+06         0.00000E+00
    0.27225E+06        -0.66464E+07         0.00000E+00
    0.00000E+00         0.00000E+00         0.00000E+00
 
    0.38160E+07         0.37591E+06         0.00000E+00
    0.37591E+06        -0.66462E+07         0.00000E+00
    0.00000E+00         0.00000E+00         0.00000E+00
 
    0.36995E+07         0.47749E+06         0.00000E+00
    0.47749E+06        -0.66459E+07         0.00000E+00
    0.00000E+00         0.00000E+00         0.00000E+00
 
    0.35852E+07         0.57713E+06         0.00000E+00
    0.57713E+06        -0.66456E+07         0.00000E+00
    0.00000E+00         0.00000E+00         0.00000E+00
 
    0.34731E+07         0.67501E+06         0.00000E+00
    0.67501E+06        -0.66453E+07         0.00000E+00
    0.00000E+00         0.00000E+00         0.00000E+00
 
    0.33633E+07         0.77130E+06         0.00000E+00
    0.77130E+06        -0.66450E+07         0.00000E+00
    0.00000E+00         0.00000E+00         0.00000E+00
 
    0.32557E+07         0.86613E+06         0.00000E+00
    0.86613E+06        -0.66447E+07         0.00000E+00
    0.00000E+00         0.00000E+00         0.00000E+00
 
    0.31504E+07         0.95967E+06         0.00000E+00
    0.95967E+06        -0.66445E+07         0.00000E+00
    0.00000E+00         0.00000E+00         0.00000E+00
 
    0.30472E+07         0.10520E+07         0.00000E+00
    0.10520E+07        -0.66442E+07         0.00000E+00
    0.00000E+00         0.00000E+00         0.00000E+00
 
    0.29461E+07         0.11434E+07         0.00000E+00
    0.11434E+07        -0.66439E+07         0.00000E+00
    0.00000E+00         0.00000E+00         0.00000E+00
 
    0.28471E+07         0.12339E+07         0.00000E+00
    0.12339E+07        -0.66435E+07         0.00000E+00
    0.00000E+00         0.00000E+00         0.00000E+00
 
    0.27503E+07         0.13236E+07         0.00000E+00
    0.13236E+07        -0.66431E+07         0.00000E+00
    0.00000E+00         0.00000E+00         0.00000E+00
 
    0.26554E+07         0.14126E+07         0.00000E+00
    0.14126E+07        -0.66426E+07         0.00000E+00
    0.00000E+00         0.00000E+00         0.00000E+00
 
    0.25625E+07         0.15012E+07         0.00000E+00
    0.15012E+07        -0.66419E+07         0.00000E+00
    0.00000E+00         0.00000E+00         0.00000E+00
 
    0.24715E+07         0.15893E+07         0.00000E+00
    0.15893E+07        -0.66410E+07         0.00000E+00
    0.00000E+00         0.00000E+00         0.00000E+00
 
    0.23823E+07         0.16771E+07         0.00000E+00
    0.16771E+07        -0.66400E+07         0.00000E+00
    0.00000E+00         0.00000E+00         0.00000E+00
 
    0.22949E+07         0.17646E+07         0.00000E+00
    0.17646E+07        -0.66387E+07         0.00000E+00
    0.00000E+00         0.00000E+00         0.00000E+00
 
    0.22092E+07         0.18520E+07         0.00000E+00
    0.18520E+07        -0.66370E+07         0.00000E+00
    0.00000E+00         0.00000E+00         0.00000E+00
 
    0.21252E+07         0.19394E+07         0.00000E+00
    0.19394E+07        -0.66351E+07         0.00000E+00
    0.00000E+00         0.00000E+00         0.00000E+00
 
    0.20427E+07         0.20267E+07         0.00000E+00
    0.20267E+07        -0.66327E+07         0.00000E+00
    0.00000E+00         0.00000E+00         0.00000E+00
 
    0.19616E+07         0.21142E+07         0.00000E+00
    0.21142E+07        -0.66299E+07         0.00000E+00
    0.00000E+00         0.00000E+00         0.00000E+00
 
    0.18820E+07         0.22018E+07         0.00000E+00
    0.22018E+07        -0.66265E+07         0.00000E+00
    0.00000E+00         0.00000E+00         0.00000E+00
 
    0.18036E+07         0.22897E+07         0.00000E+00
    0.22897E+07        -0.66227E+07         0.00000E+00
    0.00000E+00         0.00000E+00         0.00000E+00
 
    0.17265E+07         0.23778E+07         0.00000E+00
    0.23778E+07        -0.66182E+07         0.00000E+00
    0.00000E+00         0.00000E+00         0.00000E+00
 
    0.16506E+07         0.24662E+07         0.00000E+00
    0.24662E+07        -0.66131E+07         0.00000E+00
    0.00000E+00         0.00000E+00         0.00000E+00
 
    0.15757E+07         0.25550E+07         0.00000E+00
    0.25550E+07        -0.66072E+07         0.00000E+00
    0.00000E+00         0.00000E+00         0.00000E+00
 
    0.15018E+07         0.26443E+07         0.00000E+00
    0.26443E+07        -0.66006E+07         0.00000E+00
    0.00000E+00         0.00000E+00         0.00000E+00
 
    0.14288E+07         0.27340E+07         0.00000E+00
    0.27340E+07        -0.65932E+07         0.00000E+00
    0.00000E+00         0.00000E+00         0.00000E+00
 
    0.13566E+07         0.28241E+07         0.00000E+00
    0.28241E+07        -0.65849E+07         0.00000E+00
    0.00000E+00         0.00000E+00         0.00000E+00
 
    0.12852E+07         0.29148E+07         0.00000E+00
    0.29148E+07        -0.65757E+07         0.00000E+00
    0.00000E+00         0.00000E+00         0.00000E+00
 
    0.12144E+07         0.30061E+07         0.00000E+00
    0.30061E+07        -0.65656E+07         0.00000E+00
    0.00000E+00         0.00000E+00         0.00000E+00
 
    0.11442E+07         0.30979E+07         0.00000E+00
    0.30979E+07        -0.65544E+07         0.00000E+00
    0.00000E+00         0.00000E+00         0.00000E+00
 
    0.10744E+07         0.31903E+07         0.00000E+00
    0.31903E+07        -0.65421E+07         0.00000E+00
    0.00000E+00         0.00000E+00         0.00000E+00
 
    0.10051E+07         0.32833E+07         0.00000E+00
    0.32833E+07        -0.65287E+07         0.00000E+00
    0.00000E+00         0.00000E+00         0.00000E+00
 
    0.93615E+06         0.33769E+07         0.00000E+00
    0.33769E+07        -0.65141E+07         0.00000E+00
    0.00000E+00         0.00000E+00         0.00000E+00
 
    0.86742E+06         0.34711E+07         0.00000E+00
    0.34711E+07        -0.64983E+07         0.00000E+00
    0.00000E+00         0.00000E+00         0.00000E+00
 
    0.79886E+06         0.35659E+07         0.00000E+00
    0.35659E+07        -0.64812E+07         0.00000E+00
    0.00000E+00         0.00000E+00         0.00000E+00
 
    0.73041E+06         0.36614E+07         0.00000E+00
    0.36614E+07        -0.64628E+07         0.00000E+00
    0.00000E+00         0.00000E+00         0.00000E+00
 
    0.66199E+06         0.37575E+07         0.00000E+00
    0.37575E+07        -0.64430E+07         0.00000E+00
    0.00000E+00         0.00000E+00         0.00000E+00
 
    0.59352E+06         0.38542E+07         0.00000E+00
    0.38542E+07        -0.64218E+07         0.00000E+00
    0.00000E+00         0.00000E+00         0.00000E+00
 
    0.52493E+06         0.39515E+07         0.00000E+00
    0.39515E+07        -0.63991E+07         0.00000E+00
    0.00000E+00         0.00000E+00         0.00000E+00
 
    0.45615E+06         0.40495E+07         0.00000E+00
    0.40495E+07        -0.63750E+07         0.00000E+00
    0.00000E+00         0.00000E+00         0.00000E+00
 
    0.38712E+06         0.41480E+07         0.00000E+00
    0.41480E+07        -0.63492E+07         0.00000E+00
    0.00000E+00         0.00000E+00         0.00000E+00
 
    0.31776E+06         0.42472E+07         0.00000E+00
    0.42472E+07        -0.63219E+07         0.00000E+00
    0.00000E+00         0.00000E+00         0.00000E+00
 
    0.24801E+06         0.43469E+07         0.00000E+00
    0.43469E+07        -0.62929E+07         0.00000E+00
    0.00000E+00         0.00000E+00         0.00000E+00
 
    0.17781E+06         0.44471E+07         0.00000E+00
    0.44471E+07        -0.62623E+07         0.00000E+00
    0.00000E+00         0.00000E+00         0.00000E+00
 
    0.10709E+06         0.45479E+07         0.00000E+00
    0.45479E+07        -0.62299E+07         0.00000E+00
    0.00000E+00         0.00000E+00         0.00000E+00
 
    0.35799E+05         0.46492E+07         0.00000E+00
    0.46492E+07        -0.61957E+07         0.00000E+00
    0.00000E+00         0.00000E+00         0.00000E+00
 
    0.42036E+07         0.57236E+05         0.00000E+00
    0.57236E+05        -0.71673E+07         0.00000E+00
    0.00000E+00         0.00000E+00         0.00000E+00
 
    0.40676E+07         0.16394E+06         0.00000E+00
    0.16394E+06        -0.71675E+07         0.00000E+00
    0.00000E+00         0.00000E+00         0.00000E+00
 
    0.39347E+07         0.26812E+06         0.00000E+00
    0.26812E+06        -0.71682E+07         0.00000E+00
    0.00000E+00         0.00000E+00         0.00000E+00
 
    0.38049E+07         0.37000E+06         0.00000E+00
    0.37000E+06        -0.71692E+07         0.00000E+00
    0.00000E+00         0.00000E+00         0.00000E+00
 
    0.36782E+07         0.46979E+06         0.00000E+00
    0.46979E+06        -0.71705E+07         0.00000E+00
    0.00000E+00         0.00000E+00         0.00000E+00
 
    0.35547E+07         0.56770E+06         0.00000E+00
    0.56770E+06        -0.71722E+07         0.00000E+00
    0.00000E+00         0.00000E+00         0.00000E+00
 
    0.34342E+07         0.66392E+06         0.00000E+00
    0.66392E+06        -0.71743E+07         0.00000E+00
    0.00000E+00         0.00000E+00         0.00000E+00
 
    0.33169E+07         0.75865E+06         0.00000E+00
    0.75865E+06        -0.71767E+07         0.00000E+00
    0.00000E+00         0.00000E+00         0.00000E+00
 
    0.32025E+07         0.85207E+06         0.00000E+00
    0.85207E+06        -0.71794E+07         0.00000E+00
    0.00000E+00         0.00000E+00         0.00000E+00
 
    0.30911E+07         0.94436E+06         0.00000E+00
    0.94436E+06        -0.71824E+07         0.00000E+00
    0.00000E+00         0.00000E+00         0.00000E+00
 
    0.29826E+07         0.10357E+07         0.00000E+00
    0.10357E+07        -0.71857E+07         0.00000E+00
    0.00000E+00         0.00000E+00         0.00000E+00
 
    0.28770E+07         0.11262E+07         0.00000E+00
    0.11262E+07        -0.71892E+07         0.00000E+00
    0.00000E+00         0.00000E+00         0.00000E+00
 
    0.27742E+07         0.12160E+07         0.00000E+00
    0.12160E+07        -0.71929E+07         0.00000E+00
    0.00000E+00         0.00000E+00         0.00000E+00
 
    0.26740E+07         0.13053E+07         0.00000E+00
    0.13053E+07        -0.71967E+07         0.00000E+00
    0.00000E+00         0.00000E+00         0.00000E+00
 
    0.25765E+07         0.13943E+07         0.00000E+00
    0.13943E+07        -0.72006E+07         0.00000E+00
    0.00000E+00         0.00000E+00         0.00000E+00
 
    0.24815E+07         0.14830E+07         0.00000E+00
    0.14830E+07        -0.72046E+07         0.00000E+00
    0.00000E+00         0.00000E+00         0.00000E+00
 
    0.23889E+07         0.15715E+07         0.00000E+00
    0.15715E+07        -0.72085E+07         0.00000E+00
    0.00000E+00         0.00000E+00         0.00000E+00
 
    0.22987E+07         0.16600E+07         0.00000E+00
    0.16600E+07        -0.72123E+07         0.00000E+00
    0.00000E+00         0.00000E+00         0.00000E+00
 
    0.22107E+07         0.17486E+07         0.00000E+00
    0.17486E+07        -0.72160E+07         0.00000E+00
    0.00000E+00         0.00000E+00         0.00000E+00
 
    0.21249E+07         0.18374E+07         0.00000E+00
    0.18374E+07        -0.72194E+07         0.00000E+00
    0.00000E+00         0.00000E+00         0.00000E+00
 
    0.20410E+07         0.19264E+07         0.00000E+00
    0.19264E+07        -0.72226E+07         0.00000E+00
    0.00000E+00         0.00000E+00         0.00000E+00
 
    0.19592E+07         0.20158E+07         0.00000E+00
    0.20158E+07        -0.72254E+07         0.00000E+00
    0.00000E+00         0.00000E+00         0.00000E+00
 
    0.18791E+07         0.21056E+07         0.00000E+00
    0.21056E+07        -0.72279E+07         0.00000E+00
    0.00000E+00         0.00000E+00         0.00000E+00
 
    0.18008E+07         0.21959E+07         0.00000E+00
    0.21959E+07        -0.72298E+07         0.00000E+00
    0.00000E+00         0.00000E+00         0.00000E+00
 
    0.17241E+07         0.22867E+07         0.00000E+00
    0.22867E+07        -0.72312E+07         0.00000E+00
    0.00000E+00         0.00000E+00         0.00000E+00
 
    0.16489E+07         0.23782E+07         0.00000E+00
    0.23782E+07        -0.72321E+07         0.00000E+00
    0.00000E+00         0.00000E+00         0.00000E+00
 
    0.15751E+07         0.24703E+07         0.00000E+00
    0.24703E+07        -0.72322E+07         0.00000E+00
    0.00000E+00         0.00000E+00         0.00000E+00
 
    0.15026E+07         0.25631E+07         0.00000E+00
    0.25631E+07        -0.72315E+07         0.00000E+00
    0.00000E+00         0.00000E+00         0.00000E+00
 
    0.14312E+07         0.26567E+07         0.00000E+00
    0.26567E+07        -0.72301E+07         0.00000E+00
    0.00000E+00         0.00000E+00         0.00000E+00
 
    0.13610E+07         0.27510E+07         0.00000E+00
    0.27510E+07        -0.72278E+07         0.00000E+00
    0.00000E+00         0.00000E+00         0.00000E+00
 
    0.12917E+07         0.28462E+07         0.00000E+00
    0.28462E+07        -0.72245E+07         0.00000E+00
    0.00000E+00         0.00000E+00         0.00000E+00
 
    0.12233E+07         0.29421E+07         0.00000E+00
    0.29421E+07        -0.72202E+07         0.00000E+00
    0.00000E+00         0.00000E+00         0.00000E+00
 
    0.11557E+07         0.30390E+07         0.00000E+00
    0.30390E+07        -0.72149E+07         0.00000E+00
    0.00000E+00         0.00000E+00         0.00000E+00
 
    0.10887E+07         0.31367E+07         0.00000E+00
    0.31367E+07        -0.72084E+07         0.00000E+00
    0.00000E+00         0.00000E+00         0.00000E+00
 
    0.10223E+07         0.32353E+07         0.00000E+00
    0.32353E+07        -0.72007E+07         0.00000E+00
    0.00000E+00         0.00000E+00         0.00000E+00
 
    0.95641E+06         0.33348E+07         0.00000E+00
    0.33348E+07        -0.71917E+07         0.00000E+00
    0.00000E+00         0.00000E+00         0.00000E+00
 
    0.89088E+06         0.34353E+07         0.00000E+00
    0.34353E+07        -0.71815E+07         0.00000E+00
    0.00000E+00         0.00000E+00         0.00000E+00
 
    0.82564E+06         0.35366E+07         0.00000E+00
    0.35366E+07        -0.71698E+07         0.00000E+00
    0.00000E+00         0.00000E+00         0.00000E+00
 
    0.76061E+06         0.36388E+07         0.00000E+00
    0.36388E+07        -0.71567E+07         0.00000E+00
    0.00000E+00         0.00000E+00         0.00000E+00
 
    0.69568E+06         0.37419E+07         0.00000E+00
    0.37419E+07        -0.71421E+07         0.00000E+00
    0.00000E+00         0.00000E+00         0.00000E+00
 
    0.63078E+06         0.38460E+07         0.00000E+00
    0.38460E+07        -0.71260E+07         0.00000E+00
    0.00000E+00         0.00000E+00         0.00000E+00
 
    0.56581E+06         0.39509E+07         0.00000E+00
    0.39509E+07        -0.71082E+07         0.00000E+00
    0.00000E+00         0.00000E+00         0.00000E+00
 
    0.50070E+06         0.40567E+07         0.00000E+00
    0.40567E+07        -0.70888E+07         0.00000E+00
    0.00000E+00         0.00000E+00         0.00000E+00
 
    0.43537E+06         0.41633E+07         0.00000E+00
    0.41633E+07        -0.70677E+07         0.00000E+00
    0.00000E+00         0.00000E+00         0.00000E+00
 
    0.36973E+06         0.42708E+07         0.00000E+00
    0.42708E+07        -0.70448E+07         0.00000E+00
    0.00000E+00         0.00000E+00         0.00000E+00
 
    0.30371E+06         0.43791E+07         0.00000E+00
    0.43791E+07        -0.70201E+07         0.00000E+00
    0.00000E+00         0.00000E+00         0.00000E+00
 
    0.23723E+06         0.44883E+07         0.00000E+00
    0.44883E+07        -0.69935E+07         0.00000E+00
    0.00000E+00         0.00000E+00         0.00000E+00
 
    0.17021E+06         0.45982E+07         0.00000E+00
    0.45982E+07        -0.69651E+07         0.00000E+00
    0.00000E+00         0.00000E+00         0.00000E+00
 
    0.10260E+06         0.47089E+07         0.00000E+00
    0.47089E+07        -0.69346E+07         0.00000E+00
    0.00000E+00         0.00000E+00         0.00000E+00
 
    0.34318E+05         0.48203E+07         0.00000E+00
    0.48203E+07        -0.69022E+07         0.00000E+00
    0.00000E+00         0.00000E+00         0.00000E+00
 
    0.41641E+07         0.55373E+05         0.00000E+00
    0.55373E+05        -0.77387E+07         0.00000E+00
    0.00000E+00         0.00000E+00         0.00000E+00
 
    0.40148E+07         0.15821E+06         0.00000E+00
    0.15821E+06        -0.77396E+07         0.00000E+00
    0.00000E+00         0.00000E+00         0.00000E+00
 
    0.38698E+07         0.25854E+06         0.00000E+00
    0.25854E+06        -0.77413E+07         0.00000E+00
    0.00000E+00         0.00000E+00         0.00000E+00
 
    0.37291E+07         0.35662E+06         0.00000E+00
    0.35662E+06        -0.77438E+07         0.00000E+00
    0.00000E+00         0.00000E+00         0.00000E+00
 
    0.35926E+07         0.45273E+06         0.00000E+00
    0.45273E+06        -0.77472E+07         0.00000E+00
    0.00000E+00         0.00000E+00         0.00000E+00
 
    0.34603E+07         0.54709E+06         0.00000E+00
    0.54709E+06        -0.77514E+07         0.00000E+00
    0.00000E+00         0.00000E+00         0.00000E+00
 
    0.33321E+07         0.63994E+06         0.00000E+00
    0.63994E+06        -0.77564E+07         0.00000E+00
    0.00000E+00         0.00000E+00         0.00000E+00
 
    0.32079E+07         0.73151E+06         0.00000E+00
    0.73151E+06        -0.77621E+07         0.00000E+00
    0.00000E+00         0.00000E+00         0.00000E+00
 
    0.30877E+07         0.82201E+06         0.00000E+00
    0.82201E+06        -0.77686E+07         0.00000E+00
    0.00000E+00         0.00000E+00         0.00000E+00
 
    0.29713E+07         0.91164E+06         0.00000E+00
    0.91164E+06        -0.77756E+07         0.00000E+00
    0.00000E+00         0.00000E+00         0.00000E+00
 
    0.28587E+07         0.10006E+07         0.00000E+00
    0.10006E+07        -0.77833E+07         0.00000E+00
    0.00000E+00         0.00000E+00         0.00000E+00
 
    0.27498E+07         0.10890E+07         0.00000E+00
    0.10890E+07        -0.77914E+07         0.00000E+00
    0.00000E+00         0.00000E+00         0.00000E+00
 
    0.26444E+07         0.11772E+07         0.00000E+00
    0.11772E+07        -0.78000E+07         0.00000E+00
    0.00000E+00         0.00000E+00         0.00000E+00
 
    0.25424E+07         0.12651E+07         0.00000E+00
    0.12651E+07        -0.78090E+07         0.00000E+00
    0.00000E+00         0.00000E+00         0.00000E+00
 
    0.24437E+07         0.13531E+07         0.00000E+00
    0.13531E+07        -0.78183E+07         0.00000E+00
    0.00000E+00         0.00000E+00         0.00000E+00
 
    0.23481E+07         0.14411E+07         0.00000E+00
    0.14411E+07        -0.78278E+07         0.00000E+00
    0.00000E+00         0.00000E+00         0.00000E+00
 
    0.22556E+07         0.15294E+07         0.00000E+00
    0.15294E+07        -0.78374E+07         0.00000E+00
    0.00000E+00         0.00000E+00         0.00000E+00
 
    0.21660E+07         0.16181E+07         0.00000E+00
    0.16181E+07        -0.78471E+07         0.00000E+00
    0.00000E+00         0.00000E+00         0.00000E+00
 
    0.20791E+07         0.17072E+07         0.00000E+00
    0.17072E+07        -0.78568E+07         0.00000E+00
    0.00000E+00         0.00000E+00         0.00000E+00
 
    0.19948E+07         0.17970E+07         0.00000E+00
    0.17970E+07        -0.78663E+07         0.00000E+00
    0.00000E+00         0.00000E+00         0.00000E+00
 
    0.19130E+07         0.18874E+07         0.00000E+00
    0.18874E+07        -0.78757E+07         0.00000E+00
    0.00000E+00         0.00000E+00         0.00000E+00
 
    0.18335E+07         0.19785E+07         0.00000E+00
    0.19785E+07        -0.78848E+07         0.00000E+00
    0.00000E+00         0.00000E+00         0.00000E+00
 
    0.17562E+07         0.20705E+07         0.00000E+00
    0.20705E+07        -0.78935E+07         0.00000E+00
    0.00000E+00         0.00000E+00         0.00000E+00
 
    0.16810E+07         0.21634E+07         0.00000E+00
    0.21634E+07        -0.79017E+07         0.00000E+00
    0.00000E+00         0.00000E+00         0.00000E+00
 
    0.16076E+07         0.22573E+07         0.00000E+00
    0.22573E+07        -0.79094E+07         0.00000E+00
    0.00000E+00         0.00000E+00         0.00000E+00
 
    0.15361E+07         0.23522E+07         0.00000E+00
    0.23522E+07        -0.79165E+07         0.00000E+00
    0.00000E+00         0.00000E+00         0.00000E+00
 
    0.14661E+07         0.24481E+07         0.00000E+00
    0.24481E+07        -0.79228E+07         0.00000E+00
    0.00000E+00         0.00000E+00         0.00000E+00
 
    0.13977E+07         0.25452E+07         0.00000E+00
    0.25452E+07        -0.79283E+07         0.00000E+00
    0.00000E+00         0.00000E+00         0.00000E+00
 
    0.13307E+07         0.26434E+07         0.00000E+00
    0.26434E+07        -0.79330E+07         0.00000E+00
    0.00000E+00         0.00000E+00         0.00000E+00
 
    0.12648E+07         0.27427E+07         0.00000E+00
    0.27427E+07        -0.79367E+07         0.00000E+00
    0.00000E+00         0.00000E+00         0.00000E+00
 
    0.12001E+07         0.28433E+07         0.00000E+00
    0.28433E+07        -0.79393E+07         0.00000E+00
    0.00000E+00         0.00000E+00         0.00000E+00
 
    0.11364E+07         0.29450E+07         0.00000E+00
    0.29450E+07        -0.79409E+07         0.00000E+00
    0.00000E+00         0.00000E+00         0.00000E+00
 
    0.10735E+07         0.30480E+07         0.00000E+00
    0.30480E+07        -0.79412E+07         0.00000E+00
    0.00000E+00         0.00000E+00         0.00000E+00
 
    0.10114E+07         0.31522E+07         0.00000E+00
    0.31522E+07        -0.79403E+07         0.00000E+00
    0.00000E+00         0.00000E+00         0.00000E+00
 
    0.94988E+06         0.32577E+07         0.00000E+00
    0.32577E+07        -0.79380E+07         0.00000E+00
    0.00000E+00         0.00000E+00         0.00000E+00
 
    0.88890E+06         0.33644E+07         0.00000E+00
    0.33644E+07        -0.79343E+07         0.00000E+00
    0.00000E+00         0.00000E+00         0.00000E+00
 
    0.82832E+06         0.34723E+07         0.00000E+00
    0.34723E+07        -0.79291E+07         0.00000E+00
    0.00000E+00         0.00000E+00         0.00000E+00
 
    0.76804E+06         0.35815E+07         0.00000E+00
    0.35815E+07        -0.79224E+07         0.00000E+00
    0.00000E+00         0.00000E+00         0.00000E+00
 
    0.70795E+06         0.36919E+07         0.00000E+00
    0.36919E+07        -0.79140E+07         0.00000E+00
    0.00000E+00         0.00000E+00         0.00000E+00
 
    0.64795E+06         0.38035E+07         0.00000E+00
    0.38035E+07        -0.79040E+07         0.00000E+00
    0.00000E+00         0.00000E+00         0.00000E+00
 
    0.58794E+06         0.39163E+07         0.00000E+00
    0.39163E+07        -0.78922E+07         0.00000E+00
    0.00000E+00         0.00000E+00         0.00000E+00
 
    0.52783E+06         0.40303E+07         0.00000E+00
    0.40303E+07        -0.78786E+07         0.00000E+00
    0.00000E+00         0.00000E+00         0.00000E+00
 
    0.46752E+06         0.41454E+07         0.00000E+00
    0.41454E+07        -0.78631E+07         0.00000E+00
    0.00000E+00         0.00000E+00         0.00000E+00
 
    0.40691E+06         0.42617E+07         0.00000E+00
    0.42617E+07        -0.78457E+07         0.00000E+00
    0.00000E+00         0.00000E+00         0.00000E+00
 
    0.34593E+06         0.43791E+07         0.00000E+00
    0.43791E+07        -0.78263E+07         0.00000E+00
    0.00000E+00         0.00000E+00         0.00000E+00
 
    0.28447E+06         0.44977E+07         0.00000E+00
    0.44977E+07        -0.78049E+07         0.00000E+00
    0.00000E+00         0.00000E+00         0.00000E+00
 
    0.22246E+06         0.46173E+07         0.00000E+00
    0.46173E+07        -0.77814E+07         0.00000E+00
    0.00000E+00         0.00000E+00         0.00000E+00
 
    0.15981E+06         0.47379E+07         0.00000E+00
    0.47379E+07        -0.77557E+07         0.00000E+00
    0.00000E+00         0.00000E+00         0.00000E+00
 
    0.96450E+05         0.48595E+07         0.00000E+00
    0.48595E+07        -0.77278E+07         0.00000E+00
    0.00000E+00         0.00000E+00         0.00000E+00
 
    0.32289E+05         0.49821E+07         0.00000E+00
    0.49821E+07        -0.76977E+07         0.00000E+00
    0.00000E+00         0.00000E+00         0.00000E+00
 
    0.40418E+07         0.52008E+05         0.00000E+00
    0.52008E+05        -0.83672E+07         0.00000E+00
    0.00000E+00         0.00000E+00         0.00000E+00
 
    0.38794E+07         0.14829E+06         0.00000E+00
    0.14829E+06        -0.83687E+07         0.00000E+00
    0.00000E+00         0.00000E+00         0.00000E+00
 
    0.37228E+07         0.24220E+06         0.00000E+00
    0.24220E+06        -0.83717E+07         0.00000E+00
    0.00000E+00         0.00000E+00         0.00000E+00
 
    0.35718E+07         0.33406E+06         0.00000E+00
    0.33406E+06        -0.83762E+07         0.00000E+00
    0.00000E+00         0.00000E+00         0.00000E+00
 
    0.34263E+07         0.42416E+06         0.00000E+00
    0.42416E+06        -0.83821E+07         0.00000E+00
    0.00000E+00         0.00000E+00         0.00000E+00
 
    0.32863E+07         0.51280E+06         0.00000E+00
    0.51280E+06        -0.83894E+07         0.00000E+00
    0.00000E+00         0.00000E+00         0.00000E+00
 
    0.31515E+07         0.60024E+06         0.00000E+00
    0.60024E+06        -0.83979E+07         0.00000E+00
    0.00000E+00         0.00000E+00         0.00000E+00
 
    0.30219E+07         0.68674E+06         0.00000E+00
    0.68674E+06        -0.84077E+07         0.00000E+00
    0.00000E+00         0.00000E+00         0.00000E+00
 
    0.28974E+07         0.77255E+06         0.00000E+00
    0.77255E+06        -0.84186E+07         0.00000E+00
    0.00000E+00         0.00000E+00         0.00000E+00
 
    0.27777E+07         0.85788E+06         0.00000E+00
    0.85788E+06        -0.84305E+07         0.00000E+00
    0.00000E+00         0.00000E+00         0.00000E+00
 
    0.26627E+07         0.94296E+06         0.00000E+00
    0.94296E+06        -0.84433E+07         0.00000E+00
    0.00000E+00         0.00000E+00         0.00000E+00
 
    0.25523E+07         0.10280E+07         0.00000E+00
    0.10280E+07        -0.84571E+07         0.00000E+00
    0.00000E+00         0.00000E+00         0.00000E+00
 
    0.24462E+07         0.11131E+07         0.00000E+00
    0.11131E+07        -0.84715E+07         0.00000E+00
    0.00000E+00         0.00000E+00         0.00000E+00
 
    0.23444E+07         0.11986E+07         0.00000E+00
    0.11986E+07        -0.84866E+07         0.00000E+00
    0.00000E+00         0.00000E+00         0.00000E+00
 
    0.22466E+07         0.12845E+07         0.00000E+00
    0.12845E+07        -0.85023E+07         0.00000E+00
    0.00000E+00         0.00000E+00         0.00000E+00
 
    0.21526E+07         0.13711E+07         0.00000E+00
    0.13711E+07        -0.85184E+07         0.00000E+00
    0.00000E+00         0.00000E+00         0.00000E+00
 
    0.20622E+07         0.14584E+07         0.00000E+00
    0.14584E+07        -0.85348E+07         0.00000E+00
    0.00000E+00         0.00000E+00         0.00000E+00
 
    0.19753E+07         0.15466E+07         0.00000E+00
    0.15466E+07        -0.85514E+07         0.00000E+00
    0.00000E+00         0.00000E+00         0.00000E+00
 
    0.18917E+07         0.16358E+07         0.00000E+00
    0.16358E+07        -0.85682E+07         0.00000E+00
    0.00000E+00         0.00000E+00         0.00000E+00
 
    0.18112E+07         0.17260E+07         0.00000E+00
    0.17260E+07        -0.85849E+07         0.00000E+00
    0.00000E+00         0.00000E+00         0.00000E+00
 
    0.17336E+07         0.18175E+07         0.00000E+00
    0.18175E+07        -0.86015E+07         0.00000E+00
    0.00000E+00         0.00000E+00         0.00000E+00
 
    0.16587E+07         0.19103E+07         0.00000E+00
    0.19103E+07        -0.86179E+07         0.00000E+00
    0.00000E+00         0.00000E+00         0.00000E+00
 
    0.15864E+07         0.20043E+07         0.00000E+00
    0.20043E+07        -0.86339E+07         0.00000E+00
    0.00000E+00         0.00000E+00         0.00000E+00
 
    0.15164E+07         0.20998E+07         0.00000E+00
    0.20998E+07        -0.86495E+07         0.00000E+00
    0.00000E+00         0.00000E+00         0.00000E+00
 
    0.14486E+07         0.21968E+07         0.00000E+00
    0.21968E+07        -0.86645E+07         0.00000E+00
    0.00000E+00         0.00000E+00         0.00000E+00
 
    0.13829E+07         0.22953E+07         0.00000E+00
    0.22953E+07        -0.86788E+07         0.00000E+00
    0.00000E+00         0.00000E+00         0.00000E+00
 
    0.13189E+07         0.23953E+07         0.00000E+00
    0.23953E+07        -0.86924E+07         0.00000E+00
    0.00000E+00         0.00000E+00         0.00000E+00
 
    0.12567E+07         0.24969E+07         0.00000E+00
    0.24969E+07        -0.87051E+07         0.00000E+00
    0.00000E+00         0.00000E+00         0.00000E+00
 
    0.11959E+07         0.26001E+07         0.00000E+00
    0.26001E+07        -0.87168E+07         0.00000E+00
    0.00000E+00         0.00000E+00         0.00000E+00
 
    0.11365E+07         0.27049E+07         0.00000E+00
    0.27049E+07        -0.87275E+07         0.00000E+00
    0.00000E+00         0.00000E+00         0.00000E+00
 
    0.10783E+07         0.28113E+07         0.00000E+00
    0.28113E+07        -0.87370E+07         0.00000E+00
    0.00000E+00         0.00000E+00         0.00000E+00
 
    0.10212E+07         0.29194E+07         0.00000E+00
    0.29194E+07        -0.87453E+07         0.00000E+00
    0.00000E+00         0.00000E+00         0.00000E+00
 
    0.96492E+06         0.30291E+07         0.00000E+00
    0.30291E+07        -0.87522E+07         0.00000E+00
    0.00000E+00         0.00000E+00         0.00000E+00
 
    0.90945E+06         0.31405E+07         0.00000E+00
    0.31405E+07        -0.87576E+07         0.00000E+00
    0.00000E+00         0.00000E+00         0.00000E+00
 
    0.85462E+06         0.32535E+07         0.00000E+00
    0.32535E+07        -0.87616E+07         0.00000E+00
    0.00000E+00         0.00000E+00         0.00000E+00
 
    0.80029E+06         0.33681E+07         0.00000E+00
    0.33681E+07        -0.87640E+07         0.00000E+00
    0.00000E+00         0.00000E+00         0.00000E+00
 
    0.74635E+06         0.34844E+07         0.00000E+00
    0.34844E+07        -0.87647E+07         0.00000E+00
    0.00000E+00         0.00000E+00         0.00000E+00
 
    0.69267E+06         0.36022E+07         0.00000E+00
    0.36022E+07        -0.87637E+07         0.00000E+00
    0.00000E+00         0.00000E+00         0.00000E+00
 
    0.63913E+06         0.37216E+07         0.00000E+00
    0.37216E+07        -0.87608E+07         0.00000E+00
    0.00000E+00         0.00000E+00         0.00000E+00
 
    0.58563E+06         0.38426E+07         0.00000E+00
    0.38426E+07        -0.87561E+07         0.00000E+00
    0.00000E+00         0.00000E+00         0.00000E+00
 
    0.53205E+06         0.39650E+07         0.00000E+00
    0.39650E+07        -0.87494E+07         0.00000E+00
    0.00000E+00         0.00000E+00         0.00000E+00
 
    0.47829E+06         0.40890E+07         0.00000E+00
    0.40890E+07        -0.87407E+07         0.00000E+00
    0.00000E+00         0.00000E+00         0.00000E+00
 
    0.42424E+06         0.42145E+07         0.00000E+00
    0.42145E+07        -0.87299E+07         0.00000E+00
    0.00000E+00         0.00000E+00         0.00000E+00
 
    0.36980E+06         0.43415E+07         0.00000E+00
    0.43415E+07        -0.87169E+07         0.00000E+00
    0.00000E+00         0.00000E+00         0.00000E+00
 
    0.31488E+06         0.44698E+07         0.00000E+00
    0.44698E+07        -0.87017E+07         0.00000E+00
    0.00000E+00         0.00000E+00         0.00000E+00
 
    0.25938E+06         0.45996E+07         0.00000E+00
    0.45996E+07        -0.86843E+07         0.00000E+00
    0.00000E+00         0.00000E+00         0.00000E+00
 
    0.20319E+06         0.47307E+07         0.00000E+00
    0.47307E+07        -0.86644E+07         0.00000E+00
    0.00000E+00         0.00000E+00         0.00000E+00
 
    0.14623E+06         0.48632E+07         0.00000E+00
    0.48632E+07        -0.86422E+07         0.00000E+00
    0.00000E+00         0.00000E+00         0.00000E+00
 
    0.88411E+05         0.49969E+07         0.00000E+00
    0.49969E+07        -0.86175E+07         0.00000E+00
    0.00000E+00         0.00000E+00         0.00000E+00
 
    0.29637E+05         0.51319E+07         0.00000E+00
    0.51319E+07        -0.85902E+07         0.00000E+00
    0.00000E+00         0.00000E+00         0.00000E+00
 
    0.38147E+07         0.46783E+05         0.00000E+00
    0.46783E+05        -0.90592E+07         0.00000E+00
    0.00000E+00         0.00000E+00         0.00000E+00
 
    0.36403E+07         0.13325E+06         0.00000E+00
    0.13325E+06        -0.90616E+07         0.00000E+00
    0.00000E+00         0.00000E+00         0.00000E+00
 
    0.34732E+07         0.21767E+06         0.00000E+00
    0.21767E+06        -0.90663E+07         0.00000E+00
    0.00000E+00         0.00000E+00         0.00000E+00
 
    0.33133E+07         0.30039E+06         0.00000E+00
    0.30039E+06        -0.90731E+07         0.00000E+00
    0.00000E+00         0.00000E+00         0.00000E+00
 
    0.31605E+07         0.38176E+06         0.00000E+00
    0.38176E+06        -0.90820E+07         0.00000E+00
    0.00000E+00         0.00000E+00         0.00000E+00
 
    0.30146E+07         0.46212E+06         0.00000E+00
    0.46212E+06        -0.90929E+07         0.00000E+00
    0.00000E+00         0.00000E+00         0.00000E+00
 
    0.28753E+07         0.54176E+06         0.00000E+00
    0.54176E+06        -0.91056E+07         0.00000E+00
    0.00000E+00         0.00000E+00         0.00000E+00
 
    0.27424E+07         0.62097E+06         0.00000E+00
    0.62097E+06        -0.91201E+07         0.00000E+00
    0.00000E+00         0.00000E+00         0.00000E+00
 
    0.26158E+07         0.70003E+06         0.00000E+00
    0.70003E+06        -0.91363E+07         0.00000E+00
    0.00000E+00         0.00000E+00         0.00000E+00
 
    0.24951E+07         0.77919E+06         0.00000E+00
    0.77919E+06        -0.91539E+07         0.00000E+00
    0.00000E+00         0.00000E+00         0.00000E+00
 
    0.23803E+07         0.85868E+06         0.00000E+00
    0.85868E+06        -0.91729E+07         0.00000E+00
    0.00000E+00         0.00000E+00         0.00000E+00
 
    0.22709E+07         0.93871E+06         0.00000E+00
    0.93871E+06        -0.91931E+07         0.00000E+00
    0.00000E+00         0.00000E+00         0.00000E+00
 
    0.21668E+07         0.10195E+07         0.00000E+00
    0.10195E+07        -0.92144E+07         0.00000E+00
    0.00000E+00         0.00000E+00         0.00000E+00
 
    0.20678E+07         0.11012E+07         0.00000E+00
    0.11012E+07        -0.92367E+07         0.00000E+00
    0.00000E+00         0.00000E+00         0.00000E+00
 
    0.19736E+07         0.11840E+07         0.00000E+00
    0.11840E+07        -0.92597E+07         0.00000E+00
    0.00000E+00         0.00000E+00         0.00000E+00
 
    0.18839E+07         0.12681E+07         0.00000E+00
    0.12681E+07        -0.92835E+07         0.00000E+00
    0.00000E+00         0.00000E+00         0.00000E+00
 
    0.17985E+07         0.13536E+07         0.00000E+00
    0.13536E+07        -0.93077E+07         0.00000E+00
    0.00000E+00         0.00000E+00         0.00000E+00
 
    0.17172E+07         0.14406E+07         0.00000E+00
    0.14406E+07        -0.93324E+07         0.00000E+00
    0.00000E+00         0.00000E+00         0.00000E+00
 
    0.16396E+07         0.15293E+07         0.00000E+00
    0.15293E+07        -0.93573E+07         0.00000E+00
    0.00000E+00         0.00000E+00         0.00000E+00
 
    0.15657E+07         0.16197E+07         0.00000E+00
    0.16197E+07        -0.93823E+07         0.00000E+00
    0.00000E+00         0.00000E+00         0.00000E+00
 
    0.14951E+07         0.17119E+07         0.00000E+00
    0.17119E+07        -0.94072E+07         0.00000E+00
    0.00000E+00         0.00000E+00         0.00000E+00
 
    0.14276E+07         0.18060E+07         0.00000E+00
    0.18060E+07        -0.94319E+07         0.00000E+00
    0.00000E+00         0.00000E+00         0.00000E+00
 
    0.13629E+07         0.19021E+07         0.00000E+00
    0.19021E+07        -0.94564E+07         0.00000E+00
    0.00000E+00         0.00000E+00         0.00000E+00
 
    0.13009E+07         0.20002E+07         0.00000E+00
    0.20002E+07        -0.94804E+07         0.00000E+00
    0.00000E+00         0.00000E+00         0.00000E+00
 
    0.12413E+07         0.21003E+07         0.00000E+00
    0.21003E+07        -0.95038E+07         0.00000E+00
    0.00000E+00         0.00000E+00         0.00000E+00
 
    0.11839E+07         0.22026E+07         0.00000E+00
    0.22026E+07        -0.95264E+07         0.00000E+00
    0.00000E+00         0.00000E+00         0.00000E+00
 
    0.11285E+07         0.23070E+07         0.00000E+00
    0.23070E+07        -0.95483E+07         0.00000E+00
    0.00000E+00         0.00000E+00         0.00000E+00
 
    0.10748E+07         0.24135E+07         0.00000E+00
    0.24135E+07        -0.95692E+07         0.00000E+00
    0.00000E+00         0.00000E+00         0.00000E+00
 
    0.10228E+07         0.25222E+07         0.00000E+00
    0.25222E+07        -0.95890E+07         0.00000E+00
    0.00000E+00         0.00000E+00         0.00000E+00
 
    0.97219E+06         0.26330E+07         0.00000E+00
    0.26330E+07        -0.96076E+07         0.00000E+00
    0.00000E+00         0.00000E+00         0.00000E+00
 
    0.92279E+06         0.27460E+07         0.00000E+00
    0.27460E+07        -0.96249E+07         0.00000E+00
    0.00000E+00         0.00000E+00         0.00000E+00
 
    0.87443E+06         0.28611E+07         0.00000E+00
    0.28611E+07        -0.96408E+07         0.00000E+00
    0.00000E+00         0.00000E+00         0.00000E+00
 
    0.82695E+06         0.29783E+07         0.00000E+00
    0.29783E+07        -0.96552E+07         0.00000E+00
    0.00000E+00         0.00000E+00         0.00000E+00
 
    0.78020E+06         0.30976E+07         0.00000E+00
    0.30976E+07        -0.96680E+07         0.00000E+00
    0.00000E+00         0.00000E+00         0.00000E+00
 
    0.73403E+06         0.32189E+07         0.00000E+00
    0.32189E+07        -0.96790E+07         0.00000E+00
    0.00000E+00         0.00000E+00         0.00000E+00
 
    0.68829E+06         0.33423E+07         0.00000E+00
    0.33423E+07        -0.96883E+07         0.00000E+00
    0.00000E+00         0.00000E+00         0.00000E+00
 
    0.64285E+06         0.34677E+07         0.00000E+00
    0.34677E+07        -0.96957E+07         0.00000E+00
    0.00000E+00         0.00000E+00         0.00000E+00
 
    0.59757E+06         0.35951E+07         0.00000E+00
    0.35951E+07        -0.97012E+07         0.00000E+00
    0.00000E+00         0.00000E+00         0.00000E+00
 
    0.55234E+06         0.37244E+07         0.00000E+00
    0.37244E+07        -0.97046E+07         0.00000E+00
    0.00000E+00         0.00000E+00         0.00000E+00
 
    0.50704E+06         0.38557E+07         0.00000E+00
    0.38557E+07        -0.97059E+07         0.00000E+00
    0.00000E+00         0.00000E+00         0.00000E+00
 
    0.46155E+06         0.39888E+07         0.00000E+00
    0.39888E+07        -0.97051E+07         0.00000E+00
    0.00000E+00         0.00000E+00         0.00000E+00
 
    0.41577E+06         0.41237E+07         0.00000E+00
    0.41237E+07        -0.97020E+07         0.00000E+00
    0.00000E+00         0.00000E+00         0.00000E+00
 
    0.36959E+06         0.42605E+07         0.00000E+00
    0.42605E+07        -0.96966E+07         0.00000E+00
    0.00000E+00         0.00000E+00         0.00000E+00
 
    0.32289E+06         0.43991E+07         0.00000E+00
    0.43991E+07        -0.96888E+07         0.00000E+00
    0.00000E+00         0.00000E+00         0.00000E+00
 
    0.27558E+06         0.45394E+07         0.00000E+00
    0.45394E+07        -0.96785E+07         0.00000E+00
    0.00000E+00         0.00000E+00         0.00000E+00
 
    0.22757E+06         0.46815E+07         0.00000E+00
    0.46815E+07        -0.96657E+07         0.00000E+00
    0.00000E+00         0.00000E+00         0.00000E+00
 
    0.17873E+06         0.48252E+07         0.00000E+00
    0.48252E+07        -0.96503E+07         0.00000E+00
    0.00000E+00         0.00000E+00         0.00000E+00
 
    0.12897E+06         0.49706E+07         0.00000E+00
    0.49706E+07        -0.96323E+07         0.00000E+00
    0.00000E+00         0.00000E+00         0.00000E+00
 
    0.78175E+05         0.51176E+07         0.00000E+00
    0.51176E+07        -0.96115E+07         0.00000E+00
    0.00000E+00         0.00000E+00         0.00000E+00
 
    0.26251E+05         0.52662E+07         0.00000E+00
    0.52662E+07        -0.95878E+07         0.00000E+00
    0.00000E+00         0.00000E+00         0.00000E+00
 
    0.34576E+07         0.39304E+05         0.00000E+00
    0.39304E+05        -0.98221E+07         0.00000E+00
    0.00000E+00         0.00000E+00         0.00000E+00
 
    0.32730E+07         0.11211E+06         0.00000E+00
    0.11211E+06        -0.98255E+07         0.00000E+00
    0.00000E+00         0.00000E+00         0.00000E+00
 
    0.30977E+07         0.18341E+06         0.00000E+00
    0.18341E+06        -0.98320E+07         0.00000E+00
    0.00000E+00         0.00000E+00         0.00000E+00
 
    0.29314E+07         0.25361E+06         0.00000E+00
    0.25361E+06        -0.98416E+07         0.00000E+00
    0.00000E+00         0.00000E+00         0.00000E+00
 
    0.27739E+07         0.32310E+06         0.00000E+00
    0.32310E+06        -0.98540E+07         0.00000E+00
    0.00000E+00         0.00000E+00         0.00000E+00
 
    0.26248E+07         0.39224E+06         0.00000E+00
    0.39224E+06        -0.98690E+07         0.00000E+00
    0.00000E+00         0.00000E+00         0.00000E+00
 
    0.24839E+07         0.46136E+06         0.00000E+00
    0.46136E+06        -0.98866E+07         0.00000E+00
    0.00000E+00         0.00000E+00         0.00000E+00
 
    0.23508E+07         0.53079E+06         0.00000E+00
    0.53079E+06        -0.99066E+07         0.00000E+00
    0.00000E+00         0.00000E+00         0.00000E+00
 
    0.22253E+07         0.60080E+06         0.00000E+00
    0.60080E+06        -0.99287E+07         0.00000E+00
    0.00000E+00         0.00000E+00         0.00000E+00
 
    0.21070E+07         0.67168E+06         0.00000E+00
    0.67168E+06        -0.99529E+07         0.00000E+00
    0.00000E+00         0.00000E+00         0.00000E+00
 
    0.19955E+07         0.74366E+06         0.00000E+00
    0.74366E+06        -0.99789E+07         0.00000E+00
    0.00000E+00         0.00000E+00         0.00000E+00
 
    0.18906E+07         0.81698E+06         0.00000E+00
    0.81698E+06        -0.10006E+08         0.00000E+00
    0.00000E+00         0.00000E+00         0.00000E+00
 
    0.17920E+07         0.89184E+06         0.00000E+00
    0.89184E+06        -0.10036E+08         0.00000E+00
    0.00000E+00         0.00000E+00         0.00000E+00
 
    0.16992E+07         0.96843E+06         0.00000E+00
    0.96843E+06        -0.10066E+08         0.00000E+00
    0.00000E+00         0.00000E+00         0.00000E+00
 
    0.16121E+07         0.10469E+07         0.00000E+00
    0.10469E+07        -0.10097E+08         0.00000E+00
    0.00000E+00         0.00000E+00         0.00000E+00
 
    0.15302E+07         0.11275E+07         0.00000E+00
    0.11275E+07        -0.10130E+08         0.00000E+00
    0.00000E+00         0.00000E+00         0.00000E+00
 
    0.14533E+07         0.12102E+07         0.00000E+00
    0.12102E+07        -0.10163E+08         0.00000E+00
    0.00000E+00         0.00000E+00         0.00000E+00
 
    0.13810E+07         0.12953E+07         0.00000E+00
    0.12953E+07        -0.10197E+08         0.00000E+00
    0.00000E+00         0.00000E+00         0.00000E+00
 
    0.13131E+07         0.13828E+07         0.00000E+00
    0.13828E+07        -0.10231E+08         0.00000E+00
    0.00000E+00         0.00000E+00         0.00000E+00
 
    0.12491E+07         0.14729E+07         0.00000E+00
    0.14729E+07        -0.10265E+08         0.00000E+00
    0.00000E+00         0.00000E+00         0.00000E+00
 
    0.11889E+07         0.15655E+07         0.00000E+00
    0.15655E+07        -0.10299E+08         0.00000E+00
    0.00000E+00         0.00000E+00         0.00000E+00
 
    0.11321E+07         0.16607E+07         0.00000E+00
    0.16607E+07        -0.10333E+08         0.00000E+00
    0.00000E+00         0.00000E+00         0.00000E+00
 
    0.10785E+07         0.17587E+07         0.00000E+00
    0.17587E+07        -0.10367E+08         0.00000E+00
    0.00000E+00         0.00000E+00         0.00000E+00
 
    0.10277E+07         0.18595E+07         0.00000E+00
    0.18595E+07        -0.10401E+08         0.00000E+00
    0.00000E+00         0.00000E+00         0.00000E+00
 
    0.97944E+06         0.19630E+07         0.00000E+00
    0.19630E+07        -0.10434E+08         0.00000E+00
    0.00000E+00         0.00000E+00         0.00000E+00
 
    0.93353E+06         0.20693E+07         0.00000E+00
    0.20693E+07        -0.10466E+08         0.00000E+00
    0.00000E+00         0.00000E+00         0.00000E+00
 
    0.88969E+06         0.21784E+07         0.00000E+00
    0.21784E+07        -0.10497E+08         0.00000E+00
    0.00000E+00         0.00000E+00         0.00000E+00
 
    0.84766E+06         0.22903E+07         0.00000E+00
    0.22903E+07        -0.10527E+08         0.00000E+00
    0.00000E+00         0.00000E+00         0.00000E+00
 
    0.80720E+06         0.24050E+07         0.00000E+00
    0.24050E+07        -0.10556E+08         0.00000E+00
    0.00000E+00         0.00000E+00         0.00000E+00
 
    0.76810E+06         0.25225E+07         0.00000E+00
    0.25225E+07        -0.10583E+08         0.00000E+00
    0.00000E+00         0.00000E+00         0.00000E+00
 
    0.73014E+06         0.26426E+07         0.00000E+00
    0.26426E+07        -0.10610E+08         0.00000E+00
    0.00000E+00         0.00000E+00         0.00000E+00
 
    0.69312E+06         0.27655E+07         0.00000E+00
    0.27655E+07        -0.10634E+08         0.00000E+00
    0.00000E+00         0.00000E+00         0.00000E+00
 
    0.65685E+06         0.28910E+07         0.00000E+00
    0.28910E+07        -0.10657E+08         0.00000E+00
    0.00000E+00         0.00000E+00         0.00000E+00
 
    0.62114E+06         0.30191E+07         0.00000E+00
    0.30191E+07        -0.10678E+08         0.00000E+00
    0.00000E+00         0.00000E+00         0.00000E+00
 
    0.58584E+06         0.31497E+07         0.00000E+00
    0.31497E+07        -0.10697E+08         0.00000E+00
    0.00000E+00         0.00000E+00         0.00000E+00
 
    0.55079E+06         0.32828E+07         0.00000E+00
    0.32828E+07        -0.10714E+08         0.00000E+00
    0.00000E+00         0.00000E+00         0.00000E+00
 
    0.51585E+06         0.34184E+07         0.00000E+00
    0.34184E+07        -0.10729E+08         0.00000E+00
    0.00000E+00         0.00000E+00         0.00000E+00
 
    0.48089E+06         0.35563E+07         0.00000E+00
    0.35563E+07        -0.10742E+08         0.00000E+00
    0.00000E+00         0.00000E+00         0.00000E+00
 
    0.44580E+06         0.36966E+07         0.00000E+00
    0.36966E+07        -0.10752E+08         0.00000E+00
    0.00000E+00         0.00000E+00         0.00000E+00
 
    0.41046E+06         0.38391E+07         0.00000E+00
    0.38391E+07        -0.10760E+08         0.00000E+00
    0.00000E+00         0.00000E+00         0.00000E+00
 
    0.37479E+06         0.39838E+07         0.00000E+00
    0.39838E+07        -0.10766E+08         0.00000E+00
    0.00000E+00         0.00000E+00         0.00000E+00
 
    0.33867E+06         0.41307E+07         0.00000E+00
    0.41307E+07        -0.10769E+08         0.00000E+00
    0.00000E+00         0.00000E+00         0.00000E+00
 
    0.30203E+06         0.42798E+07         0.00000E+00
    0.42798E+07        -0.10770E+08         0.00000E+00
    0.00000E+00         0.00000E+00         0.00000E+00
 
    0.26475E+06         0.44309E+07         0.00000E+00
    0.44309E+07        -0.10768E+08         0.00000E+00
    0.00000E+00         0.00000E+00         0.00000E+00
 
    0.22673E+06         0.45842E+07         0.00000E+00
    0.45842E+07        -0.10764E+08         0.00000E+00
    0.00000E+00         0.00000E+00         0.00000E+00
 
    0.18787E+06         0.47395E+07         0.00000E+00
    0.47395E+07        -0.10756E+08         0.00000E+00
    0.00000E+00         0.00000E+00         0.00000E+00
 
    0.14807E+06         0.48969E+07         0.00000E+00
    0.48969E+07        -0.10746E+08         0.00000E+00
    0.00000E+00         0.00000E+00         0.00000E+00
 
    0.10724E+06         0.50562E+07         0.00000E+00
    0.50562E+07        -0.10733E+08         0.00000E+00
    0.00000E+00         0.00000E+00         0.00000E+00
 
    0.65292E+05         0.52176E+07         0.00000E+00
    0.52176E+07        -0.10717E+08         0.00000E+00
    0.00000E+00         0.00000E+00         0.00000E+00
 
    0.22015E+05         0.53810E+07         0.00000E+00
    0.53810E+07        -0.10698E+08         0.00000E+00
    0.00000E+00         0.00000E+00         0.00000E+00
 
    0.29412E+07         0.29175E+05         0.00000E+00
    0.29175E+05        -0.10663E+08         0.00000E+00
    0.00000E+00         0.00000E+00         0.00000E+00
 
    0.27498E+07         0.83909E+05         0.00000E+00
    0.83909E+05        -0.10668E+08         0.00000E+00
    0.00000E+00         0.00000E+00         0.00000E+00
 
    0.25698E+07         0.13799E+06         0.00000E+00
    0.13799E+06        -0.10677E+08         0.00000E+00
    0.00000E+00         0.00000E+00         0.00000E+00
 
    0.24009E+07         0.19186E+06         0.00000E+00
    0.19186E+06        -0.10689E+08         0.00000E+00
    0.00000E+00         0.00000E+00         0.00000E+00
 
    0.22426E+07         0.24595E+06         0.00000E+00
    0.24595E+06        -0.10706E+08         0.00000E+00
    0.00000E+00         0.00000E+00         0.00000E+00
 
    0.20944E+07         0.30062E+06         0.00000E+00
    0.30062E+06        -0.10725E+08         0.00000E+00
    0.00000E+00         0.00000E+00         0.00000E+00
 
    0.19560E+07         0.35624E+06         0.00000E+00
    0.35624E+06        -0.10748E+08         0.00000E+00
    0.00000E+00         0.00000E+00         0.00000E+00
 
    0.18269E+07         0.41313E+06         0.00000E+00
    0.41313E+06        -0.10774E+08         0.00000E+00
    0.00000E+00         0.00000E+00         0.00000E+00
 
    0.17067E+07         0.47159E+06         0.00000E+00
    0.47159E+06        -0.10803E+08         0.00000E+00
    0.00000E+00         0.00000E+00         0.00000E+00
 
    0.15950E+07         0.53190E+06         0.00000E+00
    0.53190E+06        -0.10834E+08         0.00000E+00
    0.00000E+00         0.00000E+00         0.00000E+00
 
    0.14913E+07         0.59431E+06         0.00000E+00
    0.59431E+06        -0.10868E+08         0.00000E+00
    0.00000E+00         0.00000E+00         0.00000E+00
 
    0.13952E+07         0.65904E+06         0.00000E+00
    0.65904E+06        -0.10904E+08         0.00000E+00
    0.00000E+00         0.00000E+00         0.00000E+00
 
    0.13064E+07         0.72630E+06         0.00000E+00
    0.72630E+06        -0.10941E+08         0.00000E+00
    0.00000E+00         0.00000E+00         0.00000E+00
 
    0.12243E+07         0.79627E+06         0.00000E+00
    0.79627E+06        -0.10981E+08         0.00000E+00
    0.00000E+00         0.00000E+00         0.00000E+00
 
    0.11486E+07         0.86913E+06         0.00000E+00
    0.86913E+06        -0.11021E+08         0.00000E+00
    0.00000E+00         0.00000E+00         0.00000E+00
 
    0.10789E+07         0.94501E+06         0.00000E+00
    0.94501E+06        -0.11063E+08         0.00000E+00
    0.00000E+00         0.00000E+00         0.00000E+00
 
    0.10147E+07         0.10240E+07         0.00000E+00
    0.10240E+07        -0.11106E+08         0.00000E+00
    0.00000E+00         0.00000E+00         0.00000E+00
 
    0.95575E+06         0.11063E+07         0.00000E+00
    0.11063E+07        -0.11149E+08         0.00000E+00
    0.00000E+00         0.00000E+00         0.00000E+00
 
    0.90157E+06         0.11920E+07         0.00000E+00
    0.11920E+07        -0.11193E+08         0.00000E+00
    0.00000E+00         0.00000E+00         0.00000E+00
 
    0.85180E+06         0.12811E+07         0.00000E+00
    0.12811E+07        -0.11238E+08         0.00000E+00
    0.00000E+00         0.00000E+00         0.00000E+00
 
    0.80607E+06         0.13737E+07         0.00000E+00
    0.13737E+07        -0.11282E+08         0.00000E+00
    0.00000E+00         0.00000E+00         0.00000E+00
 
    0.76403E+06         0.14698E+07         0.00000E+00
    0.14698E+07        -0.11327E+08         0.00000E+00
    0.00000E+00         0.00000E+00         0.00000E+00
 
    0.72533E+06         0.15695E+07         0.00000E+00
    0.15695E+07        -0.11371E+08         0.00000E+00
    0.00000E+00         0.00000E+00         0.00000E+00
 
    0.68961E+06         0.16728E+07         0.00000E+00
    0.16728E+07        -0.11415E+08         0.00000E+00
    0.00000E+00         0.00000E+00         0.00000E+00
 
    0.65656E+06         0.17798E+07         0.00000E+00
    0.17798E+07        -0.11458E+08         0.00000E+00
    0.00000E+00         0.00000E+00         0.00000E+00
 
    0.62585E+06         0.18903E+07         0.00000E+00
    0.18903E+07        -0.11501E+08         0.00000E+00
    0.00000E+00         0.00000E+00         0.00000E+00
 
    0.59716E+06         0.20044E+07         0.00000E+00
    0.20044E+07        -0.11542E+08         0.00000E+00
    0.00000E+00         0.00000E+00         0.00000E+00
 
    0.57021E+06         0.21221E+07         0.00000E+00
    0.21221E+07        -0.11583E+08         0.00000E+00
    0.00000E+00         0.00000E+00         0.00000E+00
 
    0.54471E+06         0.22433E+07         0.00000E+00
    0.22433E+07        -0.11622E+08         0.00000E+00
    0.00000E+00         0.00000E+00         0.00000E+00
 
    0.52039E+06         0.23680E+07         0.00000E+00
    0.23680E+07        -0.11659E+08         0.00000E+00
    0.00000E+00         0.00000E+00         0.00000E+00
 
    0.49699E+06         0.24961E+07         0.00000E+00
    0.24961E+07        -0.11695E+08         0.00000E+00
    0.00000E+00         0.00000E+00         0.00000E+00
 
    0.47428E+06         0.26275E+07         0.00000E+00
    0.26275E+07        -0.11730E+08         0.00000E+00
    0.00000E+00         0.00000E+00         0.00000E+00
 
    0.45202E+06         0.27622E+07         0.00000E+00
    0.27622E+07        -0.11762E+08         0.00000E+00
    0.00000E+00         0.00000E+00         0.00000E+00
 
    0.43003E+06         0.29001E+07         0.00000E+00
    0.29001E+07        -0.11792E+08         0.00000E+00
    0.00000E+00         0.00000E+00         0.00000E+00
 
    0.40810E+06         0.30410E+07         0.00000E+00
    0.30410E+07        -0.11820E+08         0.00000E+00
    0.00000E+00         0.00000E+00         0.00000E+00
 
    0.38608E+06         0.31850E+07         0.00000E+00
    0.31850E+07        -0.11846E+08         0.00000E+00
    0.00000E+00         0.00000E+00         0.00000E+00
 
    0.36381E+06         0.33318E+07         0.00000E+00
    0.33318E+07        -0.11870E+08         0.00000E+00
    0.00000E+00         0.00000E+00         0.00000E+00
 
    0.34118E+06         0.34814E+07         0.00000E+00
    0.34814E+07        -0.11891E+08         0.00000E+00
    0.00000E+00         0.00000E+00         0.00000E+00
 
    0.31808E+06         0.36337E+07         0.00000E+00
    0.36337E+07        -0.11910E+08         0.00000E+00
    0.00000E+00         0.00000E+00         0.00000E+00
 
    0.29443E+06         0.37887E+07         0.00000E+00
    0.37887E+07        -0.11925E+08         0.00000E+00
    0.00000E+00         0.00000E+00         0.00000E+00
 
    0.27016E+06         0.39461E+07         0.00000E+00
    0.39461E+07        -0.11939E+08         0.00000E+00
    0.00000E+00         0.00000E+00         0.00000E+00
 
    0.24522E+06         0.41060E+07         0.00000E+00
    0.41060E+07        -0.11949E+08         0.00000E+00
    0.00000E+00         0.00000E+00         0.00000E+00
 
    0.21960E+06         0.42682E+07         0.00000E+00
    0.42682E+07        -0.11957E+08         0.00000E+00
    0.00000E+00         0.00000E+00         0.00000E+00
 
    0.19328E+06         0.44328E+07         0.00000E+00
    0.44328E+07        -0.11962E+08         0.00000E+00
    0.00000E+00         0.00000E+00         0.00000E+00
 
    0.16626E+06         0.45997E+07         0.00000E+00
    0.45997E+07        -0.11964E+08         0.00000E+00
    0.00000E+00         0.00000E+00         0.00000E+00
 
    0.13846E+06         0.47690E+07         0.00000E+00
    0.47690E+07        -0.11963E+08         0.00000E+00
    0.00000E+00         0.00000E+00         0.00000E+00
 
    0.10973E+06         0.49408E+07         0.00000E+00
    0.49408E+07        -0.11959E+08         0.00000E+00
    0.00000E+00         0.00000E+00         0.00000E+00
 
    0.79862E+05         0.51152E+07         0.00000E+00
    0.51152E+07        -0.11952E+08         0.00000E+00
    0.00000E+00         0.00000E+00         0.00000E+00
 
    0.48642E+05         0.52921E+07         0.00000E+00
    0.52921E+07        -0.11942E+08         0.00000E+00
    0.00000E+00         0.00000E+00         0.00000E+00
 
    0.16334E+05         0.54707E+07         0.00000E+00
    0.54707E+07        -0.11929E+08         0.00000E+00
    0.00000E+00         0.00000E+00         0.00000E+00
 
    0.22333E+07         0.16058E+05         0.00000E+00
    0.16058E+05        -0.11591E+08         0.00000E+00
    0.00000E+00         0.00000E+00         0.00000E+00
 
    0.20403E+07         0.47884E+05         0.00000E+00
    0.47884E+05        -0.11597E+08         0.00000E+00
    0.00000E+00         0.00000E+00         0.00000E+00
 
    0.18609E+07         0.80297E+05         0.00000E+00
    0.80297E+05        -0.11608E+08         0.00000E+00
    0.00000E+00         0.00000E+00         0.00000E+00
 
    0.16947E+07         0.11376E+06         0.00000E+00
    0.11376E+06        -0.11624E+08         0.00000E+00
    0.00000E+00         0.00000E+00         0.00000E+00
 
    0.15409E+07         0.14868E+06         0.00000E+00
    0.14868E+06        -0.11645E+08         0.00000E+00
    0.00000E+00         0.00000E+00         0.00000E+00
 
    0.13991E+07         0.18545E+06         0.00000E+00
    0.18545E+06        -0.11669E+08         0.00000E+00
    0.00000E+00         0.00000E+00         0.00000E+00
 
    0.12687E+07         0.22443E+06         0.00000E+00
    0.22443E+06        -0.11698E+08         0.00000E+00
    0.00000E+00         0.00000E+00         0.00000E+00
 
    0.11490E+07         0.26593E+06         0.00000E+00
    0.26593E+06        -0.11730E+08         0.00000E+00
    0.00000E+00         0.00000E+00         0.00000E+00
 
    0.10397E+07         0.31023E+06         0.00000E+00
    0.31023E+06        -0.11766E+08         0.00000E+00
    0.00000E+00         0.00000E+00         0.00000E+00
 
    0.94001E+06         0.35761E+06         0.00000E+00
    0.35761E+06        -0.11805E+08         0.00000E+00
    0.00000E+00         0.00000E+00         0.00000E+00
 
    0.84952E+06         0.40830E+06         0.00000E+00
    0.40830E+06        -0.11847E+08         0.00000E+00
    0.00000E+00         0.00000E+00         0.00000E+00
 
    0.76767E+06         0.46251E+06         0.00000E+00
    0.46251E+06        -0.11891E+08         0.00000E+00
    0.00000E+00         0.00000E+00         0.00000E+00
 
    0.69392E+06         0.52042E+06         0.00000E+00
    0.52042E+06        -0.11937E+08         0.00000E+00
    0.00000E+00         0.00000E+00         0.00000E+00
 
    0.62778E+06         0.58221E+06         0.00000E+00
    0.58221E+06        -0.11985E+08         0.00000E+00
    0.00000E+00         0.00000E+00         0.00000E+00
 
    0.56873E+06         0.64802E+06         0.00000E+00
    0.64802E+06        -0.12036E+08         0.00000E+00
    0.00000E+00         0.00000E+00         0.00000E+00
 
    0.51627E+06         0.71797E+06         0.00000E+00
    0.71797E+06        -0.12087E+08         0.00000E+00
    0.00000E+00         0.00000E+00         0.00000E+00
 
    0.46994E+06         0.79217E+06         0.00000E+00
    0.79217E+06        -0.12140E+08         0.00000E+00
    0.00000E+00         0.00000E+00         0.00000E+00
 
    0.42924E+06         0.87071E+06         0.00000E+00
    0.87071E+06        -0.12194E+08         0.00000E+00
    0.00000E+00         0.00000E+00         0.00000E+00
 
    0.39373E+06         0.95366E+06         0.00000E+00
    0.95366E+06        -0.12248E+08         0.00000E+00
    0.00000E+00         0.00000E+00         0.00000E+00
 
    0.36295E+06         0.10411E+07         0.00000E+00
    0.10411E+07        -0.12303E+08         0.00000E+00
    0.00000E+00         0.00000E+00         0.00000E+00
 
    0.33646E+06         0.11330E+07         0.00000E+00
    0.11330E+07        -0.12358E+08         0.00000E+00
    0.00000E+00         0.00000E+00         0.00000E+00
 
    0.31383E+06         0.12295E+07         0.00000E+00
    0.12295E+07        -0.12414E+08         0.00000E+00
    0.00000E+00         0.00000E+00         0.00000E+00
 
    0.29465E+06         0.13305E+07         0.00000E+00
    0.13305E+07        -0.12469E+08         0.00000E+00
    0.00000E+00         0.00000E+00         0.00000E+00
 
    0.27850E+06         0.14361E+07         0.00000E+00
    0.14361E+07        -0.12524E+08         0.00000E+00
    0.00000E+00         0.00000E+00         0.00000E+00
 
    0.26500E+06         0.15463E+07         0.00000E+00
    0.15463E+07        -0.12578E+08         0.00000E+00
    0.00000E+00         0.00000E+00         0.00000E+00
 
    0.25376E+06         0.16609E+07         0.00000E+00
    0.16609E+07        -0.12632E+08         0.00000E+00
    0.00000E+00         0.00000E+00         0.00000E+00
 
    0.24441E+06         0.17801E+07         0.00000E+00
    0.17801E+07        -0.12685E+08         0.00000E+00
    0.00000E+00         0.00000E+00         0.00000E+00
 
    0.23661E+06         0.19036E+07         0.00000E+00
    0.19036E+07        -0.12736E+08         0.00000E+00
    0.00000E+00         0.00000E+00         0.00000E+00
 
    0.23001E+06         0.20315E+07         0.00000E+00
    0.20315E+07        -0.12786E+08         0.00000E+00
    0.00000E+00         0.00000E+00         0.00000E+00
 
    0.22429E+06         0.21638E+07         0.00000E+00
    0.21638E+07        -0.12835E+08         0.00000E+00
    0.00000E+00         0.00000E+00         0.00000E+00
 
    0.21914E+06         0.23002E+07         0.00000E+00
    0.23002E+07        -0.12882E+08         0.00000E+00
    0.00000E+00         0.00000E+00         0.00000E+00
 
    0.21427E+06         0.24407E+07         0.00000E+00
    0.24407E+07        -0.12927E+08         0.00000E+00
    0.00000E+00         0.00000E+00         0.00000E+00
 
    0.20941E+06         0.25853E+07         0.00000E+00
    0.25853E+07        -0.12971E+08         0.00000E+00
    0.00000E+00         0.00000E+00         0.00000E+00
 
    0.20433E+06         0.27337E+07         0.00000E+00
    0.27337E+07        -0.13012E+08         0.00000E+00
    0.00000E+00         0.00000E+00         0.00000E+00
 
    0.19879E+06         0.28858E+07         0.00000E+00
    0.28858E+07        -0.13051E+08         0.00000E+00
    0.00000E+00         0.00000E+00         0.00000E+00
 
    0.19259E+06         0.30416E+07         0.00000E+00
    0.30416E+07        -0.13087E+08         0.00000E+00
    0.00000E+00         0.00000E+00         0.00000E+00
 
    0.18556E+06         0.32009E+07         0.00000E+00
    0.32009E+07        -0.13121E+08         0.00000E+00
    0.00000E+00         0.00000E+00         0.00000E+00
 
    0.17757E+06         0.33634E+07         0.00000E+00
    0.33634E+07        -0.13152E+08         0.00000E+00
    0.00000E+00         0.00000E+00         0.00000E+00
 
    0.16851E+06         0.35291E+07         0.00000E+00
    0.35291E+07        -0.13180E+08         0.00000E+00
    0.00000E+00         0.00000E+00         0.00000E+00
 
    0.15834E+06         0.36978E+07         0.00000E+00
    0.36978E+07        -0.13206E+08         0.00000E+00
    0.00000E+00         0.00000E+00         0.00000E+00
 
    0.14707E+06         0.38693E+07         0.00000E+00
    0.38693E+07        -0.13228E+08         0.00000E+00
    0.00000E+00         0.00000E+00         0.00000E+00
 
    0.13467E+06         0.40435E+07         0.00000E+00
    0.40435E+07        -0.13248E+08         0.00000E+00
    0.00000E+00         0.00000E+00         0.00000E+00
 
    0.12117E+06         0.42204E+07         0.00000E+00
    0.42204E+07        -0.13264E+08         0.00000E+00
    0.00000E+00         0.00000E+00         0.00000E+00
 
    0.10664E+06         0.43997E+07         0.00000E+00
    0.43997E+07        -0.13277E+08         0.00000E+00
    0.00000E+00         0.00000E+00         0.00000E+00
 
    0.91158E+05         0.45813E+07         0.00000E+00
    0.45813E+07        -0.13287E+08         0.00000E+00
    0.00000E+00         0.00000E+00         0.00000E+00
 
    0.75110E+05         0.47649E+07         0.00000E+00
    0.47649E+07        -0.13293E+08         0.00000E+00
    0.00000E+00         0.00000E+00         0.00000E+00
 
    0.59026E+05         0.49505E+07         0.00000E+00
    0.49505E+07        -0.13296E+08         0.00000E+00
    0.00000E+00         0.00000E+00         0.00000E+00
 
    0.43222E+05         0.51389E+07         0.00000E+00
    0.51389E+07        -0.13297E+08         0.00000E+00
    0.00000E+00         0.00000E+00         0.00000E+00
 
    0.27589E+05         0.53308E+07         0.00000E+00
    0.53308E+07        -0.13296E+08         0.00000E+00
    0.00000E+00         0.00000E+00         0.00000E+00
 
    0.98833E+04         0.55292E+07         0.00000E+00
    0.55292E+07        -0.13292E+08         0.00000E+00
    0.00000E+00         0.00000E+00         0.00000E+00
 
    0.12999E+07        -0.24388E+03         0.00000E+00
   -0.24388E+03        -0.12614E+08         0.00000E+00
    0.00000E+00         0.00000E+00         0.00000E+00
 
    0.11125E+07         0.36853E+04         0.00000E+00
    0.36853E+04        -0.12621E+08         0.00000E+00
    0.00000E+00         0.00000E+00         0.00000E+00
 
    0.94095E+06         0.98924E+04         0.00000E+00
    0.98924E+04        -0.12635E+08         0.00000E+00
    0.00000E+00         0.00000E+00         0.00000E+00
 
    0.78457E+06         0.18812E+05         0.00000E+00
    0.18812E+05        -0.12654E+08         0.00000E+00
    0.00000E+00         0.00000E+00         0.00000E+00
 
    0.64257E+06         0.30838E+05         0.00000E+00
    0.30838E+05        -0.12678E+08         0.00000E+00
    0.00000E+00         0.00000E+00         0.00000E+00
 
    0.51419E+06         0.46323E+05         0.00000E+00
    0.46323E+05        -0.12708E+08         0.00000E+00
    0.00000E+00         0.00000E+00         0.00000E+00
 
    0.39872E+06         0.65585E+05         0.00000E+00
    0.65585E+05        -0.12742E+08         0.00000E+00
    0.00000E+00         0.00000E+00         0.00000E+00
 
    0.29544E+06         0.88909E+05         0.00000E+00
    0.88909E+05        -0.12781E+08         0.00000E+00
    0.00000E+00         0.00000E+00         0.00000E+00
 
    0.20367E+06         0.11655E+06         0.00000E+00
    0.11655E+06        -0.12824E+08         0.00000E+00
    0.00000E+00         0.00000E+00         0.00000E+00
 
    0.12271E+06         0.14873E+06         0.00000E+00
    0.14873E+06        -0.12870E+08         0.00000E+00
    0.00000E+00         0.00000E+00         0.00000E+00
 
    0.51913E+05         0.18564E+06         0.00000E+00
    0.18564E+06        -0.12919E+08         0.00000E+00
    0.00000E+00         0.00000E+00         0.00000E+00
 
   -0.93691E+04         0.22746E+06         0.00000E+00
    0.22746E+06        -0.12971E+08         0.00000E+00
    0.00000E+00         0.00000E+00         0.00000E+00
 
   -0.61766E+05         0.27434E+06         0.00000E+00
    0.27434E+06        -0.13026E+08         0.00000E+00
    0.00000E+00         0.00000E+00         0.00000E+00
 
   -0.10589E+06         0.32640E+06         0.00000E+00
    0.32640E+06        -0.13083E+08         0.00000E+00
    0.00000E+00         0.00000E+00         0.00000E+00
 
   -0.14234E+06         0.38375E+06         0.00000E+00
    0.38375E+06        -0.13142E+08         0.00000E+00
    0.00000E+00         0.00000E+00         0.00000E+00
 
   -0.17168E+06         0.44649E+06         0.00000E+00
    0.44649E+06        -0.13203E+08         0.00000E+00
    0.00000E+00         0.00000E+00         0.00000E+00
 
   -0.19450E+06         0.51468E+06         0.00000E+00
    0.51468E+06        -0.13266E+08         0.00000E+00
    0.00000E+00         0.00000E+00         0.00000E+00
 
   -0.21134E+06         0.58838E+06         0.00000E+00
    0.58838E+06        -0.13329E+08         0.00000E+00
    0.00000E+00         0.00000E+00         0.00000E+00
 
   -0.22272E+06         0.66763E+06         0.00000E+00
    0.66763E+06        -0.13394E+08         0.00000E+00
    0.00000E+00         0.00000E+00         0.00000E+00
 
   -0.22918E+06         0.75245E+06         0.00000E+00
    0.75245E+06        -0.13459E+08         0.00000E+00
    0.00000E+00         0.00000E+00         0.00000E+00
 
   -0.23122E+06         0.84287E+06         0.00000E+00
    0.84287E+06        -0.13525E+08         0.00000E+00
    0.00000E+00         0.00000E+00         0.00000E+00
 
   -0.22933E+06         0.93888E+06         0.00000E+00
    0.93888E+06        -0.13591E+08         0.00000E+00
    0.00000E+00         0.00000E+00         0.00000E+00
 
   -0.22400E+06         0.10405E+07         0.00000E+00
    0.10405E+07        -0.13656E+08         0.00000E+00
    0.00000E+00         0.00000E+00         0.00000E+00
 
   -0.21568E+06         0.11476E+07         0.00000E+00
    0.11476E+07        -0.13722E+08         0.00000E+00
    0.00000E+00         0.00000E+00         0.00000E+00
 
   -0.20483E+06         0.12603E+07         0.00000E+00
    0.12603E+07        -0.13788E+08         0.00000E+00
    0.00000E+00         0.00000E+00         0.00000E+00
 
   -0.19189E+06         0.13784E+07         0.00000E+00
    0.13784E+07        -0.13852E+08         0.00000E+00
    0.00000E+00         0.00000E+00         0.00000E+00
 
   -0.17729E+06         0.15020E+07         0.00000E+00
    0.15020E+07        -0.13916E+08         0.00000E+00
    0.00000E+00         0.00000E+00         0.00000E+00
 
   -0.16145E+06         0.16309E+07         0.00000E+00
    0.16309E+07        -0.13979E+08         0.00000E+00
    0.00000E+00         0.00000E+00         0.00000E+00
 
   -0.14475E+06         0.17650E+07         0.00000E+00
    0.17650E+07        -0.14041E+08         0.00000E+00
    0.00000E+00         0.00000E+00         0.00000E+00
 
   -0.12758E+06         0.19043E+07         0.00000E+00
    0.19043E+07        -0.14102E+08         0.00000E+00
    0.00000E+00         0.00000E+00         0.00000E+00
 
   -0.11031E+06         0.20487E+07         0.00000E+00
    0.20487E+07        -0.14161E+08         0.00000E+00
    0.00000E+00         0.00000E+00         0.00000E+00
 
   -0.93279E+05         0.21980E+07         0.00000E+00
    0.21980E+07        -0.14218E+08         0.00000E+00
    0.00000E+00         0.00000E+00         0.00000E+00
 
   -0.76822E+05         0.23522E+07         0.00000E+00
    0.23522E+07        -0.14274E+08         0.00000E+00
    0.00000E+00         0.00000E+00         0.00000E+00
 
   -0.61252E+05         0.25110E+07         0.00000E+00
    0.25110E+07        -0.14327E+08         0.00000E+00
    0.00000E+00         0.00000E+00         0.00000E+00
 
   -0.46840E+05         0.26742E+07         0.00000E+00
    0.26742E+07        -0.14378E+08         0.00000E+00
    0.00000E+00         0.00000E+00         0.00000E+00
 
   -0.33804E+05         0.28418E+07         0.00000E+00
    0.28418E+07        -0.14427E+08         0.00000E+00
    0.00000E+00         0.00000E+00         0.00000E+00
 
   -0.22338E+05         0.30135E+07         0.00000E+00
    0.30135E+07        -0.14474E+08         0.00000E+00
    0.00000E+00         0.00000E+00         0.00000E+00
 
   -0.12653E+05         0.31893E+07         0.00000E+00
    0.31893E+07        -0.14518E+08         0.00000E+00
    0.00000E+00         0.00000E+00         0.00000E+00
 
   -0.49383E+04         0.33689E+07         0.00000E+00
    0.33689E+07        -0.14560E+08         0.00000E+00
    0.00000E+00         0.00000E+00         0.00000E+00
 
    0.63791E+03         0.35521E+07         0.00000E+00
    0.35521E+07        -0.14598E+08         0.00000E+00
    0.00000E+00         0.00000E+00         0.00000E+00
 
    0.40111E+04         0.37385E+07         0.00000E+00
    0.37385E+07        -0.14634E+08         0.00000E+00
    0.00000E+00         0.00000E+00         0.00000E+00
 
    0.54929E+04         0.39275E+07         0.00000E+00
    0.39275E+07        -0.14666E+08         0.00000E+00
    0.00000E+00         0.00000E+00         0.00000E+00
 
    0.54481E+04         0.41195E+07         0.00000E+00
    0.41195E+07        -0.14696E+08         0.00000E+00
    0.00000E+00         0.00000E+00         0.00000E+00
 
    0.43979E+04         0.43138E+07         0.00000E+00
    0.43138E+07        -0.14724E+08         0.00000E+00
    0.00000E+00         0.00000E+00         0.00000E+00
 
    0.28896E+04         0.45113E+07         0.00000E+00
    0.45113E+07        -0.14749E+08         0.00000E+00
    0.00000E+00         0.00000E+00         0.00000E+00
 
    0.39282E+03         0.47132E+07         0.00000E+00
    0.47132E+07        -0.14771E+08         0.00000E+00
    0.00000E+00         0.00000E+00         0.00000E+00
 
   -0.36892E+04         0.49183E+07         0.00000E+00
    0.49183E+07        -0.14789E+08         0.00000E+00
    0.00000E+00         0.00000E+00         0.00000E+00
 
   -0.87589E+04         0.51247E+07         0.00000E+00
    0.51247E+07        -0.14796E+08         0.00000E+00
    0.00000E+00         0.00000E+00         0.00000E+00
 
   -0.12829E+05         0.53306E+07         0.00000E+00
    0.53306E+07        -0.14798E+08         0.00000E+00
    0.00000E+00         0.00000E+00         0.00000E+00
 
   -0.71269E+04         0.55285E+07         0.00000E+00
    0.55285E+07        -0.14801E+08         0.00000E+00
    0.00000E+00         0.00000E+00         0.00000E+00
 
    0.10663E+06        -0.19683E+05         0.00000E+00
   -0.19683E+05        -0.13741E+08         0.00000E+00
    0.00000E+00         0.00000E+00         0.00000E+00
 
   -0.65363E+05        -0.48379E+05         0.00000E+00
   -0.48379E+05        -0.13749E+08         0.00000E+00
    0.00000E+00         0.00000E+00         0.00000E+00
 
   -0.21945E+06        -0.72611E+05         0.00000E+00
   -0.72611E+05        -0.13764E+08         0.00000E+00
    0.00000E+00         0.00000E+00         0.00000E+00
 
   -0.35661E+06        -0.92013E+05         0.00000E+00
   -0.92013E+05        -0.13786E+08         0.00000E+00
    0.00000E+00         0.00000E+00         0.00000E+00
 
   -0.47779E+06        -0.10626E+06         0.00000E+00
   -0.10626E+06        -0.13815E+08         0.00000E+00
    0.00000E+00         0.00000E+00         0.00000E+00
 
   -0.58391E+06        -0.11508E+06         0.00000E+00
   -0.11508E+06        -0.13849E+08         0.00000E+00
    0.00000E+00         0.00000E+00         0.00000E+00
 
   -0.67585E+06        -0.11821E+06         0.00000E+00
   -0.11821E+06        -0.13888E+08         0.00000E+00
    0.00000E+00         0.00000E+00         0.00000E+00
 
   -0.75448E+06        -0.11545E+06         0.00000E+00
   -0.11545E+06        -0.13932E+08         0.00000E+00
    0.00000E+00         0.00000E+00         0.00000E+00
 
   -0.82062E+06        -0.10661E+06         0.00000E+00
   -0.10661E+06        -0.13981E+08         0.00000E+00
    0.00000E+00         0.00000E+00         0.00000E+00
 
   -0.87510E+06        -0.91548E+05         0.00000E+00
   -0.91548E+05        -0.14033E+08         0.00000E+00
    0.00000E+00         0.00000E+00         0.00000E+00
 
   -0.91868E+06        -0.70124E+05         0.00000E+00
   -0.70124E+05        -0.14089E+08         0.00000E+00
    0.00000E+00         0.00000E+00         0.00000E+00
 
   -0.95213E+06        -0.42237E+05         0.00000E+00
   -0.42237E+05        -0.14148E+08         0.00000E+00
    0.00000E+00         0.00000E+00         0.00000E+00
 
   -0.97616E+06        -0.78064E+04         0.00000E+00
   -0.78064E+04        -0.14210E+08         0.00000E+00
    0.00000E+00         0.00000E+00         0.00000E+00
 
   -0.99148E+06         0.33234E+05         0.00000E+00
    0.33234E+05        -0.14275E+08         0.00000E+00
    0.00000E+00         0.00000E+00         0.00000E+00
 
   -0.99878E+06         0.80929E+05         0.00000E+00
    0.80929E+05        -0.14341E+08         0.00000E+00
    0.00000E+00         0.00000E+00         0.00000E+00
 
   -0.99870E+06         0.13531E+06         0.00000E+00
    0.13531E+06        -0.14410E+08         0.00000E+00
    0.00000E+00         0.00000E+00         0.00000E+00
 
   -0.99189E+06         0.19639E+06         0.00000E+00
    0.19639E+06        -0.14480E+08         0.00000E+00
    0.00000E+00         0.00000E+00         0.00000E+00
 
   -0.97896E+06         0.26418E+06         0.00000E+00
    0.26418E+06        -0.14552E+08         0.00000E+00
    0.00000E+00         0.00000E+00         0.00000E+00
 
   -0.96051E+06         0.33867E+06         0.00000E+00
    0.33867E+06        -0.14625E+08         0.00000E+00
    0.00000E+00         0.00000E+00         0.00000E+00
 
   -0.93710E+06         0.41984E+06         0.00000E+00
    0.41984E+06        -0.14698E+08         0.00000E+00
    0.00000E+00         0.00000E+00         0.00000E+00
 
   -0.90931E+06         0.50767E+06         0.00000E+00
    0.50767E+06        -0.14773E+08         0.00000E+00
    0.00000E+00         0.00000E+00         0.00000E+00
 
   -0.87767E+06         0.60211E+06         0.00000E+00
    0.60211E+06        -0.14847E+08         0.00000E+00
    0.00000E+00         0.00000E+00         0.00000E+00
 
   -0.84271E+06         0.70312E+06         0.00000E+00
    0.70312E+06        -0.14922E+08         0.00000E+00
    0.00000E+00         0.00000E+00         0.00000E+00
 
   -0.80495E+06         0.81065E+06         0.00000E+00
    0.81065E+06        -0.14997E+08         0.00000E+00
    0.00000E+00         0.00000E+00         0.00000E+00
 
   -0.76490E+06         0.92463E+06         0.00000E+00
    0.92463E+06        -0.15072E+08         0.00000E+00
    0.00000E+00         0.00000E+00         0.00000E+00
 
   -0.72304E+06         0.10450E+07         0.00000E+00
    0.10450E+07        -0.15147E+08         0.00000E+00
    0.00000E+00         0.00000E+00         0.00000E+00
 
   -0.67985E+06         0.11717E+07         0.00000E+00
    0.11717E+07        -0.15221E+08         0.00000E+00
    0.00000E+00         0.00000E+00         0.00000E+00
 
   -0.63580E+06         0.13045E+07         0.00000E+00
    0.13045E+07        -0.15294E+08         0.00000E+00
    0.00000E+00         0.00000E+00         0.00000E+00
 
   -0.59135E+06         0.14435E+07         0.00000E+00
    0.14435E+07        -0.15367E+08         0.00000E+00
    0.00000E+00         0.00000E+00         0.00000E+00
 
   -0.54695E+06         0.15885E+07         0.00000E+00
    0.15885E+07        -0.15438E+08         0.00000E+00
    0.00000E+00         0.00000E+00         0.00000E+00
 
   -0.50304E+06         0.17393E+07         0.00000E+00
    0.17393E+07        -0.15508E+08         0.00000E+00
    0.00000E+00         0.00000E+00         0.00000E+00
 
   -0.46005E+06         0.18958E+07         0.00000E+00
    0.18958E+07        -0.15577E+08         0.00000E+00
    0.00000E+00         0.00000E+00         0.00000E+00
 
   -0.41833E+06         0.20578E+07         0.00000E+00
    0.20578E+07        -0.15645E+08         0.00000E+00
    0.00000E+00         0.00000E+00         0.00000E+00
 
   -0.37823E+06         0.22252E+07         0.00000E+00
    0.22252E+07        -0.15711E+08         0.00000E+00
    0.00000E+00         0.00000E+00         0.00000E+00
 
   -0.34019E+06         0.23978E+07         0.00000E+00
    0.23978E+07        -0.15775E+08         0.00000E+00
    0.00000E+00         0.00000E+00         0.00000E+00
 
   -0.30465E+06         0.25755E+07         0.00000E+00
    0.25755E+07        -0.15837E+08         0.00000E+00
    0.00000E+00         0.00000E+00         0.00000E+00
 
   -0.27197E+06         0.27578E+07         0.00000E+00
    0.27578E+07        -0.15897E+08         0.00000E+00
    0.00000E+00         0.00000E+00         0.00000E+00
 
   -0.24219E+06         0.29440E+07         0.00000E+00
    0.29440E+07        -0.15955E+08         0.00000E+00
    0.00000E+00         0.00000E+00         0.00000E+00
 
   -0.21524E+06         0.31342E+07         0.00000E+00
    0.31342E+07        -0.16012E+08         0.00000E+00
    0.00000E+00         0.00000E+00         0.00000E+00
 
   -0.19088E+06         0.33280E+07         0.00000E+00
    0.33280E+07        -0.16068E+08         0.00000E+00
    0.00000E+00         0.00000E+00         0.00000E+00
 
   -0.16922E+06         0.35262E+07         0.00000E+00
    0.35262E+07        -0.16122E+08         0.00000E+00
    0.00000E+00         0.00000E+00         0.00000E+00
 
   -0.15158E+06         0.37296E+07         0.00000E+00
    0.37296E+07        -0.16175E+08         0.00000E+00
    0.00000E+00         0.00000E+00         0.00000E+00
 
   -0.13890E+06         0.39358E+07         0.00000E+00
    0.39358E+07        -0.16221E+08         0.00000E+00
    0.00000E+00         0.00000E+00         0.00000E+00
 
   -0.13208E+06         0.41448E+07         0.00000E+00
    0.41448E+07        -0.16262E+08         0.00000E+00
    0.00000E+00         0.00000E+00         0.00000E+00
 
   -0.13077E+06         0.43515E+07         0.00000E+00
    0.43515E+07        -0.16300E+08         0.00000E+00
    0.00000E+00         0.00000E+00         0.00000E+00
 
   -0.12859E+06         0.45501E+07         0.00000E+00
    0.45501E+07        -0.16341E+08         0.00000E+00
    0.00000E+00         0.00000E+00         0.00000E+00
 
   -0.11840E+06         0.47472E+07         0.00000E+00
    0.47472E+07        -0.16396E+08         0.00000E+00
    0.00000E+00         0.00000E+00         0.00000E+00
 
   -0.96336E+05         0.49500E+07         0.00000E+00
    0.49500E+07        -0.16487E+08         0.00000E+00
    0.00000E+00         0.00000E+00         0.00000E+00
 
   -0.11328E+06         0.51393E+07         0.00000E+00
    0.51393E+07        -0.16569E+08         0.00000E+00
    0.00000E+00         0.00000E+00        -0.51603E+05
 
   -0.15020E+06         0.53213E+07         0.00000E+00
    0.53213E+07        -0.16649E+08         0.00000E+00
    0.00000E+00         0.00000E+00        -0.12940E+06
 
   -0.13776E+07        -0.41893E+05         0.00000E+00
   -0.41893E+05        -0.14978E+08         0.00000E+00
    0.00000E+00         0.00000E+00         0.00000E+00
 
   -0.15217E+07        -0.10715E+06         0.00000E+00
   -0.10715E+06        -0.14987E+08         0.00000E+00
    0.00000E+00         0.00000E+00         0.00000E+00
 
   -0.16464E+07        -0.16526E+06         0.00000E+00
   -0.16526E+06        -0.15004E+08         0.00000E+00
    0.00000E+00         0.00000E+00         0.00000E+00
 
   -0.17529E+07        -0.21596E+06         0.00000E+00
   -0.21596E+06        -0.15029E+08         0.00000E+00
    0.00000E+00         0.00000E+00         0.00000E+00
 
   -0.18422E+07        -0.25905E+06         0.00000E+00
   -0.25905E+06        -0.15060E+08         0.00000E+00
    0.00000E+00         0.00000E+00         0.00000E+00
 
   -0.19154E+07        -0.29436E+06         0.00000E+00
   -0.29436E+06        -0.15097E+08         0.00000E+00
    0.00000E+00         0.00000E+00         0.00000E+00
 
   -0.19737E+07        -0.32178E+06         0.00000E+00
   -0.32178E+06        -0.15140E+08         0.00000E+00
    0.00000E+00         0.00000E+00         0.00000E+00
 
   -0.20180E+07        -0.34118E+06         0.00000E+00
   -0.34118E+06        -0.15188E+08         0.00000E+00
    0.00000E+00         0.00000E+00         0.00000E+00
 
   -0.20492E+07        -0.35252E+06         0.00000E+00
   -0.35252E+06        -0.15241E+08         0.00000E+00
    0.00000E+00         0.00000E+00         0.00000E+00
 
   -0.20684E+07        -0.35573E+06         0.00000E+00
   -0.35573E+06        -0.15297E+08         0.00000E+00
    0.00000E+00         0.00000E+00         0.00000E+00
 
   -0.20763E+07        -0.35080E+06         0.00000E+00
   -0.35080E+06        -0.15358E+08         0.00000E+00
    0.00000E+00         0.00000E+00         0.00000E+00
 
   -0.20739E+07        -0.33772E+06         0.00000E+00
   -0.33772E+06        -0.15422E+08         0.00000E+00
    0.00000E+00         0.00000E+00         0.00000E+00
 
   -0.20620E+07        -0.31651E+06         0.00000E+00
   -0.31651E+06        -0.15488E+08         0.00000E+00
    0.00000E+00         0.00000E+00         0.00000E+00
 
   -0.20413E+07        -0.28721E+06         0.00000E+00
   -0.28721E+06        -0.15557E+08         0.00000E+00
    0.00000E+00         0.00000E+00         0.00000E+00
 
   -0.20125E+07        -0.24985E+06         0.00000E+00
   -0.24985E+06        -0.15629E+08         0.00000E+00
    0.00000E+00         0.00000E+00         0.00000E+00
 
   -0.19765E+07        -0.20450E+06         0.00000E+00
   -0.20450E+06        -0.15702E+08         0.00000E+00
    0.00000E+00         0.00000E+00         0.00000E+00
 
   -0.19338E+07        -0.15121E+06         0.00000E+00
   -0.15121E+06        -0.15777E+08         0.00000E+00
    0.00000E+00         0.00000E+00         0.00000E+00
 
   -0.18852E+07        -0.90069E+05         0.00000E+00
   -0.90069E+05        -0.15854E+08         0.00000E+00
    0.00000E+00         0.00000E+00         0.00000E+00
 
   -0.18313E+07        -0.21139E+05         0.00000E+00
   -0.21139E+05        -0.15931E+08         0.00000E+00
    0.00000E+00         0.00000E+00         0.00000E+00
 
   -0.17726E+07         0.55491E+05         0.00000E+00
    0.55491E+05        -0.16010E+08         0.00000E+00
    0.00000E+00         0.00000E+00         0.00000E+00
 
   -0.17099E+07         0.13974E+06         0.00000E+00
    0.13974E+06        -0.16090E+08         0.00000E+00
    0.00000E+00         0.00000E+00         0.00000E+00
 
   -0.16435E+07         0.23151E+06         0.00000E+00
    0.23151E+06        -0.16170E+08         0.00000E+00
    0.00000E+00         0.00000E+00         0.00000E+00
 
   -0.15742E+07         0.33072E+06         0.00000E+00
    0.33072E+06        -0.16250E+08         0.00000E+00
    0.00000E+00         0.00000E+00         0.00000E+00
 
   -0.15024E+07         0.43727E+06         0.00000E+00
    0.43727E+06        -0.16331E+08         0.00000E+00
    0.00000E+00         0.00000E+00         0.00000E+00
 
   -0.14287E+07         0.55106E+06         0.00000E+00
    0.55106E+06        -0.16411E+08         0.00000E+00
    0.00000E+00         0.00000E+00         0.00000E+00
 
   -0.13535E+07         0.67201E+06         0.00000E+00
    0.67201E+06        -0.16492E+08         0.00000E+00
    0.00000E+00         0.00000E+00         0.00000E+00
 
   -0.12775E+07         0.80002E+06         0.00000E+00
    0.80002E+06        -0.16572E+08         0.00000E+00
    0.00000E+00         0.00000E+00         0.00000E+00
 
   -0.12011E+07         0.93498E+06         0.00000E+00
    0.93498E+06        -0.16652E+08         0.00000E+00
    0.00000E+00         0.00000E+00         0.00000E+00
 
   -0.11249E+07         0.10767E+07         0.00000E+00
    0.10767E+07        -0.16732E+08         0.00000E+00
    0.00000E+00         0.00000E+00         0.00000E+00
 
   -0.10493E+07         0.12251E+07         0.00000E+00
    0.12251E+07        -0.16811E+08         0.00000E+00
    0.00000E+00         0.00000E+00         0.00000E+00
 
   -0.97484E+06         0.13800E+07         0.00000E+00
    0.13800E+07        -0.16889E+08         0.00000E+00
    0.00000E+00         0.00000E+00         0.00000E+00
 
   -0.90208E+06         0.15414E+07         0.00000E+00
    0.15414E+07        -0.16966E+08         0.00000E+00
    0.00000E+00         0.00000E+00         0.00000E+00
 
   -0.83172E+06         0.17092E+07         0.00000E+00
    0.17092E+07        -0.17042E+08         0.00000E+00
    0.00000E+00         0.00000E+00         0.00000E+00
 
   -0.76429E+06         0.18827E+07         0.00000E+00
    0.18827E+07        -0.17117E+08         0.00000E+00
    0.00000E+00         0.00000E+00         0.00000E+00
 
   -0.70001E+06         0.20614E+07         0.00000E+00
    0.20614E+07        -0.17190E+08         0.00000E+00
    0.00000E+00         0.00000E+00         0.00000E+00
 
   -0.63885E+06         0.22451E+07         0.00000E+00
    0.22451E+07        -0.17264E+08         0.00000E+00
    0.00000E+00         0.00000E+00         0.00000E+00
 
   -0.58116E+06         0.24344E+07         0.00000E+00
    0.24344E+07        -0.17336E+08         0.00000E+00
    0.00000E+00         0.00000E+00         0.00000E+00
 
   -0.52848E+06         0.26302E+07         0.00000E+00
    0.26302E+07        -0.17407E+08         0.00000E+00
    0.00000E+00         0.00000E+00         0.00000E+00
 
   -0.48261E+06         0.28309E+07         0.00000E+00
    0.28309E+07        -0.17472E+08         0.00000E+00
    0.00000E+00         0.00000E+00         0.00000E+00
 
   -0.44548E+06         0.30355E+07         0.00000E+00
    0.30355E+07        -0.17531E+08         0.00000E+00
    0.00000E+00         0.00000E+00         0.00000E+00
 
   -0.41673E+06         0.32376E+07         0.00000E+00
    0.32376E+07        -0.17588E+08         0.00000E+00
    0.00000E+00         0.00000E+00         0.00000E+00
 
   -0.39036E+06         0.34326E+07         0.00000E+00
    0.34326E+07        -0.17645E+08         0.00000E+00
    0.00000E+00         0.00000E+00         0.00000E+00
 
   -0.36163E+06         0.36291E+07         0.00000E+00
    0.36291E+07        -0.17726E+08         0.00000E+00
    0.00000E+00         0.00000E+00         0.00000E+00
 
   -0.32703E+06         0.38257E+07         0.00000E+00
    0.38257E+07        -0.17829E+08         0.00000E+00
    0.00000E+00         0.00000E+00        -0.19807E+04
 
   -0.34433E+06         0.40125E+07         0.00000E+00
    0.40125E+07        -0.17918E+08         0.00000E+00
    0.00000E+00         0.00000E+00        -0.67015E+05
 
   -0.36582E+06         0.41989E+07         0.00000E+00
    0.41989E+07        -0.18006E+08         0.00000E+00
    0.00000E+00         0.00000E+00        -0.13968E+06
 
   -0.40876E+06         0.43765E+07         0.00000E+00
    0.43765E+07        -0.18084E+08         0.00000E+00
    0.00000E+00         0.00000E+00        -0.23766E+06
 
   -0.50516E+06         0.45310E+07         0.00000E+00
    0.45310E+07        -0.18142E+08         0.00000E+00
    0.00000E+00         0.00000E+00        -0.39101E+06
 
   -0.61871E+06         0.46796E+07         0.00000E+00
    0.46796E+07        -0.18225E+08         0.00000E+00
    0.00000E+00         0.00000E+00        -0.55771E+06
 
   -0.74271E+06         0.48164E+07         0.00000E+00
    0.48164E+07        -0.18324E+08         0.00000E+00
    0.00000E+00         0.00000E+00        -0.72497E+06
 
   -0.31777E+07        -0.66159E+05         0.00000E+00
   -0.66159E+05        -0.16334E+08         0.00000E+00
    0.00000E+00         0.00000E+00         0.00000E+00
 
   -0.32789E+07        -0.17059E+06         0.00000E+00
   -0.17059E+06        -0.16343E+08         0.00000E+00
    0.00000E+00         0.00000E+00         0.00000E+00
 
   -0.33598E+07        -0.26466E+06         0.00000E+00
   -0.26466E+06        -0.16362E+08         0.00000E+00
    0.00000E+00         0.00000E+00         0.00000E+00
 
   -0.34218E+07        -0.34831E+06         0.00000E+00
   -0.34831E+06        -0.16387E+08         0.00000E+00
    0.00000E+00         0.00000E+00         0.00000E+00
 
   -0.34662E+07        -0.42151E+06         0.00000E+00
   -0.42151E+06        -0.16420E+08         0.00000E+00
    0.00000E+00         0.00000E+00         0.00000E+00
 
   -0.34943E+07        -0.48425E+06         0.00000E+00
   -0.48425E+06        -0.16459E+08         0.00000E+00
    0.00000E+00         0.00000E+00         0.00000E+00
 
   -0.35072E+07        -0.53656E+06         0.00000E+00
   -0.53656E+06        -0.16503E+08         0.00000E+00
    0.00000E+00         0.00000E+00         0.00000E+00
 
   -0.35061E+07        -0.57850E+06         0.00000E+00
   -0.57850E+06        -0.16553E+08         0.00000E+00
    0.00000E+00         0.00000E+00         0.00000E+00
 
   -0.34921E+07        -0.61015E+06         0.00000E+00
   -0.61015E+06        -0.16607E+08         0.00000E+00
    0.00000E+00         0.00000E+00         0.00000E+00
 
   -0.34662E+07        -0.63161E+06         0.00000E+00
   -0.63161E+06        -0.16665E+08         0.00000E+00
    0.00000E+00         0.00000E+00         0.00000E+00
 
   -0.34293E+07        -0.64302E+06         0.00000E+00
   -0.64302E+06        -0.16727E+08         0.00000E+00
    0.00000E+00         0.00000E+00         0.00000E+00
 
   -0.33825E+07        -0.64450E+06         0.00000E+00
   -0.64450E+06        -0.16791E+08         0.00000E+00
    0.00000E+00         0.00000E+00         0.00000E+00
 
   -0.33266E+07        -0.63622E+06         0.00000E+00
   -0.63622E+06        -0.16859E+08         0.00000E+00
    0.00000E+00         0.00000E+00         0.00000E+00
 
   -0.32623E+07        -0.61833E+06         0.00000E+00
   -0.61833E+06        -0.16929E+08         0.00000E+00
    0.00000E+00         0.00000E+00         0.00000E+00
 
   -0.31906E+07        -0.59102E+06         0.00000E+00
   -0.59102E+06        -0.17000E+08         0.00000E+00
    0.00000E+00         0.00000E+00         0.00000E+00
 
   -0.31122E+07        -0.55444E+06         0.00000E+00
   -0.55444E+06        -0.17074E+08         0.00000E+00
    0.00000E+00         0.00000E+00         0.00000E+00
 
   -0.30277E+07        -0.50879E+06         0.00000E+00
   -0.50879E+06        -0.17149E+08         0.00000E+00
    0.00000E+00         0.00000E+00         0.00000E+00
 
   -0.29379E+07        -0.45424E+06         0.00000E+00
   -0.45424E+06        -0.17225E+08         0.00000E+00
    0.00000E+00         0.00000E+00         0.00000E+00
 
   -0.28433E+07        -0.39096E+06         0.00000E+00
   -0.39096E+06        -0.17303E+08         0.00000E+00
    0.00000E+00         0.00000E+00         0.00000E+00
 
   -0.27445E+07        -0.31913E+06         0.00000E+00
   -0.31913E+06        -0.17381E+08         0.00000E+00
    0.00000E+00         0.00000E+00         0.00000E+00
 
   -0.26423E+07        -0.23891E+06         0.00000E+00
   -0.23891E+06        -0.17460E+08         0.00000E+00
    0.00000E+00         0.00000E+00         0.00000E+00
 
   -0.25370E+07        -0.15044E+06         0.00000E+00
   -0.15044E+06        -0.17539E+08         0.00000E+00
    0.00000E+00         0.00000E+00         0.00000E+00
 
   -0.24293E+07        -0.53872E+05         0.00000E+00
   -0.53872E+05        -0.17619E+08         0.00000E+00
    0.00000E+00         0.00000E+00         0.00000E+00
 
   -0.23196E+07         0.50654E+05         0.00000E+00
    0.50654E+05        -0.17699E+08         0.00000E+00
    0.00000E+00         0.00000E+00         0.00000E+00
 
   -0.22086E+07         0.16299E+06         0.00000E+00
    0.16299E+06        -0.17780E+08         0.00000E+00
    0.00000E+00         0.00000E+00         0.00000E+00
 
   -0.20966E+07         0.28301E+06         0.00000E+00
    0.28301E+06        -0.17860E+08         0.00000E+00
    0.00000E+00         0.00000E+00         0.00000E+00
 
   -0.19842E+07         0.41059E+06         0.00000E+00
    0.41059E+06        -0.17941E+08         0.00000E+00
    0.00000E+00         0.00000E+00         0.00000E+00
 
   -0.18719E+07         0.54566E+06         0.00000E+00
    0.54566E+06        -0.18021E+08         0.00000E+00
    0.00000E+00         0.00000E+00         0.00000E+00
 
   -0.17603E+07         0.68827E+06         0.00000E+00
    0.68827E+06        -0.18102E+08         0.00000E+00
    0.00000E+00         0.00000E+00         0.00000E+00
 
   -0.16502E+07         0.83825E+06         0.00000E+00
    0.83825E+06        -0.18182E+08         0.00000E+00
    0.00000E+00         0.00000E+00         0.00000E+00
 
   -0.15420E+07         0.99523E+06         0.00000E+00
    0.99523E+06        -0.18261E+08         0.00000E+00
    0.00000E+00         0.00000E+00         0.00000E+00
 
   -0.14362E+07         0.11587E+07         0.00000E+00
    0.11587E+07        -0.18339E+08         0.00000E+00
    0.00000E+00         0.00000E+00         0.00000E+00
 
   -0.13328E+07         0.13287E+07         0.00000E+00
    0.13287E+07        -0.18418E+08         0.00000E+00
    0.00000E+00         0.00000E+00         0.00000E+00
 
   -0.12327E+07         0.15064E+07         0.00000E+00
    0.15064E+07        -0.18497E+08         0.00000E+00
    0.00000E+00         0.00000E+00         0.00000E+00
 
   -0.11381E+07         0.16926E+07         0.00000E+00
    0.16926E+07        -0.18575E+08         0.00000E+00
    0.00000E+00         0.00000E+00         0.00000E+00
 
   -0.10519E+07         0.18861E+07         0.00000E+00
    0.18861E+07        -0.18644E+08         0.00000E+00
    0.00000E+00         0.00000E+00         0.00000E+00
 
   -0.97508E+06         0.20816E+07         0.00000E+00
    0.20816E+07        -0.18709E+08         0.00000E+00
    0.00000E+00         0.00000E+00         0.00000E+00
 
   -0.90343E+06         0.22737E+07         0.00000E+00
    0.22737E+07        -0.18773E+08         0.00000E+00
    0.00000E+00         0.00000E+00         0.00000E+00
 
   -0.83153E+06         0.24674E+07         0.00000E+00
    0.24674E+07        -0.18858E+08         0.00000E+00
    0.00000E+00         0.00000E+00         0.00000E+00
 
   -0.75880E+06         0.26634E+07         0.00000E+00
    0.26634E+07        -0.18964E+08         0.00000E+00
    0.00000E+00         0.00000E+00        -0.64546E+04
 
   -0.73907E+06         0.28568E+07         0.00000E+00
    0.28568E+07        -0.19052E+08         0.00000E+00
    0.00000E+00         0.00000E+00        -0.79920E+05
 
   -0.71615E+06         0.30553E+07         0.00000E+00
    0.30553E+07        -0.19139E+08         0.00000E+00
    0.00000E+00         0.00000E+00        -0.15528E+06
 
   -0.73189E+06         0.32481E+07         0.00000E+00
    0.32481E+07        -0.19205E+08         0.00000E+00
    0.00000E+00         0.00000E+00        -0.27827E+06
 
   -0.78201E+06         0.34292E+07         0.00000E+00
    0.34292E+07        -0.19255E+08         0.00000E+00
    0.00000E+00         0.00000E+00        -0.43901E+06
 
   -0.85366E+06         0.36100E+07         0.00000E+00
    0.36100E+07        -0.19329E+08         0.00000E+00
    0.00000E+00         0.00000E+00        -0.61832E+06
 
   -0.93223E+06         0.37792E+07         0.00000E+00
    0.37792E+07        -0.19409E+08         0.00000E+00
    0.00000E+00         0.00000E+00        -0.79451E+06
 
   -0.10231E+07         0.39363E+07         0.00000E+00
    0.39363E+07        -0.19493E+08         0.00000E+00
    0.00000E+00         0.00000E+00        -0.96026E+06
 
   -0.11308E+07         0.40895E+07         0.00000E+00
    0.40895E+07        -0.19581E+08         0.00000E+00
    0.00000E+00         0.00000E+00        -0.11157E+07
 
   -0.12490E+07         0.42395E+07         0.00000E+00
    0.42395E+07        -0.19663E+08         0.00000E+00
    0.00000E+00         0.00000E+00        -0.12553E+07
 
   -0.13778E+07         0.43910E+07         0.00000E+00
    0.43910E+07        -0.19738E+08         0.00000E+00
    0.00000E+00         0.00000E+00        -0.13831E+07
 
   -0.53088E+07        -0.91554E+05         0.00000E+00
   -0.91554E+05        -0.17813E+08         0.00000E+00
    0.00000E+00         0.00000E+00         0.00000E+00
 
   -0.53494E+07        -0.23581E+06         0.00000E+00
   -0.23581E+06        -0.17823E+08         0.00000E+00
    0.00000E+00         0.00000E+00         0.00000E+00
 
   -0.53698E+07        -0.36617E+06         0.00000E+00
   -0.36617E+06        -0.17841E+08         0.00000E+00
    0.00000E+00         0.00000E+00         0.00000E+00
 
   -0.53716E+07        -0.48267E+06         0.00000E+00
   -0.48267E+06        -0.17867E+08         0.00000E+00
    0.00000E+00         0.00000E+00         0.00000E+00
 
   -0.53563E+07        -0.58548E+06         0.00000E+00
   -0.58548E+06        -0.17899E+08         0.00000E+00
    0.00000E+00         0.00000E+00         0.00000E+00
 
   -0.53252E+07        -0.67481E+06         0.00000E+00
   -0.67481E+06        -0.17937E+08         0.00000E+00
    0.00000E+00         0.00000E+00         0.00000E+00
 
   -0.52796E+07        -0.75091E+06         0.00000E+00
   -0.75091E+06        -0.17981E+08         0.00000E+00
    0.00000E+00         0.00000E+00         0.00000E+00
 
   -0.52209E+07        -0.81403E+06         0.00000E+00
   -0.81403E+06        -0.18029E+08         0.00000E+00
    0.00000E+00         0.00000E+00         0.00000E+00
 
   -0.51502E+07        -0.86446E+06         0.00000E+00
   -0.86446E+06        -0.18081E+08         0.00000E+00
    0.00000E+00         0.00000E+00         0.00000E+00
 
   -0.50687E+07        -0.90251E+06         0.00000E+00
   -0.90251E+06        -0.18136E+08         0.00000E+00
    0.00000E+00         0.00000E+00         0.00000E+00
 
   -0.49773E+07        -0.92847E+06         0.00000E+00
   -0.92847E+06        -0.18195E+08         0.00000E+00
    0.00000E+00         0.00000E+00         0.00000E+00
 
   -0.48771E+07        -0.94270E+06         0.00000E+00
   -0.94270E+06        -0.18256E+08         0.00000E+00
    0.00000E+00         0.00000E+00         0.00000E+00
 
   -0.47689E+07        -0.94550E+06         0.00000E+00
   -0.94550E+06        -0.18319E+08         0.00000E+00
    0.00000E+00         0.00000E+00         0.00000E+00
 
   -0.46537E+07        -0.93723E+06         0.00000E+00
   -0.93723E+06        -0.18384E+08         0.00000E+00
    0.00000E+00         0.00000E+00         0.00000E+00
 
   -0.45323E+07        -0.91821E+06         0.00000E+00
   -0.91821E+06        -0.18451E+08         0.00000E+00
    0.00000E+00         0.00000E+00         0.00000E+00
 
   -0.44053E+07        -0.88878E+06         0.00000E+00
   -0.88878E+06        -0.18518E+08         0.00000E+00
    0.00000E+00         0.00000E+00         0.00000E+00
 
   -0.42735E+07        -0.84927E+06         0.00000E+00
   -0.84927E+06        -0.18587E+08         0.00000E+00
    0.00000E+00         0.00000E+00         0.00000E+00
 
   -0.41375E+07        -0.79998E+06         0.00000E+00
   -0.79998E+06        -0.18657E+08         0.00000E+00
    0.00000E+00         0.00000E+00         0.00000E+00
 
   -0.39979E+07        -0.74123E+06         0.00000E+00
   -0.74123E+06        -0.18727E+08         0.00000E+00
    0.00000E+00         0.00000E+00         0.00000E+00
 
   -0.38553E+07        -0.67332E+06         0.00000E+00
   -0.67332E+06        -0.18797E+08         0.00000E+00
    0.00000E+00         0.00000E+00         0.00000E+00
 
   -0.37101E+07        -0.59651E+06         0.00000E+00
   -0.59651E+06        -0.18868E+08         0.00000E+00
    0.00000E+00         0.00000E+00         0.00000E+00
 
   -0.35628E+07        -0.51107E+06         0.00000E+00
   -0.51107E+06        -0.18940E+08         0.00000E+00
    0.00000E+00         0.00000E+00         0.00000E+00
 
   -0.34139E+07        -0.41722E+06         0.00000E+00
   -0.41722E+06        -0.19011E+08         0.00000E+00
    0.00000E+00         0.00000E+00         0.00000E+00
 
   -0.32637E+07        -0.31511E+06         0.00000E+00
   -0.31511E+06        -0.19083E+08         0.00000E+00
    0.00000E+00         0.00000E+00         0.00000E+00
 
   -0.31127E+07        -0.20483E+06         0.00000E+00
   -0.20483E+06        -0.19155E+08         0.00000E+00
    0.00000E+00         0.00000E+00         0.00000E+00
 
   -0.29614E+07        -0.86504E+05         0.00000E+00
   -0.86504E+05        -0.19227E+08         0.00000E+00
    0.00000E+00         0.00000E+00         0.00000E+00
 
   -0.28104E+07         0.39713E+05         0.00000E+00
    0.39713E+05        -0.19299E+08         0.00000E+00
    0.00000E+00         0.00000E+00         0.00000E+00
 
   -0.26599E+07         0.17358E+06         0.00000E+00
    0.17358E+06        -0.19371E+08         0.00000E+00
    0.00000E+00         0.00000E+00         0.00000E+00
 
   -0.25101E+07         0.31463E+06         0.00000E+00
    0.31463E+06        -0.19443E+08         0.00000E+00
    0.00000E+00         0.00000E+00         0.00000E+00
 
   -0.23613E+07         0.46334E+06         0.00000E+00
    0.46334E+06        -0.19516E+08         0.00000E+00
    0.00000E+00         0.00000E+00         0.00000E+00
 
   -0.22143E+07         0.62085E+06         0.00000E+00
    0.62085E+06        -0.19589E+08         0.00000E+00
    0.00000E+00         0.00000E+00         0.00000E+00
 
   -0.20713E+07         0.78801E+06         0.00000E+00
    0.78801E+06        -0.19662E+08         0.00000E+00
    0.00000E+00         0.00000E+00         0.00000E+00
 
   -0.19347E+07         0.96324E+06         0.00000E+00
    0.96324E+06        -0.19729E+08         0.00000E+00
    0.00000E+00         0.00000E+00         0.00000E+00
 
   -0.18036E+07         0.11409E+07         0.00000E+00
    0.11409E+07        -0.19793E+08         0.00000E+00
    0.00000E+00         0.00000E+00         0.00000E+00
 
   -0.16731E+07         0.13190E+07         0.00000E+00
    0.13190E+07        -0.19857E+08         0.00000E+00
    0.00000E+00         0.00000E+00         0.00000E+00
 
   -0.15372E+07         0.15025E+07         0.00000E+00
    0.15025E+07        -0.19954E+08         0.00000E+00
    0.00000E+00         0.00000E+00        -0.60557E+03
 
   -0.14461E+07         0.16897E+07         0.00000E+00
    0.16897E+07        -0.20041E+08         0.00000E+00
    0.00000E+00         0.00000E+00        -0.66119E+05
 
   -0.13567E+07         0.18858E+07         0.00000E+00
    0.18858E+07        -0.20125E+08         0.00000E+00
    0.00000E+00         0.00000E+00        -0.14421E+06
 
   -0.12989E+07         0.20847E+07         0.00000E+00
    0.20847E+07        -0.20190E+08         0.00000E+00
    0.00000E+00         0.00000E+00        -0.26864E+06
 
   -0.12800E+07         0.22795E+07         0.00000E+00
    0.22795E+07        -0.20238E+08         0.00000E+00
    0.00000E+00         0.00000E+00        -0.44092E+06
 
   -0.12844E+07         0.24755E+07         0.00000E+00
    0.24755E+07        -0.20311E+08         0.00000E+00
    0.00000E+00         0.00000E+00        -0.63522E+06
 
   -0.12995E+07         0.26628E+07         0.00000E+00
    0.26628E+07        -0.20387E+08         0.00000E+00
    0.00000E+00         0.00000E+00        -0.82709E+06
 
   -0.13332E+07         0.28428E+07         0.00000E+00
    0.28428E+07        -0.20468E+08         0.00000E+00
    0.00000E+00         0.00000E+00        -0.10127E+07
 
   -0.13876E+07         0.30207E+07         0.00000E+00
    0.30207E+07        -0.20553E+08         0.00000E+00
    0.00000E+00         0.00000E+00        -0.11896E+07
 
   -0.14576E+07         0.31961E+07         0.00000E+00
    0.31961E+07        -0.20632E+08         0.00000E+00
    0.00000E+00         0.00000E+00        -0.13510E+07
 
   -0.15446E+07         0.33740E+07         0.00000E+00
    0.33740E+07        -0.20709E+08         0.00000E+00
    0.00000E+00         0.00000E+00        -0.15022E+07
 
   -0.16439E+07         0.35548E+07         0.00000E+00
    0.35548E+07        -0.20780E+08         0.00000E+00
    0.00000E+00         0.00000E+00        -0.16434E+07
 
   -0.17523E+07         0.37368E+07         0.00000E+00
    0.37368E+07        -0.20842E+08         0.00000E+00
    0.00000E+00         0.00000E+00        -0.17742E+07
 
   -0.18705E+07         0.39210E+07         0.00000E+00
    0.39210E+07        -0.20898E+08         0.00000E+00
    0.00000E+00         0.00000E+00        -0.18964E+07
 
   -0.19979E+07         0.41058E+07         0.00000E+00
    0.41058E+07        -0.20947E+08         0.00000E+00
    0.00000E+00         0.00000E+00        -0.20098E+07
 
   -0.77728E+07        -0.11671E+06         0.00000E+00
   -0.11671E+06        -0.19417E+08         0.00000E+00
    0.00000E+00         0.00000E+00         0.00000E+00
 
   -0.77328E+07        -0.29973E+06         0.00000E+00
   -0.29973E+06        -0.19427E+08         0.00000E+00
    0.00000E+00         0.00000E+00         0.00000E+00
 
   -0.76738E+07        -0.46437E+06         0.00000E+00
   -0.46437E+06        -0.19444E+08         0.00000E+00
    0.00000E+00         0.00000E+00         0.00000E+00
 
   -0.75976E+07        -0.61128E+06         0.00000E+00
   -0.61128E+06        -0.19468E+08         0.00000E+00
    0.00000E+00         0.00000E+00         0.00000E+00
 
   -0.75059E+07        -0.74096E+06         0.00000E+00
   -0.74096E+06        -0.19498E+08         0.00000E+00
    0.00000E+00         0.00000E+00         0.00000E+00
 
   -0.74001E+07        -0.85389E+06         0.00000E+00
   -0.85389E+06        -0.19533E+08         0.00000E+00
    0.00000E+00         0.00000E+00         0.00000E+00
 
   -0.72817E+07        -0.95053E+06         0.00000E+00
   -0.95053E+06        -0.19572E+08         0.00000E+00
    0.00000E+00         0.00000E+00         0.00000E+00
 
   -0.71520E+07        -0.10314E+07         0.00000E+00
   -0.10314E+07        -0.19615E+08         0.00000E+00
    0.00000E+00         0.00000E+00         0.00000E+00
 
   -0.70124E+07        -0.10971E+07         0.00000E+00
   -0.10971E+07        -0.19661E+08         0.00000E+00
    0.00000E+00         0.00000E+00         0.00000E+00
 
   -0.68640E+07        -0.11480E+07         0.00000E+00
   -0.11480E+07        -0.19710E+08         0.00000E+00
    0.00000E+00         0.00000E+00         0.00000E+00
 
   -0.67079E+07        -0.11848E+07         0.00000E+00
   -0.11848E+07        -0.19760E+08         0.00000E+00
    0.00000E+00         0.00000E+00         0.00000E+00
 
   -0.65451E+07        -0.12080E+07         0.00000E+00
   -0.12080E+07        -0.19812E+08         0.00000E+00
    0.00000E+00         0.00000E+00         0.00000E+00
 
   -0.63766E+07        -0.12182E+07         0.00000E+00
   -0.12182E+07        -0.19865E+08         0.00000E+00
    0.00000E+00         0.00000E+00         0.00000E+00
 
   -0.62032E+07        -0.12158E+07         0.00000E+00
   -0.12158E+07        -0.19919E+08         0.00000E+00
    0.00000E+00         0.00000E+00         0.00000E+00
 
   -0.60257E+07        -0.12016E+07         0.00000E+00
   -0.12016E+07        -0.19974E+08         0.00000E+00
    0.00000E+00         0.00000E+00         0.00000E+00
 
   -0.58448E+07        -0.11759E+07         0.00000E+00
   -0.11759E+07        -0.20029E+08         0.00000E+00
    0.00000E+00         0.00000E+00         0.00000E+00
 
   -0.56611E+07        -0.11394E+07         0.00000E+00
   -0.11394E+07        -0.20083E+08         0.00000E+00
    0.00000E+00         0.00000E+00         0.00000E+00
 
   -0.54752E+07        -0.10925E+07         0.00000E+00
   -0.10925E+07        -0.20138E+08         0.00000E+00
    0.00000E+00         0.00000E+00         0.00000E+00
 
   -0.52874E+07        -0.10358E+07         0.00000E+00
   -0.10358E+07        -0.20193E+08         0.00000E+00
    0.00000E+00         0.00000E+00         0.00000E+00
 
   -0.50984E+07        -0.96951E+06         0.00000E+00
   -0.96951E+06        -0.20248E+08         0.00000E+00
    0.00000E+00         0.00000E+00         0.00000E+00
 
   -0.49083E+07        -0.89417E+06         0.00000E+00
   -0.89417E+06        -0.20303E+08         0.00000E+00
    0.00000E+00         0.00000E+00         0.00000E+00
 
   -0.47177E+07        -0.81011E+06         0.00000E+00
   -0.81011E+06        -0.20357E+08         0.00000E+00
    0.00000E+00         0.00000E+00         0.00000E+00
 
   -0.45267E+07        -0.71769E+06         0.00000E+00
   -0.71769E+06        -0.20411E+08         0.00000E+00
    0.00000E+00         0.00000E+00         0.00000E+00
 
   -0.43356E+07        -0.61737E+06         0.00000E+00
   -0.61737E+06        -0.20465E+08         0.00000E+00
    0.00000E+00         0.00000E+00         0.00000E+00
 
   -0.41442E+07        -0.50945E+06         0.00000E+00
   -0.50945E+06        -0.20519E+08         0.00000E+00
    0.00000E+00         0.00000E+00         0.00000E+00
 
   -0.39526E+07        -0.39390E+06         0.00000E+00
   -0.39390E+06        -0.20573E+08         0.00000E+00
    0.00000E+00         0.00000E+00         0.00000E+00
 
   -0.37610E+07        -0.27045E+06         0.00000E+00
   -0.27045E+06        -0.20627E+08         0.00000E+00
    0.00000E+00         0.00000E+00         0.00000E+00
 
   -0.35700E+07        -0.13849E+06         0.00000E+00
   -0.13849E+06        -0.20683E+08         0.00000E+00
    0.00000E+00         0.00000E+00         0.00000E+00
 
   -0.33812E+07         0.28806E+04         0.00000E+00
    0.28806E+04        -0.20740E+08         0.00000E+00
    0.00000E+00         0.00000E+00         0.00000E+00
 
   -0.31954E+07         0.15101E+06         0.00000E+00
    0.15101E+06        -0.20793E+08         0.00000E+00
    0.00000E+00         0.00000E+00         0.00000E+00
 
   -0.30100E+07         0.30236E+06         0.00000E+00
    0.30236E+06        -0.20844E+08         0.00000E+00
    0.00000E+00         0.00000E+00         0.00000E+00
 
   -0.28203E+07         0.45706E+06         0.00000E+00
    0.45706E+06        -0.20895E+08         0.00000E+00
    0.00000E+00         0.00000E+00         0.00000E+00
 
   -0.26389E+07         0.61838E+06         0.00000E+00
    0.61838E+06        -0.20967E+08         0.00000E+00
    0.00000E+00         0.00000E+00        -0.24117E+05
 
   -0.24815E+07         0.78890E+06         0.00000E+00
    0.78890E+06        -0.21035E+08         0.00000E+00
    0.00000E+00         0.00000E+00        -0.96358E+05
 
   -0.23180E+07         0.97086E+06         0.00000E+00
    0.97086E+06        -0.21102E+08         0.00000E+00
    0.00000E+00         0.00000E+00        -0.17610E+06
 
   -0.22026E+07         0.11565E+07         0.00000E+00
    0.11565E+07        -0.21142E+08         0.00000E+00
    0.00000E+00         0.00000E+00        -0.33059E+06
 
   -0.21148E+07         0.13441E+07         0.00000E+00
    0.13441E+07        -0.21203E+08         0.00000E+00
    0.00000E+00         0.00000E+00        -0.52385E+06
 
   -0.20402E+07         0.15280E+07         0.00000E+00
    0.15280E+07        -0.21269E+08         0.00000E+00
    0.00000E+00         0.00000E+00        -0.72421E+06
 
   -0.19852E+07         0.17073E+07         0.00000E+00
    0.17073E+07        -0.21343E+08         0.00000E+00
    0.00000E+00         0.00000E+00        -0.92475E+06
 
   -0.19539E+07         0.18867E+07         0.00000E+00
    0.18867E+07        -0.21423E+08         0.00000E+00
    0.00000E+00         0.00000E+00        -0.11218E+07
 
   -0.19423E+07         0.20678E+07         0.00000E+00
    0.20678E+07        -0.21499E+08         0.00000E+00
    0.00000E+00         0.00000E+00        -0.13078E+07
 
   -0.19527E+07         0.22542E+07         0.00000E+00
    0.22542E+07        -0.21577E+08         0.00000E+00
    0.00000E+00         0.00000E+00        -0.14871E+07
 
   -0.19804E+07         0.24453E+07         0.00000E+00
    0.24453E+07        -0.21653E+08         0.00000E+00
    0.00000E+00         0.00000E+00        -0.16584E+07
 
   -0.20237E+07         0.26406E+07         0.00000E+00
    0.26406E+07        -0.21724E+08         0.00000E+00
    0.00000E+00         0.00000E+00        -0.18213E+07
 
   -0.20821E+07         0.28407E+07         0.00000E+00
    0.28407E+07        -0.21792E+08         0.00000E+00
    0.00000E+00         0.00000E+00        -0.19772E+07
 
   -0.21543E+07         0.30459E+07         0.00000E+00
    0.30459E+07        -0.21854E+08         0.00000E+00
    0.00000E+00         0.00000E+00        -0.21253E+07
 
   -0.22431E+07         0.32527E+07         0.00000E+00
    0.32527E+07        -0.21912E+08         0.00000E+00
    0.00000E+00         0.00000E+00        -0.22642E+07
 
   -0.23480E+07         0.34607E+07         0.00000E+00
    0.34607E+07        -0.21968E+08         0.00000E+00
    0.00000E+00         0.00000E+00        -0.23945E+07
 
   -0.24691E+07         0.36681E+07         0.00000E+00
    0.36681E+07        -0.22022E+08         0.00000E+00
    0.00000E+00         0.00000E+00        -0.25150E+07
 
   -0.26060E+07         0.38711E+07         0.00000E+00
    0.38711E+07        -0.22074E+08         0.00000E+00
    0.00000E+00         0.00000E+00        -0.26253E+07
 
   -0.10555E+08        -0.14160E+06         0.00000E+00
   -0.14160E+06        -0.21147E+08         0.00000E+00
    0.00000E+00         0.00000E+00         0.00000E+00
 
   -0.10412E+08        -0.35761E+06         0.00000E+00
   -0.35761E+06        -0.21154E+08         0.00000E+00
    0.00000E+00         0.00000E+00         0.00000E+00
 
   -0.10253E+08        -0.55184E+06         0.00000E+00
   -0.55184E+06        -0.21169E+08         0.00000E+00
    0.00000E+00         0.00000E+00         0.00000E+00
 
   -0.10079E+08        -0.72442E+06         0.00000E+00
   -0.72442E+06        -0.21189E+08         0.00000E+00
    0.00000E+00         0.00000E+00         0.00000E+00
 
   -0.98929E+07        -0.87598E+06         0.00000E+00
   -0.87598E+06        -0.21214E+08         0.00000E+00
    0.00000E+00         0.00000E+00         0.00000E+00
 
   -0.96958E+07        -0.10073E+07         0.00000E+00
   -0.10073E+07        -0.21242E+08         0.00000E+00
    0.00000E+00         0.00000E+00         0.00000E+00
 
   -0.94891E+07        -0.11191E+07         0.00000E+00
   -0.11191E+07        -0.21273E+08         0.00000E+00
    0.00000E+00         0.00000E+00         0.00000E+00
 
   -0.92742E+07        -0.12122E+07         0.00000E+00
   -0.12122E+07        -0.21307E+08         0.00000E+00
    0.00000E+00         0.00000E+00         0.00000E+00
 
   -0.90525E+07        -0.12874E+07         0.00000E+00
   -0.12874E+07        -0.21343E+08         0.00000E+00
    0.00000E+00         0.00000E+00         0.00000E+00
 
   -0.88253E+07        -0.13453E+07         0.00000E+00
   -0.13453E+07        -0.21379E+08         0.00000E+00
    0.00000E+00         0.00000E+00         0.00000E+00
 
   -0.85939E+07        -0.13867E+07         0.00000E+00
   -0.13867E+07        -0.21416E+08         0.00000E+00
    0.00000E+00         0.00000E+00         0.00000E+00
 
   -0.83593E+07        -0.14126E+07         0.00000E+00
   -0.14126E+07        -0.21453E+08         0.00000E+00
    0.00000E+00         0.00000E+00         0.00000E+00
 
   -0.81225E+07        -0.14239E+07         0.00000E+00
   -0.14239E+07        -0.21489E+08         0.00000E+00
    0.00000E+00         0.00000E+00         0.00000E+00
 
   -0.78845E+07        -0.14215E+07         0.00000E+00
   -0.14215E+07        -0.21524E+08         0.00000E+00
    0.00000E+00         0.00000E+00         0.00000E+00
 
   -0.76458E+07        -0.14063E+07         0.00000E+00
   -0.14063E+07        -0.21559E+08         0.00000E+00
    0.00000E+00         0.00000E+00         0.00000E+00
 
   -0.74071E+07        -0.13791E+07         0.00000E+00
   -0.13791E+07        -0.21593E+08         0.00000E+00
    0.00000E+00         0.00000E+00         0.00000E+00
 
   -0.71687E+07        -0.13408E+07         0.00000E+00
   -0.13408E+07        -0.21625E+08         0.00000E+00
    0.00000E+00         0.00000E+00         0.00000E+00
 
   -0.69311E+07        -0.12921E+07         0.00000E+00
   -0.12921E+07        -0.21657E+08         0.00000E+00
    0.00000E+00         0.00000E+00         0.00000E+00
 
   -0.66945E+07        -0.12337E+07         0.00000E+00
   -0.12337E+07        -0.21687E+08         0.00000E+00
    0.00000E+00         0.00000E+00         0.00000E+00
 
   -0.64589E+07        -0.11662E+07         0.00000E+00
   -0.11662E+07        -0.21717E+08         0.00000E+00
    0.00000E+00         0.00000E+00         0.00000E+00
 
   -0.62244E+07        -0.10902E+07         0.00000E+00
   -0.10902E+07        -0.21746E+08         0.00000E+00
    0.00000E+00         0.00000E+00         0.00000E+00
 
   -0.59909E+07        -0.10060E+07         0.00000E+00
   -0.10060E+07        -0.21774E+08         0.00000E+00
    0.00000E+00         0.00000E+00         0.00000E+00
 
   -0.57587E+07        -0.91375E+06         0.00000E+00
   -0.91375E+06        -0.21803E+08         0.00000E+00
    0.00000E+00         0.00000E+00         0.00000E+00
 
   -0.55281E+07        -0.81345E+06         0.00000E+00
   -0.81345E+06        -0.21831E+08         0.00000E+00
    0.00000E+00         0.00000E+00         0.00000E+00
 
   -0.52993E+07        -0.70575E+06         0.00000E+00
   -0.70575E+06        -0.21861E+08         0.00000E+00
    0.00000E+00         0.00000E+00         0.00000E+00
 
   -0.50720E+07        -0.59203E+06         0.00000E+00
   -0.59203E+06        -0.21889E+08         0.00000E+00
    0.00000E+00         0.00000E+00         0.00000E+00
 
   -0.48444E+07        -0.47337E+06         0.00000E+00
   -0.47337E+06        -0.21915E+08         0.00000E+00
    0.00000E+00         0.00000E+00         0.00000E+00
 
   -0.46141E+07        -0.35034E+06         0.00000E+00
   -0.35034E+06        -0.21942E+08         0.00000E+00
    0.00000E+00         0.00000E+00         0.00000E+00
 
   -0.43798E+07        -0.22273E+06         0.00000E+00
   -0.22273E+06        -0.21966E+08         0.00000E+00
    0.00000E+00         0.00000E+00        -0.37436E+04
 
   -0.41626E+07        -0.87420E+05         0.00000E+00
   -0.87420E+05        -0.21998E+08         0.00000E+00
    0.00000E+00         0.00000E+00        -0.50779E+05
 
   -0.39439E+07         0.57705E+05         0.00000E+00
    0.57705E+05        -0.22036E+08         0.00000E+00
    0.00000E+00         0.00000E+00        -0.11108E+06
 
   -0.37185E+07         0.21292E+06         0.00000E+00
    0.21292E+06        -0.22074E+08         0.00000E+00
    0.00000E+00         0.00000E+00        -0.17801E+06
 
   -0.35306E+07         0.37324E+06         0.00000E+00
    0.37324E+06        -0.22101E+08         0.00000E+00
    0.00000E+00         0.00000E+00        -0.31810E+06
 
   -0.33640E+07         0.53383E+06         0.00000E+00
    0.53383E+06        -0.22142E+08         0.00000E+00
    0.00000E+00         0.00000E+00        -0.49587E+06
 
   -0.32093E+07         0.69004E+06         0.00000E+00
    0.69004E+06        -0.22190E+08         0.00000E+00
    0.00000E+00         0.00000E+00        -0.68175E+06
 
   -0.30752E+07         0.84349E+06         0.00000E+00
    0.84349E+06        -0.22247E+08         0.00000E+00
    0.00000E+00         0.00000E+00        -0.87346E+06
 
   -0.29604E+07         0.10002E+07         0.00000E+00
    0.10002E+07        -0.22306E+08         0.00000E+00
    0.00000E+00         0.00000E+00        -0.10625E+07
 
   -0.28669E+07         0.11633E+07         0.00000E+00
    0.11633E+07        -0.22370E+08         0.00000E+00
    0.00000E+00         0.00000E+00        -0.12511E+07
 
   -0.27924E+07         0.13333E+07         0.00000E+00
    0.13333E+07        -0.22436E+08         0.00000E+00
    0.00000E+00         0.00000E+00        -0.14383E+07
 
   -0.27355E+07         0.15101E+07         0.00000E+00
    0.15101E+07        -0.22503E+08         0.00000E+00
    0.00000E+00         0.00000E+00        -0.16229E+07
 
   -0.26970E+07         0.16944E+07         0.00000E+00
    0.16944E+07        -0.22572E+08         0.00000E+00
    0.00000E+00         0.00000E+00        -0.18056E+07
 
   -0.26760E+07         0.18861E+07         0.00000E+00
    0.18861E+07        -0.22640E+08         0.00000E+00
    0.00000E+00         0.00000E+00        -0.19852E+07
 
   -0.26731E+07         0.20858E+07         0.00000E+00
    0.20858E+07        -0.22709E+08         0.00000E+00
    0.00000E+00         0.00000E+00        -0.21623E+07
 
   -0.26902E+07         0.22931E+07         0.00000E+00
    0.22931E+07        -0.22779E+08         0.00000E+00
    0.00000E+00         0.00000E+00        -0.23349E+07
 
   -0.27281E+07         0.25053E+07         0.00000E+00
    0.25053E+07        -0.22848E+08         0.00000E+00
    0.00000E+00         0.00000E+00        -0.25012E+07
 
   -0.27875E+07         0.27202E+07         0.00000E+00
    0.27202E+07        -0.22918E+08         0.00000E+00
    0.00000E+00         0.00000E+00        -0.26598E+07
 
   -0.28671E+07         0.29392E+07         0.00000E+00
    0.29392E+07        -0.22988E+08         0.00000E+00
    0.00000E+00         0.00000E+00        -0.28109E+07
 
   -0.29660E+07         0.31616E+07         0.00000E+00
    0.31616E+07        -0.23055E+08         0.00000E+00
    0.00000E+00         0.00000E+00        -0.29540E+07
 
   -0.30811E+07         0.33861E+07         0.00000E+00
    0.33861E+07        -0.23119E+08         0.00000E+00
    0.00000E+00         0.00000E+00        -0.30900E+07
 
   -0.32109E+07         0.36197E+07         0.00000E+00
    0.36197E+07        -0.23174E+08         0.00000E+00
    0.00000E+00         0.00000E+00        -0.32179E+07
 
   -0.13615E+08        -0.15702E+06         0.00000E+00
   -0.15702E+06        -0.22984E+08         0.00000E+00
    0.00000E+00         0.00000E+00         0.00000E+00
 
   -0.13349E+08        -0.40201E+06         0.00000E+00
   -0.40201E+06        -0.22991E+08         0.00000E+00
    0.00000E+00         0.00000E+00         0.00000E+00
 
   -0.13070E+08        -0.61938E+06         0.00000E+00
   -0.61938E+06        -0.23002E+08         0.00000E+00
    0.00000E+00         0.00000E+00         0.00000E+00
 
   -0.12780E+08        -0.81158E+06         0.00000E+00
   -0.81158E+06        -0.23016E+08         0.00000E+00
    0.00000E+00         0.00000E+00         0.00000E+00
 
   -0.12480E+08        -0.97935E+06         0.00000E+00
   -0.97935E+06        -0.23034E+08         0.00000E+00
    0.00000E+00         0.00000E+00         0.00000E+00
 
   -0.12173E+08        -0.11229E+07         0.00000E+00
   -0.11229E+07        -0.23054E+08         0.00000E+00
    0.00000E+00         0.00000E+00         0.00000E+00
 
   -0.11859E+08        -0.12424E+07         0.00000E+00
   -0.12424E+07        -0.23075E+08         0.00000E+00
    0.00000E+00         0.00000E+00         0.00000E+00
 
   -0.11541E+08        -0.13386E+07         0.00000E+00
   -0.13386E+07        -0.23097E+08         0.00000E+00
    0.00000E+00         0.00000E+00         0.00000E+00
 
   -0.11222E+08        -0.14129E+07         0.00000E+00
   -0.14129E+07        -0.23117E+08         0.00000E+00
    0.00000E+00         0.00000E+00         0.00000E+00
 
   -0.10904E+08        -0.14670E+07         0.00000E+00
   -0.14670E+07        -0.23134E+08         0.00000E+00
    0.00000E+00         0.00000E+00         0.00000E+00
 
   -0.10586E+08        -0.15028E+07         0.00000E+00
   -0.15028E+07        -0.23150E+08         0.00000E+00
    0.00000E+00         0.00000E+00         0.00000E+00
 
   -0.10272E+08        -0.15215E+07         0.00000E+00
   -0.15215E+07        -0.23162E+08         0.00000E+00
    0.00000E+00         0.00000E+00         0.00000E+00
 
   -0.99611E+07        -0.15247E+07         0.00000E+00
   -0.15247E+07        -0.23172E+08         0.00000E+00
    0.00000E+00         0.00000E+00         0.00000E+00
 
   -0.96544E+07        -0.15138E+07         0.00000E+00
   -0.15138E+07        -0.23179E+08         0.00000E+00
    0.00000E+00         0.00000E+00         0.00000E+00
 
   -0.93524E+07        -0.14899E+07         0.00000E+00
   -0.14899E+07        -0.23184E+08         0.00000E+00
    0.00000E+00         0.00000E+00         0.00000E+00
 
   -0.90553E+07        -0.14544E+07         0.00000E+00
   -0.14544E+07        -0.23186E+08         0.00000E+00
    0.00000E+00         0.00000E+00         0.00000E+00
 
   -0.87633E+07        -0.14084E+07         0.00000E+00
   -0.14084E+07        -0.23186E+08         0.00000E+00
    0.00000E+00         0.00000E+00         0.00000E+00
 
   -0.84764E+07        -0.13528E+07         0.00000E+00
   -0.13528E+07        -0.23184E+08         0.00000E+00
    0.00000E+00         0.00000E+00         0.00000E+00
 
   -0.81943E+07        -0.12887E+07         0.00000E+00
   -0.12887E+07        -0.23180E+08         0.00000E+00
    0.00000E+00         0.00000E+00         0.00000E+00
 
   -0.79168E+07        -0.12169E+07         0.00000E+00
   -0.12169E+07        -0.23175E+08         0.00000E+00
    0.00000E+00         0.00000E+00         0.00000E+00
 
   -0.76432E+07        -0.11383E+07         0.00000E+00
   -0.11383E+07        -0.23168E+08         0.00000E+00
    0.00000E+00         0.00000E+00         0.00000E+00
 
   -0.73729E+07        -0.10537E+07         0.00000E+00
   -0.10537E+07        -0.23161E+08         0.00000E+00
    0.00000E+00         0.00000E+00         0.00000E+00
 
   -0.71047E+07        -0.96370E+06         0.00000E+00
   -0.96370E+06        -0.23153E+08         0.00000E+00
    0.00000E+00         0.00000E+00         0.00000E+00
 
   -0.68381E+07        -0.86888E+06         0.00000E+00
   -0.86888E+06        -0.23143E+08         0.00000E+00
    0.00000E+00         0.00000E+00        -0.31667E+04
 
   -0.65779E+07        -0.76850E+06         0.00000E+00
   -0.76850E+06        -0.23128E+08         0.00000E+00
    0.00000E+00         0.00000E+00        -0.23681E+05
 
   -0.63205E+07        -0.66202E+06         0.00000E+00
   -0.66202E+06        -0.23117E+08         0.00000E+00
    0.00000E+00         0.00000E+00        -0.54824E+05
 
   -0.60633E+07        -0.54894E+06         0.00000E+00
   -0.54894E+06        -0.23114E+08         0.00000E+00
    0.00000E+00         0.00000E+00        -0.92227E+05
 
   -0.58037E+07        -0.42886E+06         0.00000E+00
   -0.42886E+06        -0.23112E+08         0.00000E+00
    0.00000E+00         0.00000E+00        -0.13350E+06
 
   -0.55401E+07        -0.30245E+06         0.00000E+00
   -0.30245E+06        -0.23114E+08         0.00000E+00
    0.00000E+00         0.00000E+00        -0.17998E+06
 
   -0.53018E+07        -0.17339E+06         0.00000E+00
   -0.17339E+06        -0.23120E+08         0.00000E+00
    0.00000E+00         0.00000E+00        -0.28803E+06
 
   -0.50754E+07        -0.46034E+05         0.00000E+00
   -0.46034E+05        -0.23129E+08         0.00000E+00
    0.00000E+00         0.00000E+00        -0.42391E+06
 
   -0.48585E+07         0.76271E+05         0.00000E+00
    0.76271E+05        -0.23145E+08         0.00000E+00
    0.00000E+00         0.00000E+00        -0.57006E+06
 
   -0.46571E+07         0.19508E+06         0.00000E+00
    0.19508E+06        -0.23169E+08         0.00000E+00
    0.00000E+00         0.00000E+00        -0.72373E+06
 
   -0.44711E+07         0.31623E+06         0.00000E+00
    0.31623E+06        -0.23197E+08         0.00000E+00
    0.00000E+00         0.00000E+00        -0.88109E+06
 
   -0.43013E+07         0.44210E+06         0.00000E+00
    0.44210E+06        -0.23233E+08         0.00000E+00
    0.00000E+00         0.00000E+00        -0.10438E+07
 
   -0.41453E+07         0.57355E+06         0.00000E+00
    0.57355E+06        -0.23272E+08         0.00000E+00
    0.00000E+00         0.00000E+00        -0.12102E+07
 
   -0.40025E+07         0.71090E+06         0.00000E+00
    0.71090E+06        -0.23317E+08         0.00000E+00
    0.00000E+00         0.00000E+00        -0.13821E+07
 
   -0.38734E+07         0.85484E+06         0.00000E+00
    0.85484E+06        -0.23366E+08         0.00000E+00
    0.00000E+00         0.00000E+00        -0.15584E+07
 
   -0.37594E+07         0.10070E+07         0.00000E+00
    0.10070E+07        -0.23420E+08         0.00000E+00
    0.00000E+00         0.00000E+00        -0.17390E+07
 
   -0.36611E+07         0.11683E+07         0.00000E+00
    0.11683E+07        -0.23479E+08         0.00000E+00
    0.00000E+00         0.00000E+00        -0.19244E+07
 
   -0.35792E+07         0.13392E+07         0.00000E+00
    0.13392E+07        -0.23543E+08         0.00000E+00
    0.00000E+00         0.00000E+00        -0.21140E+07
 
   -0.35147E+07         0.15202E+07         0.00000E+00
    0.15202E+07        -0.23613E+08         0.00000E+00
    0.00000E+00         0.00000E+00        -0.23076E+07
 
   -0.34703E+07         0.17103E+07         0.00000E+00
    0.17103E+07        -0.23686E+08         0.00000E+00
    0.00000E+00         0.00000E+00        -0.25025E+07
 
   -0.34494E+07         0.19104E+07         0.00000E+00
    0.19104E+07        -0.23765E+08         0.00000E+00
    0.00000E+00         0.00000E+00        -0.26966E+07
 
   -0.34508E+07         0.21209E+07         0.00000E+00
    0.21209E+07        -0.23847E+08         0.00000E+00
    0.00000E+00         0.00000E+00        -0.28901E+07
 
   -0.34749E+07         0.23429E+07         0.00000E+00
    0.23429E+07        -0.23931E+08         0.00000E+00
    0.00000E+00         0.00000E+00        -0.30808E+07
 
   -0.35210E+07         0.25752E+07         0.00000E+00
    0.25752E+07        -0.24013E+08         0.00000E+00
    0.00000E+00         0.00000E+00        -0.32671E+07
 
   -0.35879E+07         0.28172E+07         0.00000E+00
    0.28172E+07        -0.24092E+08         0.00000E+00
    0.00000E+00         0.00000E+00        -0.34476E+07
 
   -0.36784E+07         0.30657E+07         0.00000E+00
    0.30657E+07        -0.24168E+08         0.00000E+00
    0.00000E+00         0.00000E+00        -0.36184E+07
 
   -0.37957E+07         0.33157E+07         0.00000E+00
    0.33157E+07        -0.24246E+08         0.00000E+00
    0.00000E+00         0.00000E+00        -0.37808E+07
 
   -0.16901E+08        -0.17460E+06         0.00000E+00
   -0.17460E+06        -0.24955E+08         0.00000E+00
    0.00000E+00         0.00000E+00         0.00000E+00
 
   -0.16495E+08        -0.43792E+06         0.00000E+00
   -0.43792E+06        -0.24953E+08         0.00000E+00
    0.00000E+00         0.00000E+00         0.00000E+00
 
   -0.16073E+08        -0.67580E+06         0.00000E+00
   -0.67580E+06        -0.24963E+08         0.00000E+00
    0.00000E+00         0.00000E+00         0.00000E+00
 
   -0.15637E+08        -0.87967E+06         0.00000E+00
   -0.87967E+06        -0.24978E+08         0.00000E+00
    0.00000E+00         0.00000E+00         0.00000E+00
 
   -0.15193E+08        -0.10477E+07         0.00000E+00
   -0.10477E+07        -0.24992E+08         0.00000E+00
    0.00000E+00         0.00000E+00         0.00000E+00
 
   -0.14746E+08        -0.11820E+07         0.00000E+00
   -0.11820E+07        -0.24998E+08         0.00000E+00
    0.00000E+00         0.00000E+00         0.00000E+00
 
   -0.14302E+08        -0.12861E+07         0.00000E+00
   -0.12861E+07        -0.24994E+08         0.00000E+00
    0.00000E+00         0.00000E+00         0.00000E+00
 
   -0.13865E+08        -0.13641E+07         0.00000E+00
   -0.13641E+07        -0.24984E+08         0.00000E+00
    0.00000E+00         0.00000E+00         0.00000E+00
 
   -0.13436E+08        -0.14190E+07         0.00000E+00
   -0.14190E+07        -0.24966E+08         0.00000E+00
    0.00000E+00         0.00000E+00        -0.60784E+03
 
   -0.13018E+08        -0.14523E+07         0.00000E+00
   -0.14523E+07        -0.24941E+08         0.00000E+00
    0.00000E+00         0.00000E+00        -0.13210E+05
 
   -0.12611E+08        -0.14668E+07         0.00000E+00
   -0.14668E+07        -0.24910E+08         0.00000E+00
    0.00000E+00         0.00000E+00        -0.23952E+05
 
   -0.12216E+08        -0.14654E+07         0.00000E+00
   -0.14654E+07        -0.24874E+08         0.00000E+00
    0.00000E+00         0.00000E+00        -0.33212E+05
 
   -0.11833E+08        -0.14500E+07         0.00000E+00
   -0.14500E+07        -0.24833E+08         0.00000E+00
    0.00000E+00         0.00000E+00        -0.41251E+05
 
   -0.11461E+08        -0.14224E+07         0.00000E+00
   -0.14224E+07        -0.24788E+08         0.00000E+00
    0.00000E+00         0.00000E+00        -0.48279E+05
 
   -0.11102E+08        -0.13842E+07         0.00000E+00
   -0.13842E+07        -0.24740E+08         0.00000E+00
    0.00000E+00         0.00000E+00        -0.54661E+05
 
   -0.10753E+08        -0.13369E+07         0.00000E+00
   -0.13369E+07        -0.24690E+08         0.00000E+00
    0.00000E+00         0.00000E+00        -0.60697E+05
 
   -0.10415E+08        -0.12817E+07         0.00000E+00
   -0.12817E+07        -0.24638E+08         0.00000E+00
    0.00000E+00         0.00000E+00        -0.66771E+05
 
   -0.10088E+08        -0.12197E+07         0.00000E+00
   -0.12197E+07        -0.24586E+08         0.00000E+00
    0.00000E+00         0.00000E+00        -0.73276E+05
 
   -0.97688E+07        -0.11516E+07         0.00000E+00
   -0.11516E+07        -0.24533E+08         0.00000E+00
    0.00000E+00         0.00000E+00        -0.80593E+05
 
   -0.94582E+07        -0.10782E+07         0.00000E+00
   -0.10782E+07        -0.24480E+08         0.00000E+00
    0.00000E+00         0.00000E+00        -0.89117E+05
 
   -0.91547E+07        -0.99970E+06         0.00000E+00
   -0.99970E+06        -0.24429E+08         0.00000E+00
    0.00000E+00         0.00000E+00        -0.99246E+05
 
   -0.88571E+07        -0.91659E+06         0.00000E+00
   -0.91659E+06        -0.24379E+08         0.00000E+00
    0.00000E+00         0.00000E+00        -0.11144E+06
 
   -0.85644E+07        -0.82905E+06         0.00000E+00
   -0.82905E+06        -0.24331E+08         0.00000E+00
    0.00000E+00         0.00000E+00        -0.12626E+06
 
   -0.82753E+07        -0.73751E+06         0.00000E+00
   -0.73751E+06        -0.24288E+08         0.00000E+00
    0.00000E+00         0.00000E+00        -0.14428E+06
 
   -0.79882E+07        -0.64304E+06         0.00000E+00
   -0.64304E+06        -0.24254E+08         0.00000E+00
    0.00000E+00         0.00000E+00        -0.16602E+06
 
   -0.77108E+07        -0.54651E+06         0.00000E+00
   -0.54651E+06        -0.24222E+08         0.00000E+00
    0.00000E+00         0.00000E+00        -0.21559E+06
 
   -0.74428E+07        -0.45026E+06         0.00000E+00
   -0.45026E+06        -0.24191E+08         0.00000E+00
    0.00000E+00         0.00000E+00        -0.29069E+06
 
   -0.71801E+07        -0.35643E+06         0.00000E+00
   -0.35643E+06        -0.24165E+08         0.00000E+00
    0.00000E+00         0.00000E+00        -0.37551E+06
 
   -0.69262E+07        -0.26697E+06         0.00000E+00
   -0.26697E+06        -0.24147E+08         0.00000E+00
    0.00000E+00         0.00000E+00        -0.46967E+06
 
   -0.66835E+07        -0.18053E+06         0.00000E+00
   -0.18053E+06        -0.24135E+08         0.00000E+00
    0.00000E+00         0.00000E+00        -0.57041E+06
 
   -0.64535E+07        -0.93348E+05         0.00000E+00
   -0.93348E+05        -0.24130E+08         0.00000E+00
    0.00000E+00         0.00000E+00        -0.67863E+06
 
   -0.62344E+07        -0.46009E+04         0.00000E+00
   -0.46009E+04        -0.24132E+08         0.00000E+00
    0.00000E+00         0.00000E+00        -0.79434E+06
 
   -0.60246E+07         0.86135E+05         0.00000E+00
    0.86135E+05        -0.24139E+08         0.00000E+00
    0.00000E+00         0.00000E+00        -0.91674E+06
 
   -0.58240E+07         0.17892E+06         0.00000E+00
    0.17892E+06        -0.24152E+08         0.00000E+00
    0.00000E+00         0.00000E+00        -0.10463E+07
 
   -0.56323E+07         0.27469E+06         0.00000E+00
    0.27469E+06        -0.24171E+08         0.00000E+00
    0.00000E+00         0.00000E+00        -0.11829E+07
 
   -0.54491E+07         0.37475E+06         0.00000E+00
    0.37475E+06        -0.24196E+08         0.00000E+00
    0.00000E+00         0.00000E+00        -0.13283E+07
 
   -0.52738E+07         0.48018E+06         0.00000E+00
    0.48018E+06        -0.24228E+08         0.00000E+00
    0.00000E+00         0.00000E+00        -0.14832E+07
 
   -0.51078E+07         0.59203E+06         0.00000E+00
    0.59203E+06        -0.24268E+08         0.00000E+00
    0.00000E+00         0.00000E+00        -0.16480E+07
 
   -0.49514E+07         0.71130E+06         0.00000E+00
    0.71130E+06        -0.24315E+08         0.00000E+00
    0.00000E+00         0.00000E+00        -0.18231E+07
 
   -0.48056E+07         0.83928E+06         0.00000E+00
    0.83928E+06        -0.24370E+08         0.00000E+00
    0.00000E+00         0.00000E+00        -0.20089E+07
 
   -0.46717E+07         0.97736E+06         0.00000E+00
    0.97736E+06        -0.24434E+08         0.00000E+00
    0.00000E+00         0.00000E+00        -0.22059E+07
 
   -0.45518E+07         0.11269E+07         0.00000E+00
    0.11269E+07        -0.24506E+08         0.00000E+00
    0.00000E+00         0.00000E+00        -0.24138E+07
 
   -0.44475E+07         0.12899E+07         0.00000E+00
    0.12899E+07        -0.24587E+08         0.00000E+00
    0.00000E+00         0.00000E+00        -0.26325E+07
 
   -0.43590E+07         0.14668E+07         0.00000E+00
    0.14668E+07        -0.24676E+08         0.00000E+00
    0.00000E+00         0.00000E+00        -0.28618E+07
 
   -0.42891E+07         0.16619E+07         0.00000E+00
    0.16619E+07        -0.24771E+08         0.00000E+00
    0.00000E+00         0.00000E+00        -0.31009E+07
 
   -0.42426E+07         0.18752E+07         0.00000E+00
    0.18752E+07        -0.24874E+08         0.00000E+00
    0.00000E+00         0.00000E+00        -0.33480E+07
 
   -0.42254E+07         0.21073E+07         0.00000E+00
    0.21073E+07        -0.24984E+08         0.00000E+00
    0.00000E+00         0.00000E+00        -0.35986E+07
 
   -0.42422E+07         0.23525E+07         0.00000E+00
    0.23525E+07        -0.25100E+08         0.00000E+00
    0.00000E+00         0.00000E+00        -0.38459E+07
 
   -0.42966E+07         0.26158E+07         0.00000E+00
    0.26158E+07        -0.25217E+08         0.00000E+00
    0.00000E+00         0.00000E+00        -0.40840E+07
 
   -0.43721E+07         0.28844E+07         0.00000E+00
    0.28844E+07        -0.25322E+08         0.00000E+00
    0.00000E+00         0.00000E+00        -0.43062E+07
 
   -0.20382E+08        -0.19693E+06         0.00000E+00
   -0.19693E+06        -0.26916E+08         0.00000E+00
    0.00000E+00         0.00000E+00        -0.71576E+06
 
   -0.19779E+08        -0.49629E+06         0.00000E+00
   -0.49629E+06        -0.26945E+08         0.00000E+00
    0.00000E+00         0.00000E+00        -0.68006E+06
 
   -0.19132E+08        -0.71724E+06         0.00000E+00
   -0.71724E+06        -0.26939E+08         0.00000E+00
    0.00000E+00         0.00000E+00        -0.63753E+06
 
   -0.18485E+08        -0.87998E+06         0.00000E+00
   -0.87998E+06        -0.26904E+08         0.00000E+00
    0.00000E+00         0.00000E+00        -0.59264E+06
 
   -0.17853E+08        -0.99806E+06         0.00000E+00
   -0.99806E+06        -0.26849E+08         0.00000E+00
    0.00000E+00         0.00000E+00        -0.54800E+06
 
   -0.17239E+08        -0.10781E+07         0.00000E+00
   -0.10781E+07        -0.26793E+08         0.00000E+00
    0.00000E+00         0.00000E+00        -0.51343E+06
 
   -0.16653E+08        -0.11273E+07         0.00000E+00
   -0.11273E+07        -0.26737E+08         0.00000E+00
    0.00000E+00         0.00000E+00        -0.48806E+06
 
   -0.16096E+08        -0.11533E+07         0.00000E+00
   -0.11533E+07        -0.26668E+08         0.00000E+00
    0.00000E+00         0.00000E+00        -0.46177E+06
 
   -0.15568E+08        -0.11618E+07         0.00000E+00
   -0.11618E+07        -0.26588E+08         0.00000E+00
    0.00000E+00         0.00000E+00        -0.43596E+06
 
   -0.15064E+08        -0.11587E+07         0.00000E+00
   -0.11587E+07        -0.26498E+08         0.00000E+00
    0.00000E+00         0.00000E+00        -0.40866E+06
 
   -0.14583E+08        -0.11443E+07         0.00000E+00
   -0.11443E+07        -0.26402E+08         0.00000E+00
    0.00000E+00         0.00000E+00        -0.38298E+06
 
   -0.14124E+08        -0.11187E+07         0.00000E+00
   -0.11187E+07        -0.26304E+08         0.00000E+00
    0.00000E+00         0.00000E+00        -0.35844E+06
 
   -0.13687E+08        -0.10843E+07         0.00000E+00
   -0.10843E+07        -0.26202E+08         0.00000E+00
    0.00000E+00         0.00000E+00        -0.33487E+06
 
   -0.13270E+08        -0.10431E+07         0.00000E+00
   -0.10431E+07        -0.26100E+08         0.00000E+00
    0.00000E+00         0.00000E+00        -0.31289E+06
 
   -0.12872E+08        -0.99693E+06         0.00000E+00
   -0.99693E+06        -0.25997E+08         0.00000E+00
    0.00000E+00         0.00000E+00        -0.29297E+06
 
   -0.12492E+08        -0.94680E+06         0.00000E+00
   -0.94680E+06        -0.25895E+08         0.00000E+00
    0.00000E+00         0.00000E+00        -0.27590E+06
 
   -0.12126E+08        -0.89342E+06         0.00000E+00
   -0.89342E+06        -0.25796E+08         0.00000E+00
    0.00000E+00         0.00000E+00        -0.26231E+06
 
   -0.11775E+08        -0.83732E+06         0.00000E+00
   -0.83732E+06        -0.25699E+08         0.00000E+00
    0.00000E+00         0.00000E+00        -0.25275E+06
 
   -0.11435E+08        -0.77898E+06         0.00000E+00
   -0.77898E+06        -0.25607E+08         0.00000E+00
    0.00000E+00         0.00000E+00        -0.24783E+06
 
   -0.11107E+08        -0.71886E+06         0.00000E+00
   -0.71886E+06        -0.25519E+08         0.00000E+00
    0.00000E+00         0.00000E+00        -0.24818E+06
 
   -0.10788E+08        -0.65740E+06         0.00000E+00
   -0.65740E+06        -0.25436E+08         0.00000E+00
    0.00000E+00         0.00000E+00        -0.25451E+06
 
   -0.10478E+08        -0.59516E+06         0.00000E+00
   -0.59516E+06        -0.25358E+08         0.00000E+00
    0.00000E+00         0.00000E+00        -0.26750E+06
 
   -0.10176E+08        -0.53284E+06         0.00000E+00
   -0.53284E+06        -0.25287E+08         0.00000E+00
    0.00000E+00         0.00000E+00        -0.28783E+06
 
   -0.98824E+07        -0.47131E+06         0.00000E+00
   -0.47131E+06        -0.25223E+08         0.00000E+00
    0.00000E+00         0.00000E+00        -0.31585E+06
 
   -0.95971E+07        -0.41122E+06         0.00000E+00
   -0.41122E+06        -0.25165E+08         0.00000E+00
    0.00000E+00         0.00000E+00        -0.35095E+06
 
   -0.93214E+07        -0.35283E+06         0.00000E+00
   -0.35283E+06        -0.25115E+08         0.00000E+00
    0.00000E+00         0.00000E+00        -0.39407E+06
 
   -0.90557E+07        -0.29524E+06         0.00000E+00
   -0.29524E+06        -0.25073E+08         0.00000E+00
    0.00000E+00         0.00000E+00        -0.44540E+06
 
   -0.87995E+07        -0.23846E+06         0.00000E+00
   -0.23846E+06        -0.25039E+08         0.00000E+00
    0.00000E+00         0.00000E+00        -0.50459E+06
 
   -0.85522E+07        -0.18226E+06         0.00000E+00
   -0.18226E+06        -0.25011E+08         0.00000E+00
    0.00000E+00         0.00000E+00        -0.57108E+06
 
   -0.83125E+07        -0.12653E+06         0.00000E+00
   -0.12653E+06        -0.24991E+08         0.00000E+00
    0.00000E+00         0.00000E+00        -0.64489E+06
 
   -0.80804E+07        -0.71188E+05         0.00000E+00
   -0.71188E+05        -0.24976E+08         0.00000E+00
    0.00000E+00         0.00000E+00        -0.72542E+06
 
   -0.78556E+07        -0.15381E+05         0.00000E+00
   -0.15381E+05        -0.24967E+08         0.00000E+00
    0.00000E+00         0.00000E+00        -0.81308E+06
 
   -0.76378E+07         0.41483E+05         0.00000E+00
    0.41483E+05        -0.24965E+08         0.00000E+00
    0.00000E+00         0.00000E+00        -0.90877E+06
 
   -0.74258E+07         0.99998E+05         0.00000E+00
    0.99998E+05        -0.24970E+08         0.00000E+00
    0.00000E+00         0.00000E+00        -0.10132E+07
 
   -0.72193E+07         0.16052E+06         0.00000E+00
    0.16052E+06        -0.24982E+08         0.00000E+00
    0.00000E+00         0.00000E+00        -0.11269E+07
 
   -0.70169E+07         0.22344E+06         0.00000E+00
    0.22344E+06        -0.25002E+08         0.00000E+00
    0.00000E+00         0.00000E+00        -0.12510E+07
 
   -0.68179E+07         0.28951E+06         0.00000E+00
    0.28951E+06        -0.25030E+08         0.00000E+00
    0.00000E+00         0.00000E+00        -0.13867E+07
 
   -0.66223E+07         0.35977E+06         0.00000E+00
    0.35977E+06        -0.25066E+08         0.00000E+00
    0.00000E+00         0.00000E+00        -0.15349E+07
 
   -0.64302E+07         0.43516E+06         0.00000E+00
    0.43516E+06        -0.25111E+08         0.00000E+00
    0.00000E+00         0.00000E+00        -0.16969E+07
 
   -0.62415E+07         0.51689E+06         0.00000E+00
    0.51689E+06        -0.25165E+08         0.00000E+00
    0.00000E+00         0.00000E+00        -0.18742E+07
 
   -0.60567E+07         0.60644E+06         0.00000E+00
    0.60644E+06        -0.25230E+08         0.00000E+00
    0.00000E+00         0.00000E+00        -0.20686E+07
 
   -0.58764E+07         0.70568E+06         0.00000E+00
    0.70568E+06        -0.25305E+08         0.00000E+00
    0.00000E+00         0.00000E+00        -0.22816E+07
 
   -0.57021E+07         0.81768E+06         0.00000E+00
    0.81768E+06        -0.25393E+08         0.00000E+00
    0.00000E+00         0.00000E+00        -0.25151E+07
 
   -0.55337E+07         0.94459E+06         0.00000E+00
    0.94459E+06        -0.25495E+08         0.00000E+00
    0.00000E+00         0.00000E+00        -0.27726E+07
 
   -0.53688E+07         0.10872E+07         0.00000E+00
    0.10872E+07        -0.25611E+08         0.00000E+00
    0.00000E+00         0.00000E+00        -0.30594E+07
 
   -0.52158E+07         0.12494E+07         0.00000E+00
    0.12494E+07        -0.25740E+08         0.00000E+00
    0.00000E+00         0.00000E+00        -0.33716E+07
 
   -0.50821E+07         0.14379E+07         0.00000E+00
    0.14379E+07        -0.25884E+08         0.00000E+00
    0.00000E+00         0.00000E+00        -0.37084E+07
 
   -0.49809E+07         0.16623E+07         0.00000E+00
    0.16623E+07        -0.26043E+08         0.00000E+00
    0.00000E+00         0.00000E+00        -0.40649E+07
 
   -0.49244E+07         0.19166E+07         0.00000E+00
    0.19166E+07        -0.26220E+08         0.00000E+00
    0.00000E+00         0.00000E+00        -0.44346E+07
 
   -0.49502E+07         0.22200E+07         0.00000E+00
    0.22200E+07        -0.26427E+08         0.00000E+00
    0.00000E+00         0.00000E+00        -0.48064E+07
 
   -0.23600E+08        -0.25417E+06         0.00000E+00
   -0.25417E+06        -0.28973E+08         0.00000E+00
    0.00000E+00         0.00000E+00        -0.51492E+07
 
   -0.22701E+08        -0.32386E+06         0.00000E+00
   -0.32386E+06        -0.28885E+08         0.00000E+00
    0.00000E+00         0.00000E+00        -0.40788E+07
 
   -0.21829E+08        -0.38006E+06         0.00000E+00
   -0.38006E+06        -0.28774E+08         0.00000E+00
    0.00000E+00         0.00000E+00        -0.32197E+07
 
   -0.21007E+08        -0.42199E+06         0.00000E+00
   -0.42199E+06        -0.28644E+08         0.00000E+00
    0.00000E+00         0.00000E+00        -0.25066E+07
 
   -0.20239E+08        -0.45262E+06         0.00000E+00
   -0.45262E+06        -0.28497E+08         0.00000E+00
    0.00000E+00         0.00000E+00        -0.19000E+07
 
   -0.19519E+08        -0.47932E+06         0.00000E+00
   -0.47932E+06        -0.28327E+08         0.00000E+00
    0.00000E+00         0.00000E+00        -0.14429E+07
 
   -0.18837E+08        -0.49472E+06         0.00000E+00
   -0.49472E+06        -0.28139E+08         0.00000E+00
    0.00000E+00         0.00000E+00        -0.12614E+07
 
   -0.18206E+08        -0.49910E+06         0.00000E+00
   -0.49910E+06        -0.27951E+08         0.00000E+00
    0.00000E+00         0.00000E+00        -0.11410E+07
 
   -0.17624E+08        -0.49624E+06         0.00000E+00
   -0.49624E+06        -0.27765E+08         0.00000E+00
    0.00000E+00         0.00000E+00        -0.10292E+07
 
   -0.17069E+08        -0.48582E+06         0.00000E+00
   -0.48582E+06        -0.27586E+08         0.00000E+00
    0.00000E+00         0.00000E+00        -0.92818E+06
 
   -0.16540E+08        -0.46725E+06         0.00000E+00
   -0.46725E+06        -0.27410E+08         0.00000E+00
    0.00000E+00         0.00000E+00        -0.83462E+06
 
   -0.16043E+08        -0.44492E+06         0.00000E+00
   -0.44492E+06        -0.27239E+08         0.00000E+00
    0.00000E+00         0.00000E+00        -0.74872E+06
 
   -0.15581E+08        -0.42161E+06         0.00000E+00
   -0.42161E+06        -0.27076E+08         0.00000E+00
    0.00000E+00         0.00000E+00        -0.67052E+06
 
   -0.15147E+08        -0.39803E+06         0.00000E+00
   -0.39803E+06        -0.26919E+08         0.00000E+00
    0.00000E+00         0.00000E+00        -0.59987E+06
 
   -0.14736E+08        -0.37430E+06         0.00000E+00
   -0.37430E+06        -0.26771E+08         0.00000E+00
    0.00000E+00         0.00000E+00        -0.53695E+06
 
   -0.14345E+08        -0.35030E+06         0.00000E+00
   -0.35030E+06        -0.26632E+08         0.00000E+00
    0.00000E+00         0.00000E+00        -0.48155E+06
 
   -0.13971E+08        -0.32612E+06         0.00000E+00
   -0.32612E+06        -0.26501E+08         0.00000E+00
    0.00000E+00         0.00000E+00        -0.43377E+06
 
   -0.13614E+08        -0.30195E+06         0.00000E+00
   -0.30195E+06        -0.26379E+08         0.00000E+00
    0.00000E+00         0.00000E+00        -0.39368E+06
 
   -0.13270E+08        -0.27787E+06         0.00000E+00
   -0.27787E+06        -0.26265E+08         0.00000E+00
    0.00000E+00         0.00000E+00        -0.36143E+06
 
   -0.12938E+08        -0.25394E+06         0.00000E+00
   -0.25394E+06        -0.26162E+08         0.00000E+00
    0.00000E+00         0.00000E+00        -0.33716E+06
 
   -0.12618E+08        -0.23029E+06         0.00000E+00
   -0.23029E+06        -0.26067E+08         0.00000E+00
    0.00000E+00         0.00000E+00        -0.32090E+06
 
   -0.12308E+08        -0.20712E+06         0.00000E+00
   -0.20712E+06        -0.25981E+08         0.00000E+00
    0.00000E+00         0.00000E+00        -0.31266E+06
 
   -0.12009E+08        -0.18456E+06         0.00000E+00
   -0.18456E+06        -0.25904E+08         0.00000E+00
    0.00000E+00         0.00000E+00        -0.31238E+06
 
   -0.11720E+08        -0.16269E+06         0.00000E+00
   -0.16269E+06        -0.25836E+08         0.00000E+00
    0.00000E+00         0.00000E+00        -0.31994E+06
 
   -0.11441E+08        -0.14165E+06         0.00000E+00
   -0.14165E+06        -0.25777E+08         0.00000E+00
    0.00000E+00         0.00000E+00        -0.33526E+06
 
   -0.11170E+08        -0.12139E+06         0.00000E+00
   -0.12139E+06        -0.25726E+08         0.00000E+00
    0.00000E+00         0.00000E+00        -0.35791E+06
 
   -0.10909E+08        -0.10182E+06         0.00000E+00
   -0.10182E+06        -0.25682E+08         0.00000E+00
    0.00000E+00         0.00000E+00        -0.38762E+06
 
   -0.10656E+08        -0.82525E+05         0.00000E+00
   -0.82525E+05        -0.25646E+08         0.00000E+00
    0.00000E+00         0.00000E+00        -0.42443E+06
 
   -0.10411E+08        -0.63298E+05         0.00000E+00
   -0.63298E+05        -0.25617E+08         0.00000E+00
    0.00000E+00         0.00000E+00        -0.46848E+06
 
   -0.10173E+08        -0.44044E+05         0.00000E+00
   -0.44044E+05        -0.25596E+08         0.00000E+00
    0.00000E+00         0.00000E+00        -0.52004E+06
 
   -0.99422E+07        -0.24679E+05         0.00000E+00
   -0.24679E+05        -0.25583E+08         0.00000E+00
    0.00000E+00         0.00000E+00        -0.57945E+06
 
   -0.97169E+07        -0.52698E+04         0.00000E+00
   -0.52698E+04        -0.25578E+08         0.00000E+00
    0.00000E+00         0.00000E+00        -0.64686E+06
 
   -0.94967E+07         0.14322E+05         0.00000E+00
    0.14322E+05        -0.25580E+08         0.00000E+00
    0.00000E+00         0.00000E+00        -0.72260E+06
 
   -0.92810E+07         0.34297E+05         0.00000E+00
    0.34297E+05        -0.25590E+08         0.00000E+00
    0.00000E+00         0.00000E+00        -0.80722E+06
 
   -0.90688E+07         0.55017E+05         0.00000E+00
    0.55017E+05        -0.25608E+08         0.00000E+00
    0.00000E+00         0.00000E+00        -0.90150E+06
 
   -0.88591E+07         0.76699E+05         0.00000E+00
    0.76699E+05        -0.25635E+08         0.00000E+00
    0.00000E+00         0.00000E+00        -0.10064E+07
 
   -0.86502E+07         0.99433E+05         0.00000E+00
    0.99433E+05        -0.25670E+08         0.00000E+00
    0.00000E+00         0.00000E+00        -0.11235E+07
 
   -0.84410E+07         0.12340E+06         0.00000E+00
    0.12340E+06        -0.25715E+08         0.00000E+00
    0.00000E+00         0.00000E+00        -0.12540E+07
 
   -0.82306E+07         0.14915E+06         0.00000E+00
    0.14915E+06        -0.25770E+08         0.00000E+00
    0.00000E+00         0.00000E+00        -0.13998E+07
 
   -0.80182E+07         0.17721E+06         0.00000E+00
    0.17721E+06        -0.25836E+08         0.00000E+00
    0.00000E+00         0.00000E+00        -0.15627E+07
 
   -0.78028E+07         0.20816E+06         0.00000E+00
    0.20816E+06        -0.25914E+08         0.00000E+00
    0.00000E+00         0.00000E+00        -0.17452E+07
 
   -0.75831E+07         0.24278E+06         0.00000E+00
    0.24278E+06        -0.26005E+08         0.00000E+00
    0.00000E+00         0.00000E+00        -0.19505E+07
 
   -0.73578E+07         0.28177E+06         0.00000E+00
    0.28177E+06        -0.26110E+08         0.00000E+00
    0.00000E+00         0.00000E+00        -0.21827E+07
 
   -0.71263E+07         0.32696E+06         0.00000E+00
    0.32696E+06        -0.26232E+08         0.00000E+00
    0.00000E+00         0.00000E+00        -0.24463E+07
 
   -0.68883E+07         0.38084E+06         0.00000E+00
    0.38084E+06        -0.26373E+08         0.00000E+00
    0.00000E+00         0.00000E+00        -0.27470E+07
 
   -0.66387E+07         0.44648E+06         0.00000E+00
    0.44648E+06        -0.26536E+08         0.00000E+00
    0.00000E+00         0.00000E+00        -0.30958E+07
 
   -0.63611E+07         0.52693E+06         0.00000E+00
    0.52693E+06        -0.26725E+08         0.00000E+00
    0.00000E+00         0.00000E+00        -0.35144E+07
 
   -0.60830E+07         0.62885E+06         0.00000E+00
    0.62885E+06        -0.26943E+08         0.00000E+00
    0.00000E+00         0.00000E+00        -0.39963E+07
 
   -0.58131E+07         0.76432E+06         0.00000E+00
    0.76432E+06        -0.27193E+08         0.00000E+00
    0.00000E+00         0.00000E+00        -0.45485E+07
 
   -0.55611E+07         0.92992E+06         0.00000E+00
    0.92992E+06        -0.27475E+08         0.00000E+00
    0.00000E+00         0.00000E+00        -0.51691E+07
 
TENSORS stresstot double 
   -0.49882E+08        -0.11272E+04         0.00000E+00
   -0.11272E+04        -0.50000E+08         0.00000E+00
    0.00000E+00         0.00000E+00        -0.49996E+08
 
   -0.49886E+08        -0.13378E+04         0.00000E+00
   -0.13378E+04        -0.50000E+08         0.00000E+00
    0.00000E+00         0.00000E+00        -0.49996E+08
 
   -0.49889E+08        -0.14079E+04         0.00000E+00
   -0.14079E+04        -0.50001E+08         0.00000E+00
    0.00000E+00         0.00000E+00        -0.49996E+08
 
   -0.49892E+08        -0.14007E+04         0.00000E+00
   -0.14007E+04        -0.50001E+08         0.00000E+00
    0.00000E+00         0.00000E+00        -0.49996E+08
 
   -0.49895E+08        -0.13498E+04         0.00000E+00
   -0.13498E+04        -0.50002E+08         0.00000E+00
    0.00000E+00         0.00000E+00        -0.49996E+08
 
   -0.49898E+08        -0.12736E+04         0.00000E+00
   -0.12736E+04        -0.50002E+08         0.00000E+00
    0.00000E+00         0.00000E+00        -0.49996E+08
 
   -0.49900E+08        -0.11825E+04         0.00000E+00
   -0.11825E+04        -0.50003E+08         0.00000E+00
    0.00000E+00         0.00000E+00        -0.49996E+08
 
   -0.49903E+08        -0.10826E+04         0.00000E+00
   -0.10826E+04        -0.50003E+08         0.00000E+00
    0.00000E+00         0.00000E+00        -0.49996E+08
 
   -0.49905E+08        -0.97753E+03         0.00000E+00
   -0.97753E+03        -0.50003E+08         0.00000E+00
    0.00000E+00         0.00000E+00        -0.49996E+08
 
   -0.49907E+08        -0.86955E+03         0.00000E+00
   -0.86955E+03        -0.50004E+08         0.00000E+00
    0.00000E+00         0.00000E+00        -0.49996E+08
 
   -0.49909E+08        -0.76010E+03         0.00000E+00
   -0.76010E+03        -0.50004E+08         0.00000E+00
    0.00000E+00         0.00000E+00        -0.49996E+08
 
   -0.49911E+08        -0.65011E+03         0.00000E+00
   -0.65011E+03        -0.50004E+08         0.00000E+00
    0.00000E+00         0.00000E+00        -0.49996E+08
 
   -0.49912E+08        -0.54019E+03         0.00000E+00
   -0.54019E+03        -0.50005E+08         0.00000E+00
    0.00000E+00         0.00000E+00        -0.49996E+08
 
   -0.49914E+08        -0.43073E+03         0.00000E+00
   -0.43073E+03        -0.50005E+08         0.00000E+00
    0.00000E+00         0.00000E+00        -0.49996E+08
 
   -0.49916E+08        -0.32199E+03         0.00000E+00
   -0.32199E+03        -0.50005E+08         0.00000E+00
    0.00000E+00         0.00000E+00        -0.49996E+08
 
   -0.49918E+08        -0.21413E+03         0.00000E+00
   -0.21413E+03        -0.50005E+08         0.00000E+00
    0.00000E+00         0.00000E+00        -0.49996E+08
 
   -0.49920E+08        -0.10723E+03         0.00000E+00
   -0.10723E+03        -0.50005E+08         0.00000E+00
    0.00000E+00         0.00000E+00        -0.49996E+08
 
   -0.49921E+08        -0.13265E+01         0.00000E+00
   -0.13265E+01        -0.50005E+08         0.00000E+00
    0.00000E+00         0.00000E+00        -0.49996E+08
 
   -0.49923E+08         0.10358E+03         0.00000E+00
    0.10358E+03        -0.50005E+08         0.00000E+00
    0.00000E+00         0.00000E+00        -0.49996E+08
 
   -0.49925E+08         0.20751E+03         0.00000E+00
    0.20751E+03        -0.50005E+08         0.00000E+00
    0.00000E+00         0.00000E+00        -0.49996E+08
 
   -0.49927E+08         0.31053E+03         0.00000E+00
    0.31053E+03        -0.50005E+08         0.00000E+00
    0.00000E+00         0.00000E+00        -0.49996E+08
 
   -0.49928E+08         0.41270E+03         0.00000E+00
    0.41270E+03        -0.50005E+08         0.00000E+00
    0.00000E+00         0.00000E+00        -0.49996E+08
 
   -0.49930E+08         0.51413E+03         0.00000E+00
    0.51413E+03        -0.50004E+08         0.00000E+00
    0.00000E+00         0.00000E+00        -0.49997E+08
 
   -0.49932E+08         0.61492E+03         0.00000E+00
    0.61492E+03        -0.50004E+08         0.00000E+00
    0.00000E+00         0.00000E+00        -0.49997E+08
 
   -0.49934E+08         0.71520E+03         0.00000E+00
    0.71520E+03        -0.50004E+08         0.00000E+00
    0.00000E+00         0.00000E+00        -0.49997E+08
 
   -0.49935E+08         0.81511E+03         0.00000E+00
    0.81511E+03        -0.50004E+08         0.00000E+00
    0.00000E+00         0.00000E+00        -0.49997E+08
 
   -0.49937E+08         0.91481E+03         0.00000E+00
    0.91481E+03        -0.50003E+08         0.00000E+00
    0.00000E+00         0.00000E+00        -0.49997E+08
 
   -0.49939E+08         0.10145E+04         0.00000E+00
    0.10145E+04        -0.50003E+08         0.00000E+00
    0.00000E+00         0.00000E+00        -0.49997E+08
 
   -0.49941E+08         0.11144E+04         0.00000E+00
    0.11144E+04        -0.50003E+08         0.00000E+00
    0.00000E+00         0.00000E+00        -0.49997E+08
 
   -0.49943E+08         0.12147E+04         0.00000E+00
    0.12147E+04        -0.50002E+08         0.00000E+00
    0.00000E+00         0.00000E+00        -0.49997E+08
 
   -0.49945E+08         0.13157E+04         0.00000E+00
    0.13157E+04        -0.50002E+08         0.00000E+00
    0.00000E+00         0.00000E+00        -0.49997E+08
 
   -0.49947E+08         0.14177E+04         0.00000E+00
    0.14177E+04        -0.50001E+08         0.00000E+00
    0.00000E+00         0.00000E+00        -0.49997E+08
 
   -0.49949E+08         0.15211E+04         0.00000E+00
    0.15211E+04        -0.50000E+08         0.00000E+00
    0.00000E+00         0.00000E+00        -0.49997E+08
 
   -0.49951E+08         0.16264E+04         0.00000E+00
    0.16264E+04        -0.50000E+08         0.00000E+00
    0.00000E+00         0.00000E+00        -0.49997E+08
 
   -0.49953E+08         0.17340E+04         0.00000E+00
    0.17340E+04        -0.49999E+08         0.00000E+00
    0.00000E+00         0.00000E+00        -0.49997E+08
 
   -0.49955E+08         0.18445E+04         0.00000E+00
    0.18445E+04        -0.49998E+08         0.00000E+00
    0.00000E+00         0.00000E+00        -0.49997E+08
 
   -0.49957E+08         0.19587E+04         0.00000E+00
    0.19587E+04        -0.49998E+08         0.00000E+00
    0.00000E+00         0.00000E+00        -0.49997E+08
 
   -0.49960E+08         0.20775E+04         0.00000E+00
    0.20775E+04        -0.49997E+08         0.00000E+00
    0.00000E+00         0.00000E+00        -0.49997E+08
 
   -0.49962E+08         0.22020E+04         0.00000E+00
    0.22020E+04        -0.49996E+08         0.00000E+00
    0.00000E+00         0.00000E+00        -0.49997E+08
 
   -0.49964E+08         0.23337E+04         0.00000E+00
    0.23337E+04        -0.49995E+08         0.00000E+00
    0.00000E+00         0.00000E+00        -0.49997E+08
 
   -0.49967E+08         0.24743E+04         0.00000E+00
    0.24743E+04        -0.49994E+08         0.00000E+00
    0.00000E+00         0.00000E+00        -0.49997E+08
 
   -0.49969E+08         0.26262E+04         0.00000E+00
    0.26262E+04        -0.49993E+08         0.00000E+00
    0.00000E+00         0.00000E+00        -0.49997E+08
 
   -0.49972E+08         0.27926E+04         0.00000E+00
    0.27926E+04        -0.49992E+08         0.00000E+00
    0.00000E+00         0.00000E+00        -0.49997E+08
 
   -0.49975E+08         0.29777E+04         0.00000E+00
    0.29777E+04        -0.49991E+08         0.00000E+00
    0.00000E+00         0.00000E+00        -0.49997E+08
 
   -0.49978E+08         0.31874E+04         0.00000E+00
    0.31874E+04        -0.49990E+08         0.00000E+00
    0.00000E+00         0.00000E+00        -0.49997E+08
 
   -0.49981E+08         0.34305E+04         0.00000E+00
    0.34305E+04        -0.49988E+08         0.00000E+00
    0.00000E+00         0.00000E+00        -0.49997E+08
 
   -0.49984E+08         0.37196E+04         0.00000E+00
    0.37196E+04        -0.49987E+08         0.00000E+00
    0.00000E+00         0.00000E+00        -0.49997E+08
 
   -0.49987E+08         0.40745E+04         0.00000E+00
    0.40745E+04        -0.49985E+08         0.00000E+00
    0.00000E+00         0.00000E+00        -0.49997E+08
 
   -0.49991E+08         0.45268E+04         0.00000E+00
    0.45268E+04        -0.49984E+08         0.00000E+00
    0.00000E+00         0.00000E+00        -0.49997E+08
 
   -0.49995E+08         0.51296E+04         0.00000E+00
    0.51296E+04        -0.49982E+08         0.00000E+00
    0.00000E+00         0.00000E+00        -0.49997E+08
 
   -0.49886E+08        -0.75478E+03         0.00000E+00
   -0.75478E+03        -0.50000E+08         0.00000E+00
    0.00000E+00         0.00000E+00        -0.49989E+08
 
   -0.49888E+08        -0.15725E+04         0.00000E+00
   -0.15725E+04        -0.50000E+08         0.00000E+00
    0.00000E+00         0.00000E+00        -0.49989E+08
 
   -0.49891E+08        -0.20834E+04         0.00000E+00
   -0.20834E+04        -0.50000E+08         0.00000E+00
    0.00000E+00         0.00000E+00        -0.49989E+08
 
   -0.49893E+08        -0.23726E+04         0.00000E+00
   -0.23726E+04        -0.50000E+08         0.00000E+00
    0.00000E+00         0.00000E+00        -0.49989E+08
 
   -0.49895E+08        -0.25021E+04         0.00000E+00
   -0.25021E+04        -0.50000E+08         0.00000E+00
    0.00000E+00         0.00000E+00        -0.49989E+08
 
   -0.49898E+08        -0.25161E+04         0.00000E+00
   -0.25161E+04        -0.50000E+08         0.00000E+00
    0.00000E+00         0.00000E+00        -0.49989E+08
 
   -0.49900E+08        -0.24465E+04         0.00000E+00
   -0.24465E+04        -0.50000E+08         0.00000E+00
    0.00000E+00         0.00000E+00        -0.49989E+08
 
   -0.49902E+08        -0.23163E+04         0.00000E+00
   -0.23163E+04        -0.50000E+08         0.00000E+00
    0.00000E+00         0.00000E+00        -0.49989E+08
 
   -0.49904E+08        -0.21417E+04         0.00000E+00
   -0.21417E+04        -0.50000E+08         0.00000E+00
    0.00000E+00         0.00000E+00        -0.49989E+08
 
   -0.49906E+08        -0.19347E+04         0.00000E+00
   -0.19347E+04        -0.50000E+08         0.00000E+00
    0.00000E+00         0.00000E+00        -0.49989E+08
 
   -0.49908E+08        -0.17041E+04         0.00000E+00
   -0.17041E+04        -0.50000E+08         0.00000E+00
    0.00000E+00         0.00000E+00        -0.49989E+08
 
   -0.49910E+08        -0.14563E+04         0.00000E+00
   -0.14563E+04        -0.50000E+08         0.00000E+00
    0.00000E+00         0.00000E+00        -0.49989E+08
 
   -0.49911E+08        -0.11959E+04         0.00000E+00
   -0.11959E+04        -0.50000E+08         0.00000E+00
    0.00000E+00         0.00000E+00        -0.49989E+08
 
   -0.49913E+08        -0.92644E+03         0.00000E+00
   -0.92644E+03        -0.50000E+08         0.00000E+00
    0.00000E+00         0.00000E+00        -0.49989E+08
 
   -0.49915E+08        -0.65061E+03         0.00000E+00
   -0.65061E+03        -0.50000E+08         0.00000E+00
    0.00000E+00         0.00000E+00        -0.49989E+08
 
   -0.49917E+08        -0.37033E+03         0.00000E+00
   -0.37033E+03        -0.50000E+08         0.00000E+00
    0.00000E+00         0.00000E+00        -0.49989E+08
 
   -0.49919E+08        -0.87042E+02         0.00000E+00
   -0.87042E+02        -0.50000E+08         0.00000E+00
    0.00000E+00         0.00000E+00        -0.49989E+08
 
   -0.49920E+08         0.19819E+03         0.00000E+00
    0.19819E+03        -0.50000E+08         0.00000E+00
    0.00000E+00         0.00000E+00        -0.49990E+08
 
   -0.49922E+08         0.48459E+03         0.00000E+00
    0.48459E+03        -0.50000E+08         0.00000E+00
    0.00000E+00         0.00000E+00        -0.49990E+08
 
   -0.49924E+08         0.77162E+03         0.00000E+00
    0.77162E+03        -0.50000E+08         0.00000E+00
    0.00000E+00         0.00000E+00        -0.49990E+08
 
   -0.49926E+08         0.10589E+04         0.00000E+00
    0.10589E+04        -0.50000E+08         0.00000E+00
    0.00000E+00         0.00000E+00        -0.49990E+08
 
   -0.49927E+08         0.13463E+04         0.00000E+00
    0.13463E+04        -0.50000E+08         0.00000E+00
    0.00000E+00         0.00000E+00        -0.49990E+08
 
   -0.49929E+08         0.16337E+04         0.00000E+00
    0.16337E+04        -0.49999E+08         0.00000E+00
    0.00000E+00         0.00000E+00        -0.49990E+08
 
   -0.49931E+08         0.19211E+04         0.00000E+00
    0.19211E+04        -0.49999E+08         0.00000E+00
    0.00000E+00         0.00000E+00        -0.49990E+08
 
   -0.49933E+08         0.22087E+04         0.00000E+00
    0.22087E+04        -0.49999E+08         0.00000E+00
    0.00000E+00         0.00000E+00        -0.49990E+08
 
   -0.49934E+08         0.24966E+04         0.00000E+00
    0.24966E+04        -0.49998E+08         0.00000E+00
    0.00000E+00         0.00000E+00        -0.49990E+08
 
   -0.49936E+08         0.27852E+04         0.00000E+00
    0.27852E+04        -0.49998E+08         0.00000E+00
    0.00000E+00         0.00000E+00        -0.49990E+08
 
   -0.49938E+08         0.30748E+04         0.00000E+00
    0.30748E+04        -0.49998E+08         0.00000E+00
    0.00000E+00         0.00000E+00        -0.49990E+08
 
   -0.49940E+08         0.33661E+04         0.00000E+00
    0.33661E+04        -0.49997E+08         0.00000E+00
    0.00000E+00         0.00000E+00        -0.49990E+08
 
   -0.49942E+08         0.36594E+04         0.00000E+00
    0.36594E+04        -0.49997E+08         0.00000E+00
    0.00000E+00         0.00000E+00        -0.49990E+08
 
   -0.49944E+08         0.39555E+04         0.00000E+00
    0.39555E+04        -0.49996E+08         0.00000E+00
    0.00000E+00         0.00000E+00        -0.49990E+08
 
   -0.49946E+08         0.42553E+04         0.00000E+00
    0.42553E+04        -0.49996E+08         0.00000E+00
    0.00000E+00         0.00000E+00        -0.49990E+08
 
   -0.49948E+08         0.45596E+04         0.00000E+00
    0.45596E+04        -0.49995E+08         0.00000E+00
    0.00000E+00         0.00000E+00        -0.49990E+08
 
   -0.49950E+08         0.48697E+04         0.00000E+00
    0.48697E+04        -0.49994E+08         0.00000E+00
    0.00000E+00         0.00000E+00        -0.49990E+08
 
   -0.49952E+08         0.51869E+04         0.00000E+00
    0.51869E+04        -0.49994E+08         0.00000E+00
    0.00000E+00         0.00000E+00        -0.49990E+08
 
   -0.49954E+08         0.55127E+04         0.00000E+00
    0.55127E+04        -0.49993E+08         0.00000E+00
    0.00000E+00         0.00000E+00        -0.49990E+08
 
   -0.49956E+08         0.58491E+04         0.00000E+00
    0.58491E+04        -0.49992E+08         0.00000E+00
    0.00000E+00         0.00000E+00        -0.49990E+08
 
   -0.49959E+08         0.61984E+04         0.00000E+00
    0.61984E+04        -0.49991E+08         0.00000E+00
    0.00000E+00         0.00000E+00        -0.49990E+08
 
   -0.49961E+08         0.65633E+04         0.00000E+00
    0.65633E+04        -0.49991E+08         0.00000E+00
    0.00000E+00         0.00000E+00        -0.49990E+08
 
   -0.49963E+08         0.69473E+04         0.00000E+00
    0.69473E+04        -0.49990E+08         0.00000E+00
    0.00000E+00         0.00000E+00        -0.49990E+08
 
   -0.49965E+08         0.73546E+04         0.00000E+00
    0.73546E+04        -0.49989E+08         0.00000E+00
    0.00000E+00         0.00000E+00        -0.49990E+08
 
   -0.49968E+08         0.77904E+04         0.00000E+00
    0.77904E+04        -0.49988E+08         0.00000E+00
    0.00000E+00         0.00000E+00        -0.49990E+08
 
   -0.49970E+08         0.82612E+04         0.00000E+00
    0.82612E+04        -0.49987E+08         0.00000E+00
    0.00000E+00         0.00000E+00        -0.49991E+08
 
   -0.49973E+08         0.87754E+04         0.00000E+00
    0.87754E+04        -0.49986E+08         0.00000E+00
    0.00000E+00         0.00000E+00        -0.49991E+08
 
   -0.49975E+08         0.93436E+04         0.00000E+00
    0.93436E+04        -0.49984E+08         0.00000E+00
    0.00000E+00         0.00000E+00        -0.49991E+08
 
   -0.49978E+08         0.99794E+04         0.00000E+00
    0.99794E+04        -0.49983E+08         0.00000E+00
    0.00000E+00         0.00000E+00        -0.49991E+08
 
   -0.49981E+08         0.10701E+05         0.00000E+00
    0.10701E+05        -0.49982E+08         0.00000E+00
    0.00000E+00         0.00000E+00        -0.49991E+08
 
   -0.49984E+08         0.11531E+05         0.00000E+00
    0.11531E+05        -0.49981E+08         0.00000E+00
    0.00000E+00         0.00000E+00        -0.49991E+08
 
   -0.49986E+08         0.12500E+05         0.00000E+00
    0.12500E+05        -0.49979E+08         0.00000E+00
    0.00000E+00         0.00000E+00        -0.49991E+08
 
   -0.49989E+08         0.13646E+05         0.00000E+00
    0.13646E+05        -0.49978E+08         0.00000E+00
    0.00000E+00         0.00000E+00        -0.49991E+08
 
   -0.49890E+08        -0.45267E+03         0.00000E+00
   -0.45267E+03        -0.50000E+08         0.00000E+00
    0.00000E+00         0.00000E+00        -0.49982E+08
 
   -0.49891E+08        -0.10351E+04         0.00000E+00
   -0.10351E+04        -0.50000E+08         0.00000E+00
    0.00000E+00         0.00000E+00        -0.49982E+08
 
   -0.49893E+08        -0.15007E+04         0.00000E+00
   -0.15007E+04        -0.50000E+08         0.00000E+00
    0.00000E+00         0.00000E+00        -0.49982E+08
 
   -0.49894E+08        -0.18374E+04         0.00000E+00
   -0.18374E+04        -0.50000E+08         0.00000E+00
    0.00000E+00         0.00000E+00        -0.49983E+08
 
   -0.49896E+08        -0.20503E+04         0.00000E+00
   -0.20503E+04        -0.50000E+08         0.00000E+00
    0.00000E+00         0.00000E+00        -0.49983E+08
 
   -0.49898E+08        -0.21517E+04         0.00000E+00
   -0.21517E+04        -0.49999E+08         0.00000E+00
    0.00000E+00         0.00000E+00        -0.49983E+08
 
   -0.49900E+08        -0.21565E+04         0.00000E+00
   -0.21565E+04        -0.49999E+08         0.00000E+00
    0.00000E+00         0.00000E+00        -0.49983E+08
 
   -0.49901E+08        -0.20795E+04         0.00000E+00
   -0.20795E+04        -0.49999E+08         0.00000E+00
    0.00000E+00         0.00000E+00        -0.49983E+08
 
   -0.49903E+08        -0.19341E+04         0.00000E+00
   -0.19341E+04        -0.49999E+08         0.00000E+00
    0.00000E+00         0.00000E+00        -0.49983E+08
 
   -0.49905E+08        -0.17322E+04         0.00000E+00
   -0.17322E+04        -0.49999E+08         0.00000E+00
    0.00000E+00         0.00000E+00        -0.49983E+08
 
   -0.49907E+08        -0.14839E+04         0.00000E+00
   -0.14839E+04        -0.49999E+08         0.00000E+00
    0.00000E+00         0.00000E+00        -0.49983E+08
 
   -0.49908E+08        -0.11976E+04         0.00000E+00
   -0.11976E+04        -0.49998E+08         0.00000E+00
    0.00000E+00         0.00000E+00        -0.49983E+08
 
   -0.49910E+08        -0.88044E+03         0.00000E+00
   -0.88044E+03        -0.49998E+08         0.00000E+00
    0.00000E+00         0.00000E+00        -0.49983E+08
 
   -0.49912E+08        -0.53811E+03         0.00000E+00
   -0.53811E+03        -0.49998E+08         0.00000E+00
    0.00000E+00         0.00000E+00        -0.49983E+08
 
   -0.49913E+08        -0.17538E+03         0.00000E+00
   -0.17538E+03        -0.49998E+08         0.00000E+00
    0.00000E+00         0.00000E+00        -0.49983E+08
 
   -0.49915E+08         0.20389E+03         0.00000E+00
    0.20389E+03        -0.49998E+08         0.00000E+00
    0.00000E+00         0.00000E+00        -0.49983E+08
 
   -0.49917E+08         0.59657E+03         0.00000E+00
    0.59657E+03        -0.49998E+08         0.00000E+00
    0.00000E+00         0.00000E+00        -0.49983E+08
 
   -0.49919E+08         0.10001E+04         0.00000E+00
    0.10001E+04        -0.49997E+08         0.00000E+00
    0.00000E+00         0.00000E+00        -0.49983E+08
 
   -0.49920E+08         0.14125E+04         0.00000E+00
    0.14125E+04        -0.49997E+08         0.00000E+00
    0.00000E+00         0.00000E+00        -0.49983E+08
 
   -0.49922E+08         0.18322E+04         0.00000E+00
    0.18322E+04        -0.49997E+08         0.00000E+00
    0.00000E+00         0.00000E+00        -0.49983E+08
 
   -0.49924E+08         0.22579E+04         0.00000E+00
    0.22579E+04        -0.49997E+08         0.00000E+00
    0.00000E+00         0.00000E+00        -0.49983E+08
 
   -0.49925E+08         0.26888E+04         0.00000E+00
    0.26888E+04        -0.49996E+08         0.00000E+00
    0.00000E+00         0.00000E+00        -0.49983E+08
 
   -0.49927E+08         0.31240E+04         0.00000E+00
    0.31240E+04        -0.49996E+08         0.00000E+00
    0.00000E+00         0.00000E+00        -0.49983E+08
 
   -0.49929E+08         0.35632E+04         0.00000E+00
    0.35632E+04        -0.49996E+08         0.00000E+00
    0.00000E+00         0.00000E+00        -0.49983E+08
 
   -0.49931E+08         0.40062E+04         0.00000E+00
    0.40062E+04        -0.49995E+08         0.00000E+00
    0.00000E+00         0.00000E+00        -0.49984E+08
 
   -0.49933E+08         0.44528E+04         0.00000E+00
    0.44528E+04        -0.49995E+08         0.00000E+00
    0.00000E+00         0.00000E+00        -0.49984E+08
 
   -0.49934E+08         0.49032E+04         0.00000E+00
    0.49032E+04        -0.49994E+08         0.00000E+00
    0.00000E+00         0.00000E+00        -0.49984E+08
 
   -0.49936E+08         0.53577E+04         0.00000E+00
    0.53577E+04        -0.49994E+08         0.00000E+00
    0.00000E+00         0.00000E+00        -0.49984E+08
 
   -0.49938E+08         0.58168E+04         0.00000E+00
    0.58168E+04        -0.49993E+08         0.00000E+00
    0.00000E+00         0.00000E+00        -0.49984E+08
 
   -0.49940E+08         0.62809E+04         0.00000E+00
    0.62809E+04        -0.49993E+08         0.00000E+00
    0.00000E+00         0.00000E+00        -0.49984E+08
 
   -0.49942E+08         0.67510E+04         0.00000E+00
    0.67510E+04        -0.49992E+08         0.00000E+00
    0.00000E+00         0.00000E+00        -0.49984E+08
 
   -0.49944E+08         0.72279E+04         0.00000E+00
    0.72279E+04        -0.49992E+08         0.00000E+00
    0.00000E+00         0.00000E+00        -0.49984E+08
 
   -0.49946E+08         0.77128E+04         0.00000E+00
    0.77128E+04        -0.49991E+08         0.00000E+00
    0.00000E+00         0.00000E+00        -0.49984E+08
 
   -0.49948E+08         0.82072E+04         0.00000E+00
    0.82072E+04        -0.49990E+08         0.00000E+00
    0.00000E+00         0.00000E+00        -0.49984E+08
 
   -0.49950E+08         0.87126E+04         0.00000E+00
    0.87126E+04        -0.49990E+08         0.00000E+00
    0.00000E+00         0.00000E+00        -0.49984E+08
 
   -0.49952E+08         0.92309E+04         0.00000E+00
    0.92309E+04        -0.49989E+08         0.00000E+00
    0.00000E+00         0.00000E+00        -0.49984E+08
 
   -0.49954E+08         0.97644E+04         0.00000E+00
    0.97644E+04        -0.49988E+08         0.00000E+00
    0.00000E+00         0.00000E+00        -0.49984E+08
 
   -0.49956E+08         0.10316E+05         0.00000E+00
    0.10316E+05        -0.49987E+08         0.00000E+00
    0.00000E+00         0.00000E+00        -0.49984E+08
 
   -0.49958E+08         0.10888E+05         0.00000E+00
    0.10888E+05        -0.49986E+08         0.00000E+00
    0.00000E+00         0.00000E+00        -0.49984E+08
 
   -0.49961E+08         0.11484E+05         0.00000E+00
    0.11484E+05        -0.49986E+08         0.00000E+00
    0.00000E+00         0.00000E+00        -0.49984E+08
 
   -0.49963E+08         0.12109E+05         0.00000E+00
    0.12109E+05        -0.49985E+08         0.00000E+00
    0.00000E+00         0.00000E+00        -0.49984E+08
 
   -0.49965E+08         0.12766E+05         0.00000E+00
    0.12766E+05        -0.49984E+08         0.00000E+00
    0.00000E+00         0.00000E+00        -0.49984E+08
 
   -0.49967E+08         0.13462E+05         0.00000E+00
    0.13462E+05        -0.49983E+08         0.00000E+00
    0.00000E+00         0.00000E+00        -0.49984E+08
 
   -0.49970E+08         0.14201E+05         0.00000E+00
    0.14201E+05        -0.49982E+08         0.00000E+00
    0.00000E+00         0.00000E+00        -0.49985E+08
 
   -0.49972E+08         0.14991E+05         0.00000E+00
    0.14991E+05        -0.49981E+08         0.00000E+00
    0.00000E+00         0.00000E+00        -0.49985E+08
 
   -0.49974E+08         0.15837E+05         0.00000E+00
    0.15837E+05        -0.49980E+08         0.00000E+00
    0.00000E+00         0.00000E+00        -0.49985E+08
 
   -0.49977E+08         0.16746E+05         0.00000E+00
    0.16746E+05        -0.49978E+08         0.00000E+00
    0.00000E+00         0.00000E+00        -0.49985E+08
 
   -0.49979E+08         0.17721E+05         0.00000E+00
    0.17721E+05        -0.49977E+08         0.00000E+00
    0.00000E+00         0.00000E+00        -0.49985E+08
 
   -0.49981E+08         0.18761E+05         0.00000E+00
    0.18761E+05        -0.49976E+08         0.00000E+00
    0.00000E+00         0.00000E+00        -0.49985E+08
 
   -0.49983E+08         0.19857E+05         0.00000E+00
    0.19857E+05        -0.49975E+08         0.00000E+00
    0.00000E+00         0.00000E+00        -0.49985E+08
 
   -0.49892E+08        -0.27470E+03         0.00000E+00
   -0.27470E+03        -0.50000E+08         0.00000E+00
    0.00000E+00         0.00000E+00        -0.49976E+08
 
   -0.49893E+08        -0.60940E+03         0.00000E+00
   -0.60940E+03        -0.50000E+08         0.00000E+00
    0.00000E+00         0.00000E+00        -0.49976E+08
 
   -0.49894E+08        -0.86425E+03         0.00000E+00
   -0.86425E+03        -0.50000E+08         0.00000E+00
    0.00000E+00         0.00000E+00        -0.49976E+08
 
   -0.49896E+08        -0.10428E+04         0.00000E+00
   -0.10428E+04        -0.50000E+08         0.00000E+00
    0.00000E+00         0.00000E+00        -0.49976E+08
 
   -0.49897E+08        -0.11458E+04         0.00000E+00
   -0.11458E+04        -0.49999E+08         0.00000E+00
    0.00000E+00         0.00000E+00        -0.49976E+08
 
   -0.49898E+08        -0.11751E+04         0.00000E+00
   -0.11751E+04        -0.49999E+08         0.00000E+00
    0.00000E+00         0.00000E+00        -0.49976E+08
 
   -0.49899E+08        -0.11337E+04         0.00000E+00
   -0.11337E+04        -0.49999E+08         0.00000E+00
    0.00000E+00         0.00000E+00        -0.49977E+08
 
   -0.49901E+08        -0.10261E+04         0.00000E+00
   -0.10261E+04        -0.49999E+08         0.00000E+00
    0.00000E+00         0.00000E+00        -0.49977E+08
 
   -0.49902E+08        -0.85778E+03         0.00000E+00
   -0.85778E+03        -0.49999E+08         0.00000E+00
    0.00000E+00         0.00000E+00        -0.49977E+08
 
   -0.49904E+08        -0.63448E+03         0.00000E+00
   -0.63448E+03        -0.49998E+08         0.00000E+00
    0.00000E+00         0.00000E+00        -0.49977E+08
 
   -0.49905E+08        -0.36206E+03         0.00000E+00
   -0.36206E+03        -0.49998E+08         0.00000E+00
    0.00000E+00         0.00000E+00        -0.49977E+08
 
   -0.49907E+08        -0.46159E+02         0.00000E+00
   -0.46159E+02        -0.49998E+08         0.00000E+00
    0.00000E+00         0.00000E+00        -0.49977E+08
 
   -0.49908E+08         0.30795E+03         0.00000E+00
    0.30795E+03        -0.49997E+08         0.00000E+00
    0.00000E+00         0.00000E+00        -0.49977E+08
 
   -0.49910E+08         0.69543E+03         0.00000E+00
    0.69543E+03        -0.49997E+08         0.00000E+00
    0.00000E+00         0.00000E+00        -0.49977E+08
 
   -0.49911E+08         0.11120E+04         0.00000E+00
    0.11120E+04        -0.49997E+08         0.00000E+00
    0.00000E+00         0.00000E+00        -0.49977E+08
 
   -0.49913E+08         0.15537E+04         0.00000E+00
    0.15537E+04        -0.49996E+08         0.00000E+00
    0.00000E+00         0.00000E+00        -0.49977E+08
 
   -0.49915E+08         0.20173E+04         0.00000E+00
    0.20173E+04        -0.49996E+08         0.00000E+00
    0.00000E+00         0.00000E+00        -0.49977E+08
 
   -0.49916E+08         0.24998E+04         0.00000E+00
    0.24998E+04        -0.49996E+08         0.00000E+00
    0.00000E+00         0.00000E+00        -0.49977E+08
 
   -0.49918E+08         0.29988E+04         0.00000E+00
    0.29988E+04        -0.49995E+08         0.00000E+00
    0.00000E+00         0.00000E+00        -0.49977E+08
 
   -0.49920E+08         0.35121E+04         0.00000E+00
    0.35121E+04        -0.49995E+08         0.00000E+00
    0.00000E+00         0.00000E+00        -0.49977E+08
 
   -0.49921E+08         0.40381E+04         0.00000E+00
    0.40381E+04        -0.49995E+08         0.00000E+00
    0.00000E+00         0.00000E+00        -0.49977E+08
 
   -0.49923E+08         0.45752E+04         0.00000E+00
    0.45752E+04        -0.49994E+08         0.00000E+00
    0.00000E+00         0.00000E+00        -0.49977E+08
 
   -0.49925E+08         0.51224E+04         0.00000E+00
    0.51224E+04        -0.49994E+08         0.00000E+00
    0.00000E+00         0.00000E+00        -0.49977E+08
 
   -0.49927E+08         0.56786E+04         0.00000E+00
    0.56786E+04        -0.49993E+08         0.00000E+00
    0.00000E+00         0.00000E+00        -0.49978E+08
 
   -0.49928E+08         0.62434E+04         0.00000E+00
    0.62434E+04        -0.49993E+08         0.00000E+00
    0.00000E+00         0.00000E+00        -0.49978E+08
 
   -0.49930E+08         0.68163E+04         0.00000E+00
    0.68163E+04        -0.49992E+08         0.00000E+00
    0.00000E+00         0.00000E+00        -0.49978E+08
 
   -0.49932E+08         0.73970E+04         0.00000E+00
    0.73970E+04        -0.49992E+08         0.00000E+00
    0.00000E+00         0.00000E+00        -0.49978E+08
 
   -0.49934E+08         0.79856E+04         0.00000E+00
    0.79856E+04        -0.49991E+08         0.00000E+00
    0.00000E+00         0.00000E+00        -0.49978E+08
 
   -0.49936E+08         0.85822E+04         0.00000E+00
    0.85822E+04        -0.49991E+08         0.00000E+00
    0.00000E+00         0.00000E+00        -0.49978E+08
 
   -0.49937E+08         0.91872E+04         0.00000E+00
    0.91872E+04        -0.49990E+08         0.00000E+00
    0.00000E+00         0.00000E+00        -0.49978E+08
 
   -0.49939E+08         0.98012E+04         0.00000E+00
    0.98012E+04        -0.49989E+08         0.00000E+00
    0.00000E+00         0.00000E+00        -0.49978E+08
 
   -0.49941E+08         0.10425E+05         0.00000E+00
    0.10425E+05        -0.49989E+08         0.00000E+00
    0.00000E+00         0.00000E+00        -0.49978E+08
 
   -0.49943E+08         0.11059E+05         0.00000E+00
    0.11059E+05        -0.49988E+08         0.00000E+00
    0.00000E+00         0.00000E+00        -0.49978E+08
 
   -0.49945E+08         0.11705E+05         0.00000E+00
    0.11705E+05        -0.49987E+08         0.00000E+00
    0.00000E+00         0.00000E+00        -0.49978E+08
 
   -0.49947E+08         0.12364E+05         0.00000E+00
    0.12364E+05        -0.49987E+08         0.00000E+00
    0.00000E+00         0.00000E+00        -0.49978E+08
 
   -0.49949E+08         0.13038E+05         0.00000E+00
    0.13038E+05        -0.49986E+08         0.00000E+00
    0.00000E+00         0.00000E+00        -0.49978E+08
 
   -0.49951E+08         0.13728E+05         0.00000E+00
    0.13728E+05        -0.49985E+08         0.00000E+00
    0.00000E+00         0.00000E+00        -0.49978E+08
 
   -0.49953E+08         0.14436E+05         0.00000E+00
    0.14436E+05        -0.49984E+08         0.00000E+00
    0.00000E+00         0.00000E+00        -0.49978E+08
 
   -0.49955E+08         0.15164E+05         0.00000E+00
    0.15164E+05        -0.49984E+08         0.00000E+00
    0.00000E+00         0.00000E+00        -0.49979E+08
 
   -0.49957E+08         0.15915E+05         0.00000E+00
    0.15915E+05        -0.49983E+08         0.00000E+00
    0.00000E+00         0.00000E+00        -0.49979E+08
 
   -0.49959E+08         0.16691E+05         0.00000E+00
    0.16691E+05        -0.49982E+08         0.00000E+00
    0.00000E+00         0.00000E+00        -0.49979E+08
 
   -0.49961E+08         0.17494E+05         0.00000E+00
    0.17494E+05        -0.49981E+08         0.00000E+00
    0.00000E+00         0.00000E+00        -0.49979E+08
 
   -0.49963E+08         0.18328E+05         0.00000E+00
    0.18328E+05        -0.49980E+08         0.00000E+00
    0.00000E+00         0.00000E+00        -0.49979E+08
 
   -0.49965E+08         0.19194E+05         0.00000E+00
    0.19194E+05        -0.49979E+08         0.00000E+00
    0.00000E+00         0.00000E+00        -0.49979E+08
 
   -0.49968E+08         0.20094E+05         0.00000E+00
    0.20094E+05        -0.49978E+08         0.00000E+00
    0.00000E+00         0.00000E+00        -0.49979E+08
 
   -0.49970E+08         0.21031E+05         0.00000E+00
    0.21031E+05        -0.49977E+08         0.00000E+00
    0.00000E+00         0.00000E+00        -0.49979E+08
 
   -0.49972E+08         0.22006E+05         0.00000E+00
    0.22006E+05        -0.49976E+08         0.00000E+00
    0.00000E+00         0.00000E+00        -0.49979E+08
 
   -0.49974E+08         0.23018E+05         0.00000E+00
    0.23018E+05        -0.49975E+08         0.00000E+00
    0.00000E+00         0.00000E+00        -0.49979E+08
 
   -0.49976E+08         0.24070E+05         0.00000E+00
    0.24070E+05        -0.49974E+08         0.00000E+00
    0.00000E+00         0.00000E+00        -0.49979E+08
 
   -0.49978E+08         0.25166E+05         0.00000E+00
    0.25166E+05        -0.49973E+08         0.00000E+00
    0.00000E+00         0.00000E+00        -0.49979E+08
 
   -0.49894E+08        -0.11170E+03         0.00000E+00
   -0.11170E+03        -0.50000E+08         0.00000E+00
    0.00000E+00         0.00000E+00        -0.49971E+08
 
   -0.49894E+08        -0.20252E+03         0.00000E+00
   -0.20252E+03        -0.50000E+08         0.00000E+00
    0.00000E+00         0.00000E+00        -0.49971E+08
 
   -0.49895E+08        -0.24230E+03         0.00000E+00
   -0.24230E+03        -0.50000E+08         0.00000E+00
    0.00000E+00         0.00000E+00        -0.49971E+08
 
   -0.49896E+08        -0.22982E+03         0.00000E+00
   -0.22982E+03        -0.50000E+08         0.00000E+00
    0.00000E+00         0.00000E+00        -0.49971E+08
 
   -0.49897E+08        -0.16550E+03         0.00000E+00
   -0.16550E+03        -0.50000E+08         0.00000E+00
    0.00000E+00         0.00000E+00        -0.49971E+08
 
   -0.49898E+08        -0.50219E+02         0.00000E+00
   -0.50219E+02        -0.49999E+08         0.00000E+00
    0.00000E+00         0.00000E+00        -0.49971E+08
 
   -0.49899E+08         0.11477E+03         0.00000E+00
    0.11477E+03        -0.49999E+08         0.00000E+00
    0.00000E+00         0.00000E+00        -0.49971E+08
 
   -0.49900E+08         0.32785E+03         0.00000E+00
    0.32785E+03        -0.49999E+08         0.00000E+00
    0.00000E+00         0.00000E+00        -0.49971E+08
 
   -0.49901E+08         0.58702E+03         0.00000E+00
    0.58702E+03        -0.49998E+08         0.00000E+00
    0.00000E+00         0.00000E+00        -0.49971E+08
 
   -0.49902E+08         0.88993E+03         0.00000E+00
    0.88993E+03        -0.49998E+08         0.00000E+00
    0.00000E+00         0.00000E+00        -0.49971E+08
 
   -0.49904E+08         0.12339E+04         0.00000E+00
    0.12339E+04        -0.49998E+08         0.00000E+00
    0.00000E+00         0.00000E+00        -0.49971E+08
 
   -0.49905E+08         0.16162E+04         0.00000E+00
    0.16162E+04        -0.49997E+08         0.00000E+00
    0.00000E+00         0.00000E+00        -0.49971E+08
 
   -0.49906E+08         0.20338E+04         0.00000E+00
    0.20338E+04        -0.49997E+08         0.00000E+00
    0.00000E+00         0.00000E+00        -0.49971E+08
 
   -0.49908E+08         0.24840E+04         0.00000E+00
    0.24840E+04        -0.49997E+08         0.00000E+00
    0.00000E+00         0.00000E+00        -0.49971E+08
 
   -0.49909E+08         0.29638E+04         0.00000E+00
    0.29638E+04        -0.49996E+08         0.00000E+00
    0.00000E+00         0.00000E+00        -0.49971E+08
 
   -0.49911E+08         0.34707E+04         0.00000E+00
    0.34707E+04        -0.49996E+08         0.00000E+00
    0.00000E+00         0.00000E+00        -0.49971E+08
 
   -0.49912E+08         0.40020E+04         0.00000E+00
    0.40020E+04        -0.49995E+08         0.00000E+00
    0.00000E+00         0.00000E+00        -0.49971E+08
 
   -0.49914E+08         0.45556E+04         0.00000E+00
    0.45556E+04        -0.49995E+08         0.00000E+00
    0.00000E+00         0.00000E+00        -0.49971E+08
 
   -0.49915E+08         0.51293E+04         0.00000E+00
    0.51293E+04        -0.49995E+08         0.00000E+00
    0.00000E+00         0.00000E+00        -0.49972E+08
 
   -0.49917E+08         0.57212E+04         0.00000E+00
    0.57212E+04        -0.49994E+08         0.00000E+00
    0.00000E+00         0.00000E+00        -0.49972E+08
 
   -0.49918E+08         0.63297E+04         0.00000E+00
    0.63297E+04        -0.49994E+08         0.00000E+00
    0.00000E+00         0.00000E+00        -0.49972E+08
 
   -0.49920E+08         0.69534E+04         0.00000E+00
    0.69534E+04        -0.49993E+08         0.00000E+00
    0.00000E+00         0.00000E+00        -0.49972E+08
 
   -0.49922E+08         0.75909E+04         0.00000E+00
    0.75909E+04        -0.49993E+08         0.00000E+00
    0.00000E+00         0.00000E+00        -0.49972E+08
 
   -0.49923E+08         0.82414E+04         0.00000E+00
    0.82414E+04        -0.49992E+08         0.00000E+00
    0.00000E+00         0.00000E+00        -0.49972E+08
 
   -0.49925E+08         0.89040E+04         0.00000E+00
    0.89040E+04        -0.49991E+08         0.00000E+00
    0.00000E+00         0.00000E+00        -0.49972E+08
 
   -0.49927E+08         0.95780E+04         0.00000E+00
    0.95780E+04        -0.49991E+08         0.00000E+00
    0.00000E+00         0.00000E+00        -0.49972E+08
 
   -0.49929E+08         0.10263E+05         0.00000E+00
    0.10263E+05        -0.49990E+08         0.00000E+00
    0.00000E+00         0.00000E+00        -0.49972E+08
 
   -0.49930E+08         0.10959E+05         0.00000E+00
    0.10959E+05        -0.49990E+08         0.00000E+00
    0.00000E+00         0.00000E+00        -0.49972E+08
 
   -0.49932E+08         0.11665E+05         0.00000E+00
    0.11665E+05        -0.49989E+08         0.00000E+00
    0.00000E+00         0.00000E+00        -0.49972E+08
 
   -0.49934E+08         0.12382E+05         0.00000E+00
    0.12382E+05        -0.49988E+08         0.00000E+00
    0.00000E+00         0.00000E+00        -0.49972E+08
 
   -0.49936E+08         0.13110E+05         0.00000E+00
    0.13110E+05        -0.49988E+08         0.00000E+00
    0.00000E+00         0.00000E+00        -0.49972E+08
 
   -0.49938E+08         0.13849E+05         0.00000E+00
    0.13849E+05        -0.49987E+08         0.00000E+00
    0.00000E+00         0.00000E+00        -0.49972E+08
 
   -0.49940E+08         0.14599E+05         0.00000E+00
    0.14599E+05        -0.49986E+08         0.00000E+00
    0.00000E+00         0.00000E+00        -0.49973E+08
 
   -0.49941E+08         0.15362E+05         0.00000E+00
    0.15362E+05        -0.49986E+08         0.00000E+00
    0.00000E+00         0.00000E+00        -0.49973E+08
 
   -0.49943E+08         0.16138E+05         0.00000E+00
    0.16138E+05        -0.49985E+08         0.00000E+00
    0.00000E+00         0.00000E+00        -0.49973E+08
 
   -0.49945E+08         0.16928E+05         0.00000E+00
    0.16928E+05        -0.49984E+08         0.00000E+00
    0.00000E+00         0.00000E+00        -0.49973E+08
 
   -0.49947E+08         0.17732E+05         0.00000E+00
    0.17732E+05        -0.49983E+08         0.00000E+00
    0.00000E+00         0.00000E+00        -0.49973E+08
 
   -0.49949E+08         0.18552E+05         0.00000E+00
    0.18552E+05        -0.49982E+08         0.00000E+00
    0.00000E+00         0.00000E+00        -0.49973E+08
 
   -0.49951E+08         0.19389E+05         0.00000E+00
    0.19389E+05        -0.49982E+08         0.00000E+00
    0.00000E+00         0.00000E+00        -0.49973E+08
 
   -0.49953E+08         0.20243E+05         0.00000E+00
    0.20243E+05        -0.49981E+08         0.00000E+00
    0.00000E+00         0.00000E+00        -0.49973E+08
 
   -0.49955E+08         0.21117E+05         0.00000E+00
    0.21117E+05        -0.49980E+08         0.00000E+00
    0.00000E+00         0.00000E+00        -0.49973E+08
 
   -0.49957E+08         0.22010E+05         0.00000E+00
    0.22010E+05        -0.49979E+08         0.00000E+00
    0.00000E+00         0.00000E+00        -0.49973E+08
 
   -0.49959E+08         0.22925E+05         0.00000E+00
    0.22925E+05        -0.49978E+08         0.00000E+00
    0.00000E+00         0.00000E+00        -0.49973E+08
 
   -0.49961E+08         0.23861E+05         0.00000E+00
    0.23861E+05        -0.49977E+08         0.00000E+00
    0.00000E+00         0.00000E+00        -0.49973E+08
 
   -0.49963E+08         0.24819E+05         0.00000E+00
    0.24819E+05        -0.49976E+08         0.00000E+00
    0.00000E+00         0.00000E+00        -0.49973E+08
 
   -0.49965E+08         0.25800E+05         0.00000E+00
    0.25800E+05        -0.49975E+08         0.00000E+00
    0.00000E+00         0.00000E+00        -0.49973E+08
 
   -0.49967E+08         0.26804E+05         0.00000E+00
    0.26804E+05        -0.49974E+08         0.00000E+00
    0.00000E+00         0.00000E+00        -0.49973E+08
 
   -0.49969E+08         0.27831E+05         0.00000E+00
    0.27831E+05        -0.49973E+08         0.00000E+00
    0.00000E+00         0.00000E+00        -0.49973E+08
 
   -0.49971E+08         0.28881E+05         0.00000E+00
    0.28881E+05        -0.49973E+08         0.00000E+00
    0.00000E+00         0.00000E+00        -0.49973E+08
 
   -0.49972E+08         0.29952E+05         0.00000E+00
    0.29952E+05        -0.49972E+08         0.00000E+00
    0.00000E+00         0.00000E+00        -0.49973E+08
 
   -0.49894E+08         0.32031E+02         0.00000E+00
    0.32031E+02        -0.50000E+08         0.00000E+00
    0.00000E+00         0.00000E+00        -0.49965E+08
 
   -0.49894E+08         0.18024E+03         0.00000E+00
    0.18024E+03        -0.50000E+08         0.00000E+00
    0.00000E+00         0.00000E+00        -0.49965E+08
 
   -0.49895E+08         0.36124E+03         0.00000E+00
    0.36124E+03        -0.50000E+08         0.00000E+00
    0.00000E+00         0.00000E+00        -0.49965E+08
 
   -0.49895E+08         0.57604E+03         0.00000E+00
    0.57604E+03        -0.50000E+08         0.00000E+00
    0.00000E+00         0.00000E+00        -0.49965E+08
 
   -0.49896E+08         0.82542E+03         0.00000E+00
    0.82542E+03        -0.50000E+08         0.00000E+00
    0.00000E+00         0.00000E+00        -0.49965E+08
 
   -0.49897E+08         0.11097E+04         0.00000E+00
    0.11097E+04        -0.49999E+08         0.00000E+00
    0.00000E+00         0.00000E+00        -0.49965E+08
 
   -0.49897E+08         0.14289E+04         0.00000E+00
    0.14289E+04        -0.49999E+08         0.00000E+00
    0.00000E+00         0.00000E+00        -0.49965E+08
 
   -0.49898E+08         0.17825E+04         0.00000E+00
    0.17825E+04        -0.49999E+08         0.00000E+00
    0.00000E+00         0.00000E+00        -0.49965E+08
 
   -0.49899E+08         0.21698E+04         0.00000E+00
    0.21698E+04        -0.49998E+08         0.00000E+00
    0.00000E+00         0.00000E+00        -0.49965E+08
 
   -0.49900E+08         0.25899E+04         0.00000E+00
    0.25899E+04        -0.49998E+08         0.00000E+00
    0.00000E+00         0.00000E+00        -0.49966E+08
 
   -0.49902E+08         0.30417E+04         0.00000E+00
    0.30417E+04        -0.49998E+08         0.00000E+00
    0.00000E+00         0.00000E+00        -0.49966E+08
 
   -0.49903E+08         0.35239E+04         0.00000E+00
    0.35239E+04        -0.49997E+08         0.00000E+00
    0.00000E+00         0.00000E+00        -0.49966E+08
 
   -0.49904E+08         0.40351E+04         0.00000E+00
    0.40351E+04        -0.49997E+08         0.00000E+00
    0.00000E+00         0.00000E+00        -0.49966E+08
 
   -0.49905E+08         0.45738E+04         0.00000E+00
    0.45738E+04        -0.49997E+08         0.00000E+00
    0.00000E+00         0.00000E+00        -0.49966E+08
 
   -0.49907E+08         0.51384E+04         0.00000E+00
    0.51384E+04        -0.49996E+08         0.00000E+00
    0.00000E+00         0.00000E+00        -0.49966E+08
 
   -0.49908E+08         0.57273E+04         0.00000E+00
    0.57273E+04        -0.49996E+08         0.00000E+00
    0.00000E+00         0.00000E+00        -0.49966E+08
 
   -0.49909E+08         0.63391E+04         0.00000E+00
    0.63391E+04        -0.49995E+08         0.00000E+00
    0.00000E+00         0.00000E+00        -0.49966E+08
 
   -0.49911E+08         0.69721E+04         0.00000E+00
    0.69721E+04        -0.49995E+08         0.00000E+00
    0.00000E+00         0.00000E+00        -0.49966E+08
 
   -0.49912E+08         0.76251E+04         0.00000E+00
    0.76251E+04        -0.49994E+08         0.00000E+00
    0.00000E+00         0.00000E+00        -0.49966E+08
 
   -0.49914E+08         0.82966E+04         0.00000E+00
    0.82966E+04        -0.49994E+08         0.00000E+00
    0.00000E+00         0.00000E+00        -0.49966E+08
 
   -0.49915E+08         0.89853E+04         0.00000E+00
    0.89853E+04        -0.49993E+08         0.00000E+00
    0.00000E+00         0.00000E+00        -0.49966E+08
 
   -0.49917E+08         0.96902E+04         0.00000E+00
    0.96902E+04        -0.49993E+08         0.00000E+00
    0.00000E+00         0.00000E+00        -0.49966E+08
 
   -0.49918E+08         0.10410E+05         0.00000E+00
    0.10410E+05        -0.49992E+08         0.00000E+00
    0.00000E+00         0.00000E+00        -0.49966E+08
 
   -0.49920E+08         0.11144E+05         0.00000E+00
    0.11144E+05        -0.49991E+08         0.00000E+00
    0.00000E+00         0.00000E+00        -0.49966E+08
 
   -0.49922E+08         0.11892E+05         0.00000E+00
    0.11892E+05        -0.49991E+08         0.00000E+00
    0.00000E+00         0.00000E+00        -0.49967E+08
 
   -0.49923E+08         0.12652E+05         0.00000E+00
    0.12652E+05        -0.49990E+08         0.00000E+00
    0.00000E+00         0.00000E+00        -0.49967E+08
 
   -0.49925E+08         0.13425E+05         0.00000E+00
    0.13425E+05        -0.49989E+08         0.00000E+00
    0.00000E+00         0.00000E+00        -0.49967E+08
 
   -0.49927E+08         0.14209E+05         0.00000E+00
    0.14209E+05        -0.49989E+08         0.00000E+00
    0.00000E+00         0.00000E+00        -0.49967E+08
 
   -0.49928E+08         0.15004E+05         0.00000E+00
    0.15004E+05        -0.49988E+08         0.00000E+00
    0.00000E+00         0.00000E+00        -0.49967E+08
 
   -0.49930E+08         0.15811E+05         0.00000E+00
    0.15811E+05        -0.49987E+08         0.00000E+00
    0.00000E+00         0.00000E+00        -0.49967E+08
 
   -0.49932E+08         0.16629E+05         0.00000E+00
    0.16629E+05        -0.49987E+08         0.00000E+00
    0.00000E+00         0.00000E+00        -0.49967E+08
 
   -0.49934E+08         0.17458E+05         0.00000E+00
    0.17458E+05        -0.49986E+08         0.00000E+00
    0.00000E+00         0.00000E+00        -0.49967E+08
 
   -0.49936E+08         0.18298E+05         0.00000E+00
    0.18298E+05        -0.49985E+08         0.00000E+00
    0.00000E+00         0.00000E+00        -0.49967E+08
 
   -0.49937E+08         0.19150E+05         0.00000E+00
    0.19150E+05        -0.49984E+08         0.00000E+00
    0.00000E+00         0.00000E+00        -0.49967E+08
 
   -0.49939E+08         0.20012E+05         0.00000E+00
    0.20012E+05        -0.49984E+08         0.00000E+00
    0.00000E+00         0.00000E+00        -0.49967E+08
 
   -0.49941E+08         0.20887E+05         0.00000E+00
    0.20887E+05        -0.49983E+08         0.00000E+00
    0.00000E+00         0.00000E+00        -0.49967E+08
 
   -0.49943E+08         0.21773E+05         0.00000E+00
    0.21773E+05        -0.49982E+08         0.00000E+00
    0.00000E+00         0.00000E+00        -0.49967E+08
 
   -0.49945E+08         0.22672E+05         0.00000E+00
    0.22672E+05        -0.49981E+08         0.00000E+00
    0.00000E+00         0.00000E+00        -0.49967E+08
 
   -0.49947E+08         0.23583E+05         0.00000E+00
    0.23583E+05        -0.49980E+08         0.00000E+00
    0.00000E+00         0.00000E+00        -0.49968E+08
 
   -0.49949E+08         0.24507E+05         0.00000E+00
    0.24507E+05        -0.49980E+08         0.00000E+00
    0.00000E+00         0.00000E+00        -0.49968E+08
 
   -0.49950E+08         0.25444E+05         0.00000E+00
    0.25444E+05        -0.49979E+08         0.00000E+00
    0.00000E+00         0.00000E+00        -0.49968E+08
 
   -0.49952E+08         0.26395E+05         0.00000E+00
    0.26395E+05        -0.49978E+08         0.00000E+00
    0.00000E+00         0.00000E+00        -0.49968E+08
 
   -0.49954E+08         0.27359E+05         0.00000E+00
    0.27359E+05        -0.49977E+08         0.00000E+00
    0.00000E+00         0.00000E+00        -0.49968E+08
 
   -0.49956E+08         0.28336E+05         0.00000E+00
    0.28336E+05        -0.49976E+08         0.00000E+00
    0.00000E+00         0.00000E+00        -0.49968E+08
 
   -0.49958E+08         0.29327E+05         0.00000E+00
    0.29327E+05        -0.49975E+08         0.00000E+00
    0.00000E+00         0.00000E+00        -0.49968E+08
 
   -0.49960E+08         0.30330E+05         0.00000E+00
    0.30330E+05        -0.49974E+08         0.00000E+00
    0.00000E+00         0.00000E+00        -0.49968E+08
 
   -0.49962E+08         0.31347E+05         0.00000E+00
    0.31347E+05        -0.49973E+08         0.00000E+00
    0.00000E+00         0.00000E+00        -0.49968E+08
 
   -0.49963E+08         0.32375E+05         0.00000E+00
    0.32375E+05        -0.49973E+08         0.00000E+00
    0.00000E+00         0.00000E+00        -0.49968E+08
 
   -0.49965E+08         0.33415E+05         0.00000E+00
    0.33415E+05        -0.49972E+08         0.00000E+00
    0.00000E+00         0.00000E+00        -0.49968E+08
 
   -0.49967E+08         0.34466E+05         0.00000E+00
    0.34466E+05        -0.49971E+08         0.00000E+00
    0.00000E+00         0.00000E+00        -0.49968E+08
 
   -0.49892E+08         0.16397E+03         0.00000E+00
    0.16397E+03        -0.50000E+08         0.00000E+00
    0.00000E+00         0.00000E+00        -0.49960E+08
 
   -0.49893E+08         0.54094E+03         0.00000E+00
    0.54094E+03        -0.50000E+08         0.00000E+00
    0.00000E+00         0.00000E+00        -0.49960E+08
 
   -0.49893E+08         0.93795E+03         0.00000E+00
    0.93795E+03        -0.50000E+08         0.00000E+00
    0.00000E+00         0.00000E+00        -0.49960E+08
 
   -0.49893E+08         0.13562E+04         0.00000E+00
    0.13562E+04        -0.50000E+08         0.00000E+00
    0.00000E+00         0.00000E+00        -0.49960E+08
 
   -0.49894E+08         0.17967E+04         0.00000E+00
    0.17967E+04        -0.50000E+08         0.00000E+00
    0.00000E+00         0.00000E+00        -0.49960E+08
 
   -0.49895E+08         0.22600E+04         0.00000E+00
    0.22600E+04        -0.49999E+08         0.00000E+00
    0.00000E+00         0.00000E+00        -0.49960E+08
 
   -0.49895E+08         0.27468E+04         0.00000E+00
    0.27468E+04        -0.49999E+08         0.00000E+00
    0.00000E+00         0.00000E+00        -0.49960E+08
 
   -0.49896E+08         0.32571E+04         0.00000E+00
    0.32571E+04        -0.49999E+08         0.00000E+00
    0.00000E+00         0.00000E+00        -0.49960E+08
 
   -0.49897E+08         0.37910E+04         0.00000E+00
    0.37910E+04        -0.49999E+08         0.00000E+00
    0.00000E+00         0.00000E+00        -0.49960E+08
 
   -0.49898E+08         0.43484E+04         0.00000E+00
    0.43484E+04        -0.49998E+08         0.00000E+00
    0.00000E+00         0.00000E+00        -0.49960E+08
 
   -0.49899E+08         0.49290E+04         0.00000E+00
    0.49290E+04        -0.49998E+08         0.00000E+00
    0.00000E+00         0.00000E+00        -0.49960E+08
 
   -0.49900E+08         0.55323E+04         0.00000E+00
    0.55323E+04        -0.49997E+08         0.00000E+00
    0.00000E+00         0.00000E+00        -0.49960E+08
 
   -0.49901E+08         0.61576E+04         0.00000E+00
    0.61576E+04        -0.49997E+08         0.00000E+00
    0.00000E+00         0.00000E+00        -0.49960E+08
 
   -0.49902E+08         0.68044E+04         0.00000E+00
    0.68044E+04        -0.49997E+08         0.00000E+00
    0.00000E+00         0.00000E+00        -0.49961E+08
 
   -0.49903E+08         0.74718E+04         0.00000E+00
    0.74718E+04        -0.49996E+08         0.00000E+00
    0.00000E+00         0.00000E+00        -0.49961E+08
 
   -0.49905E+08         0.81591E+04         0.00000E+00
    0.81591E+04        -0.49996E+08         0.00000E+00
    0.00000E+00         0.00000E+00        -0.49961E+08
 
   -0.49906E+08         0.88654E+04         0.00000E+00
    0.88654E+04        -0.49995E+08         0.00000E+00
    0.00000E+00         0.00000E+00        -0.49961E+08
 
   -0.49907E+08         0.95897E+04         0.00000E+00
    0.95897E+04        -0.49995E+08         0.00000E+00
    0.00000E+00         0.00000E+00        -0.49961E+08
 
   -0.49909E+08         0.10331E+05         0.00000E+00
    0.10331E+05        -0.49994E+08         0.00000E+00
    0.00000E+00         0.00000E+00        -0.49961E+08
 
   -0.49910E+08         0.11089E+05         0.00000E+00
    0.11089E+05        -0.49993E+08         0.00000E+00
    0.00000E+00         0.00000E+00        -0.49961E+08
 
   -0.49912E+08         0.11863E+05         0.00000E+00
    0.11863E+05        -0.49993E+08         0.00000E+00
    0.00000E+00         0.00000E+00        -0.49961E+08
 
   -0.49913E+08         0.12651E+05         0.00000E+00
    0.12651E+05        -0.49992E+08         0.00000E+00
    0.00000E+00         0.00000E+00        -0.49961E+08
 
   -0.49915E+08         0.13453E+05         0.00000E+00
    0.13453E+05        -0.49992E+08         0.00000E+00
    0.00000E+00         0.00000E+00        -0.49961E+08
 
   -0.49916E+08         0.14268E+05         0.00000E+00
    0.14268E+05        -0.49991E+08         0.00000E+00
    0.00000E+00         0.00000E+00        -0.49961E+08
 
   -0.49918E+08         0.15096E+05         0.00000E+00
    0.15096E+05        -0.49990E+08         0.00000E+00
    0.00000E+00         0.00000E+00        -0.49961E+08
 
   -0.49919E+08         0.15936E+05         0.00000E+00
    0.15936E+05        -0.49990E+08         0.00000E+00
    0.00000E+00         0.00000E+00        -0.49961E+08
 
   -0.49921E+08         0.16788E+05         0.00000E+00
    0.16788E+05        -0.49989E+08         0.00000E+00
    0.00000E+00         0.00000E+00        -0.49961E+08
 
   -0.49923E+08         0.17650E+05         0.00000E+00
    0.17650E+05        -0.49988E+08         0.00000E+00
    0.00000E+00         0.00000E+00        -0.49962E+08
 
   -0.49924E+08         0.18523E+05         0.00000E+00
    0.18523E+05        -0.49988E+08         0.00000E+00
    0.00000E+00         0.00000E+00        -0.49962E+08
 
   -0.49926E+08         0.19406E+05         0.00000E+00
    0.19406E+05        -0.49987E+08         0.00000E+00
    0.00000E+00         0.00000E+00        -0.49962E+08
 
   -0.49928E+08         0.20299E+05         0.00000E+00
    0.20299E+05        -0.49986E+08         0.00000E+00
    0.00000E+00         0.00000E+00        -0.49962E+08
 
   -0.49929E+08         0.21202E+05         0.00000E+00
    0.21202E+05        -0.49985E+08         0.00000E+00
    0.00000E+00         0.00000E+00        -0.49962E+08
 
   -0.49931E+08         0.22114E+05         0.00000E+00
    0.22114E+05        -0.49985E+08         0.00000E+00
    0.00000E+00         0.00000E+00        -0.49962E+08
 
   -0.49933E+08         0.23035E+05         0.00000E+00
    0.23035E+05        -0.49984E+08         0.00000E+00
    0.00000E+00         0.00000E+00        -0.49962E+08
 
   -0.49935E+08         0.23965E+05         0.00000E+00
    0.23965E+05        -0.49983E+08         0.00000E+00
    0.00000E+00         0.00000E+00        -0.49962E+08
 
   -0.49936E+08         0.24904E+05         0.00000E+00
    0.24904E+05        -0.49982E+08         0.00000E+00
    0.00000E+00         0.00000E+00        -0.49962E+08
 
   -0.49938E+08         0.25852E+05         0.00000E+00
    0.25852E+05        -0.49981E+08         0.00000E+00
    0.00000E+00         0.00000E+00        -0.49962E+08
 
   -0.49940E+08         0.26808E+05         0.00000E+00
    0.26808E+05        -0.49981E+08         0.00000E+00
    0.00000E+00         0.00000E+00        -0.49962E+08
 
   -0.49942E+08         0.27773E+05         0.00000E+00
    0.27773E+05        -0.49980E+08         0.00000E+00
    0.00000E+00         0.00000E+00        -0.49962E+08
 
   -0.49944E+08         0.28747E+05         0.00000E+00
    0.28747E+05        -0.49979E+08         0.00000E+00
    0.00000E+00         0.00000E+00        -0.49962E+08
 
   -0.49946E+08         0.29728E+05         0.00000E+00
    0.29728E+05        -0.49978E+08         0.00000E+00
    0.00000E+00         0.00000E+00        -0.49962E+08
 
   -0.49947E+08         0.30717E+05         0.00000E+00
    0.30717E+05        -0.49977E+08         0.00000E+00
    0.00000E+00         0.00000E+00        -0.49962E+08
 
   -0.49949E+08         0.31714E+05         0.00000E+00
    0.31714E+05        -0.49976E+08         0.00000E+00
    0.00000E+00         0.00000E+00        -0.49963E+08
 
   -0.49951E+08         0.32718E+05         0.00000E+00
    0.32718E+05        -0.49976E+08         0.00000E+00
    0.00000E+00         0.00000E+00        -0.49963E+08
 
   -0.49953E+08         0.33729E+05         0.00000E+00
    0.33729E+05        -0.49975E+08         0.00000E+00
    0.00000E+00         0.00000E+00        -0.49963E+08
 
   -0.49955E+08         0.34745E+05         0.00000E+00
    0.34745E+05        -0.49974E+08         0.00000E+00
    0.00000E+00         0.00000E+00        -0.49963E+08
 
   -0.49956E+08         0.35768E+05         0.00000E+00
    0.35768E+05        -0.49973E+08         0.00000E+00
    0.00000E+00         0.00000E+00        -0.49963E+08
 
   -0.49958E+08         0.36795E+05         0.00000E+00
    0.36795E+05        -0.49972E+08         0.00000E+00
    0.00000E+00         0.00000E+00        -0.49963E+08
 
   -0.49960E+08         0.37825E+05         0.00000E+00
    0.37825E+05        -0.49971E+08         0.00000E+00
    0.00000E+00         0.00000E+00        -0.49963E+08
 
   -0.49962E+08         0.38859E+05         0.00000E+00
    0.38859E+05        -0.49970E+08         0.00000E+00
    0.00000E+00         0.00000E+00        -0.49963E+08
 
   -0.49890E+08         0.28577E+03         0.00000E+00
    0.28577E+03        -0.50000E+08         0.00000E+00
    0.00000E+00         0.00000E+00        -0.49955E+08
 
   -0.49890E+08         0.88094E+03         0.00000E+00
    0.88094E+03        -0.50000E+08         0.00000E+00
    0.00000E+00         0.00000E+00        -0.49955E+08
 
   -0.49890E+08         0.14867E+04         0.00000E+00
    0.14867E+04        -0.50000E+08         0.00000E+00
    0.00000E+00         0.00000E+00        -0.49955E+08
 
   -0.49891E+08         0.21044E+04         0.00000E+00
    0.21044E+04        -0.50000E+08         0.00000E+00
    0.00000E+00         0.00000E+00        -0.49955E+08
 
   -0.49891E+08         0.27349E+04         0.00000E+00
    0.27349E+04        -0.50000E+08         0.00000E+00
    0.00000E+00         0.00000E+00        -0.49955E+08
 
   -0.49892E+08         0.33793E+04         0.00000E+00
    0.33793E+04        -0.49999E+08         0.00000E+00
    0.00000E+00         0.00000E+00        -0.49955E+08
 
   -0.49892E+08         0.40381E+04         0.00000E+00
    0.40381E+04        -0.49999E+08         0.00000E+00
    0.00000E+00         0.00000E+00        -0.49955E+08
 
   -0.49893E+08         0.47119E+04         0.00000E+00
    0.47119E+04        -0.49999E+08         0.00000E+00
    0.00000E+00         0.00000E+00        -0.49955E+08
 
   -0.49894E+08         0.54012E+04         0.00000E+00
    0.54012E+04        -0.49999E+08         0.00000E+00
    0.00000E+00         0.00000E+00        -0.49955E+08
 
   -0.49895E+08         0.61061E+04         0.00000E+00
    0.61061E+04        -0.49998E+08         0.00000E+00
    0.00000E+00         0.00000E+00        -0.49955E+08
 
   -0.49896E+08         0.68267E+04         0.00000E+00
    0.68267E+04        -0.49998E+08         0.00000E+00
    0.00000E+00         0.00000E+00        -0.49955E+08
 
   -0.49897E+08         0.75631E+04         0.00000E+00
    0.75631E+04        -0.49997E+08         0.00000E+00
    0.00000E+00         0.00000E+00        -0.49955E+08
 
   -0.49898E+08         0.83152E+04         0.00000E+00
    0.83152E+04        -0.49997E+08         0.00000E+00
    0.00000E+00         0.00000E+00        -0.49955E+08
 
   -0.49899E+08         0.90826E+04         0.00000E+00
    0.90826E+04        -0.49997E+08         0.00000E+00
    0.00000E+00         0.00000E+00        -0.49955E+08
 
   -0.49900E+08         0.98652E+04         0.00000E+00
    0.98652E+04        -0.49996E+08         0.00000E+00
    0.00000E+00         0.00000E+00        -0.49955E+08
 
   -0.49901E+08         0.10662E+05         0.00000E+00
    0.10662E+05        -0.49996E+08         0.00000E+00
    0.00000E+00         0.00000E+00        -0.49956E+08
 
   -0.49902E+08         0.11474E+05         0.00000E+00
    0.11474E+05        -0.49995E+08         0.00000E+00
    0.00000E+00         0.00000E+00        -0.49956E+08
 
   -0.49903E+08         0.12300E+05         0.00000E+00
    0.12300E+05        -0.49995E+08         0.00000E+00
    0.00000E+00         0.00000E+00        -0.49956E+08
 
   -0.49905E+08         0.13139E+05         0.00000E+00
    0.13139E+05        -0.49994E+08         0.00000E+00
    0.00000E+00         0.00000E+00        -0.49956E+08
 
   -0.49906E+08         0.13991E+05         0.00000E+00
    0.13991E+05        -0.49993E+08         0.00000E+00
    0.00000E+00         0.00000E+00        -0.49956E+08
 
   -0.49907E+08         0.14855E+05         0.00000E+00
    0.14855E+05        -0.49993E+08         0.00000E+00
    0.00000E+00         0.00000E+00        -0.49956E+08
 
   -0.49909E+08         0.15731E+05         0.00000E+00
    0.15731E+05        -0.49992E+08         0.00000E+00
    0.00000E+00         0.00000E+00        -0.49956E+08
 
   -0.49910E+08         0.16618E+05         0.00000E+00
    0.16618E+05        -0.49992E+08         0.00000E+00
    0.00000E+00         0.00000E+00        -0.49956E+08
 
   -0.49912E+08         0.17517E+05         0.00000E+00
    0.17517E+05        -0.49991E+08         0.00000E+00
    0.00000E+00         0.00000E+00        -0.49956E+08
 
   -0.49913E+08         0.18425E+05         0.00000E+00
    0.18425E+05        -0.49990E+08         0.00000E+00
    0.00000E+00         0.00000E+00        -0.49956E+08
 
   -0.49915E+08         0.19343E+05         0.00000E+00
    0.19343E+05        -0.49990E+08         0.00000E+00
    0.00000E+00         0.00000E+00        -0.49956E+08
 
   -0.49916E+08         0.20271E+05         0.00000E+00
    0.20271E+05        -0.49989E+08         0.00000E+00
    0.00000E+00         0.00000E+00        -0.49956E+08
 
   -0.49918E+08         0.21208E+05         0.00000E+00
    0.21208E+05        -0.49988E+08         0.00000E+00
    0.00000E+00         0.00000E+00        -0.49956E+08
 
   -0.49920E+08         0.22152E+05         0.00000E+00
    0.22152E+05        -0.49987E+08         0.00000E+00
    0.00000E+00         0.00000E+00        -0.49957E+08
 
   -0.49921E+08         0.23105E+05         0.00000E+00
    0.23105E+05        -0.49987E+08         0.00000E+00
    0.00000E+00         0.00000E+00        -0.49957E+08
 
   -0.49923E+08         0.24066E+05         0.00000E+00
    0.24066E+05        -0.49986E+08         0.00000E+00
    0.00000E+00         0.00000E+00        -0.49957E+08
 
   -0.49925E+08         0.25033E+05         0.00000E+00
    0.25033E+05        -0.49985E+08         0.00000E+00
    0.00000E+00         0.00000E+00        -0.49957E+08
 
   -0.49926E+08         0.26008E+05         0.00000E+00
    0.26008E+05        -0.49984E+08         0.00000E+00
    0.00000E+00         0.00000E+00        -0.49957E+08
 
   -0.49928E+08         0.26989E+05         0.00000E+00
    0.26989E+05        -0.49984E+08         0.00000E+00
    0.00000E+00         0.00000E+00        -0.49957E+08
 
   -0.49930E+08         0.27976E+05         0.00000E+00
    0.27976E+05        -0.49983E+08         0.00000E+00
    0.00000E+00         0.00000E+00        -0.49957E+08
 
   -0.49932E+08         0.28969E+05         0.00000E+00
    0.28969E+05        -0.49982E+08         0.00000E+00
    0.00000E+00         0.00000E+00        -0.49957E+08
 
   -0.49933E+08         0.29968E+05         0.00000E+00
    0.29968E+05        -0.49981E+08         0.00000E+00
    0.00000E+00         0.00000E+00        -0.49957E+08
 
   -0.49935E+08         0.30971E+05         0.00000E+00
    0.30971E+05        -0.49980E+08         0.00000E+00
    0.00000E+00         0.00000E+00        -0.49957E+08
 
   -0.49937E+08         0.31980E+05         0.00000E+00
    0.31980E+05        -0.49980E+08         0.00000E+00
    0.00000E+00         0.00000E+00        -0.49957E+08
 
   -0.49939E+08         0.32992E+05         0.00000E+00
    0.32992E+05        -0.49979E+08         0.00000E+00
    0.00000E+00         0.00000E+00        -0.49957E+08
 
   -0.49941E+08         0.34008E+05         0.00000E+00
    0.34008E+05        -0.49978E+08         0.00000E+00
    0.00000E+00         0.00000E+00        -0.49957E+08
 
   -0.49942E+08         0.35028E+05         0.00000E+00
    0.35028E+05        -0.49977E+08         0.00000E+00
    0.00000E+00         0.00000E+00        -0.49957E+08
 
   -0.49944E+08         0.36050E+05         0.00000E+00
    0.36050E+05        -0.49976E+08         0.00000E+00
    0.00000E+00         0.00000E+00        -0.49957E+08
 
   -0.49946E+08         0.37075E+05         0.00000E+00
    0.37075E+05        -0.49975E+08         0.00000E+00
    0.00000E+00         0.00000E+00        -0.49957E+08
 
   -0.49948E+08         0.38101E+05         0.00000E+00
    0.38101E+05        -0.49974E+08         0.00000E+00
    0.00000E+00         0.00000E+00        -0.49957E+08
 
   -0.49950E+08         0.39128E+05         0.00000E+00
    0.39128E+05        -0.49973E+08         0.00000E+00
    0.00000E+00         0.00000E+00        -0.49958E+08
 
   -0.49951E+08         0.40156E+05         0.00000E+00
    0.40156E+05        -0.49973E+08         0.00000E+00
    0.00000E+00         0.00000E+00        -0.49958E+08
 
   -0.49953E+08         0.41182E+05         0.00000E+00
    0.41182E+05        -0.49972E+08         0.00000E+00
    0.00000E+00         0.00000E+00        -0.49958E+08
 
   -0.49955E+08         0.42207E+05         0.00000E+00
    0.42207E+05        -0.49971E+08         0.00000E+00
    0.00000E+00         0.00000E+00        -0.49958E+08
 
   -0.49957E+08         0.43229E+05         0.00000E+00
    0.43229E+05        -0.49970E+08         0.00000E+00
    0.00000E+00         0.00000E+00        -0.49958E+08
 
   -0.49886E+08         0.39888E+03         0.00000E+00
    0.39888E+03        -0.50000E+08         0.00000E+00
    0.00000E+00         0.00000E+00        -0.49950E+08
 
   -0.49887E+08         0.12013E+04         0.00000E+00
    0.12013E+04        -0.50000E+08         0.00000E+00
    0.00000E+00         0.00000E+00        -0.49950E+08
 
   -0.49887E+08         0.20074E+04         0.00000E+00
    0.20074E+04        -0.50000E+08         0.00000E+00
    0.00000E+00         0.00000E+00        -0.49950E+08
 
   -0.49887E+08         0.28182E+04         0.00000E+00
    0.28182E+04        -0.50000E+08         0.00000E+00
    0.00000E+00         0.00000E+00        -0.49950E+08
 
   -0.49888E+08         0.36348E+04         0.00000E+00
    0.36348E+04        -0.50000E+08         0.00000E+00
    0.00000E+00         0.00000E+00        -0.49950E+08
 
   -0.49888E+08         0.44581E+04         0.00000E+00
    0.44581E+04        -0.49999E+08         0.00000E+00
    0.00000E+00         0.00000E+00        -0.49950E+08
 
   -0.49889E+08         0.52889E+04         0.00000E+00
    0.52889E+04        -0.49999E+08         0.00000E+00
    0.00000E+00         0.00000E+00        -0.49950E+08
 
   -0.49889E+08         0.61279E+04         0.00000E+00
    0.61279E+04        -0.49999E+08         0.00000E+00
    0.00000E+00         0.00000E+00        -0.49950E+08
 
   -0.49890E+08         0.69755E+04         0.00000E+00
    0.69755E+04        -0.49999E+08         0.00000E+00
    0.00000E+00         0.00000E+00        -0.49950E+08
 
   -0.49891E+08         0.78323E+04         0.00000E+00
    0.78323E+04        -0.49998E+08         0.00000E+00
    0.00000E+00         0.00000E+00        -0.49950E+08
 
   -0.49892E+08         0.86986E+04         0.00000E+00
    0.86986E+04        -0.49998E+08         0.00000E+00
    0.00000E+00         0.00000E+00        -0.49950E+08
 
   -0.49892E+08         0.95745E+04         0.00000E+00
    0.95745E+04        -0.49998E+08         0.00000E+00
    0.00000E+00         0.00000E+00        -0.49950E+08
 
   -0.49893E+08         0.10460E+05         0.00000E+00
    0.10460E+05        -0.49997E+08         0.00000E+00
    0.00000E+00         0.00000E+00        -0.49950E+08
 
   -0.49894E+08         0.11356E+05         0.00000E+00
    0.11356E+05        -0.49997E+08         0.00000E+00
    0.00000E+00         0.00000E+00        -0.49950E+08
 
   -0.49895E+08         0.12261E+05         0.00000E+00
    0.12261E+05        -0.49996E+08         0.00000E+00
    0.00000E+00         0.00000E+00        -0.49950E+08
 
   -0.49897E+08         0.13177E+05         0.00000E+00
    0.13177E+05        -0.49996E+08         0.00000E+00
    0.00000E+00         0.00000E+00        -0.49950E+08
 
   -0.49898E+08         0.14101E+05         0.00000E+00
    0.14101E+05        -0.49995E+08         0.00000E+00
    0.00000E+00         0.00000E+00        -0.49951E+08
 
   -0.49899E+08         0.15036E+05         0.00000E+00
    0.15036E+05        -0.49995E+08         0.00000E+00
    0.00000E+00         0.00000E+00        -0.49951E+08
 
   -0.49900E+08         0.15979E+05         0.00000E+00
    0.15979E+05        -0.49994E+08         0.00000E+00
    0.00000E+00         0.00000E+00        -0.49951E+08
 
   -0.49901E+08         0.16931E+05         0.00000E+00
    0.16931E+05        -0.49994E+08         0.00000E+00
    0.00000E+00         0.00000E+00        -0.49951E+08
 
   -0.49903E+08         0.17892E+05         0.00000E+00
    0.17892E+05        -0.49993E+08         0.00000E+00
    0.00000E+00         0.00000E+00        -0.49951E+08
 
   -0.49904E+08         0.18861E+05         0.00000E+00
    0.18861E+05        -0.49992E+08         0.00000E+00
    0.00000E+00         0.00000E+00        -0.49951E+08
 
   -0.49906E+08         0.19839E+05         0.00000E+00
    0.19839E+05        -0.49992E+08         0.00000E+00
    0.00000E+00         0.00000E+00        -0.49951E+08
 
   -0.49907E+08         0.20823E+05         0.00000E+00
    0.20823E+05        -0.49991E+08         0.00000E+00
    0.00000E+00         0.00000E+00        -0.49951E+08
 
   -0.49909E+08         0.21815E+05         0.00000E+00
    0.21815E+05        -0.49990E+08         0.00000E+00
    0.00000E+00         0.00000E+00        -0.49951E+08
 
   -0.49910E+08         0.22813E+05         0.00000E+00
    0.22813E+05        -0.49990E+08         0.00000E+00
    0.00000E+00         0.00000E+00        -0.49951E+08
 
   -0.49912E+08         0.23818E+05         0.00000E+00
    0.23818E+05        -0.49989E+08         0.00000E+00
    0.00000E+00         0.00000E+00        -0.49951E+08
 
   -0.49913E+08         0.24829E+05         0.00000E+00
    0.24829E+05        -0.49988E+08         0.00000E+00
    0.00000E+00         0.00000E+00        -0.49951E+08
 
   -0.49915E+08         0.25845E+05         0.00000E+00
    0.25845E+05        -0.49988E+08         0.00000E+00
    0.00000E+00         0.00000E+00        -0.49951E+08
 
   -0.49916E+08         0.26866E+05         0.00000E+00
    0.26866E+05        -0.49987E+08         0.00000E+00
    0.00000E+00         0.00000E+00        -0.49952E+08
 
   -0.49918E+08         0.27892E+05         0.00000E+00
    0.27892E+05        -0.49986E+08         0.00000E+00
    0.00000E+00         0.00000E+00        -0.49952E+08
 
   -0.49920E+08         0.28922E+05         0.00000E+00
    0.28922E+05        -0.49985E+08         0.00000E+00
    0.00000E+00         0.00000E+00        -0.49952E+08
 
   -0.49921E+08         0.29956E+05         0.00000E+00
    0.29956E+05        -0.49984E+08         0.00000E+00
    0.00000E+00         0.00000E+00        -0.49952E+08
 
   -0.49923E+08         0.30994E+05         0.00000E+00
    0.30994E+05        -0.49984E+08         0.00000E+00
    0.00000E+00         0.00000E+00        -0.49952E+08
 
   -0.49925E+08         0.32034E+05         0.00000E+00
    0.32034E+05        -0.49983E+08         0.00000E+00
    0.00000E+00         0.00000E+00        -0.49952E+08
 
   -0.49927E+08         0.33078E+05         0.00000E+00
    0.33078E+05        -0.49982E+08         0.00000E+00
    0.00000E+00         0.00000E+00        -0.49952E+08
 
   -0.49928E+08         0.34123E+05         0.00000E+00
    0.34123E+05        -0.49981E+08         0.00000E+00
    0.00000E+00         0.00000E+00        -0.49952E+08
 
   -0.49930E+08         0.35169E+05         0.00000E+00
    0.35169E+05        -0.49980E+08         0.00000E+00
    0.00000E+00         0.00000E+00        -0.49952E+08
 
   -0.49932E+08         0.36217E+05         0.00000E+00
    0.36217E+05        -0.49979E+08         0.00000E+00
    0.00000E+00         0.00000E+00        -0.49952E+08
 
   -0.49934E+08         0.37266E+05         0.00000E+00
    0.37266E+05        -0.49979E+08         0.00000E+00
    0.00000E+00         0.00000E+00        -0.49952E+08
 
   -0.49935E+08         0.38314E+05         0.00000E+00
    0.38314E+05        -0.49978E+08         0.00000E+00
    0.00000E+00         0.00000E+00        -0.49952E+08
 
   -0.49937E+08         0.39362E+05         0.00000E+00
    0.39362E+05        -0.49977E+08         0.00000E+00
    0.00000E+00         0.00000E+00        -0.49952E+08
 
   -0.49939E+08         0.40409E+05         0.00000E+00
    0.40409E+05        -0.49976E+08         0.00000E+00
    0.00000E+00         0.00000E+00        -0.49952E+08
 
   -0.49941E+08         0.41454E+05         0.00000E+00
    0.41454E+05        -0.49975E+08         0.00000E+00
    0.00000E+00         0.00000E+00        -0.49952E+08
 
   -0.49943E+08         0.42497E+05         0.00000E+00
    0.42497E+05        -0.49974E+08         0.00000E+00
    0.00000E+00         0.00000E+00        -0.49952E+08
 
   -0.49944E+08         0.43537E+05         0.00000E+00
    0.43537E+05        -0.49973E+08         0.00000E+00
    0.00000E+00         0.00000E+00        -0.49952E+08
 
   -0.49946E+08         0.44572E+05         0.00000E+00
    0.44572E+05        -0.49973E+08         0.00000E+00
    0.00000E+00         0.00000E+00        -0.49952E+08
 
   -0.49948E+08         0.45603E+05         0.00000E+00
    0.45603E+05        -0.49972E+08         0.00000E+00
    0.00000E+00         0.00000E+00        -0.49952E+08
 
   -0.49950E+08         0.46628E+05         0.00000E+00
    0.46628E+05        -0.49971E+08         0.00000E+00
    0.00000E+00         0.00000E+00        -0.49952E+08
 
   -0.49952E+08         0.47646E+05         0.00000E+00
    0.47646E+05        -0.49970E+08         0.00000E+00
    0.00000E+00         0.00000E+00        -0.49952E+08
 
   -0.49882E+08         0.50433E+03         0.00000E+00
    0.50433E+03        -0.50000E+08         0.00000E+00
    0.00000E+00         0.00000E+00        -0.49945E+08
 
   -0.49882E+08         0.15037E+04         0.00000E+00
    0.15037E+04        -0.50000E+08         0.00000E+00
    0.00000E+00         0.00000E+00        -0.49945E+08
 
   -0.49882E+08         0.25012E+04         0.00000E+00
    0.25012E+04        -0.50000E+08         0.00000E+00
    0.00000E+00         0.00000E+00        -0.49945E+08
 
   -0.49883E+08         0.34982E+04         0.00000E+00
    0.34982E+04        -0.50000E+08         0.00000E+00
    0.00000E+00         0.00000E+00        -0.49945E+08
 
   -0.49883E+08         0.44954E+04         0.00000E+00
    0.44954E+04        -0.50000E+08         0.00000E+00
    0.00000E+00         0.00000E+00        -0.49945E+08
 
   -0.49884E+08         0.54939E+04         0.00000E+00
    0.54939E+04        -0.49999E+08         0.00000E+00
    0.00000E+00         0.00000E+00        -0.49945E+08
 
   -0.49884E+08         0.64943E+04         0.00000E+00
    0.64943E+04        -0.49999E+08         0.00000E+00
    0.00000E+00         0.00000E+00        -0.49945E+08
 
   -0.49885E+08         0.74973E+04         0.00000E+00
    0.74973E+04        -0.49999E+08         0.00000E+00
    0.00000E+00         0.00000E+00        -0.49945E+08
 
   -0.49885E+08         0.85036E+04         0.00000E+00
    0.85036E+04        -0.49999E+08         0.00000E+00
    0.00000E+00         0.00000E+00        -0.49945E+08
 
   -0.49886E+08         0.95135E+04         0.00000E+00
    0.95135E+04        -0.49998E+08         0.00000E+00
    0.00000E+00         0.00000E+00        -0.49945E+08
 
   -0.49887E+08         0.10528E+05         0.00000E+00
    0.10528E+05        -0.49998E+08         0.00000E+00
    0.00000E+00         0.00000E+00        -0.49945E+08
 
   -0.49888E+08         0.11546E+05         0.00000E+00
    0.11546E+05        -0.49998E+08         0.00000E+00
    0.00000E+00         0.00000E+00        -0.49945E+08
 
   -0.49889E+08         0.12570E+05         0.00000E+00
    0.12570E+05        -0.49997E+08         0.00000E+00
    0.00000E+00         0.00000E+00        -0.49945E+08
 
   -0.49890E+08         0.13598E+05         0.00000E+00
    0.13598E+05        -0.49997E+08         0.00000E+00
    0.00000E+00         0.00000E+00        -0.49945E+08
 
   -0.49891E+08         0.14631E+05         0.00000E+00
    0.14631E+05        -0.49996E+08         0.00000E+00
    0.00000E+00         0.00000E+00        -0.49945E+08
 
   -0.49892E+08         0.15669E+05         0.00000E+00
    0.15669E+05        -0.49996E+08         0.00000E+00
    0.00000E+00         0.00000E+00        -0.49945E+08
 
   -0.49893E+08         0.16713E+05         0.00000E+00
    0.16713E+05        -0.49995E+08         0.00000E+00
    0.00000E+00         0.00000E+00        -0.49946E+08
 
   -0.49894E+08         0.17761E+05         0.00000E+00
    0.17761E+05        -0.49995E+08         0.00000E+00
    0.00000E+00         0.00000E+00        -0.49946E+08
 
   -0.49895E+08         0.18814E+05         0.00000E+00
    0.18814E+05        -0.49994E+08         0.00000E+00
    0.00000E+00         0.00000E+00        -0.49946E+08
 
   -0.49896E+08         0.19872E+05         0.00000E+00
    0.19872E+05        -0.49994E+08         0.00000E+00
    0.00000E+00         0.00000E+00        -0.49946E+08
 
   -0.49898E+08         0.20935E+05         0.00000E+00
    0.20935E+05        -0.49993E+08         0.00000E+00
    0.00000E+00         0.00000E+00        -0.49946E+08
 
   -0.49899E+08         0.22002E+05         0.00000E+00
    0.22002E+05        -0.49992E+08         0.00000E+00
    0.00000E+00         0.00000E+00        -0.49946E+08
 
   -0.49900E+08         0.23073E+05         0.00000E+00
    0.23073E+05        -0.49992E+08         0.00000E+00
    0.00000E+00         0.00000E+00        -0.49946E+08
 
   -0.49902E+08         0.24148E+05         0.00000E+00
    0.24148E+05        -0.49991E+08         0.00000E+00
    0.00000E+00         0.00000E+00        -0.49946E+08
 
   -0.49903E+08         0.25227E+05         0.00000E+00
    0.25227E+05        -0.49991E+08         0.00000E+00
    0.00000E+00         0.00000E+00        -0.49946E+08
 
   -0.49905E+08         0.26309E+05         0.00000E+00
    0.26309E+05        -0.49990E+08         0.00000E+00
    0.00000E+00         0.00000E+00        -0.49946E+08
 
   -0.49906E+08         0.27394E+05         0.00000E+00
    0.27394E+05        -0.49989E+08         0.00000E+00
    0.00000E+00         0.00000E+00        -0.49946E+08
 
   -0.49908E+08         0.28482E+05         0.00000E+00
    0.28482E+05        -0.49988E+08         0.00000E+00
    0.00000E+00         0.00000E+00        -0.49946E+08
 
   -0.49909E+08         0.29571E+05         0.00000E+00
    0.29571E+05        -0.49988E+08         0.00000E+00
    0.00000E+00         0.00000E+00        -0.49946E+08
 
   -0.49911E+08         0.30663E+05         0.00000E+00
    0.30663E+05        -0.49987E+08         0.00000E+00
    0.00000E+00         0.00000E+00        -0.49946E+08
 
   -0.49913E+08         0.31756E+05         0.00000E+00
    0.31756E+05        -0.49986E+08         0.00000E+00
    0.00000E+00         0.00000E+00        -0.49947E+08
 
   -0.49914E+08         0.32850E+05         0.00000E+00
    0.32850E+05        -0.49985E+08         0.00000E+00
    0.00000E+00         0.00000E+00        -0.49947E+08
 
   -0.49916E+08         0.33945E+05         0.00000E+00
    0.33945E+05        -0.49985E+08         0.00000E+00
    0.00000E+00         0.00000E+00        -0.49947E+08
 
   -0.49918E+08         0.35040E+05         0.00000E+00
    0.35040E+05        -0.49984E+08         0.00000E+00
    0.00000E+00         0.00000E+00        -0.49947E+08
 
   -0.49919E+08         0.36135E+05         0.00000E+00
    0.36135E+05        -0.49983E+08         0.00000E+00
    0.00000E+00         0.00000E+00        -0.49947E+08
 
   -0.49921E+08         0.37229E+05         0.00000E+00
    0.37229E+05        -0.49982E+08         0.00000E+00
    0.00000E+00         0.00000E+00        -0.49947E+08
 
   -0.49923E+08         0.38321E+05         0.00000E+00
    0.38321E+05        -0.49981E+08         0.00000E+00
    0.00000E+00         0.00000E+00        -0.49947E+08
 
   -0.49925E+08         0.39412E+05         0.00000E+00
    0.39412E+05        -0.49980E+08         0.00000E+00
    0.00000E+00         0.00000E+00        -0.49947E+08
 
   -0.49927E+08         0.40501E+05         0.00000E+00
    0.40501E+05        -0.49980E+08         0.00000E+00
    0.00000E+00         0.00000E+00        -0.49947E+08
 
   -0.49928E+08         0.41587E+05         0.00000E+00
    0.41587E+05        -0.49979E+08         0.00000E+00
    0.00000E+00         0.00000E+00        -0.49947E+08
 
   -0.49930E+08         0.42670E+05         0.00000E+00
    0.42670E+05        -0.49978E+08         0.00000E+00
    0.00000E+00         0.00000E+00        -0.49947E+08
 
   -0.49932E+08         0.43748E+05         0.00000E+00
    0.43748E+05        -0.49977E+08         0.00000E+00
    0.00000E+00         0.00000E+00        -0.49947E+08
 
   -0.49934E+08         0.44822E+05         0.00000E+00
    0.44822E+05        -0.49976E+08         0.00000E+00
    0.00000E+00         0.00000E+00        -0.49947E+08
 
   -0.49936E+08         0.45891E+05         0.00000E+00
    0.45891E+05        -0.49975E+08         0.00000E+00
    0.00000E+00         0.00000E+00        -0.49947E+08
 
   -0.49937E+08         0.46955E+05         0.00000E+00
    0.46955E+05        -0.49974E+08         0.00000E+00
    0.00000E+00         0.00000E+00        -0.49947E+08
 
   -0.49939E+08         0.48011E+05         0.00000E+00
    0.48011E+05        -0.49973E+08         0.00000E+00
    0.00000E+00         0.00000E+00        -0.49947E+08
 
   -0.49941E+08         0.49061E+05         0.00000E+00
    0.49061E+05        -0.49972E+08         0.00000E+00
    0.00000E+00         0.00000E+00        -0.49947E+08
 
   -0.49943E+08         0.50102E+05         0.00000E+00
    0.50102E+05        -0.49972E+08         0.00000E+00
    0.00000E+00         0.00000E+00        -0.49947E+08
 
   -0.49945E+08         0.51135E+05         0.00000E+00
    0.51135E+05        -0.49971E+08         0.00000E+00
    0.00000E+00         0.00000E+00        -0.49947E+08
 
   -0.49947E+08         0.52158E+05         0.00000E+00
    0.52158E+05        -0.49970E+08         0.00000E+00
    0.00000E+00         0.00000E+00        -0.49947E+08
 
   -0.49876E+08         0.60320E+03         0.00000E+00
    0.60320E+03        -0.50000E+08         0.00000E+00
    0.00000E+00         0.00000E+00        -0.49940E+08
 
   -0.49877E+08         0.17899E+04         0.00000E+00
    0.17899E+04        -0.50000E+08         0.00000E+00
    0.00000E+00         0.00000E+00        -0.49940E+08
 
   -0.49877E+08         0.29709E+04         0.00000E+00
    0.29709E+04        -0.50000E+08         0.00000E+00
    0.00000E+00         0.00000E+00        -0.49940E+08
 
   -0.49877E+08         0.41472E+04         0.00000E+00
    0.41472E+04        -0.50000E+08         0.00000E+00
    0.00000E+00         0.00000E+00        -0.49940E+08
 
   -0.49878E+08         0.53195E+04         0.00000E+00
    0.53195E+04        -0.50000E+08         0.00000E+00
    0.00000E+00         0.00000E+00        -0.49940E+08
 
   -0.49878E+08         0.64886E+04         0.00000E+00
    0.64886E+04        -0.49999E+08         0.00000E+00
    0.00000E+00         0.00000E+00        -0.49940E+08
 
   -0.49879E+08         0.76553E+04         0.00000E+00
    0.76553E+04        -0.49999E+08         0.00000E+00
    0.00000E+00         0.00000E+00        -0.49940E+08
 
   -0.49879E+08         0.88202E+04         0.00000E+00
    0.88202E+04        -0.49999E+08         0.00000E+00
    0.00000E+00         0.00000E+00        -0.49940E+08
 
   -0.49880E+08         0.99839E+04         0.00000E+00
    0.99839E+04        -0.49999E+08         0.00000E+00
    0.00000E+00         0.00000E+00        -0.49940E+08
 
   -0.49881E+08         0.11147E+05         0.00000E+00
    0.11147E+05        -0.49998E+08         0.00000E+00
    0.00000E+00         0.00000E+00        -0.49940E+08
 
   -0.49881E+08         0.12309E+05         0.00000E+00
    0.12309E+05        -0.49998E+08         0.00000E+00
    0.00000E+00         0.00000E+00        -0.49940E+08
 
   -0.49882E+08         0.13472E+05         0.00000E+00
    0.13472E+05        -0.49998E+08         0.00000E+00
    0.00000E+00         0.00000E+00        -0.49940E+08
 
   -0.49883E+08         0.14635E+05         0.00000E+00
    0.14635E+05        -0.49997E+08         0.00000E+00
    0.00000E+00         0.00000E+00        -0.49940E+08
 
   -0.49884E+08         0.15798E+05         0.00000E+00
    0.15798E+05        -0.49997E+08         0.00000E+00
    0.00000E+00         0.00000E+00        -0.49940E+08
 
   -0.49885E+08         0.16962E+05         0.00000E+00
    0.16962E+05        -0.49996E+08         0.00000E+00
    0.00000E+00         0.00000E+00        -0.49940E+08
 
   -0.49886E+08         0.18127E+05         0.00000E+00
    0.18127E+05        -0.49996E+08         0.00000E+00
    0.00000E+00         0.00000E+00        -0.49940E+08
 
   -0.49887E+08         0.19293E+05         0.00000E+00
    0.19293E+05        -0.49995E+08         0.00000E+00
    0.00000E+00         0.00000E+00        -0.49940E+08
 
   -0.49888E+08         0.20460E+05         0.00000E+00
    0.20460E+05        -0.49995E+08         0.00000E+00
    0.00000E+00         0.00000E+00        -0.49940E+08
 
   -0.49890E+08         0.21627E+05         0.00000E+00
    0.21627E+05        -0.49994E+08         0.00000E+00
    0.00000E+00         0.00000E+00        -0.49941E+08
 
   -0.49891E+08         0.22796E+05         0.00000E+00
    0.22796E+05        -0.49994E+08         0.00000E+00
    0.00000E+00         0.00000E+00        -0.49941E+08
 
   -0.49892E+08         0.23965E+05         0.00000E+00
    0.23965E+05        -0.49993E+08         0.00000E+00
    0.00000E+00         0.00000E+00        -0.49941E+08
 
   -0.49893E+08         0.25135E+05         0.00000E+00
    0.25135E+05        -0.49993E+08         0.00000E+00
    0.00000E+00         0.00000E+00        -0.49941E+08
 
   -0.49895E+08         0.26305E+05         0.00000E+00
    0.26305E+05        -0.49992E+08         0.00000E+00
    0.00000E+00         0.00000E+00        -0.49941E+08
 
   -0.49896E+08         0.27475E+05         0.00000E+00
    0.27475E+05        -0.49991E+08         0.00000E+00
    0.00000E+00         0.00000E+00        -0.49941E+08
 
   -0.49898E+08         0.28645E+05         0.00000E+00
    0.28645E+05        -0.49991E+08         0.00000E+00
    0.00000E+00         0.00000E+00        -0.49941E+08
 
   -0.49899E+08         0.29816E+05         0.00000E+00
    0.29816E+05        -0.49990E+08         0.00000E+00
    0.00000E+00         0.00000E+00        -0.49941E+08
 
   -0.49901E+08         0.30985E+05         0.00000E+00
    0.30985E+05        -0.49989E+08         0.00000E+00
    0.00000E+00         0.00000E+00        -0.49941E+08
 
   -0.49902E+08         0.32154E+05         0.00000E+00
    0.32154E+05        -0.49989E+08         0.00000E+00
    0.00000E+00         0.00000E+00        -0.49941E+08
 
   -0.49904E+08         0.33321E+05         0.00000E+00
    0.33321E+05        -0.49988E+08         0.00000E+00
    0.00000E+00         0.00000E+00        -0.49941E+08
 
   -0.49905E+08         0.34487E+05         0.00000E+00
    0.34487E+05        -0.49987E+08         0.00000E+00
    0.00000E+00         0.00000E+00        -0.49941E+08
 
   -0.49907E+08         0.35651E+05         0.00000E+00
    0.35651E+05        -0.49986E+08         0.00000E+00
    0.00000E+00         0.00000E+00        -0.49941E+08
 
   -0.49909E+08         0.36813E+05         0.00000E+00
    0.36813E+05        -0.49985E+08         0.00000E+00
    0.00000E+00         0.00000E+00        -0.49942E+08
 
   -0.49910E+08         0.37972E+05         0.00000E+00
    0.37972E+05        -0.49985E+08         0.00000E+00
    0.00000E+00         0.00000E+00        -0.49942E+08
 
   -0.49912E+08         0.39128E+05         0.00000E+00
    0.39128E+05        -0.49984E+08         0.00000E+00
    0.00000E+00         0.00000E+00        -0.49942E+08
 
   -0.49914E+08         0.40280E+05         0.00000E+00
    0.40280E+05        -0.49983E+08         0.00000E+00
    0.00000E+00         0.00000E+00        -0.49942E+08
 
   -0.49916E+08         0.41429E+05         0.00000E+00
    0.41429E+05        -0.49982E+08         0.00000E+00
    0.00000E+00         0.00000E+00        -0.49942E+08
 
   -0.49917E+08         0.42573E+05         0.00000E+00
    0.42573E+05        -0.49981E+08         0.00000E+00
    0.00000E+00         0.00000E+00        -0.49942E+08
 
   -0.49919E+08         0.43712E+05         0.00000E+00
    0.43712E+05        -0.49980E+08         0.00000E+00
    0.00000E+00         0.00000E+00        -0.49942E+08
 
   -0.49921E+08         0.44846E+05         0.00000E+00
    0.44846E+05        -0.49980E+08         0.00000E+00
    0.00000E+00         0.00000E+00        -0.49942E+08
 
   -0.49923E+08         0.45974E+05         0.00000E+00
    0.45974E+05        -0.49979E+08         0.00000E+00
    0.00000E+00         0.00000E+00        -0.49942E+08
 
   -0.49925E+08         0.47095E+05         0.00000E+00
    0.47095E+05        -0.49978E+08         0.00000E+00
    0.00000E+00         0.00000E+00        -0.49942E+08
 
   -0.49926E+08         0.48210E+05         0.00000E+00
    0.48210E+05        -0.49977E+08         0.00000E+00
    0.00000E+00         0.00000E+00        -0.49942E+08
 
   -0.49928E+08         0.49316E+05         0.00000E+00
    0.49316E+05        -0.49976E+08         0.00000E+00
    0.00000E+00         0.00000E+00        -0.49942E+08
 
   -0.49930E+08         0.50415E+05         0.00000E+00
    0.50415E+05        -0.49975E+08         0.00000E+00
    0.00000E+00         0.00000E+00        -0.49942E+08
 
   -0.49932E+08         0.51505E+05         0.00000E+00
    0.51505E+05        -0.49974E+08         0.00000E+00
    0.00000E+00         0.00000E+00        -0.49942E+08
 
   -0.49934E+08         0.52585E+05         0.00000E+00
    0.52585E+05        -0.49973E+08         0.00000E+00
    0.00000E+00         0.00000E+00        -0.49942E+08
 
   -0.49936E+08         0.53655E+05         0.00000E+00
    0.53655E+05        -0.49972E+08         0.00000E+00
    0.00000E+00         0.00000E+00        -0.49942E+08
 
   -0.49938E+08         0.54715E+05         0.00000E+00
    0.54715E+05        -0.49971E+08         0.00000E+00
    0.00000E+00         0.00000E+00        -0.49942E+08
 
   -0.49940E+08         0.55763E+05         0.00000E+00
    0.55763E+05        -0.49970E+08         0.00000E+00
    0.00000E+00         0.00000E+00        -0.49942E+08
 
   -0.49941E+08         0.56799E+05         0.00000E+00
    0.56799E+05        -0.49970E+08         0.00000E+00
    0.00000E+00         0.00000E+00        -0.49942E+08
 
   -0.49870E+08         0.69659E+03         0.00000E+00
    0.69659E+03        -0.50000E+08         0.00000E+00
    0.00000E+00         0.00000E+00        -0.49935E+08
 
   -0.49870E+08         0.20626E+04         0.00000E+00
    0.20626E+04        -0.50000E+08         0.00000E+00
    0.00000E+00         0.00000E+00        -0.49935E+08
 
   -0.49871E+08         0.34200E+04         0.00000E+00
    0.34200E+04        -0.50000E+08         0.00000E+00
    0.00000E+00         0.00000E+00        -0.49935E+08
 
   -0.49871E+08         0.47695E+04         0.00000E+00
    0.47695E+04        -0.50000E+08         0.00000E+00
    0.00000E+00         0.00000E+00        -0.49935E+08
 
   -0.49871E+08         0.61117E+04         0.00000E+00
    0.61117E+04        -0.50000E+08         0.00000E+00
    0.00000E+00         0.00000E+00        -0.49935E+08
 
   -0.49872E+08         0.74475E+04         0.00000E+00
    0.74475E+04        -0.49999E+08         0.00000E+00
    0.00000E+00         0.00000E+00        -0.49935E+08
 
   -0.49872E+08         0.87773E+04         0.00000E+00
    0.87773E+04        -0.49999E+08         0.00000E+00
    0.00000E+00         0.00000E+00        -0.49935E+08
 
   -0.49873E+08         0.10102E+05         0.00000E+00
    0.10102E+05        -0.49999E+08         0.00000E+00
    0.00000E+00         0.00000E+00        -0.49935E+08
 
   -0.49874E+08         0.11421E+05         0.00000E+00
    0.11421E+05        -0.49999E+08         0.00000E+00
    0.00000E+00         0.00000E+00        -0.49935E+08
 
   -0.49874E+08         0.12736E+05         0.00000E+00
    0.12736E+05        -0.49998E+08         0.00000E+00
    0.00000E+00         0.00000E+00        -0.49935E+08
 
   -0.49875E+08         0.14047E+05         0.00000E+00
    0.14047E+05        -0.49998E+08         0.00000E+00
    0.00000E+00         0.00000E+00        -0.49935E+08
 
   -0.49876E+08         0.15355E+05         0.00000E+00
    0.15355E+05        -0.49998E+08         0.00000E+00
    0.00000E+00         0.00000E+00        -0.49935E+08
 
   -0.49877E+08         0.16658E+05         0.00000E+00
    0.16658E+05        -0.49997E+08         0.00000E+00
    0.00000E+00         0.00000E+00        -0.49935E+08
 
   -0.49878E+08         0.17959E+05         0.00000E+00
    0.17959E+05        -0.49997E+08         0.00000E+00
    0.00000E+00         0.00000E+00        -0.49935E+08
 
   -0.49879E+08         0.19256E+05         0.00000E+00
    0.19256E+05        -0.49997E+08         0.00000E+00
    0.00000E+00         0.00000E+00        -0.49935E+08
 
   -0.49880E+08         0.20551E+05         0.00000E+00
    0.20551E+05        -0.49996E+08         0.00000E+00
    0.00000E+00         0.00000E+00        -0.49935E+08
 
   -0.49881E+08         0.21842E+05         0.00000E+00
    0.21842E+05        -0.49996E+08         0.00000E+00
    0.00000E+00         0.00000E+00        -0.49935E+08
 
   -0.49882E+08         0.23131E+05         0.00000E+00
    0.23131E+05        -0.49995E+08         0.00000E+00
    0.00000E+00         0.00000E+00        -0.49935E+08
 
   -0.49883E+08         0.24417E+05         0.00000E+00
    0.24417E+05        -0.49995E+08         0.00000E+00
    0.00000E+00         0.00000E+00        -0.49935E+08
 
   -0.49885E+08         0.25699E+05         0.00000E+00
    0.25699E+05        -0.49994E+08         0.00000E+00
    0.00000E+00         0.00000E+00        -0.49935E+08
 
   -0.49886E+08         0.26979E+05         0.00000E+00
    0.26979E+05        -0.49993E+08         0.00000E+00
    0.00000E+00         0.00000E+00        -0.49936E+08
 
   -0.49887E+08         0.28256E+05         0.00000E+00
    0.28256E+05        -0.49993E+08         0.00000E+00
    0.00000E+00         0.00000E+00        -0.49936E+08
 
   -0.49889E+08         0.29530E+05         0.00000E+00
    0.29530E+05        -0.49992E+08         0.00000E+00
    0.00000E+00         0.00000E+00        -0.49936E+08
 
   -0.49890E+08         0.30801E+05         0.00000E+00
    0.30801E+05        -0.49991E+08         0.00000E+00
    0.00000E+00         0.00000E+00        -0.49936E+08
 
   -0.49892E+08         0.32067E+05         0.00000E+00
    0.32067E+05        -0.49991E+08         0.00000E+00
    0.00000E+00         0.00000E+00        -0.49936E+08
 
   -0.49893E+08         0.33331E+05         0.00000E+00
    0.33331E+05        -0.49990E+08         0.00000E+00
    0.00000E+00         0.00000E+00        -0.49936E+08
 
   -0.49895E+08         0.34590E+05         0.00000E+00
    0.34590E+05        -0.49989E+08         0.00000E+00
    0.00000E+00         0.00000E+00        -0.49936E+08
 
   -0.49896E+08         0.35845E+05         0.00000E+00
    0.35845E+05        -0.49989E+08         0.00000E+00
    0.00000E+00         0.00000E+00        -0.49936E+08
 
   -0.49898E+08         0.37095E+05         0.00000E+00
    0.37095E+05        -0.49988E+08         0.00000E+00
    0.00000E+00         0.00000E+00        -0.49936E+08
 
   -0.49899E+08         0.38340E+05         0.00000E+00
    0.38340E+05        -0.49987E+08         0.00000E+00
    0.00000E+00         0.00000E+00        -0.49936E+08
 
   -0.49901E+08         0.39581E+05         0.00000E+00
    0.39581E+05        -0.49986E+08         0.00000E+00
    0.00000E+00         0.00000E+00        -0.49936E+08
 
   -0.49903E+08         0.40815E+05         0.00000E+00
    0.40815E+05        -0.49986E+08         0.00000E+00
    0.00000E+00         0.00000E+00        -0.49936E+08
 
   -0.49904E+08         0.42044E+05         0.00000E+00
    0.42044E+05        -0.49985E+08         0.00000E+00
    0.00000E+00         0.00000E+00        -0.49936E+08
 
   -0.49906E+08         0.43267E+05         0.00000E+00
    0.43267E+05        -0.49984E+08         0.00000E+00
    0.00000E+00         0.00000E+00        -0.49936E+08
 
   -0.49908E+08         0.44483E+05         0.00000E+00
    0.44483E+05        -0.49983E+08         0.00000E+00
    0.00000E+00         0.00000E+00        -0.49937E+08
 
   -0.49910E+08         0.45691E+05         0.00000E+00
    0.45691E+05        -0.49982E+08         0.00000E+00
    0.00000E+00         0.00000E+00        -0.49937E+08
 
   -0.49912E+08         0.46892E+05         0.00000E+00
    0.46892E+05        -0.49981E+08         0.00000E+00
    0.00000E+00         0.00000E+00        -0.49937E+08
 
   -0.49913E+08         0.48086E+05         0.00000E+00
    0.48086E+05        -0.49980E+08         0.00000E+00
    0.00000E+00         0.00000E+00        -0.49937E+08
 
   -0.49915E+08         0.49270E+05         0.00000E+00
    0.49270E+05        -0.49980E+08         0.00000E+00
    0.00000E+00         0.00000E+00        -0.49937E+08
 
   -0.49917E+08         0.50446E+05         0.00000E+00
    0.50446E+05        -0.49979E+08         0.00000E+00
    0.00000E+00         0.00000E+00        -0.49937E+08
 
   -0.49919E+08         0.51613E+05         0.00000E+00
    0.51613E+05        -0.49978E+08         0.00000E+00
    0.00000E+00         0.00000E+00        -0.49937E+08
 
   -0.49921E+08         0.52769E+05         0.00000E+00
    0.52769E+05        -0.49977E+08         0.00000E+00
    0.00000E+00         0.00000E+00        -0.49937E+08
 
   -0.49923E+08         0.53915E+05         0.00000E+00
    0.53915E+05        -0.49976E+08         0.00000E+00
    0.00000E+00         0.00000E+00        -0.49937E+08
 
   -0.49925E+08         0.55050E+05         0.00000E+00
    0.55050E+05        -0.49975E+08         0.00000E+00
    0.00000E+00         0.00000E+00        -0.49937E+08
 
   -0.49927E+08         0.56174E+05         0.00000E+00
    0.56174E+05        -0.49974E+08         0.00000E+00
    0.00000E+00         0.00000E+00        -0.49937E+08
 
   -0.49928E+08         0.57285E+05         0.00000E+00
    0.57285E+05        -0.49973E+08         0.00000E+00
    0.00000E+00         0.00000E+00        -0.49937E+08
 
   -0.49930E+08         0.58384E+05         0.00000E+00
    0.58384E+05        -0.49972E+08         0.00000E+00
    0.00000E+00         0.00000E+00        -0.49937E+08
 
   -0.49932E+08         0.59470E+05         0.00000E+00
    0.59470E+05        -0.49971E+08         0.00000E+00
    0.00000E+00         0.00000E+00        -0.49937E+08
 
   -0.49934E+08         0.60542E+05         0.00000E+00
    0.60542E+05        -0.49970E+08         0.00000E+00
    0.00000E+00         0.00000E+00        -0.49937E+08
 
   -0.49936E+08         0.61599E+05         0.00000E+00
    0.61599E+05        -0.49969E+08         0.00000E+00
    0.00000E+00         0.00000E+00        -0.49937E+08
 
   -0.49863E+08         0.78567E+03         0.00000E+00
    0.78567E+03        -0.50000E+08         0.00000E+00
    0.00000E+00         0.00000E+00        -0.49929E+08
 
   -0.49863E+08         0.23246E+04         0.00000E+00
    0.23246E+04        -0.50000E+08         0.00000E+00
    0.00000E+00         0.00000E+00        -0.49929E+08
 
   -0.49863E+08         0.38527E+04         0.00000E+00
    0.38527E+04        -0.50000E+08         0.00000E+00
    0.00000E+00         0.00000E+00        -0.49929E+08
 
   -0.49864E+08         0.53706E+04         0.00000E+00
    0.53706E+04        -0.50000E+08         0.00000E+00
    0.00000E+00         0.00000E+00        -0.49929E+08
 
   -0.49864E+08         0.68788E+04         0.00000E+00
    0.68788E+04        -0.50000E+08         0.00000E+00
    0.00000E+00         0.00000E+00        -0.49929E+08
 
   -0.49865E+08         0.83778E+04         0.00000E+00
    0.83778E+04        -0.49999E+08         0.00000E+00
    0.00000E+00         0.00000E+00        -0.49929E+08
 
   -0.49865E+08         0.98681E+04         0.00000E+00
    0.98681E+04        -0.49999E+08         0.00000E+00
    0.00000E+00         0.00000E+00        -0.49929E+08
 
   -0.49866E+08         0.11350E+05         0.00000E+00
    0.11350E+05        -0.49999E+08         0.00000E+00
    0.00000E+00         0.00000E+00        -0.49929E+08
 
   -0.49867E+08         0.12824E+05         0.00000E+00
    0.12824E+05        -0.49999E+08         0.00000E+00
    0.00000E+00         0.00000E+00        -0.49930E+08
 
   -0.49867E+08         0.14291E+05         0.00000E+00
    0.14291E+05        -0.49998E+08         0.00000E+00
    0.00000E+00         0.00000E+00        -0.49930E+08
 
   -0.49868E+08         0.15751E+05         0.00000E+00
    0.15751E+05        -0.49998E+08         0.00000E+00
    0.00000E+00         0.00000E+00        -0.49930E+08
 
   -0.49869E+08         0.17203E+05         0.00000E+00
    0.17203E+05        -0.49998E+08         0.00000E+00
    0.00000E+00         0.00000E+00        -0.49930E+08
 
   -0.49870E+08         0.18649E+05         0.00000E+00
    0.18649E+05        -0.49997E+08         0.00000E+00
    0.00000E+00         0.00000E+00        -0.49930E+08
 
   -0.49871E+08         0.20088E+05         0.00000E+00
    0.20088E+05        -0.49997E+08         0.00000E+00
    0.00000E+00         0.00000E+00        -0.49930E+08
 
   -0.49872E+08         0.21521E+05         0.00000E+00
    0.21521E+05        -0.49997E+08         0.00000E+00
    0.00000E+00         0.00000E+00        -0.49930E+08
 
   -0.49873E+08         0.22948E+05         0.00000E+00
    0.22948E+05        -0.49996E+08         0.00000E+00
    0.00000E+00         0.00000E+00        -0.49930E+08
 
   -0.49874E+08         0.24368E+05         0.00000E+00
    0.24368E+05        -0.49996E+08         0.00000E+00
    0.00000E+00         0.00000E+00        -0.49930E+08
 
   -0.49876E+08         0.25782E+05         0.00000E+00
    0.25782E+05        -0.49995E+08         0.00000E+00
    0.00000E+00         0.00000E+00        -0.49930E+08
 
   -0.49877E+08         0.27190E+05         0.00000E+00
    0.27190E+05        -0.49995E+08         0.00000E+00
    0.00000E+00         0.00000E+00        -0.49930E+08
 
   -0.49878E+08         0.28591E+05         0.00000E+00
    0.28591E+05        -0.49994E+08         0.00000E+00
    0.00000E+00         0.00000E+00        -0.49930E+08
 
   -0.49879E+08         0.29986E+05         0.00000E+00
    0.29986E+05        -0.49993E+08         0.00000E+00
    0.00000E+00         0.00000E+00        -0.49930E+08
 
   -0.49881E+08         0.31375E+05         0.00000E+00
    0.31375E+05        -0.49993E+08         0.00000E+00
    0.00000E+00         0.00000E+00        -0.49930E+08
 
   -0.49882E+08         0.32757E+05         0.00000E+00
    0.32757E+05        -0.49992E+08         0.00000E+00
    0.00000E+00         0.00000E+00        -0.49930E+08
 
   -0.49884E+08         0.34133E+05         0.00000E+00
    0.34133E+05        -0.49992E+08         0.00000E+00
    0.00000E+00         0.00000E+00        -0.49930E+08
 
   -0.49885E+08         0.35502E+05         0.00000E+00
    0.35502E+05        -0.49991E+08         0.00000E+00
    0.00000E+00         0.00000E+00        -0.49931E+08
 
   -0.49887E+08         0.36863E+05         0.00000E+00
    0.36863E+05        -0.49990E+08         0.00000E+00
    0.00000E+00         0.00000E+00        -0.49931E+08
 
   -0.49888E+08         0.38218E+05         0.00000E+00
    0.38218E+05        -0.49989E+08         0.00000E+00
    0.00000E+00         0.00000E+00        -0.49931E+08
 
   -0.49890E+08         0.39564E+05         0.00000E+00
    0.39564E+05        -0.49989E+08         0.00000E+00
    0.00000E+00         0.00000E+00        -0.49931E+08
 
   -0.49891E+08         0.40903E+05         0.00000E+00
    0.40903E+05        -0.49988E+08         0.00000E+00
    0.00000E+00         0.00000E+00        -0.49931E+08
 
   -0.49893E+08         0.42234E+05         0.00000E+00
    0.42234E+05        -0.49987E+08         0.00000E+00
    0.00000E+00         0.00000E+00        -0.49931E+08
 
   -0.49895E+08         0.43557E+05         0.00000E+00
    0.43557E+05        -0.49986E+08         0.00000E+00
    0.00000E+00         0.00000E+00        -0.49931E+08
 
   -0.49896E+08         0.44871E+05         0.00000E+00
    0.44871E+05        -0.49986E+08         0.00000E+00
    0.00000E+00         0.00000E+00        -0.49931E+08
 
   -0.49898E+08         0.46176E+05         0.00000E+00
    0.46176E+05        -0.49985E+08         0.00000E+00
    0.00000E+00         0.00000E+00        -0.49931E+08
 
   -0.49900E+08         0.47471E+05         0.00000E+00
    0.47471E+05        -0.49984E+08         0.00000E+00
    0.00000E+00         0.00000E+00        -0.49931E+08
 
   -0.49902E+08         0.48757E+05         0.00000E+00
    0.48757E+05        -0.49983E+08         0.00000E+00
    0.00000E+00         0.00000E+00        -0.49931E+08
 
   -0.49904E+08         0.50032E+05         0.00000E+00
    0.50032E+05        -0.49982E+08         0.00000E+00
    0.00000E+00         0.00000E+00        -0.49931E+08
 
   -0.49905E+08         0.51297E+05         0.00000E+00
    0.51297E+05        -0.49981E+08         0.00000E+00
    0.00000E+00         0.00000E+00        -0.49931E+08
 
   -0.49907E+08         0.52552E+05         0.00000E+00
    0.52552E+05        -0.49980E+08         0.00000E+00
    0.00000E+00         0.00000E+00        -0.49931E+08
 
   -0.49909E+08         0.53794E+05         0.00000E+00
    0.53794E+05        -0.49979E+08         0.00000E+00
    0.00000E+00         0.00000E+00        -0.49932E+08
 
   -0.49911E+08         0.55025E+05         0.00000E+00
    0.55025E+05        -0.49979E+08         0.00000E+00
    0.00000E+00         0.00000E+00        -0.49932E+08
 
   -0.49913E+08         0.56244E+05         0.00000E+00
    0.56244E+05        -0.49978E+08         0.00000E+00
    0.00000E+00         0.00000E+00        -0.49932E+08
 
   -0.49915E+08         0.57450E+05         0.00000E+00
    0.57450E+05        -0.49977E+08         0.00000E+00
    0.00000E+00         0.00000E+00        -0.49932E+08
 
   -0.49917E+08         0.58643E+05         0.00000E+00
    0.58643E+05        -0.49976E+08         0.00000E+00
    0.00000E+00         0.00000E+00        -0.49932E+08
 
   -0.49919E+08         0.59822E+05         0.00000E+00
    0.59822E+05        -0.49975E+08         0.00000E+00
    0.00000E+00         0.00000E+00        -0.49932E+08
 
   -0.49921E+08         0.60988E+05         0.00000E+00
    0.60988E+05        -0.49974E+08         0.00000E+00
    0.00000E+00         0.00000E+00        -0.49932E+08
 
   -0.49923E+08         0.62138E+05         0.00000E+00
    0.62138E+05        -0.49973E+08         0.00000E+00
    0.00000E+00         0.00000E+00        -0.49932E+08
 
   -0.49925E+08         0.63274E+05         0.00000E+00
    0.63274E+05        -0.49972E+08         0.00000E+00
    0.00000E+00         0.00000E+00        -0.49932E+08
 
   -0.49927E+08         0.64394E+05         0.00000E+00
    0.64394E+05        -0.49971E+08         0.00000E+00
    0.00000E+00         0.00000E+00        -0.49932E+08
 
   -0.49929E+08         0.65498E+05         0.00000E+00
    0.65498E+05        -0.49970E+08         0.00000E+00
    0.00000E+00         0.00000E+00        -0.49932E+08
 
   -0.49931E+08         0.66586E+05         0.00000E+00
    0.66586E+05        -0.49969E+08         0.00000E+00
    0.00000E+00         0.00000E+00        -0.49932E+08
 
   -0.49855E+08         0.87164E+03         0.00000E+00
    0.87164E+03        -0.50000E+08         0.00000E+00
    0.00000E+00         0.00000E+00        -0.49924E+08
 
   -0.49855E+08         0.25790E+04         0.00000E+00
    0.25790E+04        -0.50000E+08         0.00000E+00
    0.00000E+00         0.00000E+00        -0.49924E+08
 
   -0.49855E+08         0.42739E+04         0.00000E+00
    0.42739E+04        -0.50000E+08         0.00000E+00
    0.00000E+00         0.00000E+00        -0.49924E+08
 
   -0.49856E+08         0.59568E+04         0.00000E+00
    0.59568E+04        -0.50000E+08         0.00000E+00
    0.00000E+00         0.00000E+00        -0.49924E+08
 
   -0.49856E+08         0.76281E+04         0.00000E+00
    0.76281E+04        -0.50000E+08         0.00000E+00
    0.00000E+00         0.00000E+00        -0.49924E+08
 
   -0.49857E+08         0.92883E+04         0.00000E+00
    0.92883E+04        -0.49999E+08         0.00000E+00
    0.00000E+00         0.00000E+00        -0.49924E+08
 
   -0.49858E+08         0.10938E+05         0.00000E+00
    0.10938E+05        -0.49999E+08         0.00000E+00
    0.00000E+00         0.00000E+00        -0.49924E+08
 
   -0.49858E+08         0.12576E+05         0.00000E+00
    0.12576E+05        -0.49999E+08         0.00000E+00
    0.00000E+00         0.00000E+00        -0.49924E+08
 
   -0.49859E+08         0.14205E+05         0.00000E+00
    0.14205E+05        -0.49999E+08         0.00000E+00
    0.00000E+00         0.00000E+00        -0.49924E+08
 
   -0.49860E+08         0.15823E+05         0.00000E+00
    0.15823E+05        -0.49999E+08         0.00000E+00
    0.00000E+00         0.00000E+00        -0.49924E+08
 
   -0.49861E+08         0.17432E+05         0.00000E+00
    0.17432E+05        -0.49998E+08         0.00000E+00
    0.00000E+00         0.00000E+00        -0.49924E+08
 
   -0.49862E+08         0.19031E+05         0.00000E+00
    0.19031E+05        -0.49998E+08         0.00000E+00
    0.00000E+00         0.00000E+00        -0.49924E+08
 
   -0.49863E+08         0.20620E+05         0.00000E+00
    0.20620E+05        -0.49997E+08         0.00000E+00
    0.00000E+00         0.00000E+00        -0.49924E+08
 
   -0.49864E+08         0.22200E+05         0.00000E+00
    0.22200E+05        -0.49997E+08         0.00000E+00
    0.00000E+00         0.00000E+00        -0.49924E+08
 
   -0.49865E+08         0.23771E+05         0.00000E+00
    0.23771E+05        -0.49997E+08         0.00000E+00
    0.00000E+00         0.00000E+00        -0.49924E+08
 
   -0.49866E+08         0.25332E+05         0.00000E+00
    0.25332E+05        -0.49996E+08         0.00000E+00
    0.00000E+00         0.00000E+00        -0.49924E+08
 
   -0.49867E+08         0.26884E+05         0.00000E+00
    0.26884E+05        -0.49996E+08         0.00000E+00
    0.00000E+00         0.00000E+00        -0.49924E+08
 
   -0.49868E+08         0.28427E+05         0.00000E+00
    0.28427E+05        -0.49995E+08         0.00000E+00
    0.00000E+00         0.00000E+00        -0.49925E+08
 
   -0.49869E+08         0.29961E+05         0.00000E+00
    0.29961E+05        -0.49995E+08         0.00000E+00
    0.00000E+00         0.00000E+00        -0.49925E+08
 
   -0.49871E+08         0.31486E+05         0.00000E+00
    0.31486E+05        -0.49994E+08         0.00000E+00
    0.00000E+00         0.00000E+00        -0.49925E+08
 
   -0.49872E+08         0.33000E+05         0.00000E+00
    0.33000E+05        -0.49993E+08         0.00000E+00
    0.00000E+00         0.00000E+00        -0.49925E+08
 
   -0.49874E+08         0.34506E+05         0.00000E+00
    0.34506E+05        -0.49993E+08         0.00000E+00
    0.00000E+00         0.00000E+00        -0.49925E+08
 
   -0.49875E+08         0.36002E+05         0.00000E+00
    0.36002E+05        -0.49992E+08         0.00000E+00
    0.00000E+00         0.00000E+00        -0.49925E+08
 
   -0.49876E+08         0.37488E+05         0.00000E+00
    0.37488E+05        -0.49992E+08         0.00000E+00
    0.00000E+00         0.00000E+00        -0.49925E+08
 
   -0.49878E+08         0.38964E+05         0.00000E+00
    0.38964E+05        -0.49991E+08         0.00000E+00
    0.00000E+00         0.00000E+00        -0.49925E+08
 
   -0.49880E+08         0.40430E+05         0.00000E+00
    0.40430E+05        -0.49990E+08         0.00000E+00
    0.00000E+00         0.00000E+00        -0.49925E+08
 
   -0.49881E+08         0.41885E+05         0.00000E+00
    0.41885E+05        -0.49989E+08         0.00000E+00
    0.00000E+00         0.00000E+00        -0.49925E+08
 
   -0.49883E+08         0.43330E+05         0.00000E+00
    0.43330E+05        -0.49989E+08         0.00000E+00
    0.00000E+00         0.00000E+00        -0.49925E+08
 
   -0.49884E+08         0.44764E+05         0.00000E+00
    0.44764E+05        -0.49988E+08         0.00000E+00
    0.00000E+00         0.00000E+00        -0.49925E+08
 
   -0.49886E+08         0.46187E+05         0.00000E+00
    0.46187E+05        -0.49987E+08         0.00000E+00
    0.00000E+00         0.00000E+00        -0.49925E+08
 
   -0.49888E+08         0.47598E+05         0.00000E+00
    0.47598E+05        -0.49986E+08         0.00000E+00
    0.00000E+00         0.00000E+00        -0.49926E+08
 
   -0.49890E+08         0.48998E+05         0.00000E+00
    0.48998E+05        -0.49985E+08         0.00000E+00
    0.00000E+00         0.00000E+00        -0.49926E+08
 
   -0.49891E+08         0.50386E+05         0.00000E+00
    0.50386E+05        -0.49985E+08         0.00000E+00
    0.00000E+00         0.00000E+00        -0.49926E+08
 
   -0.49893E+08         0.51761E+05         0.00000E+00
    0.51761E+05        -0.49984E+08         0.00000E+00
    0.00000E+00         0.00000E+00        -0.49926E+08
 
   -0.49895E+08         0.53124E+05         0.00000E+00
    0.53124E+05        -0.49983E+08         0.00000E+00
    0.00000E+00         0.00000E+00        -0.49926E+08
 
   -0.49897E+08         0.54473E+05         0.00000E+00
    0.54473E+05        -0.49982E+08         0.00000E+00
    0.00000E+00         0.00000E+00        -0.49926E+08
 
   -0.49899E+08         0.55810E+05         0.00000E+00
    0.55810E+05        -0.49981E+08         0.00000E+00
    0.00000E+00         0.00000E+00        -0.49926E+08
 
   -0.49901E+08         0.57132E+05         0.00000E+00
    0.57132E+05        -0.49980E+08         0.00000E+00
    0.00000E+00         0.00000E+00        -0.49926E+08
 
   -0.49903E+08         0.58440E+05         0.00000E+00
    0.58440E+05        -0.49979E+08         0.00000E+00
    0.00000E+00         0.00000E+00        -0.49926E+08
 
   -0.49905E+08         0.59734E+05         0.00000E+00
    0.59734E+05        -0.49978E+08         0.00000E+00
    0.00000E+00         0.00000E+00        -0.49926E+08
 
   -0.49907E+08         0.61013E+05         0.00000E+00
    0.61013E+05        -0.49977E+08         0.00000E+00
    0.00000E+00         0.00000E+00        -0.49926E+08
 
   -0.49909E+08         0.62277E+05         0.00000E+00
    0.62277E+05        -0.49976E+08         0.00000E+00
    0.00000E+00         0.00000E+00        -0.49926E+08
 
   -0.49911E+08         0.63524E+05         0.00000E+00
    0.63524E+05        -0.49975E+08         0.00000E+00
    0.00000E+00         0.00000E+00        -0.49926E+08
 
   -0.49913E+08         0.64756E+05         0.00000E+00
    0.64756E+05        -0.49974E+08         0.00000E+00
    0.00000E+00         0.00000E+00        -0.49926E+08
 
   -0.49915E+08         0.65971E+05         0.00000E+00
    0.65971E+05        -0.49973E+08         0.00000E+00
    0.00000E+00         0.00000E+00        -0.49926E+08
 
   -0.49917E+08         0.67169E+05         0.00000E+00
    0.67169E+05        -0.49972E+08         0.00000E+00
    0.00000E+00         0.00000E+00        -0.49926E+08
 
   -0.49919E+08         0.68350E+05         0.00000E+00
    0.68350E+05        -0.49971E+08         0.00000E+00
    0.00000E+00         0.00000E+00        -0.49926E+08
 
   -0.49921E+08         0.69513E+05         0.00000E+00
    0.69513E+05        -0.49970E+08         0.00000E+00
    0.00000E+00         0.00000E+00        -0.49926E+08
 
   -0.49923E+08         0.70658E+05         0.00000E+00
    0.70658E+05        -0.49969E+08         0.00000E+00
    0.00000E+00         0.00000E+00        -0.49926E+08
 
   -0.49925E+08         0.71784E+05         0.00000E+00
    0.71784E+05        -0.49968E+08         0.00000E+00
    0.00000E+00         0.00000E+00        -0.49926E+08
 
   -0.49846E+08         0.95570E+03         0.00000E+00
    0.95570E+03        -0.50000E+08         0.00000E+00
    0.00000E+00         0.00000E+00        -0.49918E+08
 
   -0.49846E+08         0.28288E+04         0.00000E+00
    0.28288E+04        -0.50000E+08         0.00000E+00
    0.00000E+00         0.00000E+00        -0.49918E+08
 
   -0.49847E+08         0.46883E+04         0.00000E+00
    0.46883E+04        -0.50000E+08         0.00000E+00
    0.00000E+00         0.00000E+00        -0.49918E+08
 
   -0.49847E+08         0.65346E+04         0.00000E+00
    0.65346E+04        -0.50000E+08         0.00000E+00
    0.00000E+00         0.00000E+00        -0.49918E+08
 
   -0.49848E+08         0.83678E+04         0.00000E+00
    0.83678E+04        -0.50000E+08         0.00000E+00
    0.00000E+00         0.00000E+00        -0.49918E+08
 
   -0.49848E+08         0.10188E+05         0.00000E+00
    0.10188E+05        -0.49999E+08         0.00000E+00
    0.00000E+00         0.00000E+00        -0.49918E+08
 
   -0.49849E+08         0.11996E+05         0.00000E+00
    0.11996E+05        -0.49999E+08         0.00000E+00
    0.00000E+00         0.00000E+00        -0.49918E+08
 
   -0.49850E+08         0.13792E+05         0.00000E+00
    0.13792E+05        -0.49999E+08         0.00000E+00
    0.00000E+00         0.00000E+00        -0.49918E+08
 
   -0.49850E+08         0.15575E+05         0.00000E+00
    0.15575E+05        -0.49999E+08         0.00000E+00
    0.00000E+00         0.00000E+00        -0.49918E+08
 
   -0.49851E+08         0.17346E+05         0.00000E+00
    0.17346E+05        -0.49999E+08         0.00000E+00
    0.00000E+00         0.00000E+00        -0.49918E+08
 
   -0.49852E+08         0.19105E+05         0.00000E+00
    0.19105E+05        -0.49998E+08         0.00000E+00
    0.00000E+00         0.00000E+00        -0.49918E+08
 
   -0.49853E+08         0.20852E+05         0.00000E+00
    0.20852E+05        -0.49998E+08         0.00000E+00
    0.00000E+00         0.00000E+00        -0.49918E+08
 
   -0.49854E+08         0.22587E+05         0.00000E+00
    0.22587E+05        -0.49997E+08         0.00000E+00
    0.00000E+00         0.00000E+00        -0.49918E+08
 
   -0.49855E+08         0.24311E+05         0.00000E+00
    0.24311E+05        -0.49997E+08         0.00000E+00
    0.00000E+00         0.00000E+00        -0.49919E+08
 
   -0.49856E+08         0.26022E+05         0.00000E+00
    0.26022E+05        -0.49997E+08         0.00000E+00
    0.00000E+00         0.00000E+00        -0.49919E+08
 
   -0.49858E+08         0.27722E+05         0.00000E+00
    0.27722E+05        -0.49996E+08         0.00000E+00
    0.00000E+00         0.00000E+00        -0.49919E+08
 
   -0.49859E+08         0.29410E+05         0.00000E+00
    0.29410E+05        -0.49996E+08         0.00000E+00
    0.00000E+00         0.00000E+00        -0.49919E+08
 
   -0.49860E+08         0.31086E+05         0.00000E+00
    0.31086E+05        -0.49995E+08         0.00000E+00
    0.00000E+00         0.00000E+00        -0.49919E+08
 
   -0.49861E+08         0.32750E+05         0.00000E+00
    0.32750E+05        -0.49995E+08         0.00000E+00
    0.00000E+00         0.00000E+00        -0.49919E+08
 
   -0.49863E+08         0.34401E+05         0.00000E+00
    0.34401E+05        -0.49994E+08         0.00000E+00
    0.00000E+00         0.00000E+00        -0.49919E+08
 
   -0.49864E+08         0.36041E+05         0.00000E+00
    0.36041E+05        -0.49993E+08         0.00000E+00
    0.00000E+00         0.00000E+00        -0.49919E+08
 
   -0.49866E+08         0.37668E+05         0.00000E+00
    0.37668E+05        -0.49993E+08         0.00000E+00
    0.00000E+00         0.00000E+00        -0.49919E+08
 
   -0.49867E+08         0.39283E+05         0.00000E+00
    0.39283E+05        -0.49992E+08         0.00000E+00
    0.00000E+00         0.00000E+00        -0.49919E+08
 
   -0.49869E+08         0.40885E+05         0.00000E+00
    0.40885E+05        -0.49991E+08         0.00000E+00
    0.00000E+00         0.00000E+00        -0.49919E+08
 
   -0.49870E+08         0.42474E+05         0.00000E+00
    0.42474E+05        -0.49991E+08         0.00000E+00
    0.00000E+00         0.00000E+00        -0.49919E+08
 
   -0.49872E+08         0.44050E+05         0.00000E+00
    0.44050E+05        -0.49990E+08         0.00000E+00
    0.00000E+00         0.00000E+00        -0.49919E+08
 
   -0.49874E+08         0.45613E+05         0.00000E+00
    0.45613E+05        -0.49989E+08         0.00000E+00
    0.00000E+00         0.00000E+00        -0.49919E+08
 
   -0.49875E+08         0.47163E+05         0.00000E+00
    0.47163E+05        -0.49989E+08         0.00000E+00
    0.00000E+00         0.00000E+00        -0.49920E+08
 
   -0.49877E+08         0.48698E+05         0.00000E+00
    0.48698E+05        -0.49988E+08         0.00000E+00
    0.00000E+00         0.00000E+00        -0.49920E+08
 
   -0.49879E+08         0.50220E+05         0.00000E+00
    0.50220E+05        -0.49987E+08         0.00000E+00
    0.00000E+00         0.00000E+00        -0.49920E+08
 
   -0.49881E+08         0.51727E+05         0.00000E+00
    0.51727E+05        -0.49986E+08         0.00000E+00
    0.00000E+00         0.00000E+00        -0.49920E+08
 
   -0.49882E+08         0.53220E+05         0.00000E+00
    0.53220E+05        -0.49985E+08         0.00000E+00
    0.00000E+00         0.00000E+00        -0.49920E+08
 
   -0.49884E+08         0.54698E+05         0.00000E+00
    0.54698E+05        -0.49984E+08         0.00000E+00
    0.00000E+00         0.00000E+00        -0.49920E+08
 
   -0.49886E+08         0.56160E+05         0.00000E+00
    0.56160E+05        -0.49984E+08         0.00000E+00
    0.00000E+00         0.00000E+00        -0.49920E+08
 
   -0.49888E+08         0.57607E+05         0.00000E+00
    0.57607E+05        -0.49983E+08         0.00000E+00
    0.00000E+00         0.00000E+00        -0.49920E+08
 
   -0.49890E+08         0.59038E+05         0.00000E+00
    0.59038E+05        -0.49982E+08         0.00000E+00
    0.00000E+00         0.00000E+00        -0.49920E+08
 
   -0.49892E+08         0.60453E+05         0.00000E+00
    0.60453E+05        -0.49981E+08         0.00000E+00
    0.00000E+00         0.00000E+00        -0.49920E+08
 
   -0.49894E+08         0.61852E+05         0.00000E+00
    0.61852E+05        -0.49980E+08         0.00000E+00
    0.00000E+00         0.00000E+00        -0.49920E+08
 
   -0.49896E+08         0.63234E+05         0.00000E+00
    0.63234E+05        -0.49979E+08         0.00000E+00
    0.00000E+00         0.00000E+00        -0.49920E+08
 
   -0.49898E+08         0.64598E+05         0.00000E+00
    0.64598E+05        -0.49978E+08         0.00000E+00
    0.00000E+00         0.00000E+00        -0.49920E+08
 
   -0.49900E+08         0.65945E+05         0.00000E+00
    0.65945E+05        -0.49977E+08         0.00000E+00
    0.00000E+00         0.00000E+00        -0.49921E+08
 
   -0.49902E+08         0.67274E+05         0.00000E+00
    0.67274E+05        -0.49976E+08         0.00000E+00
    0.00000E+00         0.00000E+00        -0.49921E+08
 
   -0.49904E+08         0.68585E+05         0.00000E+00
    0.68585E+05        -0.49975E+08         0.00000E+00
    0.00000E+00         0.00000E+00        -0.49921E+08
 
   -0.49907E+08         0.69877E+05         0.00000E+00
    0.69877E+05        -0.49974E+08         0.00000E+00
    0.00000E+00         0.00000E+00        -0.49921E+08
 
   -0.49909E+08         0.71150E+05         0.00000E+00
    0.71150E+05        -0.49973E+08         0.00000E+00
    0.00000E+00         0.00000E+00        -0.49921E+08
 
   -0.49911E+08         0.72404E+05         0.00000E+00
    0.72404E+05        -0.49972E+08         0.00000E+00
    0.00000E+00         0.00000E+00        -0.49921E+08
 
   -0.49913E+08         0.73638E+05         0.00000E+00
    0.73638E+05        -0.49971E+08         0.00000E+00
    0.00000E+00         0.00000E+00        -0.49921E+08
 
   -0.49915E+08         0.74852E+05         0.00000E+00
    0.74852E+05        -0.49970E+08         0.00000E+00
    0.00000E+00         0.00000E+00        -0.49921E+08
 
   -0.49917E+08         0.76045E+05         0.00000E+00
    0.76045E+05        -0.49968E+08         0.00000E+00
    0.00000E+00         0.00000E+00        -0.49921E+08
 
   -0.49920E+08         0.77218E+05         0.00000E+00
    0.77218E+05        -0.49967E+08         0.00000E+00
    0.00000E+00         0.00000E+00        -0.49921E+08
 
   -0.49836E+08         0.10390E+04         0.00000E+00
    0.10390E+04        -0.50000E+08         0.00000E+00
    0.00000E+00         0.00000E+00        -0.49912E+08
 
   -0.49836E+08         0.30772E+04         0.00000E+00
    0.30772E+04        -0.50000E+08         0.00000E+00
    0.00000E+00         0.00000E+00        -0.49912E+08
 
   -0.49837E+08         0.51010E+04         0.00000E+00
    0.51010E+04        -0.50000E+08         0.00000E+00
    0.00000E+00         0.00000E+00        -0.49912E+08
 
   -0.49837E+08         0.71106E+04         0.00000E+00
    0.71106E+04        -0.50000E+08         0.00000E+00
    0.00000E+00         0.00000E+00        -0.49912E+08
 
   -0.49838E+08         0.91061E+04         0.00000E+00
    0.91061E+04        -0.50000E+08         0.00000E+00
    0.00000E+00         0.00000E+00        -0.49912E+08
 
   -0.49839E+08         0.11088E+05         0.00000E+00
    0.11088E+05        -0.49999E+08         0.00000E+00
    0.00000E+00         0.00000E+00        -0.49912E+08
 
   -0.49840E+08         0.13055E+05         0.00000E+00
    0.13055E+05        -0.49999E+08         0.00000E+00
    0.00000E+00         0.00000E+00        -0.49912E+08
 
   -0.49840E+08         0.15009E+05         0.00000E+00
    0.15009E+05        -0.49999E+08         0.00000E+00
    0.00000E+00         0.00000E+00        -0.49912E+08
 
   -0.49841E+08         0.16948E+05         0.00000E+00
    0.16948E+05        -0.49999E+08         0.00000E+00
    0.00000E+00         0.00000E+00        -0.49912E+08
 
   -0.49842E+08         0.18874E+05         0.00000E+00
    0.18874E+05        -0.49999E+08         0.00000E+00
    0.00000E+00         0.00000E+00        -0.49912E+08
 
   -0.49843E+08         0.20786E+05         0.00000E+00
    0.20786E+05        -0.49998E+08         0.00000E+00
    0.00000E+00         0.00000E+00        -0.49912E+08
 
   -0.49844E+08         0.22684E+05         0.00000E+00
    0.22684E+05        -0.49998E+08         0.00000E+00
    0.00000E+00         0.00000E+00        -0.49912E+08
 
   -0.49845E+08         0.24568E+05         0.00000E+00
    0.24568E+05        -0.49997E+08         0.00000E+00
    0.00000E+00         0.00000E+00        -0.49912E+08
 
   -0.49846E+08         0.26438E+05         0.00000E+00
    0.26438E+05        -0.49997E+08         0.00000E+00
    0.00000E+00         0.00000E+00        -0.49913E+08
 
   -0.49848E+08         0.28294E+05         0.00000E+00
    0.28294E+05        -0.49997E+08         0.00000E+00
    0.00000E+00         0.00000E+00        -0.49913E+08
 
   -0.49849E+08         0.30136E+05         0.00000E+00
    0.30136E+05        -0.49996E+08         0.00000E+00
    0.00000E+00         0.00000E+00        -0.49913E+08
 
   -0.49850E+08         0.31964E+05         0.00000E+00
    0.31964E+05        -0.49996E+08         0.00000E+00
    0.00000E+00         0.00000E+00        -0.49913E+08
 
   -0.49851E+08         0.33777E+05         0.00000E+00
    0.33777E+05        -0.49995E+08         0.00000E+00
    0.00000E+00         0.00000E+00        -0.49913E+08
 
   -0.49853E+08         0.35576E+05         0.00000E+00
    0.35576E+05        -0.49995E+08         0.00000E+00
    0.00000E+00         0.00000E+00        -0.49913E+08
 
   -0.49854E+08         0.37360E+05         0.00000E+00
    0.37360E+05        -0.49994E+08         0.00000E+00
    0.00000E+00         0.00000E+00        -0.49913E+08
 
   -0.49856E+08         0.39130E+05         0.00000E+00
    0.39130E+05        -0.49993E+08         0.00000E+00
    0.00000E+00         0.00000E+00        -0.49913E+08
 
   -0.49857E+08         0.40884E+05         0.00000E+00
    0.40884E+05        -0.49993E+08         0.00000E+00
    0.00000E+00         0.00000E+00        -0.49913E+08
 
   -0.49859E+08         0.42624E+05         0.00000E+00
    0.42624E+05        -0.49992E+08         0.00000E+00
    0.00000E+00         0.00000E+00        -0.49913E+08
 
   -0.49860E+08         0.44348E+05         0.00000E+00
    0.44348E+05        -0.49991E+08         0.00000E+00
    0.00000E+00         0.00000E+00        -0.49913E+08
 
   -0.49862E+08         0.46056E+05         0.00000E+00
    0.46056E+05        -0.49991E+08         0.00000E+00
    0.00000E+00         0.00000E+00        -0.49913E+08
 
   -0.49864E+08         0.47749E+05         0.00000E+00
    0.47749E+05        -0.49990E+08         0.00000E+00
    0.00000E+00         0.00000E+00        -0.49913E+08
 
   -0.49866E+08         0.49426E+05         0.00000E+00
    0.49426E+05        -0.49989E+08         0.00000E+00
    0.00000E+00         0.00000E+00        -0.49914E+08
 
   -0.49867E+08         0.51087E+05         0.00000E+00
    0.51087E+05        -0.49988E+08         0.00000E+00
    0.00000E+00         0.00000E+00        -0.49914E+08
 
   -0.49869E+08         0.52731E+05         0.00000E+00
    0.52731E+05        -0.49988E+08         0.00000E+00
    0.00000E+00         0.00000E+00        -0.49914E+08
 
   -0.49871E+08         0.54358E+05         0.00000E+00
    0.54358E+05        -0.49987E+08         0.00000E+00
    0.00000E+00         0.00000E+00        -0.49914E+08
 
   -0.49873E+08         0.55968E+05         0.00000E+00
    0.55968E+05        -0.49986E+08         0.00000E+00
    0.00000E+00         0.00000E+00        -0.49914E+08
 
   -0.49875E+08         0.57561E+05         0.00000E+00
    0.57561E+05        -0.49985E+08         0.00000E+00
    0.00000E+00         0.00000E+00        -0.49914E+08
 
   -0.49877E+08         0.59136E+05         0.00000E+00
    0.59136E+05        -0.49984E+08         0.00000E+00
    0.00000E+00         0.00000E+00        -0.49914E+08
 
   -0.49879E+08         0.60694E+05         0.00000E+00
    0.60694E+05        -0.49983E+08         0.00000E+00
    0.00000E+00         0.00000E+00        -0.49914E+08
 
   -0.49881E+08         0.62233E+05         0.00000E+00
    0.62233E+05        -0.49982E+08         0.00000E+00
    0.00000E+00         0.00000E+00        -0.49914E+08
 
   -0.49883E+08         0.63753E+05         0.00000E+00
    0.63753E+05        -0.49981E+08         0.00000E+00
    0.00000E+00         0.00000E+00        -0.49914E+08
 
   -0.49885E+08         0.65255E+05         0.00000E+00
    0.65255E+05        -0.49980E+08         0.00000E+00
    0.00000E+00         0.00000E+00        -0.49914E+08
 
   -0.49887E+08         0.66737E+05         0.00000E+00
    0.66737E+05        -0.49979E+08         0.00000E+00
    0.00000E+00         0.00000E+00        -0.49914E+08
 
   -0.49889E+08         0.68200E+05         0.00000E+00
    0.68200E+05        -0.49978E+08         0.00000E+00
    0.00000E+00         0.00000E+00        -0.49915E+08
 
   -0.49891E+08         0.69644E+05         0.00000E+00
    0.69644E+05        -0.49977E+08         0.00000E+00
    0.00000E+00         0.00000E+00        -0.49915E+08
 
   -0.49893E+08         0.71067E+05         0.00000E+00
    0.71067E+05        -0.49976E+08         0.00000E+00
    0.00000E+00         0.00000E+00        -0.49915E+08
 
   -0.49896E+08         0.72469E+05         0.00000E+00
    0.72469E+05        -0.49975E+08         0.00000E+00
    0.00000E+00         0.00000E+00        -0.49915E+08
 
   -0.49898E+08         0.73851E+05         0.00000E+00
    0.73851E+05        -0.49974E+08         0.00000E+00
    0.00000E+00         0.00000E+00        -0.49915E+08
 
   -0.49900E+08         0.75212E+05         0.00000E+00
    0.75212E+05        -0.49973E+08         0.00000E+00
    0.00000E+00         0.00000E+00        -0.49915E+08
 
   -0.49902E+08         0.76551E+05         0.00000E+00
    0.76551E+05        -0.49972E+08         0.00000E+00
    0.00000E+00         0.00000E+00        -0.49915E+08
 
   -0.49905E+08         0.77869E+05         0.00000E+00
    0.77869E+05        -0.49971E+08         0.00000E+00
    0.00000E+00         0.00000E+00        -0.49915E+08
 
   -0.49907E+08         0.79164E+05         0.00000E+00
    0.79164E+05        -0.49970E+08         0.00000E+00
    0.00000E+00         0.00000E+00        -0.49915E+08
 
   -0.49909E+08         0.80437E+05         0.00000E+00
    0.80437E+05        -0.49969E+08         0.00000E+00
    0.00000E+00         0.00000E+00        -0.49915E+08
 
   -0.49911E+08         0.81687E+05         0.00000E+00
    0.81687E+05        -0.49967E+08         0.00000E+00
    0.00000E+00         0.00000E+00        -0.49915E+08
 
   -0.49914E+08         0.82914E+05         0.00000E+00
    0.82914E+05        -0.49966E+08         0.00000E+00
    0.00000E+00         0.00000E+00        -0.49915E+08
 
   -0.49825E+08         0.11227E+04         0.00000E+00
    0.11227E+04        -0.50000E+08         0.00000E+00
    0.00000E+00         0.00000E+00        -0.49906E+08
 
   -0.49826E+08         0.33271E+04         0.00000E+00
    0.33271E+04        -0.50000E+08         0.00000E+00
    0.00000E+00         0.00000E+00        -0.49906E+08
 
   -0.49826E+08         0.55168E+04         0.00000E+00
    0.55168E+04        -0.50000E+08         0.00000E+00
    0.00000E+00         0.00000E+00        -0.49906E+08
 
   -0.49827E+08         0.76914E+04         0.00000E+00
    0.76914E+04        -0.50000E+08         0.00000E+00
    0.00000E+00         0.00000E+00        -0.49906E+08
 
   -0.49828E+08         0.98511E+04         0.00000E+00
    0.98511E+04        -0.50000E+08         0.00000E+00
    0.00000E+00         0.00000E+00        -0.49906E+08
 
   -0.49828E+08         0.11996E+05         0.00000E+00
    0.11996E+05        -0.49999E+08         0.00000E+00
    0.00000E+00         0.00000E+00        -0.49906E+08
 
   -0.49829E+08         0.14125E+05         0.00000E+00
    0.14125E+05        -0.49999E+08         0.00000E+00
    0.00000E+00         0.00000E+00        -0.49906E+08
 
   -0.49830E+08         0.16240E+05         0.00000E+00
    0.16240E+05        -0.49999E+08         0.00000E+00
    0.00000E+00         0.00000E+00        -0.49906E+08
 
   -0.49831E+08         0.18339E+05         0.00000E+00
    0.18339E+05        -0.49999E+08         0.00000E+00
    0.00000E+00         0.00000E+00        -0.49906E+08
 
   -0.49832E+08         0.20422E+05         0.00000E+00
    0.20422E+05        -0.49998E+08         0.00000E+00
    0.00000E+00         0.00000E+00        -0.49906E+08
 
   -0.49833E+08         0.22490E+05         0.00000E+00
    0.22490E+05        -0.49998E+08         0.00000E+00
    0.00000E+00         0.00000E+00        -0.49906E+08
 
   -0.49834E+08         0.24543E+05         0.00000E+00
    0.24543E+05        -0.49998E+08         0.00000E+00
    0.00000E+00         0.00000E+00        -0.49906E+08
 
   -0.49835E+08         0.26580E+05         0.00000E+00
    0.26580E+05        -0.49997E+08         0.00000E+00
    0.00000E+00         0.00000E+00        -0.49906E+08
 
   -0.49837E+08         0.28601E+05         0.00000E+00
    0.28601E+05        -0.49997E+08         0.00000E+00
    0.00000E+00         0.00000E+00        -0.49906E+08
 
   -0.49838E+08         0.30606E+05         0.00000E+00
    0.30606E+05        -0.49997E+08         0.00000E+00
    0.00000E+00         0.00000E+00        -0.49906E+08
 
   -0.49839E+08         0.32595E+05         0.00000E+00
    0.32595E+05        -0.49996E+08         0.00000E+00
    0.00000E+00         0.00000E+00        -0.49906E+08
 
   -0.49841E+08         0.34567E+05         0.00000E+00
    0.34567E+05        -0.49996E+08         0.00000E+00
    0.00000E+00         0.00000E+00        -0.49906E+08
 
   -0.49842E+08         0.36523E+05         0.00000E+00
    0.36523E+05        -0.49995E+08         0.00000E+00
    0.00000E+00         0.00000E+00        -0.49907E+08
 
   -0.49844E+08         0.38462E+05         0.00000E+00
    0.38462E+05        -0.49994E+08         0.00000E+00
    0.00000E+00         0.00000E+00        -0.49907E+08
 
   -0.49845E+08         0.40385E+05         0.00000E+00
    0.40385E+05        -0.49994E+08         0.00000E+00
    0.00000E+00         0.00000E+00        -0.49907E+08
 
   -0.49847E+08         0.42290E+05         0.00000E+00
    0.42290E+05        -0.49993E+08         0.00000E+00
    0.00000E+00         0.00000E+00        -0.49907E+08
 
   -0.49848E+08         0.44178E+05         0.00000E+00
    0.44178E+05        -0.49993E+08         0.00000E+00
    0.00000E+00         0.00000E+00        -0.49907E+08
 
   -0.49850E+08         0.46048E+05         0.00000E+00
    0.46048E+05        -0.49992E+08         0.00000E+00
    0.00000E+00         0.00000E+00        -0.49907E+08
 
   -0.49852E+08         0.47900E+05         0.00000E+00
    0.47900E+05        -0.49991E+08         0.00000E+00
    0.00000E+00         0.00000E+00        -0.49907E+08
 
   -0.49853E+08         0.49735E+05         0.00000E+00
    0.49735E+05        -0.49990E+08         0.00000E+00
    0.00000E+00         0.00000E+00        -0.49907E+08
 
   -0.49855E+08         0.51551E+05         0.00000E+00
    0.51551E+05        -0.49990E+08         0.00000E+00
    0.00000E+00         0.00000E+00        -0.49907E+08
 
   -0.49857E+08         0.53349E+05         0.00000E+00
    0.53349E+05        -0.49989E+08         0.00000E+00
    0.00000E+00         0.00000E+00        -0.49907E+08
 
   -0.49859E+08         0.55127E+05         0.00000E+00
    0.55127E+05        -0.49988E+08         0.00000E+00
    0.00000E+00         0.00000E+00        -0.49907E+08
 
   -0.49861E+08         0.56887E+05         0.00000E+00
    0.56887E+05        -0.49987E+08         0.00000E+00
    0.00000E+00         0.00000E+00        -0.49907E+08
 
   -0.49863E+08         0.58627E+05         0.00000E+00
    0.58627E+05        -0.49986E+08         0.00000E+00
    0.00000E+00         0.00000E+00        -0.49908E+08
 
   -0.49865E+08         0.60348E+05         0.00000E+00
    0.60348E+05        -0.49986E+08         0.00000E+00
    0.00000E+00         0.00000E+00        -0.49908E+08
 
   -0.49867E+08         0.62049E+05         0.00000E+00
    0.62049E+05        -0.49985E+08         0.00000E+00
    0.00000E+00         0.00000E+00        -0.49908E+08
 
   -0.49869E+08         0.63729E+05         0.00000E+00
    0.63729E+05        -0.49984E+08         0.00000E+00
    0.00000E+00         0.00000E+00        -0.49908E+08
 
   -0.49871E+08         0.65389E+05         0.00000E+00
    0.65389E+05        -0.49983E+08         0.00000E+00
    0.00000E+00         0.00000E+00        -0.49908E+08
 
   -0.49873E+08         0.67028E+05         0.00000E+00
    0.67028E+05        -0.49982E+08         0.00000E+00
    0.00000E+00         0.00000E+00        -0.49908E+08
 
   -0.49875E+08         0.68645E+05         0.00000E+00
    0.68645E+05        -0.49981E+08         0.00000E+00
    0.00000E+00         0.00000E+00        -0.49908E+08
 
   -0.49877E+08         0.70242E+05         0.00000E+00
    0.70242E+05        -0.49980E+08         0.00000E+00
    0.00000E+00         0.00000E+00        -0.49908E+08
 
   -0.49879E+08         0.71816E+05         0.00000E+00
    0.71816E+05        -0.49979E+08         0.00000E+00
    0.00000E+00         0.00000E+00        -0.49908E+08
 
   -0.49882E+08         0.73369E+05         0.00000E+00
    0.73369E+05        -0.49978E+08         0.00000E+00
    0.00000E+00         0.00000E+00        -0.49908E+08
 
   -0.49884E+08         0.74899E+05         0.00000E+00
    0.74899E+05        -0.49977E+08         0.00000E+00
    0.00000E+00         0.00000E+00        -0.49908E+08
 
   -0.49886E+08         0.76406E+05         0.00000E+00
    0.76406E+05        -0.49976E+08         0.00000E+00
    0.00000E+00         0.00000E+00        -0.49908E+08
 
   -0.49888E+08         0.77890E+05         0.00000E+00
    0.77890E+05        -0.49974E+08         0.00000E+00
    0.00000E+00         0.00000E+00        -0.49909E+08
 
   -0.49891E+08         0.79351E+05         0.00000E+00
    0.79351E+05        -0.49973E+08         0.00000E+00
    0.00000E+00         0.00000E+00        -0.49909E+08
 
   -0.49893E+08         0.80788E+05         0.00000E+00
    0.80788E+05        -0.49972E+08         0.00000E+00
    0.00000E+00         0.00000E+00        -0.49909E+08
 
   -0.49895E+08         0.82202E+05         0.00000E+00
    0.82202E+05        -0.49971E+08         0.00000E+00
    0.00000E+00         0.00000E+00        -0.49909E+08
 
   -0.49898E+08         0.83591E+05         0.00000E+00
    0.83591E+05        -0.49970E+08         0.00000E+00
    0.00000E+00         0.00000E+00        -0.49909E+08
 
   -0.49900E+08         0.84956E+05         0.00000E+00
    0.84956E+05        -0.49969E+08         0.00000E+00
    0.00000E+00         0.00000E+00        -0.49909E+08
 
   -0.49903E+08         0.86296E+05         0.00000E+00
    0.86296E+05        -0.49968E+08         0.00000E+00
    0.00000E+00         0.00000E+00        -0.49909E+08
 
   -0.49905E+08         0.87611E+05         0.00000E+00
    0.87611E+05        -0.49966E+08         0.00000E+00
    0.00000E+00         0.00000E+00        -0.49909E+08
 
   -0.49908E+08         0.88900E+05         0.00000E+00
    0.88900E+05        -0.49965E+08         0.00000E+00
    0.00000E+00         0.00000E+00        -0.49909E+08
 
   -0.49814E+08         0.12077E+04         0.00000E+00
    0.12077E+04        -0.50000E+08         0.00000E+00
    0.00000E+00         0.00000E+00        -0.49899E+08
 
   -0.49814E+08         0.35816E+04         0.00000E+00
    0.35816E+04        -0.50000E+08         0.00000E+00
    0.00000E+00         0.00000E+00        -0.49899E+08
 
   -0.49815E+08         0.59401E+04         0.00000E+00
    0.59401E+04        -0.50000E+08         0.00000E+00
    0.00000E+00         0.00000E+00        -0.49899E+08
 
   -0.49816E+08         0.82832E+04         0.00000E+00
    0.82832E+04        -0.50000E+08         0.00000E+00
    0.00000E+00         0.00000E+00        -0.49899E+08
 
   -0.49817E+08         0.10611E+05         0.00000E+00
    0.10611E+05        -0.50000E+08         0.00000E+00
    0.00000E+00         0.00000E+00        -0.49899E+08
 
   -0.49817E+08         0.12922E+05         0.00000E+00
    0.12922E+05        -0.49999E+08         0.00000E+00
    0.00000E+00         0.00000E+00        -0.49899E+08
 
   -0.49818E+08         0.15217E+05         0.00000E+00
    0.15217E+05        -0.49999E+08         0.00000E+00
    0.00000E+00         0.00000E+00        -0.49899E+08
 
   -0.49819E+08         0.17497E+05         0.00000E+00
    0.17497E+05        -0.49999E+08         0.00000E+00
    0.00000E+00         0.00000E+00        -0.49899E+08
 
   -0.49820E+08         0.19759E+05         0.00000E+00
    0.19759E+05        -0.49999E+08         0.00000E+00
    0.00000E+00         0.00000E+00        -0.49899E+08
 
   -0.49821E+08         0.22005E+05         0.00000E+00
    0.22005E+05        -0.49998E+08         0.00000E+00
    0.00000E+00         0.00000E+00        -0.49899E+08
 
   -0.49823E+08         0.24234E+05         0.00000E+00
    0.24234E+05        -0.49998E+08         0.00000E+00
    0.00000E+00         0.00000E+00        -0.49899E+08
 
   -0.49824E+08         0.26446E+05         0.00000E+00
    0.26446E+05        -0.49998E+08         0.00000E+00
    0.00000E+00         0.00000E+00        -0.49899E+08
 
   -0.49825E+08         0.28641E+05         0.00000E+00
    0.28641E+05        -0.49997E+08         0.00000E+00
    0.00000E+00         0.00000E+00        -0.49900E+08
 
   -0.49826E+08         0.30818E+05         0.00000E+00
    0.30818E+05        -0.49997E+08         0.00000E+00
    0.00000E+00         0.00000E+00        -0.49900E+08
 
   -0.49828E+08         0.32977E+05         0.00000E+00
    0.32977E+05        -0.49996E+08         0.00000E+00
    0.00000E+00         0.00000E+00        -0.49900E+08
 
   -0.49829E+08         0.35118E+05         0.00000E+00
    0.35118E+05        -0.49996E+08         0.00000E+00
    0.00000E+00         0.00000E+00        -0.49900E+08
 
   -0.49830E+08         0.37241E+05         0.00000E+00
    0.37241E+05        -0.49995E+08         0.00000E+00
    0.00000E+00         0.00000E+00        -0.49900E+08
 
   -0.49832E+08         0.39346E+05         0.00000E+00
    0.39346E+05        -0.49995E+08         0.00000E+00
    0.00000E+00         0.00000E+00        -0.49900E+08
 
   -0.49834E+08         0.41431E+05         0.00000E+00
    0.41431E+05        -0.49994E+08         0.00000E+00
    0.00000E+00         0.00000E+00        -0.49900E+08
 
   -0.49835E+08         0.43498E+05         0.00000E+00
    0.43498E+05        -0.49994E+08         0.00000E+00
    0.00000E+00         0.00000E+00        -0.49900E+08
 
   -0.49837E+08         0.45545E+05         0.00000E+00
    0.45545E+05        -0.49993E+08         0.00000E+00
    0.00000E+00         0.00000E+00        -0.49900E+08
 
   -0.49838E+08         0.47573E+05         0.00000E+00
    0.47573E+05        -0.49992E+08         0.00000E+00
    0.00000E+00         0.00000E+00        -0.49900E+08
 
   -0.49840E+08         0.49581E+05         0.00000E+00
    0.49581E+05        -0.49992E+08         0.00000E+00
    0.00000E+00         0.00000E+00        -0.49900E+08
 
   -0.49842E+08         0.51568E+05         0.00000E+00
    0.51568E+05        -0.49991E+08         0.00000E+00
    0.00000E+00         0.00000E+00        -0.49900E+08
 
   -0.49844E+08         0.53536E+05         0.00000E+00
    0.53536E+05        -0.49990E+08         0.00000E+00
    0.00000E+00         0.00000E+00        -0.49901E+08
 
   -0.49846E+08         0.55482E+05         0.00000E+00
    0.55482E+05        -0.49989E+08         0.00000E+00
    0.00000E+00         0.00000E+00        -0.49901E+08
 
   -0.49848E+08         0.57408E+05         0.00000E+00
    0.57408E+05        -0.49989E+08         0.00000E+00
    0.00000E+00         0.00000E+00        -0.49901E+08
 
   -0.49850E+08         0.59312E+05         0.00000E+00
    0.59312E+05        -0.49988E+08         0.00000E+00
    0.00000E+00         0.00000E+00        -0.49901E+08
 
   -0.49852E+08         0.61195E+05         0.00000E+00
    0.61195E+05        -0.49987E+08         0.00000E+00
    0.00000E+00         0.00000E+00        -0.49901E+08
 
   -0.49854E+08         0.63056E+05         0.00000E+00
    0.63056E+05        -0.49986E+08         0.00000E+00
    0.00000E+00         0.00000E+00        -0.49901E+08
 
   -0.49856E+08         0.64894E+05         0.00000E+00
    0.64894E+05        -0.49985E+08         0.00000E+00
    0.00000E+00         0.00000E+00        -0.49901E+08
 
   -0.49858E+08         0.66710E+05         0.00000E+00
    0.66710E+05        -0.49984E+08         0.00000E+00
    0.00000E+00         0.00000E+00        -0.49901E+08
 
   -0.49860E+08         0.68504E+05         0.00000E+00
    0.68504E+05        -0.49983E+08         0.00000E+00
    0.00000E+00         0.00000E+00        -0.49901E+08
 
   -0.49862E+08         0.70274E+05         0.00000E+00
    0.70274E+05        -0.49982E+08         0.00000E+00
    0.00000E+00         0.00000E+00        -0.49901E+08
 
   -0.49864E+08         0.72021E+05         0.00000E+00
    0.72021E+05        -0.49981E+08         0.00000E+00
    0.00000E+00         0.00000E+00        -0.49901E+08
 
   -0.49867E+08         0.73744E+05         0.00000E+00
    0.73744E+05        -0.49980E+08         0.00000E+00
    0.00000E+00         0.00000E+00        -0.49902E+08
 
   -0.49869E+08         0.75442E+05         0.00000E+00
    0.75442E+05        -0.49979E+08         0.00000E+00
    0.00000E+00         0.00000E+00        -0.49902E+08
 
   -0.49871E+08         0.77117E+05         0.00000E+00
    0.77117E+05        -0.49978E+08         0.00000E+00
    0.00000E+00         0.00000E+00        -0.49902E+08
 
   -0.49874E+08         0.78767E+05         0.00000E+00
    0.78767E+05        -0.49977E+08         0.00000E+00
    0.00000E+00         0.00000E+00        -0.49902E+08
 
   -0.49876E+08         0.80392E+05         0.00000E+00
    0.80392E+05        -0.49976E+08         0.00000E+00
    0.00000E+00         0.00000E+00        -0.49902E+08
 
   -0.49878E+08         0.81991E+05         0.00000E+00
    0.81991E+05        -0.49975E+08         0.00000E+00
    0.00000E+00         0.00000E+00        -0.49902E+08
 
   -0.49881E+08         0.83565E+05         0.00000E+00
    0.83565E+05        -0.49973E+08         0.00000E+00
    0.00000E+00         0.00000E+00        -0.49902E+08
 
   -0.49883E+08         0.85114E+05         0.00000E+00
    0.85114E+05        -0.49972E+08         0.00000E+00
    0.00000E+00         0.00000E+00        -0.49902E+08
 
   -0.49886E+08         0.86636E+05         0.00000E+00
    0.86636E+05        -0.49971E+08         0.00000E+00
    0.00000E+00         0.00000E+00        -0.49902E+08
 
   -0.49888E+08         0.88131E+05         0.00000E+00
    0.88131E+05        -0.49970E+08         0.00000E+00
    0.00000E+00         0.00000E+00        -0.49902E+08
 
   -0.49891E+08         0.89600E+05         0.00000E+00
    0.89600E+05        -0.49969E+08         0.00000E+00
    0.00000E+00         0.00000E+00        -0.49902E+08
 
   -0.49893E+08         0.91042E+05         0.00000E+00
    0.91042E+05        -0.49967E+08         0.00000E+00
    0.00000E+00         0.00000E+00        -0.49902E+08
 
   -0.49896E+08         0.92457E+05         0.00000E+00
    0.92457E+05        -0.49966E+08         0.00000E+00
    0.00000E+00         0.00000E+00        -0.49902E+08
 
   -0.49898E+08         0.93844E+05         0.00000E+00
    0.93844E+05        -0.49965E+08         0.00000E+00
    0.00000E+00         0.00000E+00        -0.49902E+08
 
   -0.49901E+08         0.95204E+05         0.00000E+00
    0.95204E+05        -0.49964E+08         0.00000E+00
    0.00000E+00         0.00000E+00        -0.49902E+08
 
   -0.49801E+08         0.12950E+04         0.00000E+00
    0.12950E+04        -0.50000E+08         0.00000E+00
    0.00000E+00         0.00000E+00        -0.49892E+08
 
   -0.49802E+08         0.38431E+04         0.00000E+00
    0.38431E+04        -0.50000E+08         0.00000E+00
    0.00000E+00         0.00000E+00        -0.49892E+08
 
   -0.49803E+08         0.63755E+04         0.00000E+00
    0.63755E+04        -0.50000E+08         0.00000E+00
    0.00000E+00         0.00000E+00        -0.49892E+08
 
   -0.49804E+08         0.88919E+04         0.00000E+00
    0.88919E+04        -0.50000E+08         0.00000E+00
    0.00000E+00         0.00000E+00        -0.49892E+08
 
   -0.49805E+08         0.11392E+05         0.00000E+00
    0.11392E+05        -0.50000E+08         0.00000E+00
    0.00000E+00         0.00000E+00        -0.49892E+08
 
   -0.49805E+08         0.13876E+05         0.00000E+00
    0.13876E+05        -0.49999E+08         0.00000E+00
    0.00000E+00         0.00000E+00        -0.49892E+08
 
   -0.49806E+08         0.16342E+05         0.00000E+00
    0.16342E+05        -0.49999E+08         0.00000E+00
    0.00000E+00         0.00000E+00        -0.49892E+08
 
   -0.49807E+08         0.18791E+05         0.00000E+00
    0.18791E+05        -0.49999E+08         0.00000E+00
    0.00000E+00         0.00000E+00        -0.49892E+08
 
   -0.49809E+08         0.21223E+05         0.00000E+00
    0.21223E+05        -0.49999E+08         0.00000E+00
    0.00000E+00         0.00000E+00        -0.49892E+08
 
   -0.49810E+08         0.23637E+05         0.00000E+00
    0.23637E+05        -0.49998E+08         0.00000E+00
    0.00000E+00         0.00000E+00        -0.49892E+08
 
   -0.49811E+08         0.26033E+05         0.00000E+00
    0.26033E+05        -0.49998E+08         0.00000E+00
    0.00000E+00         0.00000E+00        -0.49892E+08
 
   -0.49812E+08         0.28410E+05         0.00000E+00
    0.28410E+05        -0.49998E+08         0.00000E+00
    0.00000E+00         0.00000E+00        -0.49892E+08
 
   -0.49814E+08         0.30768E+05         0.00000E+00
    0.30768E+05        -0.49997E+08         0.00000E+00
    0.00000E+00         0.00000E+00        -0.49893E+08
 
   -0.49815E+08         0.33107E+05         0.00000E+00
    0.33107E+05        -0.49997E+08         0.00000E+00
    0.00000E+00         0.00000E+00        -0.49893E+08
 
   -0.49816E+08         0.35427E+05         0.00000E+00
    0.35427E+05        -0.49996E+08         0.00000E+00
    0.00000E+00         0.00000E+00        -0.49893E+08
 
   -0.49818E+08         0.37727E+05         0.00000E+00
    0.37727E+05        -0.49996E+08         0.00000E+00
    0.00000E+00         0.00000E+00        -0.49893E+08
 
   -0.49819E+08         0.40007E+05         0.00000E+00
    0.40007E+05        -0.49995E+08         0.00000E+00
    0.00000E+00         0.00000E+00        -0.49893E+08
 
   -0.49821E+08         0.42266E+05         0.00000E+00
    0.42266E+05        -0.49995E+08         0.00000E+00
    0.00000E+00         0.00000E+00        -0.49893E+08
 
   -0.49823E+08         0.44505E+05         0.00000E+00
    0.44505E+05        -0.49994E+08         0.00000E+00
    0.00000E+00         0.00000E+00        -0.49893E+08
 
   -0.49824E+08         0.46723E+05         0.00000E+00
    0.46723E+05        -0.49993E+08         0.00000E+00
    0.00000E+00         0.00000E+00        -0.49893E+08
 
   -0.49826E+08         0.48919E+05         0.00000E+00
    0.48919E+05        -0.49993E+08         0.00000E+00
    0.00000E+00         0.00000E+00        -0.49893E+08
 
   -0.49828E+08         0.51094E+05         0.00000E+00
    0.51094E+05        -0.49992E+08         0.00000E+00
    0.00000E+00         0.00000E+00        -0.49893E+08
 
   -0.49830E+08         0.53247E+05         0.00000E+00
    0.53247E+05        -0.49991E+08         0.00000E+00
    0.00000E+00         0.00000E+00        -0.49893E+08
 
   -0.49832E+08         0.55377E+05         0.00000E+00
    0.55377E+05        -0.49991E+08         0.00000E+00
    0.00000E+00         0.00000E+00        -0.49894E+08
 
   -0.49834E+08         0.57485E+05         0.00000E+00
    0.57485E+05        -0.49990E+08         0.00000E+00
    0.00000E+00         0.00000E+00        -0.49894E+08
 
   -0.49836E+08         0.59569E+05         0.00000E+00
    0.59569E+05        -0.49989E+08         0.00000E+00
    0.00000E+00         0.00000E+00        -0.49894E+08
 
   -0.49838E+08         0.61631E+05         0.00000E+00
    0.61631E+05        -0.49988E+08         0.00000E+00
    0.00000E+00         0.00000E+00        -0.49894E+08
 
   -0.49840E+08         0.63668E+05         0.00000E+00
    0.63668E+05        -0.49987E+08         0.00000E+00
    0.00000E+00         0.00000E+00        -0.49894E+08
 
   -0.49842E+08         0.65682E+05         0.00000E+00
    0.65682E+05        -0.49986E+08         0.00000E+00
    0.00000E+00         0.00000E+00        -0.49894E+08
 
   -0.49844E+08         0.67671E+05         0.00000E+00
    0.67671E+05        -0.49985E+08         0.00000E+00
    0.00000E+00         0.00000E+00        -0.49894E+08
 
   -0.49846E+08         0.69636E+05         0.00000E+00
    0.69636E+05        -0.49984E+08         0.00000E+00
    0.00000E+00         0.00000E+00        -0.49894E+08
 
   -0.49849E+08         0.71575E+05         0.00000E+00
    0.71575E+05        -0.49983E+08         0.00000E+00
    0.00000E+00         0.00000E+00        -0.49894E+08
 
   -0.49851E+08         0.73489E+05         0.00000E+00
    0.73489E+05        -0.49982E+08         0.00000E+00
    0.00000E+00         0.00000E+00        -0.49894E+08
 
   -0.49853E+08         0.75378E+05         0.00000E+00
    0.75378E+05        -0.49981E+08         0.00000E+00
    0.00000E+00         0.00000E+00        -0.49895E+08
 
   -0.49855E+08         0.77241E+05         0.00000E+00
    0.77241E+05        -0.49980E+08         0.00000E+00
    0.00000E+00         0.00000E+00        -0.49895E+08
 
   -0.49858E+08         0.79077E+05         0.00000E+00
    0.79077E+05        -0.49979E+08         0.00000E+00
    0.00000E+00         0.00000E+00        -0.49895E+08
 
   -0.49860E+08         0.80887E+05         0.00000E+00
    0.80887E+05        -0.49978E+08         0.00000E+00
    0.00000E+00         0.00000E+00        -0.49895E+08
 
   -0.49863E+08         0.82669E+05         0.00000E+00
    0.82669E+05        -0.49977E+08         0.00000E+00
    0.00000E+00         0.00000E+00        -0.49895E+08
 
   -0.49865E+08         0.84425E+05         0.00000E+00
    0.84425E+05        -0.49976E+08         0.00000E+00
    0.00000E+00         0.00000E+00        -0.49895E+08
 
   -0.49868E+08         0.86153E+05         0.00000E+00
    0.86153E+05        -0.49975E+08         0.00000E+00
    0.00000E+00         0.00000E+00        -0.49895E+08
 
   -0.49870E+08         0.87853E+05         0.00000E+00
    0.87853E+05        -0.49974E+08         0.00000E+00
    0.00000E+00         0.00000E+00        -0.49895E+08
 
   -0.49873E+08         0.89525E+05         0.00000E+00
    0.89525E+05        -0.49972E+08         0.00000E+00
    0.00000E+00         0.00000E+00        -0.49895E+08
 
   -0.49875E+08         0.91169E+05         0.00000E+00
    0.91169E+05        -0.49971E+08         0.00000E+00
    0.00000E+00         0.00000E+00        -0.49895E+08
 
   -0.49878E+08         0.92784E+05         0.00000E+00
    0.92784E+05        -0.49970E+08         0.00000E+00
    0.00000E+00         0.00000E+00        -0.49895E+08
 
   -0.49881E+08         0.94369E+05         0.00000E+00
    0.94369E+05        -0.49969E+08         0.00000E+00
    0.00000E+00         0.00000E+00        -0.49895E+08
 
   -0.49883E+08         0.95926E+05         0.00000E+00
    0.95926E+05        -0.49967E+08         0.00000E+00
    0.00000E+00         0.00000E+00        -0.49895E+08
 
   -0.49886E+08         0.97453E+05         0.00000E+00
    0.97453E+05        -0.49966E+08         0.00000E+00
    0.00000E+00         0.00000E+00        -0.49895E+08
 
   -0.49889E+08         0.98950E+05         0.00000E+00
    0.98950E+05        -0.49965E+08         0.00000E+00
    0.00000E+00         0.00000E+00        -0.49895E+08
 
   -0.49891E+08         0.10042E+06         0.00000E+00
    0.10042E+06        -0.49963E+08         0.00000E+00
    0.00000E+00         0.00000E+00        -0.49895E+08
 
   -0.49894E+08         0.10185E+06         0.00000E+00
    0.10185E+06        -0.49962E+08         0.00000E+00
    0.00000E+00         0.00000E+00        -0.49895E+08
 
   -0.49788E+08         0.13856E+04         0.00000E+00
    0.13856E+04        -0.50000E+08         0.00000E+00
    0.00000E+00         0.00000E+00        -0.49885E+08
 
   -0.49789E+08         0.41143E+04         0.00000E+00
    0.41143E+04        -0.50000E+08         0.00000E+00
    0.00000E+00         0.00000E+00        -0.49885E+08
 
   -0.49790E+08         0.68270E+04         0.00000E+00
    0.68270E+04        -0.50000E+08         0.00000E+00
    0.00000E+00         0.00000E+00        -0.49885E+08
 
   -0.49791E+08         0.95232E+04         0.00000E+00
    0.95232E+04        -0.50000E+08         0.00000E+00
    0.00000E+00         0.00000E+00        -0.49885E+08
 
   -0.49792E+08         0.12203E+05         0.00000E+00
    0.12203E+05        -0.50000E+08         0.00000E+00
    0.00000E+00         0.00000E+00        -0.49885E+08
 
   -0.49793E+08         0.14865E+05         0.00000E+00
    0.14865E+05        -0.49999E+08         0.00000E+00
    0.00000E+00         0.00000E+00        -0.49885E+08
 
   -0.49794E+08         0.17509E+05         0.00000E+00
    0.17509E+05        -0.49999E+08         0.00000E+00
    0.00000E+00         0.00000E+00        -0.49885E+08
 
   -0.49795E+08         0.20135E+05         0.00000E+00
    0.20135E+05        -0.49999E+08         0.00000E+00
    0.00000E+00         0.00000E+00        -0.49885E+08
 
   -0.49796E+08         0.22742E+05         0.00000E+00
    0.22742E+05        -0.49999E+08         0.00000E+00
    0.00000E+00         0.00000E+00        -0.49885E+08
 
   -0.49797E+08         0.25331E+05         0.00000E+00
    0.25331E+05        -0.49998E+08         0.00000E+00
    0.00000E+00         0.00000E+00        -0.49885E+08
 
   -0.49799E+08         0.27900E+05         0.00000E+00
    0.27900E+05        -0.49998E+08         0.00000E+00
    0.00000E+00         0.00000E+00        -0.49885E+08
 
   -0.49800E+08         0.30449E+05         0.00000E+00
    0.30449E+05        -0.49998E+08         0.00000E+00
    0.00000E+00         0.00000E+00        -0.49885E+08
 
   -0.49801E+08         0.32979E+05         0.00000E+00
    0.32979E+05        -0.49997E+08         0.00000E+00
    0.00000E+00         0.00000E+00        -0.49885E+08
 
   -0.49803E+08         0.35487E+05         0.00000E+00
    0.35487E+05        -0.49997E+08         0.00000E+00
    0.00000E+00         0.00000E+00        -0.49885E+08
 
   -0.49804E+08         0.37975E+05         0.00000E+00
    0.37975E+05        -0.49996E+08         0.00000E+00
    0.00000E+00         0.00000E+00        -0.49885E+08
 
   -0.49806E+08         0.40441E+05         0.00000E+00
    0.40441E+05        -0.49996E+08         0.00000E+00
    0.00000E+00         0.00000E+00        -0.49885E+08
 
   -0.49808E+08         0.42885E+05         0.00000E+00
    0.42885E+05        -0.49995E+08         0.00000E+00
    0.00000E+00         0.00000E+00        -0.49885E+08
 
   -0.49809E+08         0.45307E+05         0.00000E+00
    0.45307E+05        -0.49994E+08         0.00000E+00
    0.00000E+00         0.00000E+00        -0.49886E+08
 
   -0.49811E+08         0.47707E+05         0.00000E+00
    0.47707E+05        -0.49994E+08         0.00000E+00
    0.00000E+00         0.00000E+00        -0.49886E+08
 
   -0.49813E+08         0.50083E+05         0.00000E+00
    0.50083E+05        -0.49993E+08         0.00000E+00
    0.00000E+00         0.00000E+00        -0.49886E+08
 
   -0.49815E+08         0.52436E+05         0.00000E+00
    0.52436E+05        -0.49992E+08         0.00000E+00
    0.00000E+00         0.00000E+00        -0.49886E+08
 
   -0.49817E+08         0.54766E+05         0.00000E+00
    0.54766E+05        -0.49992E+08         0.00000E+00
    0.00000E+00         0.00000E+00        -0.49886E+08
 
   -0.49819E+08         0.57071E+05         0.00000E+00
    0.57071E+05        -0.49991E+08         0.00000E+00
    0.00000E+00         0.00000E+00        -0.49886E+08
 
   -0.49821E+08         0.59352E+05         0.00000E+00
    0.59352E+05        -0.49990E+08         0.00000E+00
    0.00000E+00         0.00000E+00        -0.49886E+08
 
   -0.49823E+08         0.61608E+05         0.00000E+00
    0.61608E+05        -0.49989E+08         0.00000E+00
    0.00000E+00         0.00000E+00        -0.49886E+08
 
   -0.49825E+08         0.63839E+05         0.00000E+00
    0.63839E+05        -0.49988E+08         0.00000E+00
    0.00000E+00         0.00000E+00        -0.49886E+08
 
   -0.49827E+08         0.66044E+05         0.00000E+00
    0.66044E+05        -0.49988E+08         0.00000E+00
    0.00000E+00         0.00000E+00        -0.49886E+08
 
   -0.49829E+08         0.68223E+05         0.00000E+00
    0.68223E+05        -0.49987E+08         0.00000E+00
    0.00000E+00         0.00000E+00        -0.49887E+08
 
   -0.49832E+08         0.70376E+05         0.00000E+00
    0.70376E+05        -0.49986E+08         0.00000E+00
    0.00000E+00         0.00000E+00        -0.49887E+08
 
   -0.49834E+08         0.72502E+05         0.00000E+00
    0.72502E+05        -0.49985E+08         0.00000E+00
    0.00000E+00         0.00000E+00        -0.49887E+08
 
   -0.49836E+08         0.74600E+05         0.00000E+00
    0.74600E+05        -0.49984E+08         0.00000E+00
    0.00000E+00         0.00000E+00        -0.49887E+08
 
   -0.49839E+08         0.76672E+05         0.00000E+00
    0.76672E+05        -0.49983E+08         0.00000E+00
    0.00000E+00         0.00000E+00        -0.49887E+08
 
   -0.49841E+08         0.78715E+05         0.00000E+00
    0.78715E+05        -0.49982E+08         0.00000E+00
    0.00000E+00         0.00000E+00        -0.49887E+08
 
   -0.49843E+08         0.80731E+05         0.00000E+00
    0.80731E+05        -0.49981E+08         0.00000E+00
    0.00000E+00         0.00000E+00        -0.49887E+08
 
   -0.49846E+08         0.82718E+05         0.00000E+00
    0.82718E+05        -0.49979E+08         0.00000E+00
    0.00000E+00         0.00000E+00        -0.49887E+08
 
   -0.49848E+08         0.84676E+05         0.00000E+00
    0.84676E+05        -0.49978E+08         0.00000E+00
    0.00000E+00         0.00000E+00        -0.49887E+08
 
   -0.49851E+08         0.86605E+05         0.00000E+00
    0.86605E+05        -0.49977E+08         0.00000E+00
    0.00000E+00         0.00000E+00        -0.49888E+08
 
   -0.49854E+08         0.88504E+05         0.00000E+00
    0.88504E+05        -0.49976E+08         0.00000E+00
    0.00000E+00         0.00000E+00        -0.49888E+08
 
   -0.49856E+08         0.90374E+05         0.00000E+00
    0.90374E+05        -0.49975E+08         0.00000E+00
    0.00000E+00         0.00000E+00        -0.49888E+08
 
   -0.49859E+08         0.92213E+05         0.00000E+00
    0.92213E+05        -0.49974E+08         0.00000E+00
    0.00000E+00         0.00000E+00        -0.49888E+08
 
   -0.49862E+08         0.94022E+05         0.00000E+00
    0.94022E+05        -0.49972E+08         0.00000E+00
    0.00000E+00         0.00000E+00        -0.49888E+08
 
   -0.49864E+08         0.95800E+05         0.00000E+00
    0.95800E+05        -0.49971E+08         0.00000E+00
    0.00000E+00         0.00000E+00        -0.49888E+08
 
   -0.49867E+08         0.97547E+05         0.00000E+00
    0.97547E+05        -0.49970E+08         0.00000E+00
    0.00000E+00         0.00000E+00        -0.49888E+08
 
   -0.49870E+08         0.99263E+05         0.00000E+00
    0.99263E+05        -0.49968E+08         0.00000E+00
    0.00000E+00         0.00000E+00        -0.49888E+08
 
   -0.49872E+08         0.10095E+06         0.00000E+00
    0.10095E+06        -0.49967E+08         0.00000E+00
    0.00000E+00         0.00000E+00        -0.49888E+08
 
   -0.49875E+08         0.10260E+06         0.00000E+00
    0.10260E+06        -0.49966E+08         0.00000E+00
    0.00000E+00         0.00000E+00        -0.49888E+08
 
   -0.49878E+08         0.10422E+06         0.00000E+00
    0.10422E+06        -0.49964E+08         0.00000E+00
    0.00000E+00         0.00000E+00        -0.49888E+08
 
   -0.49881E+08         0.10581E+06         0.00000E+00
    0.10581E+06        -0.49963E+08         0.00000E+00
    0.00000E+00         0.00000E+00        -0.49888E+08
 
   -0.49884E+08         0.10736E+06         0.00000E+00
    0.10736E+06        -0.49961E+08         0.00000E+00
    0.00000E+00         0.00000E+00        -0.49888E+08
 
   -0.49887E+08         0.10888E+06         0.00000E+00
    0.10888E+06        -0.49960E+08         0.00000E+00
    0.00000E+00         0.00000E+00        -0.49888E+08
 
   -0.49774E+08         0.14801E+04         0.00000E+00
    0.14801E+04        -0.50000E+08         0.00000E+00
    0.00000E+00         0.00000E+00        -0.49877E+08
 
   -0.49775E+08         0.43974E+04         0.00000E+00
    0.43974E+04        -0.50000E+08         0.00000E+00
    0.00000E+00         0.00000E+00        -0.49877E+08
 
   -0.49776E+08         0.72982E+04         0.00000E+00
    0.72982E+04        -0.50000E+08         0.00000E+00
    0.00000E+00         0.00000E+00        -0.49877E+08
 
   -0.49777E+08         0.10182E+05         0.00000E+00
    0.10182E+05        -0.50000E+08         0.00000E+00
    0.00000E+00         0.00000E+00        -0.49877E+08
 
   -0.49778E+08         0.13049E+05         0.00000E+00
    0.13049E+05        -0.50000E+08         0.00000E+00
    0.00000E+00         0.00000E+00        -0.49877E+08
 
   -0.49779E+08         0.15897E+05         0.00000E+00
    0.15897E+05        -0.49999E+08         0.00000E+00
    0.00000E+00         0.00000E+00        -0.49877E+08
 
   -0.49780E+08         0.18727E+05         0.00000E+00
    0.18727E+05        -0.49999E+08         0.00000E+00
    0.00000E+00         0.00000E+00        -0.49877E+08
 
   -0.49781E+08         0.21538E+05         0.00000E+00
    0.21538E+05        -0.49999E+08         0.00000E+00
    0.00000E+00         0.00000E+00        -0.49877E+08
 
   -0.49783E+08         0.24329E+05         0.00000E+00
    0.24329E+05        -0.49999E+08         0.00000E+00
    0.00000E+00         0.00000E+00        -0.49877E+08
 
   -0.49784E+08         0.27100E+05         0.00000E+00
    0.27100E+05        -0.49998E+08         0.00000E+00
    0.00000E+00         0.00000E+00        -0.49877E+08
 
   -0.49785E+08         0.29851E+05         0.00000E+00
    0.29851E+05        -0.49998E+08         0.00000E+00
    0.00000E+00         0.00000E+00        -0.49877E+08
 
   -0.49787E+08         0.32581E+05         0.00000E+00
    0.32581E+05        -0.49997E+08         0.00000E+00
    0.00000E+00         0.00000E+00        -0.49877E+08
 
   -0.49788E+08         0.35289E+05         0.00000E+00
    0.35289E+05        -0.49997E+08         0.00000E+00
    0.00000E+00         0.00000E+00        -0.49877E+08
 
   -0.49790E+08         0.37975E+05         0.00000E+00
    0.37975E+05        -0.49997E+08         0.00000E+00
    0.00000E+00         0.00000E+00        -0.49877E+08
 
   -0.49792E+08         0.40638E+05         0.00000E+00
    0.40638E+05        -0.49996E+08         0.00000E+00
    0.00000E+00         0.00000E+00        -0.49877E+08
 
   -0.49793E+08         0.43279E+05         0.00000E+00
    0.43279E+05        -0.49995E+08         0.00000E+00
    0.00000E+00         0.00000E+00        -0.49877E+08
 
   -0.49795E+08         0.45895E+05         0.00000E+00
    0.45895E+05        -0.49995E+08         0.00000E+00
    0.00000E+00         0.00000E+00        -0.49878E+08
 
   -0.49797E+08         0.48489E+05         0.00000E+00
    0.48489E+05        -0.49994E+08         0.00000E+00
    0.00000E+00         0.00000E+00        -0.49878E+08
 
   -0.49799E+08         0.51057E+05         0.00000E+00
    0.51057E+05        -0.49994E+08         0.00000E+00
    0.00000E+00         0.00000E+00        -0.49878E+08
 
   -0.49801E+08         0.53601E+05         0.00000E+00
    0.53601E+05        -0.49993E+08         0.00000E+00
    0.00000E+00         0.00000E+00        -0.49878E+08
 
   -0.49803E+08         0.56119E+05         0.00000E+00
    0.56119E+05        -0.49992E+08         0.00000E+00
    0.00000E+00         0.00000E+00        -0.49878E+08
 
   -0.49805E+08         0.58612E+05         0.00000E+00
    0.58612E+05        -0.49991E+08         0.00000E+00
    0.00000E+00         0.00000E+00        -0.49878E+08
 
   -0.49807E+08         0.61079E+05         0.00000E+00
    0.61079E+05        -0.49991E+08         0.00000E+00
    0.00000E+00         0.00000E+00        -0.49878E+08
 
   -0.49809E+08         0.63519E+05         0.00000E+00
    0.63519E+05        -0.49990E+08         0.00000E+00
    0.00000E+00         0.00000E+00        -0.49878E+08
 
   -0.49811E+08         0.65932E+05         0.00000E+00
    0.65932E+05        -0.49989E+08         0.00000E+00
    0.00000E+00         0.00000E+00        -0.49878E+08
 
   -0.49814E+08         0.68317E+05         0.00000E+00
    0.68317E+05        -0.49988E+08         0.00000E+00
    0.00000E+00         0.00000E+00        -0.49879E+08
 
   -0.49816E+08         0.70675E+05         0.00000E+00
    0.70675E+05        -0.49987E+08         0.00000E+00
    0.00000E+00         0.00000E+00        -0.49879E+08
 
   -0.49818E+08         0.73004E+05         0.00000E+00
    0.73004E+05        -0.49986E+08         0.00000E+00
    0.00000E+00         0.00000E+00        -0.49879E+08
 
   -0.49821E+08         0.75304E+05         0.00000E+00
    0.75304E+05        -0.49985E+08         0.00000E+00
    0.00000E+00         0.00000E+00        -0.49879E+08
 
   -0.49823E+08         0.77576E+05         0.00000E+00
    0.77576E+05        -0.49984E+08         0.00000E+00
    0.00000E+00         0.00000E+00        -0.49879E+08
 
   -0.49825E+08         0.79818E+05         0.00000E+00
    0.79818E+05        -0.49983E+08         0.00000E+00
    0.00000E+00         0.00000E+00        -0.49879E+08
 
   -0.49828E+08         0.82029E+05         0.00000E+00
    0.82029E+05        -0.49982E+08         0.00000E+00
    0.00000E+00         0.00000E+00        -0.49879E+08
 
   -0.49831E+08         0.84211E+05         0.00000E+00
    0.84211E+05        -0.49981E+08         0.00000E+00
    0.00000E+00         0.00000E+00        -0.49879E+08
 
   -0.49833E+08         0.86362E+05         0.00000E+00
    0.86362E+05        -0.49980E+08         0.00000E+00
    0.00000E+00         0.00000E+00        -0.49879E+08
 
   -0.49836E+08         0.88482E+05         0.00000E+00
    0.88482E+05        -0.49978E+08         0.00000E+00
    0.00000E+00         0.00000E+00        -0.49880E+08
 
   -0.49838E+08         0.90570E+05         0.00000E+00
    0.90570E+05        -0.49977E+08         0.00000E+00
    0.00000E+00         0.00000E+00        -0.49880E+08
 
   -0.49841E+08         0.92627E+05         0.00000E+00
    0.92627E+05        -0.49976E+08         0.00000E+00
    0.00000E+00         0.00000E+00        -0.49880E+08
 
   -0.49844E+08         0.94652E+05         0.00000E+00
    0.94652E+05        -0.49975E+08         0.00000E+00
    0.00000E+00         0.00000E+00        -0.49880E+08
 
   -0.49847E+08         0.96644E+05         0.00000E+00
    0.96644E+05        -0.49973E+08         0.00000E+00
    0.00000E+00         0.00000E+00        -0.49880E+08
 
   -0.49849E+08         0.98603E+05         0.00000E+00
    0.98603E+05        -0.49972E+08         0.00000E+00
    0.00000E+00         0.00000E+00        -0.49880E+08
 
   -0.49852E+08         0.10053E+06         0.00000E+00
    0.10053E+06        -0.49971E+08         0.00000E+00
    0.00000E+00         0.00000E+00        -0.49880E+08
 
   -0.49855E+08         0.10242E+06         0.00000E+00
    0.10242E+06        -0.49969E+08         0.00000E+00
    0.00000E+00         0.00000E+00        -0.49880E+08
 
   -0.49858E+08         0.10428E+06         0.00000E+00
    0.10428E+06        -0.49968E+08         0.00000E+00
    0.00000E+00         0.00000E+00        -0.49880E+08
 
   -0.49861E+08         0.10611E+06         0.00000E+00
    0.10611E+06        -0.49967E+08         0.00000E+00
    0.00000E+00         0.00000E+00        -0.49880E+08
 
   -0.49864E+08         0.10790E+06         0.00000E+00
    0.10790E+06        -0.49965E+08         0.00000E+00
    0.00000E+00         0.00000E+00        -0.49880E+08
 
   -0.49867E+08         0.10965E+06         0.00000E+00
    0.10965E+06        -0.49964E+08         0.00000E+00
    0.00000E+00         0.00000E+00        -0.49880E+08
 
   -0.49870E+08         0.11137E+06         0.00000E+00
    0.11137E+06        -0.49962E+08         0.00000E+00
    0.00000E+00         0.00000E+00        -0.49880E+08
 
   -0.49873E+08         0.11306E+06         0.00000E+00
    0.11306E+06        -0.49961E+08         0.00000E+00
    0.00000E+00         0.00000E+00        -0.49880E+08
 
   -0.49876E+08         0.11471E+06         0.00000E+00
    0.11471E+06        -0.49959E+08         0.00000E+00
    0.00000E+00         0.00000E+00        -0.49881E+08
 
   -0.49879E+08         0.11633E+06         0.00000E+00
    0.11633E+06        -0.49958E+08         0.00000E+00
    0.00000E+00         0.00000E+00        -0.49881E+08
 
   -0.49759E+08         0.15794E+04         0.00000E+00
    0.15794E+04        -0.50000E+08         0.00000E+00
    0.00000E+00         0.00000E+00        -0.49868E+08
 
   -0.49760E+08         0.46946E+04         0.00000E+00
    0.46946E+04        -0.50000E+08         0.00000E+00
    0.00000E+00         0.00000E+00        -0.49868E+08
 
   -0.49761E+08         0.77930E+04         0.00000E+00
    0.77930E+04        -0.50000E+08         0.00000E+00
    0.00000E+00         0.00000E+00        -0.49868E+08
 
   -0.49762E+08         0.10874E+05         0.00000E+00
    0.10874E+05        -0.50000E+08         0.00000E+00
    0.00000E+00         0.00000E+00        -0.49868E+08
 
   -0.49763E+08         0.13937E+05         0.00000E+00
    0.13937E+05        -0.50000E+08         0.00000E+00
    0.00000E+00         0.00000E+00        -0.49868E+08
 
   -0.49764E+08         0.16981E+05         0.00000E+00
    0.16981E+05        -0.49999E+08         0.00000E+00
    0.00000E+00         0.00000E+00        -0.49868E+08
 
   -0.49765E+08         0.20006E+05         0.00000E+00
    0.20006E+05        -0.49999E+08         0.00000E+00
    0.00000E+00         0.00000E+00        -0.49868E+08
 
   -0.49767E+08         0.23011E+05         0.00000E+00
    0.23011E+05        -0.49999E+08         0.00000E+00
    0.00000E+00         0.00000E+00        -0.49868E+08
 
   -0.49768E+08         0.25995E+05         0.00000E+00
    0.25995E+05        -0.49999E+08         0.00000E+00
    0.00000E+00         0.00000E+00        -0.49869E+08
 
   -0.49770E+08         0.28958E+05         0.00000E+00
    0.28958E+05        -0.49998E+08         0.00000E+00
    0.00000E+00         0.00000E+00        -0.49869E+08
 
   -0.49771E+08         0.31899E+05         0.00000E+00
    0.31899E+05        -0.49998E+08         0.00000E+00
    0.00000E+00         0.00000E+00        -0.49869E+08
 
   -0.49773E+08         0.34818E+05         0.00000E+00
    0.34818E+05        -0.49997E+08         0.00000E+00
    0.00000E+00         0.00000E+00        -0.49869E+08
 
   -0.49774E+08         0.37714E+05         0.00000E+00
    0.37714E+05        -0.49997E+08         0.00000E+00
    0.00000E+00         0.00000E+00        -0.49869E+08
 
   -0.49776E+08         0.40587E+05         0.00000E+00
    0.40587E+05        -0.49996E+08         0.00000E+00
    0.00000E+00         0.00000E+00        -0.49869E+08
 
   -0.49778E+08         0.43435E+05         0.00000E+00
    0.43435E+05        -0.49996E+08         0.00000E+00
    0.00000E+00         0.00000E+00        -0.49869E+08
 
   -0.49780E+08         0.46259E+05         0.00000E+00
    0.46259E+05        -0.49995E+08         0.00000E+00
    0.00000E+00         0.00000E+00        -0.49869E+08
 
   -0.49782E+08         0.49058E+05         0.00000E+00
    0.49058E+05        -0.49995E+08         0.00000E+00
    0.00000E+00         0.00000E+00        -0.49869E+08
 
   -0.49784E+08         0.51831E+05         0.00000E+00
    0.51831E+05        -0.49994E+08         0.00000E+00
    0.00000E+00         0.00000E+00        -0.49869E+08
 
   -0.49786E+08         0.54578E+05         0.00000E+00
    0.54578E+05        -0.49993E+08         0.00000E+00
    0.00000E+00         0.00000E+00        -0.49869E+08
 
   -0.49788E+08         0.57299E+05         0.00000E+00
    0.57299E+05        -0.49992E+08         0.00000E+00
    0.00000E+00         0.00000E+00        -0.49870E+08
 
   -0.49790E+08         0.59992E+05         0.00000E+00
    0.59992E+05        -0.49992E+08         0.00000E+00
    0.00000E+00         0.00000E+00        -0.49870E+08
 
   -0.49792E+08         0.62657E+05         0.00000E+00
    0.62657E+05        -0.49991E+08         0.00000E+00
    0.00000E+00         0.00000E+00        -0.49870E+08
 
   -0.49794E+08         0.65294E+05         0.00000E+00
    0.65294E+05        -0.49990E+08         0.00000E+00
    0.00000E+00         0.00000E+00        -0.49870E+08
 
   -0.49797E+08         0.67902E+05         0.00000E+00
    0.67902E+05        -0.49989E+08         0.00000E+00
    0.00000E+00         0.00000E+00        -0.49870E+08
 
   -0.49799E+08         0.70481E+05         0.00000E+00
    0.70481E+05        -0.49988E+08         0.00000E+00
    0.00000E+00         0.00000E+00        -0.49870E+08
 
   -0.49801E+08         0.73031E+05         0.00000E+00
    0.73031E+05        -0.49987E+08         0.00000E+00
    0.00000E+00         0.00000E+00        -0.49870E+08
 
   -0.49804E+08         0.75550E+05         0.00000E+00
    0.75550E+05        -0.49986E+08         0.00000E+00
    0.00000E+00         0.00000E+00        -0.49870E+08
 
   -0.49806E+08         0.78039E+05         0.00000E+00
    0.78039E+05        -0.49985E+08         0.00000E+00
    0.00000E+00         0.00000E+00        -0.49871E+08
 
   -0.49809E+08         0.80496E+05         0.00000E+00
    0.80496E+05        -0.49984E+08         0.00000E+00
    0.00000E+00         0.00000E+00        -0.49871E+08
 
   -0.49811E+08         0.82922E+05         0.00000E+00
    0.82922E+05        -0.49983E+08         0.00000E+00
    0.00000E+00         0.00000E+00        -0.49871E+08
 
   -0.49814E+08         0.85316E+05         0.00000E+00
    0.85316E+05        -0.49982E+08         0.00000E+00
    0.00000E+00         0.00000E+00        -0.49871E+08
 
   -0.49817E+08         0.87678E+05         0.00000E+00
    0.87678E+05        -0.49981E+08         0.00000E+00
    0.00000E+00         0.00000E+00        -0.49871E+08
 
   -0.49819E+08         0.90007E+05         0.00000E+00
    0.90007E+05        -0.49980E+08         0.00000E+00
    0.00000E+00         0.00000E+00        -0.49871E+08
 
   -0.49822E+08         0.92302E+05         0.00000E+00
    0.92302E+05        -0.49978E+08         0.00000E+00
    0.00000E+00         0.00000E+00        -0.49871E+08
 
   -0.49825E+08         0.94564E+05         0.00000E+00
    0.94564E+05        -0.49977E+08         0.00000E+00
    0.00000E+00         0.00000E+00        -0.49871E+08
 
   -0.49828E+08         0.96792E+05         0.00000E+00
    0.96792E+05        -0.49976E+08         0.00000E+00
    0.00000E+00         0.00000E+00        -0.49872E+08
 
   -0.49831E+08         0.98986E+05         0.00000E+00
    0.98986E+05        -0.49975E+08         0.00000E+00
    0.00000E+00         0.00000E+00        -0.49872E+08
 
   -0.49833E+08         0.10114E+06         0.00000E+00
    0.10114E+06        -0.49973E+08         0.00000E+00
    0.00000E+00         0.00000E+00        -0.49872E+08
 
   -0.49836E+08         0.10327E+06         0.00000E+00
    0.10327E+06        -0.49972E+08         0.00000E+00
    0.00000E+00         0.00000E+00        -0.49872E+08
 
   -0.49839E+08         0.10536E+06         0.00000E+00
    0.10536E+06        -0.49971E+08         0.00000E+00
    0.00000E+00         0.00000E+00        -0.49872E+08
 
   -0.49842E+08         0.10741E+06         0.00000E+00
    0.10741E+06        -0.49969E+08         0.00000E+00
    0.00000E+00         0.00000E+00        -0.49872E+08
 
   -0.49845E+08         0.10942E+06         0.00000E+00
    0.10942E+06        -0.49968E+08         0.00000E+00
    0.00000E+00         0.00000E+00        -0.49872E+08
 
   -0.49849E+08         0.11140E+06         0.00000E+00
    0.11140E+06        -0.49966E+08         0.00000E+00
    0.00000E+00         0.00000E+00        -0.49872E+08
 
   -0.49852E+08         0.11335E+06         0.00000E+00
    0.11335E+06        -0.49965E+08         0.00000E+00
    0.00000E+00         0.00000E+00        -0.49872E+08
 
   -0.49855E+08         0.11525E+06         0.00000E+00
    0.11525E+06        -0.49963E+08         0.00000E+00
    0.00000E+00         0.00000E+00        -0.49872E+08
 
   -0.49858E+08         0.11712E+06         0.00000E+00
    0.11712E+06        -0.49962E+08         0.00000E+00
    0.00000E+00         0.00000E+00        -0.49872E+08
 
   -0.49861E+08         0.11895E+06         0.00000E+00
    0.11895E+06        -0.49960E+08         0.00000E+00
    0.00000E+00         0.00000E+00        -0.49872E+08
 
   -0.49864E+08         0.12074E+06         0.00000E+00
    0.12074E+06        -0.49959E+08         0.00000E+00
    0.00000E+00         0.00000E+00        -0.49872E+08
 
   -0.49868E+08         0.12250E+06         0.00000E+00
    0.12250E+06        -0.49957E+08         0.00000E+00
    0.00000E+00         0.00000E+00        -0.49872E+08
 
   -0.49871E+08         0.12421E+06         0.00000E+00
    0.12421E+06        -0.49956E+08         0.00000E+00
    0.00000E+00         0.00000E+00        -0.49872E+08
 
   -0.49743E+08         0.16842E+04         0.00000E+00
    0.16842E+04        -0.50000E+08         0.00000E+00
    0.00000E+00         0.00000E+00        -0.49859E+08
 
   -0.49744E+08         0.50081E+04         0.00000E+00
    0.50081E+04        -0.50000E+08         0.00000E+00
    0.00000E+00         0.00000E+00        -0.49859E+08
 
   -0.49745E+08         0.83146E+04         0.00000E+00
    0.83146E+04        -0.50000E+08         0.00000E+00
    0.00000E+00         0.00000E+00        -0.49859E+08
 
   -0.49746E+08         0.11603E+05         0.00000E+00
    0.11603E+05        -0.50000E+08         0.00000E+00
    0.00000E+00         0.00000E+00        -0.49859E+08
 
   -0.49747E+08         0.14873E+05         0.00000E+00
    0.14873E+05        -0.50000E+08         0.00000E+00
    0.00000E+00         0.00000E+00        -0.49859E+08
 
   -0.49749E+08         0.18123E+05         0.00000E+00
    0.18123E+05        -0.49999E+08         0.00000E+00
    0.00000E+00         0.00000E+00        -0.49859E+08
 
   -0.49750E+08         0.21353E+05         0.00000E+00
    0.21353E+05        -0.49999E+08         0.00000E+00
    0.00000E+00         0.00000E+00        -0.49860E+08
 
   -0.49751E+08         0.24562E+05         0.00000E+00
    0.24562E+05        -0.49999E+08         0.00000E+00
    0.00000E+00         0.00000E+00        -0.49860E+08
 
   -0.49753E+08         0.27750E+05         0.00000E+00
    0.27750E+05        -0.49998E+08         0.00000E+00
    0.00000E+00         0.00000E+00        -0.49860E+08
 
   -0.49754E+08         0.30915E+05         0.00000E+00
    0.30915E+05        -0.49998E+08         0.00000E+00
    0.00000E+00         0.00000E+00        -0.49860E+08
 
   -0.49756E+08         0.34058E+05         0.00000E+00
    0.34058E+05        -0.49998E+08         0.00000E+00
    0.00000E+00         0.00000E+00        -0.49860E+08
 
   -0.49758E+08         0.37176E+05         0.00000E+00
    0.37176E+05        -0.49997E+08         0.00000E+00
    0.00000E+00         0.00000E+00        -0.49860E+08
 
   -0.49760E+08         0.40271E+05         0.00000E+00
    0.40271E+05        -0.49997E+08         0.00000E+00
    0.00000E+00         0.00000E+00        -0.49860E+08
 
   -0.49761E+08         0.43340E+05         0.00000E+00
    0.43340E+05        -0.49996E+08         0.00000E+00
    0.00000E+00         0.00000E+00        -0.49860E+08
 
   -0.49763E+08         0.46384E+05         0.00000E+00
    0.46384E+05        -0.49996E+08         0.00000E+00
    0.00000E+00         0.00000E+00        -0.49860E+08
 
   -0.49765E+08         0.49402E+05         0.00000E+00
    0.49402E+05        -0.49995E+08         0.00000E+00
    0.00000E+00         0.00000E+00        -0.49860E+08
 
   -0.49767E+08         0.52393E+05         0.00000E+00
    0.52393E+05        -0.49994E+08         0.00000E+00
    0.00000E+00         0.00000E+00        -0.49860E+08
 
   -0.49769E+08         0.55356E+05         0.00000E+00
    0.55356E+05        -0.49994E+08         0.00000E+00
    0.00000E+00         0.00000E+00        -0.49861E+08
 
   -0.49772E+08         0.58291E+05         0.00000E+00
    0.58291E+05        -0.49993E+08         0.00000E+00
    0.00000E+00         0.00000E+00        -0.49861E+08
 
   -0.49774E+08         0.61198E+05         0.00000E+00
    0.61198E+05        -0.49992E+08         0.00000E+00
    0.00000E+00         0.00000E+00        -0.49861E+08
 
   -0.49776E+08         0.64076E+05         0.00000E+00
    0.64076E+05        -0.49991E+08         0.00000E+00
    0.00000E+00         0.00000E+00        -0.49861E+08
 
   -0.49778E+08         0.66924E+05         0.00000E+00
    0.66924E+05        -0.49990E+08         0.00000E+00
    0.00000E+00         0.00000E+00        -0.49861E+08
 
   -0.49781E+08         0.69741E+05         0.00000E+00
    0.69741E+05        -0.49989E+08         0.00000E+00
    0.00000E+00         0.00000E+00        -0.49861E+08
 
   -0.49783E+08         0.72528E+05         0.00000E+00
    0.72528E+05        -0.49989E+08         0.00000E+00
    0.00000E+00         0.00000E+00        -0.49861E+08
 
   -0.49786E+08         0.75283E+05         0.00000E+00
    0.75283E+05        -0.49988E+08         0.00000E+00
    0.00000E+00         0.00000E+00        -0.49861E+08
 
   -0.49788E+08         0.78006E+05         0.00000E+00
    0.78006E+05        -0.49987E+08         0.00000E+00
    0.00000E+00         0.00000E+00        -0.49862E+08
 
   -0.49791E+08         0.80697E+05         0.00000E+00
    0.80697E+05        -0.49986E+08         0.00000E+00
    0.00000E+00         0.00000E+00        -0.49862E+08
 
   -0.49793E+08         0.83355E+05         0.00000E+00
    0.83355E+05        -0.49984E+08         0.00000E+00
    0.00000E+00         0.00000E+00        -0.49862E+08
 
   -0.49796E+08         0.85979E+05         0.00000E+00
    0.85979E+05        -0.49983E+08         0.00000E+00
    0.00000E+00         0.00000E+00        -0.49862E+08
 
   -0.49799E+08         0.88570E+05         0.00000E+00
    0.88570E+05        -0.49982E+08         0.00000E+00
    0.00000E+00         0.00000E+00        -0.49862E+08
 
   -0.49802E+08         0.91126E+05         0.00000E+00
    0.91126E+05        -0.49981E+08         0.00000E+00
    0.00000E+00         0.00000E+00        -0.49862E+08
 
   -0.49804E+08         0.93647E+05         0.00000E+00
    0.93647E+05        -0.49980E+08         0.00000E+00
    0.00000E+00         0.00000E+00        -0.49862E+08
 
   -0.49807E+08         0.96132E+05         0.00000E+00
    0.96132E+05        -0.49979E+08         0.00000E+00
    0.00000E+00         0.00000E+00        -0.49862E+08
 
   -0.49810E+08         0.98582E+05         0.00000E+00
    0.98582E+05        -0.49977E+08         0.00000E+00
    0.00000E+00         0.00000E+00        -0.49863E+08
 
   -0.49813E+08         0.10100E+06         0.00000E+00
    0.10100E+06        -0.49976E+08         0.00000E+00
    0.00000E+00         0.00000E+00        -0.49863E+08
 
   -0.49816E+08         0.10337E+06         0.00000E+00
    0.10337E+06        -0.49975E+08         0.00000E+00
    0.00000E+00         0.00000E+00        -0.49863E+08
 
   -0.49819E+08         0.10571E+06         0.00000E+00
    0.10571E+06        -0.49973E+08         0.00000E+00
    0.00000E+00         0.00000E+00        -0.49863E+08
 
   -0.49822E+08         0.10801E+06         0.00000E+00
    0.10801E+06        -0.49972E+08         0.00000E+00
    0.00000E+00         0.00000E+00        -0.49863E+08
 
   -0.49826E+08         0.11028E+06         0.00000E+00
    0.11028E+06        -0.49970E+08         0.00000E+00
    0.00000E+00         0.00000E+00        -0.49863E+08
 
   -0.49829E+08         0.11250E+06         0.00000E+00
    0.11250E+06        -0.49969E+08         0.00000E+00
    0.00000E+00         0.00000E+00        -0.49863E+08
 
   -0.49832E+08         0.11469E+06         0.00000E+00
    0.11469E+06        -0.49967E+08         0.00000E+00
    0.00000E+00         0.00000E+00        -0.49863E+08
 
   -0.49835E+08         0.11684E+06         0.00000E+00
    0.11684E+06        -0.49966E+08         0.00000E+00
    0.00000E+00         0.00000E+00        -0.49863E+08
 
   -0.49838E+08         0.11895E+06         0.00000E+00
    0.11895E+06        -0.49964E+08         0.00000E+00
    0.00000E+00         0.00000E+00        -0.49863E+08
 
   -0.49842E+08         0.12102E+06         0.00000E+00
    0.12102E+06        -0.49963E+08         0.00000E+00
    0.00000E+00         0.00000E+00        -0.49864E+08
 
   -0.49845E+08         0.12305E+06         0.00000E+00
    0.12305E+06        -0.49961E+08         0.00000E+00
    0.00000E+00         0.00000E+00        -0.49864E+08
 
   -0.49848E+08         0.12504E+06         0.00000E+00
    0.12504E+06        -0.49960E+08         0.00000E+00
    0.00000E+00         0.00000E+00        -0.49864E+08
 
   -0.49852E+08         0.12698E+06         0.00000E+00
    0.12698E+06        -0.49958E+08         0.00000E+00
    0.00000E+00         0.00000E+00        -0.49864E+08
 
   -0.49855E+08         0.12889E+06         0.00000E+00
    0.12889E+06        -0.49956E+08         0.00000E+00
    0.00000E+00         0.00000E+00        -0.49864E+08
 
   -0.49859E+08         0.13076E+06         0.00000E+00
    0.13076E+06        -0.49955E+08         0.00000E+00
    0.00000E+00         0.00000E+00        -0.49864E+08
 
   -0.49862E+08         0.13258E+06         0.00000E+00
    0.13258E+06        -0.49953E+08         0.00000E+00
    0.00000E+00         0.00000E+00        -0.49864E+08
 
   -0.49726E+08         0.17952E+04         0.00000E+00
    0.17952E+04        -0.50000E+08         0.00000E+00
    0.00000E+00         0.00000E+00        -0.49850E+08
 
   -0.49727E+08         0.53397E+04         0.00000E+00
    0.53397E+04        -0.50000E+08         0.00000E+00
    0.00000E+00         0.00000E+00        -0.49850E+08
 
   -0.49728E+08         0.88663E+04         0.00000E+00
    0.88663E+04        -0.50000E+08         0.00000E+00
    0.00000E+00         0.00000E+00        -0.49850E+08
 
   -0.49729E+08         0.12374E+05         0.00000E+00
    0.12374E+05        -0.50000E+08         0.00000E+00
    0.00000E+00         0.00000E+00        -0.49850E+08
 
   -0.49730E+08         0.15863E+05         0.00000E+00
    0.15863E+05        -0.50000E+08         0.00000E+00
    0.00000E+00         0.00000E+00        -0.49850E+08
 
   -0.49732E+08         0.19331E+05         0.00000E+00
    0.19331E+05        -0.49999E+08         0.00000E+00
    0.00000E+00         0.00000E+00        -0.49850E+08
 
   -0.49733E+08         0.22778E+05         0.00000E+00
    0.22778E+05        -0.49999E+08         0.00000E+00
    0.00000E+00         0.00000E+00        -0.49850E+08
 
   -0.49735E+08         0.26203E+05         0.00000E+00
    0.26203E+05        -0.49999E+08         0.00000E+00
    0.00000E+00         0.00000E+00        -0.49850E+08
 
   -0.49736E+08         0.29606E+05         0.00000E+00
    0.29606E+05        -0.49998E+08         0.00000E+00
    0.00000E+00         0.00000E+00        -0.49850E+08
 
   -0.49738E+08         0.32985E+05         0.00000E+00
    0.32985E+05        -0.49998E+08         0.00000E+00
    0.00000E+00         0.00000E+00        -0.49850E+08
 
   -0.49740E+08         0.36339E+05         0.00000E+00
    0.36339E+05        -0.49998E+08         0.00000E+00
    0.00000E+00         0.00000E+00        -0.49850E+08
 
   -0.49742E+08         0.39669E+05         0.00000E+00
    0.39669E+05        -0.49997E+08         0.00000E+00
    0.00000E+00         0.00000E+00        -0.49850E+08
 
   -0.49744E+08         0.42973E+05         0.00000E+00
    0.42973E+05        -0.49996E+08         0.00000E+00
    0.00000E+00         0.00000E+00        -0.49851E+08
 
   -0.49746E+08         0.46250E+05         0.00000E+00
    0.46250E+05        -0.49996E+08         0.00000E+00
    0.00000E+00         0.00000E+00        -0.49851E+08
 
   -0.49748E+08         0.49501E+05         0.00000E+00
    0.49501E+05        -0.49995E+08         0.00000E+00
    0.00000E+00         0.00000E+00        -0.49851E+08
 
   -0.49750E+08         0.52723E+05         0.00000E+00
    0.52723E+05        -0.49995E+08         0.00000E+00
    0.00000E+00         0.00000E+00        -0.49851E+08
 
   -0.49752E+08         0.55917E+05         0.00000E+00
    0.55917E+05        -0.49994E+08         0.00000E+00
    0.00000E+00         0.00000E+00        -0.49851E+08
 
   -0.49754E+08         0.59082E+05         0.00000E+00
    0.59082E+05        -0.49993E+08         0.00000E+00
    0.00000E+00         0.00000E+00        -0.49851E+08
 
   -0.49756E+08         0.62217E+05         0.00000E+00
    0.62217E+05        -0.49992E+08         0.00000E+00
    0.00000E+00         0.00000E+00        -0.49851E+08
 
   -0.49759E+08         0.65321E+05         0.00000E+00
    0.65321E+05        -0.49992E+08         0.00000E+00
    0.00000E+00         0.00000E+00        -0.49851E+08
 
   -0.49761E+08         0.68394E+05         0.00000E+00
    0.68394E+05        -0.49991E+08         0.00000E+00
    0.00000E+00         0.00000E+00        -0.49852E+08
 
   -0.49764E+08         0.71436E+05         0.00000E+00
    0.71436E+05        -0.49990E+08         0.00000E+00
    0.00000E+00         0.00000E+00        -0.49852E+08
 
   -0.49766E+08         0.74445E+05         0.00000E+00
    0.74445E+05        -0.49989E+08         0.00000E+00
    0.00000E+00         0.00000E+00        -0.49852E+08
 
   -0.49769E+08         0.77420E+05         0.00000E+00
    0.77420E+05        -0.49988E+08         0.00000E+00
    0.00000E+00         0.00000E+00        -0.49852E+08
 
   -0.49771E+08         0.80362E+05         0.00000E+00
    0.80362E+05        -0.49987E+08         0.00000E+00
    0.00000E+00         0.00000E+00        -0.49852E+08
 
   -0.49774E+08         0.83270E+05         0.00000E+00
    0.83270E+05        -0.49986E+08         0.00000E+00
    0.00000E+00         0.00000E+00        -0.49852E+08
 
   -0.49777E+08         0.86143E+05         0.00000E+00
    0.86143E+05        -0.49985E+08         0.00000E+00
    0.00000E+00         0.00000E+00        -0.49852E+08
 
   -0.49780E+08         0.88981E+05         0.00000E+00
    0.88981E+05        -0.49984E+08         0.00000E+00
    0.00000E+00         0.00000E+00        -0.49852E+08
 
   -0.49783E+08         0.91783E+05         0.00000E+00
    0.91783E+05        -0.49982E+08         0.00000E+00
    0.00000E+00         0.00000E+00        -0.49853E+08
 
   -0.49786E+08         0.94548E+05         0.00000E+00
    0.94548E+05        -0.49981E+08         0.00000E+00
    0.00000E+00         0.00000E+00        -0.49853E+08
 
   -0.49789E+08         0.97276E+05         0.00000E+00
    0.97276E+05        -0.49980E+08         0.00000E+00
    0.00000E+00         0.00000E+00        -0.49853E+08
 
   -0.49792E+08         0.99967E+05         0.00000E+00
    0.99967E+05        -0.49979E+08         0.00000E+00
    0.00000E+00         0.00000E+00        -0.49853E+08
 
   -0.49795E+08         0.10262E+06         0.00000E+00
    0.10262E+06        -0.49977E+08         0.00000E+00
    0.00000E+00         0.00000E+00        -0.49853E+08
 
   -0.49798E+08         0.10523E+06         0.00000E+00
    0.10523E+06        -0.49976E+08         0.00000E+00
    0.00000E+00         0.00000E+00        -0.49853E+08
 
   -0.49801E+08         0.10781E+06         0.00000E+00
    0.10781E+06        -0.49975E+08         0.00000E+00
    0.00000E+00         0.00000E+00        -0.49853E+08
 
   -0.49804E+08         0.11034E+06         0.00000E+00
    0.11034E+06        -0.49973E+08         0.00000E+00
    0.00000E+00         0.00000E+00        -0.49854E+08
 
   -0.49807E+08         0.11284E+06         0.00000E+00
    0.11284E+06        -0.49972E+08         0.00000E+00
    0.00000E+00         0.00000E+00        -0.49854E+08
 
   -0.49811E+08         0.11529E+06         0.00000E+00
    0.11529E+06        -0.49970E+08         0.00000E+00
    0.00000E+00         0.00000E+00        -0.49854E+08
 
   -0.49814E+08         0.11771E+06         0.00000E+00
    0.11771E+06        -0.49969E+08         0.00000E+00
    0.00000E+00         0.00000E+00        -0.49854E+08
 
   -0.49817E+08         0.12008E+06         0.00000E+00
    0.12008E+06        -0.49967E+08         0.00000E+00
    0.00000E+00         0.00000E+00        -0.49854E+08
 
   -0.49821E+08         0.12241E+06         0.00000E+00
    0.12241E+06        -0.49966E+08         0.00000E+00
    0.00000E+00         0.00000E+00        -0.49854E+08
 
   -0.49824E+08         0.12470E+06         0.00000E+00
    0.12470E+06        -0.49964E+08         0.00000E+00
    0.00000E+00         0.00000E+00        -0.49854E+08
 
   -0.49828E+08         0.12695E+06         0.00000E+00
    0.12695E+06        -0.49962E+08         0.00000E+00
    0.00000E+00         0.00000E+00        -0.49854E+08
 
   -0.49831E+08         0.12916E+06         0.00000E+00
    0.12916E+06        -0.49961E+08         0.00000E+00
    0.00000E+00         0.00000E+00        -0.49854E+08
 
   -0.49835E+08         0.13132E+06         0.00000E+00
    0.13132E+06        -0.49959E+08         0.00000E+00
    0.00000E+00         0.00000E+00        -0.49854E+08
 
   -0.49838E+08         0.13344E+06         0.00000E+00
    0.13344E+06        -0.49957E+08         0.00000E+00
    0.00000E+00         0.00000E+00        -0.49854E+08
 
   -0.49842E+08         0.13551E+06         0.00000E+00
    0.13551E+06        -0.49955E+08         0.00000E+00
    0.00000E+00         0.00000E+00        -0.49854E+08
 
   -0.49845E+08         0.13754E+06         0.00000E+00
    0.13754E+06        -0.49954E+08         0.00000E+00
    0.00000E+00         0.00000E+00        -0.49855E+08
 
   -0.49849E+08         0.13953E+06         0.00000E+00
    0.13953E+06        -0.49952E+08         0.00000E+00
    0.00000E+00         0.00000E+00        -0.49855E+08
 
   -0.49853E+08         0.14147E+06         0.00000E+00
    0.14147E+06        -0.49950E+08         0.00000E+00
    0.00000E+00         0.00000E+00        -0.49855E+08
 
   -0.49707E+08         0.19129E+04         0.00000E+00
    0.19129E+04        -0.50000E+08         0.00000E+00
    0.00000E+00         0.00000E+00        -0.49840E+08
 
   -0.49708E+08         0.56914E+04         0.00000E+00
    0.56914E+04        -0.50000E+08         0.00000E+00
    0.00000E+00         0.00000E+00        -0.49840E+08
 
   -0.49710E+08         0.94514E+04         0.00000E+00
    0.94514E+04        -0.50000E+08         0.00000E+00
    0.00000E+00         0.00000E+00        -0.49840E+08
 
   -0.49711E+08         0.13192E+05         0.00000E+00
    0.13192E+05        -0.50000E+08         0.00000E+00
    0.00000E+00         0.00000E+00        -0.49840E+08
 
   -0.49712E+08         0.16912E+05         0.00000E+00
    0.16912E+05        -0.50000E+08         0.00000E+00
    0.00000E+00         0.00000E+00        -0.49840E+08
 
   -0.49714E+08         0.20611E+05         0.00000E+00
    0.20611E+05        -0.49999E+08         0.00000E+00
    0.00000E+00         0.00000E+00        -0.49840E+08
 
   -0.49716E+08         0.24288E+05         0.00000E+00
    0.24288E+05        -0.49999E+08         0.00000E+00
    0.00000E+00         0.00000E+00        -0.49840E+08
 
   -0.49717E+08         0.27942E+05         0.00000E+00
    0.27942E+05        -0.49999E+08         0.00000E+00
    0.00000E+00         0.00000E+00        -0.49840E+08
 
   -0.49719E+08         0.31572E+05         0.00000E+00
    0.31572E+05        -0.49998E+08         0.00000E+00
    0.00000E+00         0.00000E+00        -0.49840E+08
 
   -0.49721E+08         0.35177E+05         0.00000E+00
    0.35177E+05        -0.49998E+08         0.00000E+00
    0.00000E+00         0.00000E+00        -0.49840E+08
 
   -0.49723E+08         0.38757E+05         0.00000E+00
    0.38757E+05        -0.49997E+08         0.00000E+00
    0.00000E+00         0.00000E+00        -0.49840E+08
 
   -0.49725E+08         0.42310E+05         0.00000E+00
    0.42310E+05        -0.49997E+08         0.00000E+00
    0.00000E+00         0.00000E+00        -0.49840E+08
 
   -0.49727E+08         0.45836E+05         0.00000E+00
    0.45836E+05        -0.49996E+08         0.00000E+00
    0.00000E+00         0.00000E+00        -0.49841E+08
 
   -0.49729E+08         0.49334E+05         0.00000E+00
    0.49334E+05        -0.49996E+08         0.00000E+00
    0.00000E+00         0.00000E+00        -0.49841E+08
 
   -0.49731E+08         0.52803E+05         0.00000E+00
    0.52803E+05        -0.49995E+08         0.00000E+00
    0.00000E+00         0.00000E+00        -0.49841E+08
 
   -0.49733E+08         0.56243E+05         0.00000E+00
    0.56243E+05        -0.49994E+08         0.00000E+00
    0.00000E+00         0.00000E+00        -0.49841E+08
 
   -0.49735E+08         0.59652E+05         0.00000E+00
    0.59652E+05        -0.49994E+08         0.00000E+00
    0.00000E+00         0.00000E+00        -0.49841E+08
 
   -0.49738E+08         0.63030E+05         0.00000E+00
    0.63030E+05        -0.49993E+08         0.00000E+00
    0.00000E+00         0.00000E+00        -0.49841E+08
 
   -0.49740E+08         0.66376E+05         0.00000E+00
    0.66376E+05        -0.49992E+08         0.00000E+00
    0.00000E+00         0.00000E+00        -0.49841E+08
 
   -0.49743E+08         0.69690E+05         0.00000E+00
    0.69690E+05        -0.49991E+08         0.00000E+00
    0.00000E+00         0.00000E+00        -0.49841E+08
 
   -0.49745E+08         0.72970E+05         0.00000E+00
    0.72970E+05        -0.49990E+08         0.00000E+00
    0.00000E+00         0.00000E+00        -0.49842E+08
 
   -0.49748E+08         0.76217E+05         0.00000E+00
    0.76217E+05        -0.49989E+08         0.00000E+00
    0.00000E+00         0.00000E+00        -0.49842E+08
 
   -0.49751E+08         0.79429E+05         0.00000E+00
    0.79429E+05        -0.49988E+08         0.00000E+00
    0.00000E+00         0.00000E+00        -0.49842E+08
 
   -0.49754E+08         0.82605E+05         0.00000E+00
    0.82605E+05        -0.49987E+08         0.00000E+00
    0.00000E+00         0.00000E+00        -0.49842E+08
 
   -0.49756E+08         0.85746E+05         0.00000E+00
    0.85746E+05        -0.49986E+08         0.00000E+00
    0.00000E+00         0.00000E+00        -0.49842E+08
 
   -0.49759E+08         0.88849E+05         0.00000E+00
    0.88849E+05        -0.49985E+08         0.00000E+00
    0.00000E+00         0.00000E+00        -0.49842E+08
 
   -0.49762E+08         0.91916E+05         0.00000E+00
    0.91916E+05        -0.49984E+08         0.00000E+00
    0.00000E+00         0.00000E+00        -0.49842E+08
 
   -0.49765E+08         0.94945E+05         0.00000E+00
    0.94945E+05        -0.49983E+08         0.00000E+00
    0.00000E+00         0.00000E+00        -0.49843E+08
 
   -0.49768E+08         0.97935E+05         0.00000E+00
    0.97935E+05        -0.49981E+08         0.00000E+00
    0.00000E+00         0.00000E+00        -0.49843E+08
 
   -0.49771E+08         0.10089E+06         0.00000E+00
    0.10089E+06        -0.49980E+08         0.00000E+00
    0.00000E+00         0.00000E+00        -0.49843E+08
 
   -0.49775E+08         0.10380E+06         0.00000E+00
    0.10380E+06        -0.49979E+08         0.00000E+00
    0.00000E+00         0.00000E+00        -0.49843E+08
 
   -0.49778E+08         0.10667E+06         0.00000E+00
    0.10667E+06        -0.49977E+08         0.00000E+00
    0.00000E+00         0.00000E+00        -0.49843E+08
 
   -0.49781E+08         0.10950E+06         0.00000E+00
    0.10950E+06        -0.49976E+08         0.00000E+00
    0.00000E+00         0.00000E+00        -0.49843E+08
 
   -0.49784E+08         0.11229E+06         0.00000E+00
    0.11229E+06        -0.49974E+08         0.00000E+00
    0.00000E+00         0.00000E+00        -0.49843E+08
 
   -0.49788E+08         0.11504E+06         0.00000E+00
    0.11504E+06        -0.49973E+08         0.00000E+00
    0.00000E+00         0.00000E+00        -0.49844E+08
 
   -0.49791E+08         0.11774E+06         0.00000E+00
    0.11774E+06        -0.49971E+08         0.00000E+00
    0.00000E+00         0.00000E+00        -0.49844E+08
 
   -0.49795E+08         0.12040E+06         0.00000E+00
    0.12040E+06        -0.49970E+08         0.00000E+00
    0.00000E+00         0.00000E+00        -0.49844E+08
 
   -0.49798E+08         0.12302E+06         0.00000E+00
    0.12302E+06        -0.49968E+08         0.00000E+00
    0.00000E+00         0.00000E+00        -0.49844E+08
 
   -0.49802E+08         0.12560E+06         0.00000E+00
    0.12560E+06        -0.49967E+08         0.00000E+00
    0.00000E+00         0.00000E+00        -0.49844E+08
 
   -0.49805E+08         0.12813E+06         0.00000E+00
    0.12813E+06        -0.49965E+08         0.00000E+00
    0.00000E+00         0.00000E+00        -0.49844E+08
 
   -0.49809E+08         0.13061E+06         0.00000E+00
    0.13061E+06        -0.49963E+08         0.00000E+00
    0.00000E+00         0.00000E+00        -0.49844E+08
 
   -0.49812E+08         0.13305E+06         0.00000E+00
    0.13305E+06        -0.49962E+08         0.00000E+00
    0.00000E+00         0.00000E+00        -0.49844E+08
 
   -0.49816E+08         0.13545E+06         0.00000E+00
    0.13545E+06        -0.49960E+08         0.00000E+00
    0.00000E+00         0.00000E+00        -0.49844E+08
 
   -0.49820E+08         0.13780E+06         0.00000E+00
    0.13780E+06        -0.49958E+08         0.00000E+00
    0.00000E+00         0.00000E+00        -0.49845E+08
 
   -0.49824E+08         0.14010E+06         0.00000E+00
    0.14010E+06        -0.49956E+08         0.00000E+00
    0.00000E+00         0.00000E+00        -0.49845E+08
 
   -0.49827E+08         0.14236E+06         0.00000E+00
    0.14236E+06        -0.49955E+08         0.00000E+00
    0.00000E+00         0.00000E+00        -0.49845E+08
 
   -0.49831E+08         0.14457E+06         0.00000E+00
    0.14457E+06        -0.49953E+08         0.00000E+00
    0.00000E+00         0.00000E+00        -0.49845E+08
 
   -0.49835E+08         0.14673E+06         0.00000E+00
    0.14673E+06        -0.49951E+08         0.00000E+00
    0.00000E+00         0.00000E+00        -0.49845E+08
 
   -0.49839E+08         0.14885E+06         0.00000E+00
    0.14885E+06        -0.49949E+08         0.00000E+00
    0.00000E+00         0.00000E+00        -0.49845E+08
 
   -0.49843E+08         0.15091E+06         0.00000E+00
    0.15091E+06        -0.49947E+08         0.00000E+00
    0.00000E+00         0.00000E+00        -0.49845E+08
 
   -0.49688E+08         0.20381E+04         0.00000E+00
    0.20381E+04        -0.50000E+08         0.00000E+00
    0.00000E+00         0.00000E+00        -0.49829E+08
 
   -0.49689E+08         0.60651E+04         0.00000E+00
    0.60651E+04        -0.50000E+08         0.00000E+00
    0.00000E+00         0.00000E+00        -0.49829E+08
 
   -0.49690E+08         0.10073E+05         0.00000E+00
    0.10073E+05        -0.50000E+08         0.00000E+00
    0.00000E+00         0.00000E+00        -0.49829E+08
 
   -0.49692E+08         0.14060E+05         0.00000E+00
    0.14060E+05        -0.50000E+08         0.00000E+00
    0.00000E+00         0.00000E+00        -0.49829E+08
 
   -0.49693E+08         0.18026E+05         0.00000E+00
    0.18026E+05        -0.49999E+08         0.00000E+00
    0.00000E+00         0.00000E+00        -0.49829E+08
 
   -0.49695E+08         0.21970E+05         0.00000E+00
    0.21970E+05        -0.49999E+08         0.00000E+00
    0.00000E+00         0.00000E+00        -0.49829E+08
 
   -0.49697E+08         0.25891E+05         0.00000E+00
    0.25891E+05        -0.49999E+08         0.00000E+00
    0.00000E+00         0.00000E+00        -0.49829E+08
 
   -0.49698E+08         0.29788E+05         0.00000E+00
    0.29788E+05        -0.49999E+08         0.00000E+00
    0.00000E+00         0.00000E+00        -0.49829E+08
 
   -0.49700E+08         0.33659E+05         0.00000E+00
    0.33659E+05        -0.49998E+08         0.00000E+00
    0.00000E+00         0.00000E+00        -0.49829E+08
 
   -0.49702E+08         0.37504E+05         0.00000E+00
    0.37504E+05        -0.49998E+08         0.00000E+00
    0.00000E+00         0.00000E+00        -0.49829E+08
 
   -0.49704E+08         0.41322E+05         0.00000E+00
    0.41322E+05        -0.49997E+08         0.00000E+00
    0.00000E+00         0.00000E+00        -0.49830E+08
 
   -0.49706E+08         0.45113E+05         0.00000E+00
    0.45113E+05        -0.49997E+08         0.00000E+00
    0.00000E+00         0.00000E+00        -0.49830E+08
 
   -0.49708E+08         0.48874E+05         0.00000E+00
    0.48874E+05        -0.49996E+08         0.00000E+00
    0.00000E+00         0.00000E+00        -0.49830E+08
 
   -0.49711E+08         0.52606E+05         0.00000E+00
    0.52606E+05        -0.49995E+08         0.00000E+00
    0.00000E+00         0.00000E+00        -0.49830E+08
 
   -0.49713E+08         0.56307E+05         0.00000E+00
    0.56307E+05        -0.49995E+08         0.00000E+00
    0.00000E+00         0.00000E+00        -0.49830E+08
 
   -0.49715E+08         0.59977E+05         0.00000E+00
    0.59977E+05        -0.49994E+08         0.00000E+00
    0.00000E+00         0.00000E+00        -0.49830E+08
 
   -0.49718E+08         0.63615E+05         0.00000E+00
    0.63615E+05        -0.49993E+08         0.00000E+00
    0.00000E+00         0.00000E+00        -0.49830E+08
 
   -0.49720E+08         0.67219E+05         0.00000E+00
    0.67219E+05        -0.49992E+08         0.00000E+00
    0.00000E+00         0.00000E+00        -0.49830E+08
 
   -0.49723E+08         0.70790E+05         0.00000E+00
    0.70790E+05        -0.49991E+08         0.00000E+00
    0.00000E+00         0.00000E+00        -0.49831E+08
 
   -0.49726E+08         0.74326E+05         0.00000E+00
    0.74326E+05        -0.49990E+08         0.00000E+00
    0.00000E+00         0.00000E+00        -0.49831E+08
 
   -0.49729E+08         0.77826E+05         0.00000E+00
    0.77826E+05        -0.49990E+08         0.00000E+00
    0.00000E+00         0.00000E+00        -0.49831E+08
 
   -0.49731E+08         0.81291E+05         0.00000E+00
    0.81291E+05        -0.49988E+08         0.00000E+00
    0.00000E+00         0.00000E+00        -0.49831E+08
 
   -0.49734E+08         0.84718E+05         0.00000E+00
    0.84718E+05        -0.49987E+08         0.00000E+00
    0.00000E+00         0.00000E+00        -0.49831E+08
 
   -0.49737E+08         0.88108E+05         0.00000E+00
    0.88108E+05        -0.49986E+08         0.00000E+00
    0.00000E+00         0.00000E+00        -0.49831E+08
 
   -0.49740E+08         0.91459E+05         0.00000E+00
    0.91459E+05        -0.49985E+08         0.00000E+00
    0.00000E+00         0.00000E+00        -0.49832E+08
 
   -0.49743E+08         0.94771E+05         0.00000E+00
    0.94771E+05        -0.49984E+08         0.00000E+00
    0.00000E+00         0.00000E+00        -0.49832E+08
 
   -0.49746E+08         0.98043E+05         0.00000E+00
    0.98043E+05        -0.49983E+08         0.00000E+00
    0.00000E+00         0.00000E+00        -0.49832E+08
 
   -0.49750E+08         0.10127E+06         0.00000E+00
    0.10127E+06        -0.49981E+08         0.00000E+00
    0.00000E+00         0.00000E+00        -0.49832E+08
 
   -0.49753E+08         0.10447E+06         0.00000E+00
    0.10447E+06        -0.49980E+08         0.00000E+00
    0.00000E+00         0.00000E+00        -0.49832E+08
 
   -0.49756E+08         0.10761E+06         0.00000E+00
    0.10761E+06        -0.49979E+08         0.00000E+00
    0.00000E+00         0.00000E+00        -0.49832E+08
 
   -0.49760E+08         0.11072E+06         0.00000E+00
    0.11072E+06        -0.49977E+08         0.00000E+00
    0.00000E+00         0.00000E+00        -0.49832E+08
 
   -0.49763E+08         0.11378E+06         0.00000E+00
    0.11378E+06        -0.49976E+08         0.00000E+00
    0.00000E+00         0.00000E+00        -0.49833E+08
 
   -0.49766E+08         0.11680E+06         0.00000E+00
    0.11680E+06        -0.49974E+08         0.00000E+00
    0.00000E+00         0.00000E+00        -0.49833E+08
 
   -0.49770E+08         0.11978E+06         0.00000E+00
    0.11978E+06        -0.49973E+08         0.00000E+00
    0.00000E+00         0.00000E+00        -0.49833E+08
 
   -0.49774E+08         0.12271E+06         0.00000E+00
    0.12271E+06        -0.49971E+08         0.00000E+00
    0.00000E+00         0.00000E+00        -0.49833E+08
 
   -0.49777E+08         0.12560E+06         0.00000E+00
    0.12560E+06        -0.49970E+08         0.00000E+00
    0.00000E+00         0.00000E+00        -0.49833E+08
 
   -0.49781E+08         0.12843E+06         0.00000E+00
    0.12843E+06        -0.49968E+08         0.00000E+00
    0.00000E+00         0.00000E+00        -0.49833E+08
 
   -0.49785E+08         0.13123E+06         0.00000E+00
    0.13123E+06        -0.49966E+08         0.00000E+00
    0.00000E+00         0.00000E+00        -0.49833E+08
 
   -0.49788E+08         0.13397E+06         0.00000E+00
    0.13397E+06        -0.49965E+08         0.00000E+00
    0.00000E+00         0.00000E+00        -0.49834E+08
 
   -0.49792E+08         0.13667E+06         0.00000E+00
    0.13667E+06        -0.49963E+08         0.00000E+00
    0.00000E+00         0.00000E+00        -0.49834E+08
 
   -0.49796E+08         0.13932E+06         0.00000E+00
    0.13932E+06        -0.49961E+08         0.00000E+00
    0.00000E+00         0.00000E+00        -0.49834E+08
 
   -0.49800E+08         0.14193E+06         0.00000E+00
    0.14193E+06        -0.49959E+08         0.00000E+00
    0.00000E+00         0.00000E+00        -0.49834E+08
 
   -0.49804E+08         0.14448E+06         0.00000E+00
    0.14448E+06        -0.49958E+08         0.00000E+00
    0.00000E+00         0.00000E+00        -0.49834E+08
 
   -0.49808E+08         0.14698E+06         0.00000E+00
    0.14698E+06        -0.49956E+08         0.00000E+00
    0.00000E+00         0.00000E+00        -0.49834E+08
 
   -0.49812E+08         0.14944E+06         0.00000E+00
    0.14944E+06        -0.49954E+08         0.00000E+00
    0.00000E+00         0.00000E+00        -0.49834E+08
 
   -0.49816E+08         0.15184E+06         0.00000E+00
    0.15184E+06        -0.49952E+08         0.00000E+00
    0.00000E+00         0.00000E+00        -0.49834E+08
 
   -0.49820E+08         0.15420E+06         0.00000E+00
    0.15420E+06        -0.49950E+08         0.00000E+00
    0.00000E+00         0.00000E+00        -0.49834E+08
 
   -0.49824E+08         0.15650E+06         0.00000E+00
    0.15650E+06        -0.49948E+08         0.00000E+00
    0.00000E+00         0.00000E+00        -0.49834E+08
 
   -0.49828E+08         0.15876E+06         0.00000E+00
    0.15876E+06        -0.49946E+08         0.00000E+00
    0.00000E+00         0.00000E+00        -0.49834E+08
 
   -0.49832E+08         0.16096E+06         0.00000E+00
    0.16096E+06        -0.49944E+08         0.00000E+00
    0.00000E+00         0.00000E+00        -0.49834E+08
 
   -0.49667E+08         0.21713E+04         0.00000E+00
    0.21713E+04        -0.50000E+08         0.00000E+00
    0.00000E+00         0.00000E+00        -0.49818E+08
 
   -0.49668E+08         0.64625E+04         0.00000E+00
    0.64625E+04        -0.50000E+08         0.00000E+00
    0.00000E+00         0.00000E+00        -0.49818E+08
 
   -0.49670E+08         0.10734E+05         0.00000E+00
    0.10734E+05        -0.50000E+08         0.00000E+00
    0.00000E+00         0.00000E+00        -0.49818E+08
 
   -0.49671E+08         0.14984E+05         0.00000E+00
    0.14984E+05        -0.50000E+08         0.00000E+00
    0.00000E+00         0.00000E+00        -0.49818E+08
 
   -0.49673E+08         0.19211E+05         0.00000E+00
    0.19211E+05        -0.49999E+08         0.00000E+00
    0.00000E+00         0.00000E+00        -0.49818E+08
 
   -0.49675E+08         0.23416E+05         0.00000E+00
    0.23416E+05        -0.49999E+08         0.00000E+00
    0.00000E+00         0.00000E+00        -0.49818E+08
 
   -0.49676E+08         0.27595E+05         0.00000E+00
    0.27595E+05        -0.49999E+08         0.00000E+00
    0.00000E+00         0.00000E+00        -0.49818E+08
 
   -0.49678E+08         0.31750E+05         0.00000E+00
    0.31750E+05        -0.49998E+08         0.00000E+00
    0.00000E+00         0.00000E+00        -0.49818E+08
 
   -0.49680E+08         0.35877E+05         0.00000E+00
    0.35877E+05        -0.49998E+08         0.00000E+00
    0.00000E+00         0.00000E+00        -0.49818E+08
 
   -0.49682E+08         0.39978E+05         0.00000E+00
    0.39978E+05        -0.49998E+08         0.00000E+00
    0.00000E+00         0.00000E+00        -0.49818E+08
 
   -0.49685E+08         0.44049E+05         0.00000E+00
    0.44049E+05        -0.49997E+08         0.00000E+00
    0.00000E+00         0.00000E+00        -0.49818E+08
 
   -0.49687E+08         0.48091E+05         0.00000E+00
    0.48091E+05        -0.49996E+08         0.00000E+00
    0.00000E+00         0.00000E+00        -0.49818E+08
 
   -0.49689E+08         0.52103E+05         0.00000E+00
    0.52103E+05        -0.49996E+08         0.00000E+00
    0.00000E+00         0.00000E+00        -0.49818E+08
 
   -0.49692E+08         0.56083E+05         0.00000E+00
    0.56083E+05        -0.49995E+08         0.00000E+00
    0.00000E+00         0.00000E+00        -0.49819E+08
 
   -0.49694E+08         0.60031E+05         0.00000E+00
    0.60031E+05        -0.49994E+08         0.00000E+00
    0.00000E+00         0.00000E+00        -0.49819E+08
 
   -0.49697E+08         0.63945E+05         0.00000E+00
    0.63945E+05        -0.49994E+08         0.00000E+00
    0.00000E+00         0.00000E+00        -0.49819E+08
 
   -0.49699E+08         0.67825E+05         0.00000E+00
    0.67825E+05        -0.49993E+08         0.00000E+00
    0.00000E+00         0.00000E+00        -0.49819E+08
 
   -0.49702E+08         0.71670E+05         0.00000E+00
    0.71670E+05        -0.49992E+08         0.00000E+00
    0.00000E+00         0.00000E+00        -0.49819E+08
 
   -0.49705E+08         0.75479E+05         0.00000E+00
    0.75479E+05        -0.49991E+08         0.00000E+00
    0.00000E+00         0.00000E+00        -0.49819E+08
 
   -0.49708E+08         0.79251E+05         0.00000E+00
    0.79251E+05        -0.49990E+08         0.00000E+00
    0.00000E+00         0.00000E+00        -0.49819E+08
 
   -0.49711E+08         0.82986E+05         0.00000E+00
    0.82986E+05        -0.49989E+08         0.00000E+00
    0.00000E+00         0.00000E+00        -0.49820E+08
 
   -0.49714E+08         0.86682E+05         0.00000E+00
    0.86682E+05        -0.49988E+08         0.00000E+00
    0.00000E+00         0.00000E+00        -0.49820E+08
 
   -0.49717E+08         0.90338E+05         0.00000E+00
    0.90338E+05        -0.49987E+08         0.00000E+00
    0.00000E+00         0.00000E+00        -0.49820E+08
 
   -0.49720E+08         0.93954E+05         0.00000E+00
    0.93954E+05        -0.49985E+08         0.00000E+00
    0.00000E+00         0.00000E+00        -0.49820E+08
 
   -0.49723E+08         0.97529E+05         0.00000E+00
    0.97529E+05        -0.49984E+08         0.00000E+00
    0.00000E+00         0.00000E+00        -0.49820E+08
 
   -0.49726E+08         0.10106E+06         0.00000E+00
    0.10106E+06        -0.49983E+08         0.00000E+00
    0.00000E+00         0.00000E+00        -0.49820E+08
 
   -0.49730E+08         0.10455E+06         0.00000E+00
    0.10455E+06        -0.49982E+08         0.00000E+00
    0.00000E+00         0.00000E+00        -0.49821E+08
 
   -0.49733E+08         0.10800E+06         0.00000E+00
    0.10800E+06        -0.49980E+08         0.00000E+00
    0.00000E+00         0.00000E+00        -0.49821E+08
 
   -0.49737E+08         0.11141E+06         0.00000E+00
    0.11141E+06        -0.49979E+08         0.00000E+00
    0.00000E+00         0.00000E+00        -0.49821E+08
 
   -0.49740E+08         0.11476E+06         0.00000E+00
    0.11476E+06        -0.49977E+08         0.00000E+00
    0.00000E+00         0.00000E+00        -0.49821E+08
 
   -0.49744E+08         0.11808E+06         0.00000E+00
    0.11808E+06        -0.49976E+08         0.00000E+00
    0.00000E+00         0.00000E+00        -0.49821E+08
 
   -0.49747E+08         0.12135E+06         0.00000E+00
    0.12135E+06        -0.49974E+08         0.00000E+00
    0.00000E+00         0.00000E+00        -0.49821E+08
 
   -0.49751E+08         0.12457E+06         0.00000E+00
    0.12457E+06        -0.49973E+08         0.00000E+00
    0.00000E+00         0.00000E+00        -0.49822E+08
 
   -0.49755E+08         0.12774E+06         0.00000E+00
    0.12774E+06        -0.49971E+08         0.00000E+00
    0.00000E+00         0.00000E+00        -0.49822E+08
 
   -0.49759E+08         0.13087E+06         0.00000E+00
    0.13087E+06        -0.49970E+08         0.00000E+00
    0.00000E+00         0.00000E+00        -0.49822E+08
 
   -0.49762E+08         0.13394E+06         0.00000E+00
    0.13394E+06        -0.49968E+08         0.00000E+00
    0.00000E+00         0.00000E+00        -0.49822E+08
 
   -0.49766E+08         0.13697E+06         0.00000E+00
    0.13697E+06        -0.49966E+08         0.00000E+00
    0.00000E+00         0.00000E+00        -0.49822E+08
 
   -0.49770E+08         0.13995E+06         0.00000E+00
    0.13995E+06        -0.49964E+08         0.00000E+00
    0.00000E+00         0.00000E+00        -0.49822E+08
 
   -0.49774E+08         0.14288E+06         0.00000E+00
    0.14288E+06        -0.49962E+08         0.00000E+00
    0.00000E+00         0.00000E+00        -0.49822E+08
 
   -0.49778E+08         0.14576E+06         0.00000E+00
    0.14576E+06        -0.49961E+08         0.00000E+00
    0.00000E+00         0.00000E+00        -0.49823E+08
 
   -0.49782E+08         0.14858E+06         0.00000E+00
    0.14858E+06        -0.49959E+08         0.00000E+00
    0.00000E+00         0.00000E+00        -0.49823E+08
 
   -0.49787E+08         0.15136E+06         0.00000E+00
    0.15136E+06        -0.49957E+08         0.00000E+00
    0.00000E+00         0.00000E+00        -0.49823E+08
 
   -0.49791E+08         0.15408E+06         0.00000E+00
    0.15408E+06        -0.49955E+08         0.00000E+00
    0.00000E+00         0.00000E+00        -0.49823E+08
 
   -0.49795E+08         0.15675E+06         0.00000E+00
    0.15675E+06        -0.49953E+08         0.00000E+00
    0.00000E+00         0.00000E+00        -0.49823E+08
 
   -0.49799E+08         0.15937E+06         0.00000E+00
    0.15937E+06        -0.49951E+08         0.00000E+00
    0.00000E+00         0.00000E+00        -0.49823E+08
 
   -0.49804E+08         0.16193E+06         0.00000E+00
    0.16193E+06        -0.49949E+08         0.00000E+00
    0.00000E+00         0.00000E+00        -0.49823E+08
 
   -0.49808E+08         0.16444E+06         0.00000E+00
    0.16444E+06        -0.49947E+08         0.00000E+00
    0.00000E+00         0.00000E+00        -0.49823E+08
 
   -0.49812E+08         0.16690E+06         0.00000E+00
    0.16690E+06        -0.49945E+08         0.00000E+00
    0.00000E+00         0.00000E+00        -0.49823E+08
 
   -0.49817E+08         0.16930E+06         0.00000E+00
    0.16930E+06        -0.49942E+08         0.00000E+00
    0.00000E+00         0.00000E+00        -0.49823E+08
 
   -0.49821E+08         0.17165E+06         0.00000E+00
    0.17165E+06        -0.49940E+08         0.00000E+00
    0.00000E+00         0.00000E+00        -0.49823E+08
 
   -0.49645E+08         0.23131E+04         0.00000E+00
    0.23131E+04        -0.50000E+08         0.00000E+00
    0.00000E+00         0.00000E+00        -0.49805E+08
 
   -0.49646E+08         0.68857E+04         0.00000E+00
    0.68857E+04        -0.50000E+08         0.00000E+00
    0.00000E+00         0.00000E+00        -0.49805E+08
 
   -0.49648E+08         0.11437E+05         0.00000E+00
    0.11437E+05        -0.50000E+08         0.00000E+00
    0.00000E+00         0.00000E+00        -0.49805E+08
 
   -0.49649E+08         0.15966E+05         0.00000E+00
    0.15966E+05        -0.50000E+08         0.00000E+00
    0.00000E+00         0.00000E+00        -0.49805E+08
 
   -0.49651E+08         0.20472E+05         0.00000E+00
    0.20472E+05        -0.49999E+08         0.00000E+00
    0.00000E+00         0.00000E+00        -0.49806E+08
 
   -0.49653E+08         0.24953E+05         0.00000E+00
    0.24953E+05        -0.49999E+08         0.00000E+00
    0.00000E+00         0.00000E+00        -0.49806E+08
 
   -0.49655E+08         0.29409E+05         0.00000E+00
    0.29409E+05        -0.49999E+08         0.00000E+00
    0.00000E+00         0.00000E+00        -0.49806E+08
 
   -0.49657E+08         0.33837E+05         0.00000E+00
    0.33837E+05        -0.49998E+08         0.00000E+00
    0.00000E+00         0.00000E+00        -0.49806E+08
 
   -0.49659E+08         0.38238E+05         0.00000E+00
    0.38238E+05        -0.49998E+08         0.00000E+00
    0.00000E+00         0.00000E+00        -0.49806E+08
 
   -0.49661E+08         0.42609E+05         0.00000E+00
    0.42609E+05        -0.49997E+08         0.00000E+00
    0.00000E+00         0.00000E+00        -0.49806E+08
 
   -0.49664E+08         0.46950E+05         0.00000E+00
    0.46950E+05        -0.49997E+08         0.00000E+00
    0.00000E+00         0.00000E+00        -0.49806E+08
 
   -0.49666E+08         0.51260E+05         0.00000E+00
    0.51260E+05        -0.49996E+08         0.00000E+00
    0.00000E+00         0.00000E+00        -0.49806E+08
 
   -0.49668E+08         0.55537E+05         0.00000E+00
    0.55537E+05        -0.49996E+08         0.00000E+00
    0.00000E+00         0.00000E+00        -0.49806E+08
 
   -0.49671E+08         0.59781E+05         0.00000E+00
    0.59781E+05        -0.49995E+08         0.00000E+00
    0.00000E+00         0.00000E+00        -0.49806E+08
 
   -0.49674E+08         0.63991E+05         0.00000E+00
    0.63991E+05        -0.49994E+08         0.00000E+00
    0.00000E+00         0.00000E+00        -0.49807E+08
 
   -0.49676E+08         0.68166E+05         0.00000E+00
    0.68166E+05        -0.49993E+08         0.00000E+00
    0.00000E+00         0.00000E+00        -0.49807E+08
 
   -0.49679E+08         0.72304E+05         0.00000E+00
    0.72304E+05        -0.49992E+08         0.00000E+00
    0.00000E+00         0.00000E+00        -0.49807E+08
 
   -0.49682E+08         0.76404E+05         0.00000E+00
    0.76404E+05        -0.49991E+08         0.00000E+00
    0.00000E+00         0.00000E+00        -0.49807E+08
 
   -0.49685E+08         0.80466E+05         0.00000E+00
    0.80466E+05        -0.49990E+08         0.00000E+00
    0.00000E+00         0.00000E+00        -0.49807E+08
 
   -0.49688E+08         0.84490E+05         0.00000E+00
    0.84490E+05        -0.49989E+08         0.00000E+00
    0.00000E+00         0.00000E+00        -0.49807E+08
 
   -0.49691E+08         0.88472E+05         0.00000E+00
    0.88472E+05        -0.49988E+08         0.00000E+00
    0.00000E+00         0.00000E+00        -0.49808E+08
 
   -0.49695E+08         0.92414E+05         0.00000E+00
    0.92414E+05        -0.49987E+08         0.00000E+00
    0.00000E+00         0.00000E+00        -0.49808E+08
 
   -0.49698E+08         0.96314E+05         0.00000E+00
    0.96314E+05        -0.49986E+08         0.00000E+00
    0.00000E+00         0.00000E+00        -0.49808E+08
 
   -0.49701E+08         0.10017E+06         0.00000E+00
    0.10017E+06        -0.49985E+08         0.00000E+00
    0.00000E+00         0.00000E+00        -0.49808E+08
 
   -0.49705E+08         0.10398E+06         0.00000E+00
    0.10398E+06        -0.49983E+08         0.00000E+00
    0.00000E+00         0.00000E+00        -0.49808E+08
 
   -0.49708E+08         0.10775E+06         0.00000E+00
    0.10775E+06        -0.49982E+08         0.00000E+00
    0.00000E+00         0.00000E+00        -0.49808E+08
 
   -0.49712E+08         0.11148E+06         0.00000E+00
    0.11148E+06        -0.49980E+08         0.00000E+00
    0.00000E+00         0.00000E+00        -0.49809E+08
 
   -0.49715E+08         0.11515E+06         0.00000E+00
    0.11515E+06        -0.49979E+08         0.00000E+00
    0.00000E+00         0.00000E+00        -0.49809E+08
 
   -0.49719E+08         0.11879E+06         0.00000E+00
    0.11879E+06        -0.49977E+08         0.00000E+00
    0.00000E+00         0.00000E+00        -0.49809E+08
 
   -0.49723E+08         0.12237E+06         0.00000E+00
    0.12237E+06        -0.49976E+08         0.00000E+00
    0.00000E+00         0.00000E+00        -0.49809E+08
 
   -0.49727E+08         0.12590E+06         0.00000E+00
    0.12590E+06        -0.49974E+08         0.00000E+00
    0.00000E+00         0.00000E+00        -0.49809E+08
 
   -0.49731E+08         0.12939E+06         0.00000E+00
    0.12939E+06        -0.49973E+08         0.00000E+00
    0.00000E+00         0.00000E+00        -0.49809E+08
 
   -0.49734E+08         0.13282E+06         0.00000E+00
    0.13282E+06        -0.49971E+08         0.00000E+00
    0.00000E+00         0.00000E+00        -0.49810E+08
 
   -0.49738E+08         0.13621E+06         0.00000E+00
    0.13621E+06        -0.49969E+08         0.00000E+00
    0.00000E+00         0.00000E+00        -0.49810E+08
 
   -0.49743E+08         0.13954E+06         0.00000E+00
    0.13954E+06        -0.49968E+08         0.00000E+00
    0.00000E+00         0.00000E+00        -0.49810E+08
 
   -0.49747E+08         0.14283E+06         0.00000E+00
    0.14283E+06        -0.49966E+08         0.00000E+00
    0.00000E+00         0.00000E+00        -0.49810E+08
 
   -0.49751E+08         0.14606E+06         0.00000E+00
    0.14606E+06        -0.49964E+08         0.00000E+00
    0.00000E+00         0.00000E+00        -0.49810E+08
 
   -0.49755E+08         0.14923E+06         0.00000E+00
    0.14923E+06        -0.49962E+08         0.00000E+00
    0.00000E+00         0.00000E+00        -0.49810E+08
 
   -0.49759E+08         0.15236E+06         0.00000E+00
    0.15236E+06        -0.49960E+08         0.00000E+00
    0.00000E+00         0.00000E+00        -0.49811E+08
 
   -0.49764E+08         0.15542E+06         0.00000E+00
    0.15542E+06        -0.49958E+08         0.00000E+00
    0.00000E+00         0.00000E+00        -0.49811E+08
 
   -0.49768E+08         0.15844E+06         0.00000E+00
    0.15844E+06        -0.49956E+08         0.00000E+00
    0.00000E+00         0.00000E+00        -0.49811E+08
 
   -0.49772E+08         0.16140E+06         0.00000E+00
    0.16140E+06        -0.49954E+08         0.00000E+00
    0.00000E+00         0.00000E+00        -0.49811E+08
 
   -0.49777E+08         0.16430E+06         0.00000E+00
    0.16430E+06        -0.49952E+08         0.00000E+00
    0.00000E+00         0.00000E+00        -0.49811E+08
 
   -0.49781E+08         0.16715E+06         0.00000E+00
    0.16715E+06        -0.49950E+08         0.00000E+00
    0.00000E+00         0.00000E+00        -0.49811E+08
 
   -0.49786E+08         0.16994E+06         0.00000E+00
    0.16994E+06        -0.49948E+08         0.00000E+00
    0.00000E+00         0.00000E+00        -0.49811E+08
 
   -0.49790E+08         0.17267E+06         0.00000E+00
    0.17267E+06        -0.49945E+08         0.00000E+00
    0.00000E+00         0.00000E+00        -0.49811E+08
 
   -0.49795E+08         0.17535E+06         0.00000E+00
    0.17535E+06        -0.49943E+08         0.00000E+00
    0.00000E+00         0.00000E+00        -0.49811E+08
 
   -0.49800E+08         0.17796E+06         0.00000E+00
    0.17796E+06        -0.49941E+08         0.00000E+00
    0.00000E+00         0.00000E+00        -0.49811E+08
 
   -0.49804E+08         0.18052E+06         0.00000E+00
    0.18052E+06        -0.49939E+08         0.00000E+00
    0.00000E+00         0.00000E+00        -0.49811E+08
 
   -0.49809E+08         0.18302E+06         0.00000E+00
    0.18302E+06        -0.49936E+08         0.00000E+00
    0.00000E+00         0.00000E+00        -0.49811E+08
 
   -0.49621E+08         0.24643E+04         0.00000E+00
    0.24643E+04        -0.50000E+08         0.00000E+00
    0.00000E+00         0.00000E+00        -0.49792E+08
 
   -0.49623E+08         0.73365E+04         0.00000E+00
    0.73365E+04        -0.50000E+08         0.00000E+00
    0.00000E+00         0.00000E+00        -0.49792E+08
 
   -0.49624E+08         0.12187E+05         0.00000E+00
    0.12187E+05        -0.50000E+08         0.00000E+00
    0.00000E+00         0.00000E+00        -0.49792E+08
 
   -0.49626E+08         0.17013E+05         0.00000E+00
    0.17013E+05        -0.50000E+08         0.00000E+00
    0.00000E+00         0.00000E+00        -0.49792E+08
 
   -0.49628E+08         0.21815E+05         0.00000E+00
    0.21815E+05        -0.49999E+08         0.00000E+00
    0.00000E+00         0.00000E+00        -0.49793E+08
 
   -0.49630E+08         0.26591E+05         0.00000E+00
    0.26591E+05        -0.49999E+08         0.00000E+00
    0.00000E+00         0.00000E+00        -0.49793E+08
 
   -0.49632E+08         0.31339E+05         0.00000E+00
    0.31339E+05        -0.49999E+08         0.00000E+00
    0.00000E+00         0.00000E+00        -0.49793E+08
 
   -0.49634E+08         0.36060E+05         0.00000E+00
    0.36060E+05        -0.49998E+08         0.00000E+00
    0.00000E+00         0.00000E+00        -0.49793E+08
 
   -0.49636E+08         0.40750E+05         0.00000E+00
    0.40750E+05        -0.49998E+08         0.00000E+00
    0.00000E+00         0.00000E+00        -0.49793E+08
 
   -0.49639E+08         0.45410E+05         0.00000E+00
    0.45410E+05        -0.49997E+08         0.00000E+00
    0.00000E+00         0.00000E+00        -0.49793E+08
 
   -0.49641E+08         0.50038E+05         0.00000E+00
    0.50038E+05        -0.49997E+08         0.00000E+00
    0.00000E+00         0.00000E+00        -0.49793E+08
 
   -0.49644E+08         0.54632E+05         0.00000E+00
    0.54632E+05        -0.49996E+08         0.00000E+00
    0.00000E+00         0.00000E+00        -0.49793E+08
 
   -0.49646E+08         0.59193E+05         0.00000E+00
    0.59193E+05        -0.49995E+08         0.00000E+00
    0.00000E+00         0.00000E+00        -0.49793E+08
 
   -0.49649E+08         0.63718E+05         0.00000E+00
    0.63718E+05        -0.49994E+08         0.00000E+00
    0.00000E+00         0.00000E+00        -0.49793E+08
 
   -0.49652E+08         0.68206E+05         0.00000E+00
    0.68206E+05        -0.49994E+08         0.00000E+00
    0.00000E+00         0.00000E+00        -0.49794E+08
 
   -0.49655E+08         0.72657E+05         0.00000E+00
    0.72657E+05        -0.49993E+08         0.00000E+00
    0.00000E+00         0.00000E+00        -0.49794E+08
 
   -0.49658E+08         0.77069E+05         0.00000E+00
    0.77069E+05        -0.49992E+08         0.00000E+00
    0.00000E+00         0.00000E+00        -0.49794E+08
 
   -0.49661E+08         0.81442E+05         0.00000E+00
    0.81442E+05        -0.49991E+08         0.00000E+00
    0.00000E+00         0.00000E+00        -0.49794E+08
 
   -0.49664E+08         0.85773E+05         0.00000E+00
    0.85773E+05        -0.49990E+08         0.00000E+00
    0.00000E+00         0.00000E+00        -0.49794E+08
 
   -0.49668E+08         0.90063E+05         0.00000E+00
    0.90063E+05        -0.49989E+08         0.00000E+00
    0.00000E+00         0.00000E+00        -0.49794E+08
 
   -0.49671E+08         0.94311E+05         0.00000E+00
    0.94311E+05        -0.49987E+08         0.00000E+00
    0.00000E+00         0.00000E+00        -0.49795E+08
 
   -0.49674E+08         0.98514E+05         0.00000E+00
    0.98514E+05        -0.49986E+08         0.00000E+00
    0.00000E+00         0.00000E+00        -0.49795E+08
 
   -0.49678E+08         0.10267E+06         0.00000E+00
    0.10267E+06        -0.49985E+08         0.00000E+00
    0.00000E+00         0.00000E+00        -0.49795E+08
 
   -0.49681E+08         0.10679E+06         0.00000E+00
    0.10679E+06        -0.49984E+08         0.00000E+00
    0.00000E+00         0.00000E+00        -0.49795E+08
 
   -0.49685E+08         0.11085E+06         0.00000E+00
    0.11085E+06        -0.49982E+08         0.00000E+00
    0.00000E+00         0.00000E+00        -0.49795E+08
 
   -0.49689E+08         0.11487E+06         0.00000E+00
    0.11487E+06        -0.49981E+08         0.00000E+00
    0.00000E+00         0.00000E+00        -0.49796E+08
 
   -0.49693E+08         0.11884E+06         0.00000E+00
    0.11884E+06        -0.49979E+08         0.00000E+00
    0.00000E+00         0.00000E+00        -0.49796E+08
 
   -0.49696E+08         0.12277E+06         0.00000E+00
    0.12277E+06        -0.49978E+08         0.00000E+00
    0.00000E+00         0.00000E+00        -0.49796E+08
 
   -0.49700E+08         0.12664E+06         0.00000E+00
    0.12664E+06        -0.49976E+08         0.00000E+00
    0.00000E+00         0.00000E+00        -0.49796E+08
 
   -0.49704E+08         0.13046E+06         0.00000E+00
    0.13046E+06        -0.49974E+08         0.00000E+00
    0.00000E+00         0.00000E+00        -0.49796E+08
 
   -0.49709E+08         0.13423E+06         0.00000E+00
    0.13423E+06        -0.49973E+08         0.00000E+00
    0.00000E+00         0.00000E+00        -0.49797E+08
 
   -0.49713E+08         0.13795E+06         0.00000E+00
    0.13795E+06        -0.49971E+08         0.00000E+00
    0.00000E+00         0.00000E+00        -0.49797E+08
 
   -0.49717E+08         0.14161E+06         0.00000E+00
    0.14161E+06        -0.49969E+08         0.00000E+00
    0.00000E+00         0.00000E+00        -0.49797E+08
 
   -0.49721E+08         0.14522E+06         0.00000E+00
    0.14522E+06        -0.49967E+08         0.00000E+00
    0.00000E+00         0.00000E+00        -0.49797E+08
 
   -0.49725E+08         0.14878E+06         0.00000E+00
    0.14878E+06        -0.49965E+08         0.00000E+00
    0.00000E+00         0.00000E+00        -0.49797E+08
 
   -0.49730E+08         0.15228E+06         0.00000E+00
    0.15228E+06        -0.49964E+08         0.00000E+00
    0.00000E+00         0.00000E+00        -0.49797E+08
 
   -0.49734E+08         0.15572E+06         0.00000E+00
    0.15572E+06        -0.49962E+08         0.00000E+00
    0.00000E+00         0.00000E+00        -0.49798E+08
 
   -0.49739E+08         0.15911E+06         0.00000E+00
    0.15911E+06        -0.49960E+08         0.00000E+00
    0.00000E+00         0.00000E+00        -0.49798E+08
 
   -0.49743E+08         0.16244E+06         0.00000E+00
    0.16244E+06        -0.49957E+08         0.00000E+00
    0.00000E+00         0.00000E+00        -0.49798E+08
 
   -0.49748E+08         0.16571E+06         0.00000E+00
    0.16571E+06        -0.49955E+08         0.00000E+00
    0.00000E+00         0.00000E+00        -0.49798E+08
 
   -0.49753E+08         0.16893E+06         0.00000E+00
    0.16893E+06        -0.49953E+08         0.00000E+00
    0.00000E+00         0.00000E+00        -0.49798E+08
 
   -0.49757E+08         0.17208E+06         0.00000E+00
    0.17208E+06        -0.49951E+08         0.00000E+00
    0.00000E+00         0.00000E+00        -0.49798E+08
 
   -0.49762E+08         0.17518E+06         0.00000E+00
    0.17518E+06        -0.49949E+08         0.00000E+00
    0.00000E+00         0.00000E+00        -0.49798E+08
 
   -0.49767E+08         0.17821E+06         0.00000E+00
    0.17821E+06        -0.49947E+08         0.00000E+00
    0.00000E+00         0.00000E+00        -0.49798E+08
 
   -0.49772E+08         0.18119E+06         0.00000E+00
    0.18119E+06        -0.49944E+08         0.00000E+00
    0.00000E+00         0.00000E+00        -0.49799E+08
 
   -0.49776E+08         0.18410E+06         0.00000E+00
    0.18410E+06        -0.49942E+08         0.00000E+00
    0.00000E+00         0.00000E+00        -0.49799E+08
 
   -0.49781E+08         0.18695E+06         0.00000E+00
    0.18695E+06        -0.49940E+08         0.00000E+00
    0.00000E+00         0.00000E+00        -0.49799E+08
 
   -0.49786E+08         0.18974E+06         0.00000E+00
    0.18974E+06        -0.49937E+08         0.00000E+00
    0.00000E+00         0.00000E+00        -0.49799E+08
 
   -0.49791E+08         0.19247E+06         0.00000E+00
    0.19247E+06        -0.49935E+08         0.00000E+00
    0.00000E+00         0.00000E+00        -0.49799E+08
 
   -0.49796E+08         0.19513E+06         0.00000E+00
    0.19513E+06        -0.49932E+08         0.00000E+00
    0.00000E+00         0.00000E+00        -0.49799E+08
 
   -0.49596E+08         0.26254E+04         0.00000E+00
    0.26254E+04        -0.50000E+08         0.00000E+00
    0.00000E+00         0.00000E+00        -0.49779E+08
 
   -0.49597E+08         0.78168E+04         0.00000E+00
    0.78168E+04        -0.50000E+08         0.00000E+00
    0.00000E+00         0.00000E+00        -0.49779E+08
 
   -0.49599E+08         0.12985E+05         0.00000E+00
    0.12985E+05        -0.50000E+08         0.00000E+00
    0.00000E+00         0.00000E+00        -0.49779E+08
 
   -0.49601E+08         0.18128E+05         0.00000E+00
    0.18128E+05        -0.50000E+08         0.00000E+00
    0.00000E+00         0.00000E+00        -0.49779E+08
 
   -0.49603E+08         0.23245E+05         0.00000E+00
    0.23245E+05        -0.49999E+08         0.00000E+00
    0.00000E+00         0.00000E+00        -0.49779E+08
 
   -0.49605E+08         0.28335E+05         0.00000E+00
    0.28335E+05        -0.49999E+08         0.00000E+00
    0.00000E+00         0.00000E+00        -0.49779E+08
 
   -0.49607E+08         0.33396E+05         0.00000E+00
    0.33396E+05        -0.49999E+08         0.00000E+00
    0.00000E+00         0.00000E+00        -0.49779E+08
 
   -0.49610E+08         0.38427E+05         0.00000E+00
    0.38427E+05        -0.49998E+08         0.00000E+00
    0.00000E+00         0.00000E+00        -0.49779E+08
 
   -0.49612E+08         0.43426E+05         0.00000E+00
    0.43426E+05        -0.49998E+08         0.00000E+00
    0.00000E+00         0.00000E+00        -0.49779E+08
 
   -0.49615E+08         0.48393E+05         0.00000E+00
    0.48393E+05        -0.49997E+08         0.00000E+00
    0.00000E+00         0.00000E+00        -0.49779E+08
 
   -0.49617E+08         0.53326E+05         0.00000E+00
    0.53326E+05        -0.49996E+08         0.00000E+00
    0.00000E+00         0.00000E+00        -0.49779E+08
 
   -0.49620E+08         0.58224E+05         0.00000E+00
    0.58224E+05        -0.49996E+08         0.00000E+00
    0.00000E+00         0.00000E+00        -0.49779E+08
 
   -0.49623E+08         0.63085E+05         0.00000E+00
    0.63085E+05        -0.49995E+08         0.00000E+00
    0.00000E+00         0.00000E+00        -0.49780E+08
 
   -0.49626E+08         0.67909E+05         0.00000E+00
    0.67909E+05        -0.49994E+08         0.00000E+00
    0.00000E+00         0.00000E+00        -0.49780E+08
 
   -0.49629E+08         0.72694E+05         0.00000E+00
    0.72694E+05        -0.49993E+08         0.00000E+00
    0.00000E+00         0.00000E+00        -0.49780E+08
 
   -0.49632E+08         0.77439E+05         0.00000E+00
    0.77439E+05        -0.49992E+08         0.00000E+00
    0.00000E+00         0.00000E+00        -0.49780E+08
 
   -0.49635E+08         0.82143E+05         0.00000E+00
    0.82143E+05        -0.49991E+08         0.00000E+00
    0.00000E+00         0.00000E+00        -0.49780E+08
 
   -0.49639E+08         0.86805E+05         0.00000E+00
    0.86805E+05        -0.49990E+08         0.00000E+00
    0.00000E+00         0.00000E+00        -0.49780E+08
 
   -0.49642E+08         0.91424E+05         0.00000E+00
    0.91424E+05        -0.49989E+08         0.00000E+00
    0.00000E+00         0.00000E+00        -0.49781E+08
 
   -0.49645E+08         0.95998E+05         0.00000E+00
    0.95998E+05        -0.49988E+08         0.00000E+00
    0.00000E+00         0.00000E+00        -0.49781E+08
 
   -0.49649E+08         0.10053E+06         0.00000E+00
    0.10053E+06        -0.49987E+08         0.00000E+00
    0.00000E+00         0.00000E+00        -0.49781E+08
 
   -0.49653E+08         0.10501E+06         0.00000E+00
    0.10501E+06        -0.49985E+08         0.00000E+00
    0.00000E+00         0.00000E+00        -0.49781E+08
 
   -0.49656E+08         0.10944E+06         0.00000E+00
    0.10944E+06        -0.49984E+08         0.00000E+00
    0.00000E+00         0.00000E+00        -0.49781E+08
 
   -0.49660E+08         0.11383E+06         0.00000E+00
    0.11383E+06        -0.49982E+08         0.00000E+00
    0.00000E+00         0.00000E+00        -0.49782E+08
 
   -0.49664E+08         0.11817E+06         0.00000E+00
    0.11817E+06        -0.49981E+08         0.00000E+00
    0.00000E+00         0.00000E+00        -0.49782E+08
 
   -0.49668E+08         0.12245E+06         0.00000E+00
    0.12245E+06        -0.49979E+08         0.00000E+00
    0.00000E+00         0.00000E+00        -0.49782E+08
 
   -0.49672E+08         0.12669E+06         0.00000E+00
    0.12669E+06        -0.49978E+08         0.00000E+00
    0.00000E+00         0.00000E+00        -0.49782E+08
 
   -0.49676E+08         0.13087E+06         0.00000E+00
    0.13087E+06        -0.49976E+08         0.00000E+00
    0.00000E+00         0.00000E+00        -0.49782E+08
 
   -0.49681E+08         0.13500E+06         0.00000E+00
    0.13500E+06        -0.49974E+08         0.00000E+00
    0.00000E+00         0.00000E+00        -0.49783E+08
 
   -0.49685E+08         0.13907E+06         0.00000E+00
    0.13907E+06        -0.49973E+08         0.00000E+00
    0.00000E+00         0.00000E+00        -0.49783E+08
 
   -0.49689E+08         0.14309E+06         0.00000E+00
    0.14309E+06        -0.49971E+08         0.00000E+00
    0.00000E+00         0.00000E+00        -0.49783E+08
 
   -0.49694E+08         0.14706E+06         0.00000E+00
    0.14706E+06        -0.49969E+08         0.00000E+00
    0.00000E+00         0.00000E+00        -0.49783E+08
 
   -0.49698E+08         0.15096E+06         0.00000E+00
    0.15096E+06        -0.49967E+08         0.00000E+00
    0.00000E+00         0.00000E+00        -0.49783E+08
 
   -0.49703E+08         0.15481E+06         0.00000E+00
    0.15481E+06        -0.49965E+08         0.00000E+00
    0.00000E+00         0.00000E+00        -0.49784E+08
 
   -0.49707E+08         0.15861E+06         0.00000E+00
    0.15861E+06        -0.49963E+08         0.00000E+00
    0.00000E+00         0.00000E+00        -0.49784E+08
 
   -0.49712E+08         0.16234E+06         0.00000E+00
    0.16234E+06        -0.49961E+08         0.00000E+00
    0.00000E+00         0.00000E+00        -0.49784E+08
 
   -0.49717E+08         0.16601E+06         0.00000E+00
    0.16601E+06        -0.49959E+08         0.00000E+00
    0.00000E+00         0.00000E+00        -0.49784E+08
 
   -0.49721E+08         0.16962E+06         0.00000E+00
    0.16962E+06        -0.49957E+08         0.00000E+00
    0.00000E+00         0.00000E+00        -0.49784E+08
 
   -0.49726E+08         0.17318E+06         0.00000E+00
    0.17318E+06        -0.49955E+08         0.00000E+00
    0.00000E+00         0.00000E+00        -0.49784E+08
 
   -0.49731E+08         0.17667E+06         0.00000E+00
    0.17667E+06        -0.49952E+08         0.00000E+00
    0.00000E+00         0.00000E+00        -0.49785E+08
 
   -0.49736E+08         0.18009E+06         0.00000E+00
    0.18009E+06        -0.49950E+08         0.00000E+00
    0.00000E+00         0.00000E+00        -0.49785E+08
 
   -0.49741E+08         0.18346E+06         0.00000E+00
    0.18346E+06        -0.49948E+08         0.00000E+00
    0.00000E+00         0.00000E+00        -0.49785E+08
 
   -0.49746E+08         0.18676E+06         0.00000E+00
    0.18676E+06        -0.49946E+08         0.00000E+00
    0.00000E+00         0.00000E+00        -0.49785E+08
 
   -0.49751E+08         0.18999E+06         0.00000E+00
    0.18999E+06        -0.49943E+08         0.00000E+00
    0.00000E+00         0.00000E+00        -0.49785E+08
 
   -0.49756E+08         0.19317E+06         0.00000E+00
    0.19317E+06        -0.49941E+08         0.00000E+00
    0.00000E+00         0.00000E+00        -0.49785E+08
 
   -0.49762E+08         0.19627E+06         0.00000E+00
    0.19627E+06        -0.49938E+08         0.00000E+00
    0.00000E+00         0.00000E+00        -0.49785E+08
 
   -0.49767E+08         0.19931E+06         0.00000E+00
    0.19931E+06        -0.49936E+08         0.00000E+00
    0.00000E+00         0.00000E+00        -0.49785E+08
 
   -0.49772E+08         0.20229E+06         0.00000E+00
    0.20229E+06        -0.49933E+08         0.00000E+00
    0.00000E+00         0.00000E+00        -0.49785E+08
 
   -0.49777E+08         0.20519E+06         0.00000E+00
    0.20519E+06        -0.49930E+08         0.00000E+00
    0.00000E+00         0.00000E+00        -0.49785E+08
 
   -0.49783E+08         0.20804E+06         0.00000E+00
    0.20804E+06        -0.49928E+08         0.00000E+00
    0.00000E+00         0.00000E+00        -0.49785E+08
 
   -0.49569E+08         0.27971E+04         0.00000E+00
    0.27971E+04        -0.50000E+08         0.00000E+00
    0.00000E+00         0.00000E+00        -0.49764E+08
 
   -0.49571E+08         0.83288E+04         0.00000E+00
    0.83288E+04        -0.50000E+08         0.00000E+00
    0.00000E+00         0.00000E+00        -0.49764E+08
 
   -0.49573E+08         0.13836E+05         0.00000E+00
    0.13836E+05        -0.50000E+08         0.00000E+00
    0.00000E+00         0.00000E+00        -0.49764E+08
 
   -0.49575E+08         0.19317E+05         0.00000E+00
    0.19317E+05        -0.50000E+08         0.00000E+00
    0.00000E+00         0.00000E+00        -0.49764E+08
 
   -0.49577E+08         0.24770E+05         0.00000E+00
    0.24770E+05        -0.49999E+08         0.00000E+00
    0.00000E+00         0.00000E+00        -0.49764E+08
 
   -0.49579E+08         0.30194E+05         0.00000E+00
    0.30194E+05        -0.49999E+08         0.00000E+00
    0.00000E+00         0.00000E+00        -0.49764E+08
 
   -0.49581E+08         0.35587E+05         0.00000E+00
    0.35587E+05        -0.49999E+08         0.00000E+00
    0.00000E+00         0.00000E+00        -0.49764E+08
 
   -0.49584E+08         0.40949E+05         0.00000E+00
    0.40949E+05        -0.49998E+08         0.00000E+00
    0.00000E+00         0.00000E+00        -0.49764E+08
 
   -0.49587E+08         0.46277E+05         0.00000E+00
    0.46277E+05        -0.49997E+08         0.00000E+00
    0.00000E+00         0.00000E+00        -0.49764E+08
 
   -0.49589E+08         0.51571E+05         0.00000E+00
    0.51571E+05        -0.49997E+08         0.00000E+00
    0.00000E+00         0.00000E+00        -0.49764E+08
 
   -0.49592E+08         0.56829E+05         0.00000E+00
    0.56829E+05        -0.49996E+08         0.00000E+00
    0.00000E+00         0.00000E+00        -0.49765E+08
 
   -0.49595E+08         0.62050E+05         0.00000E+00
    0.62050E+05        -0.49995E+08         0.00000E+00
    0.00000E+00         0.00000E+00        -0.49765E+08
 
   -0.49598E+08         0.67231E+05         0.00000E+00
    0.67231E+05        -0.49995E+08         0.00000E+00
    0.00000E+00         0.00000E+00        -0.49765E+08
 
   -0.49601E+08         0.72373E+05         0.00000E+00
    0.72373E+05        -0.49994E+08         0.00000E+00
    0.00000E+00         0.00000E+00        -0.49765E+08
 
   -0.49604E+08         0.77474E+05         0.00000E+00
    0.77474E+05        -0.49993E+08         0.00000E+00
    0.00000E+00         0.00000E+00        -0.49765E+08
 
   -0.49608E+08         0.82533E+05         0.00000E+00
    0.82533E+05        -0.49992E+08         0.00000E+00
    0.00000E+00         0.00000E+00        -0.49765E+08
 
   -0.49611E+08         0.87547E+05         0.00000E+00
    0.87547E+05        -0.49991E+08         0.00000E+00
    0.00000E+00         0.00000E+00        -0.49766E+08
 
   -0.49615E+08         0.92517E+05         0.00000E+00
    0.92517E+05        -0.49989E+08         0.00000E+00
    0.00000E+00         0.00000E+00        -0.49766E+08
 
   -0.49618E+08         0.97441E+05         0.00000E+00
    0.97441E+05        -0.49988E+08         0.00000E+00
    0.00000E+00         0.00000E+00        -0.49766E+08
 
   -0.49622E+08         0.10232E+06         0.00000E+00
    0.10232E+06        -0.49987E+08         0.00000E+00
    0.00000E+00         0.00000E+00        -0.49766E+08
 
   -0.49626E+08         0.10715E+06         0.00000E+00
    0.10715E+06        -0.49986E+08         0.00000E+00
    0.00000E+00         0.00000E+00        -0.49766E+08
 
   -0.49630E+08         0.11193E+06         0.00000E+00
    0.11193E+06        -0.49984E+08         0.00000E+00
    0.00000E+00         0.00000E+00        -0.49767E+08
 
   -0.49634E+08         0.11665E+06         0.00000E+00
    0.11665E+06        -0.49983E+08         0.00000E+00
    0.00000E+00         0.00000E+00        -0.49767E+08
 
   -0.49638E+08         0.12133E+06         0.00000E+00
    0.12133E+06        -0.49981E+08         0.00000E+00
    0.00000E+00         0.00000E+00        -0.49767E+08
 
   -0.49642E+08         0.12595E+06         0.00000E+00
    0.12595E+06        -0.49980E+08         0.00000E+00
    0.00000E+00         0.00000E+00        -0.49767E+08
 
   -0.49646E+08         0.13052E+06         0.00000E+00
    0.13052E+06        -0.49978E+08         0.00000E+00
    0.00000E+00         0.00000E+00        -0.49767E+08
 
   -0.49650E+08         0.13504E+06         0.00000E+00
    0.13504E+06        -0.49976E+08         0.00000E+00
    0.00000E+00         0.00000E+00        -0.49768E+08
 
   -0.49655E+08         0.13950E+06         0.00000E+00
    0.13950E+06        -0.49975E+08         0.00000E+00
    0.00000E+00         0.00000E+00        -0.49768E+08
 
   -0.49659E+08         0.14390E+06         0.00000E+00
    0.14390E+06        -0.49973E+08         0.00000E+00
    0.00000E+00         0.00000E+00        -0.49768E+08
 
   -0.49664E+08         0.14825E+06         0.00000E+00
    0.14825E+06        -0.49971E+08         0.00000E+00
    0.00000E+00         0.00000E+00        -0.49768E+08
 
   -0.49669E+08         0.15253E+06         0.00000E+00
    0.15253E+06        -0.49969E+08         0.00000E+00
    0.00000E+00         0.00000E+00        -0.49769E+08
 
   -0.49673E+08         0.15676E+06         0.00000E+00
    0.15676E+06        -0.49967E+08         0.00000E+00
    0.00000E+00         0.00000E+00        -0.49769E+08
 
   -0.49678E+08         0.16093E+06         0.00000E+00
    0.16093E+06        -0.49965E+08         0.00000E+00
    0.00000E+00         0.00000E+00        -0.49769E+08
 
   -0.49683E+08         0.16503E+06         0.00000E+00
    0.16503E+06        -0.49963E+08         0.00000E+00
    0.00000E+00         0.00000E+00        -0.49769E+08
 
   -0.49688E+08         0.16907E+06         0.00000E+00
    0.16907E+06        -0.49961E+08         0.00000E+00
    0.00000E+00         0.00000E+00        -0.49769E+08
 
   -0.49693E+08         0.17305E+06         0.00000E+00
    0.17305E+06        -0.49959E+08         0.00000E+00
    0.00000E+00         0.00000E+00        -0.49770E+08
 
   -0.49698E+08         0.17697E+06         0.00000E+00
    0.17697E+06        -0.49956E+08         0.00000E+00
    0.00000E+00         0.00000E+00        -0.49770E+08
 
   -0.49703E+08         0.18082E+06         0.00000E+00
    0.18082E+06        -0.49954E+08         0.00000E+00
    0.00000E+00         0.00000E+00        -0.49770E+08
 
   -0.49708E+08         0.18461E+06         0.00000E+00
    0.18461E+06        -0.49952E+08         0.00000E+00
    0.00000E+00         0.00000E+00        -0.49770E+08
 
   -0.49713E+08         0.18833E+06         0.00000E+00
    0.18833E+06        -0.49949E+08         0.00000E+00
    0.00000E+00         0.00000E+00        -0.49770E+08
 
   -0.49719E+08         0.19199E+06         0.00000E+00
    0.19199E+06        -0.49947E+08         0.00000E+00
    0.00000E+00         0.00000E+00        -0.49770E+08
 
   -0.49724E+08         0.19557E+06         0.00000E+00
    0.19557E+06        -0.49944E+08         0.00000E+00
    0.00000E+00         0.00000E+00        -0.49770E+08
 
   -0.49729E+08         0.19909E+06         0.00000E+00
    0.19909E+06        -0.49942E+08         0.00000E+00
    0.00000E+00         0.00000E+00        -0.49771E+08
 
   -0.49735E+08         0.20254E+06         0.00000E+00
    0.20254E+06        -0.49939E+08         0.00000E+00
    0.00000E+00         0.00000E+00        -0.49771E+08
 
   -0.49740E+08         0.20592E+06         0.00000E+00
    0.20592E+06        -0.49937E+08         0.00000E+00
    0.00000E+00         0.00000E+00        -0.49771E+08
 
   -0.49746E+08         0.20924E+06         0.00000E+00
    0.20924E+06        -0.49934E+08         0.00000E+00
    0.00000E+00         0.00000E+00        -0.49771E+08
 
   -0.49751E+08         0.21248E+06         0.00000E+00
    0.21248E+06        -0.49931E+08         0.00000E+00
    0.00000E+00         0.00000E+00        -0.49771E+08
 
   -0.49757E+08         0.21565E+06         0.00000E+00
    0.21565E+06        -0.49929E+08         0.00000E+00
    0.00000E+00         0.00000E+00        -0.49771E+08
 
   -0.49763E+08         0.21875E+06         0.00000E+00
    0.21875E+06        -0.49926E+08         0.00000E+00
    0.00000E+00         0.00000E+00        -0.49771E+08
 
   -0.49768E+08         0.22178E+06         0.00000E+00
    0.22178E+06        -0.49923E+08         0.00000E+00
    0.00000E+00         0.00000E+00        -0.49771E+08
 
   -0.49540E+08         0.29803E+04         0.00000E+00
    0.29803E+04        -0.50000E+08         0.00000E+00
    0.00000E+00         0.00000E+00        -0.49748E+08
 
   -0.49542E+08         0.88746E+04         0.00000E+00
    0.88746E+04        -0.50000E+08         0.00000E+00
    0.00000E+00         0.00000E+00        -0.49748E+08
 
   -0.49544E+08         0.14743E+05         0.00000E+00
    0.14743E+05        -0.50000E+08         0.00000E+00
    0.00000E+00         0.00000E+00        -0.49748E+08
 
   -0.49546E+08         0.20583E+05         0.00000E+00
    0.20583E+05        -0.50000E+08         0.00000E+00
    0.00000E+00         0.00000E+00        -0.49748E+08
 
   -0.49549E+08         0.26394E+05         0.00000E+00
    0.26394E+05        -0.49999E+08         0.00000E+00
    0.00000E+00         0.00000E+00        -0.49748E+08
 
   -0.49551E+08         0.32175E+05         0.00000E+00
    0.32175E+05        -0.49999E+08         0.00000E+00
    0.00000E+00         0.00000E+00        -0.49748E+08
 
   -0.49554E+08         0.37923E+05         0.00000E+00
    0.37923E+05        -0.49998E+08         0.00000E+00
    0.00000E+00         0.00000E+00        -0.49748E+08
 
   -0.49556E+08         0.43637E+05         0.00000E+00
    0.43637E+05        -0.49998E+08         0.00000E+00
    0.00000E+00         0.00000E+00        -0.49748E+08
 
   -0.49559E+08         0.49316E+05         0.00000E+00
    0.49316E+05        -0.49997E+08         0.00000E+00
    0.00000E+00         0.00000E+00        -0.49749E+08
 
   -0.49562E+08         0.54958E+05         0.00000E+00
    0.54958E+05        -0.49997E+08         0.00000E+00
    0.00000E+00         0.00000E+00        -0.49749E+08
 
   -0.49565E+08         0.60562E+05         0.00000E+00
    0.60562E+05        -0.49996E+08         0.00000E+00
    0.00000E+00         0.00000E+00        -0.49749E+08
 
   -0.49568E+08         0.66126E+05         0.00000E+00
    0.66126E+05        -0.49995E+08         0.00000E+00
    0.00000E+00         0.00000E+00        -0.49749E+08
 
   -0.49571E+08         0.71649E+05         0.00000E+00
    0.71649E+05        -0.49994E+08         0.00000E+00
    0.00000E+00         0.00000E+00        -0.49749E+08
 
   -0.49575E+08         0.77130E+05         0.00000E+00
    0.77130E+05        -0.49993E+08         0.00000E+00
    0.00000E+00         0.00000E+00        -0.49749E+08
 
   -0.49578E+08         0.82567E+05         0.00000E+00
    0.82567E+05        -0.49992E+08         0.00000E+00
    0.00000E+00         0.00000E+00        -0.49750E+08
 
   -0.49582E+08         0.87959E+05         0.00000E+00
    0.87959E+05        -0.49991E+08         0.00000E+00
    0.00000E+00         0.00000E+00        -0.49750E+08
 
   -0.49585E+08         0.93305E+05         0.00000E+00
    0.93305E+05        -0.49990E+08         0.00000E+00
    0.00000E+00         0.00000E+00        -0.49750E+08
 
   -0.49589E+08         0.98603E+05         0.00000E+00
    0.98603E+05        -0.49989E+08         0.00000E+00
    0.00000E+00         0.00000E+00        -0.49750E+08
 
   -0.49593E+08         0.10385E+06         0.00000E+00
    0.10385E+06        -0.49988E+08         0.00000E+00
    0.00000E+00         0.00000E+00        -0.49750E+08
 
   -0.49597E+08         0.10905E+06         0.00000E+00
    0.10905E+06        -0.49986E+08         0.00000E+00
    0.00000E+00         0.00000E+00        -0.49751E+08
 
   -0.49601E+08         0.11420E+06         0.00000E+00
    0.11420E+06        -0.49985E+08         0.00000E+00
    0.00000E+00         0.00000E+00        -0.49751E+08
 
   -0.49605E+08         0.11929E+06         0.00000E+00
    0.11929E+06        -0.49983E+08         0.00000E+00
    0.00000E+00         0.00000E+00        -0.49751E+08
 
   -0.49609E+08         0.12433E+06         0.00000E+00
    0.12433E+06        -0.49982E+08         0.00000E+00
    0.00000E+00         0.00000E+00        -0.49751E+08
 
   -0.49614E+08         0.12932E+06         0.00000E+00
    0.12932E+06        -0.49980E+08         0.00000E+00
    0.00000E+00         0.00000E+00        -0.49751E+08
 
   -0.49618E+08         0.13425E+06         0.00000E+00
    0.13425E+06        -0.49978E+08         0.00000E+00
    0.00000E+00         0.00000E+00        -0.49752E+08
 
   -0.49623E+08         0.13912E+06         0.00000E+00
    0.13912E+06        -0.49977E+08         0.00000E+00
    0.00000E+00         0.00000E+00        -0.49752E+08
 
   -0.49627E+08         0.14394E+06         0.00000E+00
    0.14394E+06        -0.49975E+08         0.00000E+00
    0.00000E+00         0.00000E+00        -0.49752E+08
 
   -0.49632E+08         0.14869E+06         0.00000E+00
    0.14869E+06        -0.49973E+08         0.00000E+00
    0.00000E+00         0.00000E+00        -0.49752E+08
 
   -0.49637E+08         0.15338E+06         0.00000E+00
    0.15338E+06        -0.49971E+08         0.00000E+00
    0.00000E+00         0.00000E+00        -0.49753E+08
 
   -0.49642E+08         0.15802E+06         0.00000E+00
    0.15802E+06        -0.49969E+08         0.00000E+00
    0.00000E+00         0.00000E+00        -0.49753E+08
 
   -0.49647E+08         0.16259E+06         0.00000E+00
    0.16259E+06        -0.49967E+08         0.00000E+00
    0.00000E+00         0.00000E+00        -0.49753E+08
 
   -0.49652E+08         0.16709E+06         0.00000E+00
    0.16709E+06        -0.49965E+08         0.00000E+00
    0.00000E+00         0.00000E+00        -0.49753E+08
 
   -0.49657E+08         0.17154E+06         0.00000E+00
    0.17154E+06        -0.49963E+08         0.00000E+00
    0.00000E+00         0.00000E+00        -0.49754E+08
 
   -0.49662E+08         0.17591E+06         0.00000E+00
    0.17591E+06        -0.49961E+08         0.00000E+00
    0.00000E+00         0.00000E+00        -0.49754E+08
 
   -0.49667E+08         0.18022E+06         0.00000E+00
    0.18022E+06        -0.49958E+08         0.00000E+00
    0.00000E+00         0.00000E+00        -0.49754E+08
 
   -0.49672E+08         0.18447E+06         0.00000E+00
    0.18447E+06        -0.49956E+08         0.00000E+00
    0.00000E+00         0.00000E+00        -0.49754E+08
 
   -0.49678E+08         0.18864E+06         0.00000E+00
    0.18864E+06        -0.49954E+08         0.00000E+00
    0.00000E+00         0.00000E+00        -0.49754E+08
 
   -0.49683E+08         0.19275E+06         0.00000E+00
    0.19275E+06        -0.49951E+08         0.00000E+00
    0.00000E+00         0.00000E+00        -0.49755E+08
 
   -0.49689E+08         0.19679E+06         0.00000E+00
    0.19679E+06        -0.49949E+08         0.00000E+00
    0.00000E+00         0.00000E+00        -0.49755E+08
 
   -0.49694E+08         0.20076E+06         0.00000E+00
    0.20076E+06        -0.49946E+08         0.00000E+00
    0.00000E+00         0.00000E+00        -0.49755E+08
 
   -0.49700E+08         0.20465E+06         0.00000E+00
    0.20465E+06        -0.49943E+08         0.00000E+00
    0.00000E+00         0.00000E+00        -0.49755E+08
 
   -0.49706E+08         0.20848E+06         0.00000E+00
    0.20848E+06        -0.49941E+08         0.00000E+00
    0.00000E+00         0.00000E+00        -0.49755E+08
 
   -0.49711E+08         0.21223E+06         0.00000E+00
    0.21223E+06        -0.49938E+08         0.00000E+00
    0.00000E+00         0.00000E+00        -0.49755E+08
 
   -0.49717E+08         0.21591E+06         0.00000E+00
    0.21591E+06        -0.49935E+08         0.00000E+00
    0.00000E+00         0.00000E+00        -0.49755E+08
 
   -0.49723E+08         0.21952E+06         0.00000E+00
    0.21952E+06        -0.49933E+08         0.00000E+00
    0.00000E+00         0.00000E+00        -0.49756E+08
 
   -0.49729E+08         0.22305E+06         0.00000E+00
    0.22305E+06        -0.49930E+08         0.00000E+00
    0.00000E+00         0.00000E+00        -0.49756E+08
 
   -0.49735E+08         0.22650E+06         0.00000E+00
    0.22650E+06        -0.49927E+08         0.00000E+00
    0.00000E+00         0.00000E+00        -0.49756E+08
 
   -0.49741E+08         0.22988E+06         0.00000E+00
    0.22988E+06        -0.49924E+08         0.00000E+00
    0.00000E+00         0.00000E+00        -0.49756E+08
 
   -0.49747E+08         0.23319E+06         0.00000E+00
    0.23319E+06        -0.49921E+08         0.00000E+00
    0.00000E+00         0.00000E+00        -0.49756E+08
 
   -0.49753E+08         0.23642E+06         0.00000E+00
    0.23642E+06        -0.49918E+08         0.00000E+00
    0.00000E+00         0.00000E+00        -0.49756E+08
 
   -0.49510E+08         0.31755E+04         0.00000E+00
    0.31755E+04        -0.50000E+08         0.00000E+00
    0.00000E+00         0.00000E+00        -0.49731E+08
 
   -0.49512E+08         0.94563E+04         0.00000E+00
    0.94563E+04        -0.50000E+08         0.00000E+00
    0.00000E+00         0.00000E+00        -0.49731E+08
 
   -0.49514E+08         0.15709E+05         0.00000E+00
    0.15709E+05        -0.50000E+08         0.00000E+00
    0.00000E+00         0.00000E+00        -0.49731E+08
 
   -0.49516E+08         0.21933E+05         0.00000E+00
    0.21933E+05        -0.50000E+08         0.00000E+00
    0.00000E+00         0.00000E+00        -0.49731E+08
 
   -0.49519E+08         0.28126E+05         0.00000E+00
    0.28126E+05        -0.49999E+08         0.00000E+00
    0.00000E+00         0.00000E+00        -0.49731E+08
 
   -0.49521E+08         0.34286E+05         0.00000E+00
    0.34286E+05        -0.49999E+08         0.00000E+00
    0.00000E+00         0.00000E+00        -0.49732E+08
 
   -0.49524E+08         0.40411E+05         0.00000E+00
    0.40411E+05        -0.49998E+08         0.00000E+00
    0.00000E+00         0.00000E+00        -0.49732E+08
 
   -0.49527E+08         0.46501E+05         0.00000E+00
    0.46501E+05        -0.49998E+08         0.00000E+00
    0.00000E+00         0.00000E+00        -0.49732E+08
 
   -0.49530E+08         0.52553E+05         0.00000E+00
    0.52553E+05        -0.49997E+08         0.00000E+00
    0.00000E+00         0.00000E+00        -0.49732E+08
 
   -0.49533E+08         0.58566E+05         0.00000E+00
    0.58566E+05        -0.49996E+08         0.00000E+00
    0.00000E+00         0.00000E+00        -0.49732E+08
 
   -0.49536E+08         0.64539E+05         0.00000E+00
    0.64539E+05        -0.49996E+08         0.00000E+00
    0.00000E+00         0.00000E+00        -0.49732E+08
 
   -0.49539E+08         0.70470E+05         0.00000E+00
    0.70470E+05        -0.49995E+08         0.00000E+00
    0.00000E+00         0.00000E+00        -0.49732E+08
 
   -0.49543E+08         0.76357E+05         0.00000E+00
    0.76357E+05        -0.49994E+08         0.00000E+00
    0.00000E+00         0.00000E+00        -0.49733E+08
 
   -0.49546E+08         0.82198E+05         0.00000E+00
    0.82198E+05        -0.49993E+08         0.00000E+00
    0.00000E+00         0.00000E+00        -0.49733E+08
 
   -0.49550E+08         0.87994E+05         0.00000E+00
    0.87994E+05        -0.49992E+08         0.00000E+00
    0.00000E+00         0.00000E+00        -0.49733E+08
 
   -0.49554E+08         0.93741E+05         0.00000E+00
    0.93741E+05        -0.49991E+08         0.00000E+00
    0.00000E+00         0.00000E+00        -0.49733E+08
 
   -0.49558E+08         0.99439E+05         0.00000E+00
    0.99439E+05        -0.49989E+08         0.00000E+00
    0.00000E+00         0.00000E+00        -0.49733E+08
 
   -0.49562E+08         0.10509E+06         0.00000E+00
    0.10509E+06        -0.49988E+08         0.00000E+00
    0.00000E+00         0.00000E+00        -0.49734E+08
 
   -0.49566E+08         0.11068E+06         0.00000E+00
    0.11068E+06        -0.49987E+08         0.00000E+00
    0.00000E+00         0.00000E+00        -0.49734E+08
 
   -0.49570E+08         0.11622E+06         0.00000E+00
    0.11622E+06        -0.49985E+08         0.00000E+00
    0.00000E+00         0.00000E+00        -0.49734E+08
 
   -0.49575E+08         0.12171E+06         0.00000E+00
    0.12171E+06        -0.49984E+08         0.00000E+00
    0.00000E+00         0.00000E+00        -0.49734E+08
 
   -0.49579E+08         0.12714E+06         0.00000E+00
    0.12714E+06        -0.49982E+08         0.00000E+00
    0.00000E+00         0.00000E+00        -0.49734E+08
 
   -0.49584E+08         0.13252E+06         0.00000E+00
    0.13252E+06        -0.49980E+08         0.00000E+00
    0.00000E+00         0.00000E+00        -0.49735E+08
 
   -0.49588E+08         0.13783E+06         0.00000E+00
    0.13783E+06        -0.49979E+08         0.00000E+00
    0.00000E+00         0.00000E+00        -0.49735E+08
 
   -0.49593E+08         0.14309E+06         0.00000E+00
    0.14309E+06        -0.49977E+08         0.00000E+00
    0.00000E+00         0.00000E+00        -0.49735E+08
 
   -0.49598E+08         0.14828E+06         0.00000E+00
    0.14828E+06        -0.49975E+08         0.00000E+00
    0.00000E+00         0.00000E+00        -0.49735E+08
 
   -0.49603E+08         0.15341E+06         0.00000E+00
    0.15341E+06        -0.49973E+08         0.00000E+00
    0.00000E+00         0.00000E+00        -0.49736E+08
 
   -0.49608E+08         0.15848E+06         0.00000E+00
    0.15848E+06        -0.49971E+08         0.00000E+00
    0.00000E+00         0.00000E+00        -0.49736E+08
 
   -0.49613E+08         0.16349E+06         0.00000E+00
    0.16349E+06        -0.49969E+08         0.00000E+00
    0.00000E+00         0.00000E+00        -0.49736E+08
 
   -0.49618E+08         0.16843E+06         0.00000E+00
    0.16843E+06        -0.49967E+08         0.00000E+00
    0.00000E+00         0.00000E+00        -0.49736E+08
 
   -0.49623E+08         0.17330E+06         0.00000E+00
    0.17330E+06        -0.49965E+08         0.00000E+00
    0.00000E+00         0.00000E+00        -0.49737E+08
 
   -0.49628E+08         0.17810E+06         0.00000E+00
    0.17810E+06        -0.49963E+08         0.00000E+00
    0.00000E+00         0.00000E+00        -0.49737E+08
 
   -0.49634E+08         0.18284E+06         0.00000E+00
    0.18284E+06        -0.49960E+08         0.00000E+00
    0.00000E+00         0.00000E+00        -0.49737E+08
 
   -0.49639E+08         0.18751E+06         0.00000E+00
    0.18751E+06        -0.49958E+08         0.00000E+00
    0.00000E+00         0.00000E+00        -0.49737E+08
 
   -0.49645E+08         0.19210E+06         0.00000E+00
    0.19210E+06        -0.49956E+08         0.00000E+00
    0.00000E+00         0.00000E+00        -0.49738E+08
 
   -0.49651E+08         0.19663E+06         0.00000E+00
    0.19663E+06        -0.49953E+08         0.00000E+00
    0.00000E+00         0.00000E+00        -0.49738E+08
 
   -0.49656E+08         0.20108E+06         0.00000E+00
    0.20108E+06        -0.49951E+08         0.00000E+00
    0.00000E+00         0.00000E+00        -0.49738E+08
 
   -0.49662E+08         0.20546E+06         0.00000E+00
    0.20546E+06        -0.49948E+08         0.00000E+00
    0.00000E+00         0.00000E+00        -0.49738E+08
 
   -0.49668E+08         0.20976E+06         0.00000E+00
    0.20976E+06        -0.49945E+08         0.00000E+00
    0.00000E+00         0.00000E+00        -0.49738E+08
 
   -0.49674E+08         0.21400E+06         0.00000E+00
    0.21400E+06        -0.49943E+08         0.00000E+00
    0.00000E+00         0.00000E+00        -0.49739E+08
 
   -0.49680E+08         0.21815E+06         0.00000E+00
    0.21815E+06        -0.49940E+08         0.00000E+00
    0.00000E+00         0.00000E+00        -0.49739E+08
 
   -0.49686E+08         0.22223E+06         0.00000E+00
    0.22223E+06        -0.49937E+08         0.00000E+00
    0.00000E+00         0.00000E+00        -0.49739E+08
 
   -0.49692E+08         0.22623E+06         0.00000E+00
    0.22623E+06        -0.49934E+08         0.00000E+00
    0.00000E+00         0.00000E+00        -0.49739E+08
 
   -0.49698E+08         0.23015E+06         0.00000E+00
    0.23015E+06        -0.49931E+08         0.00000E+00
    0.00000E+00         0.00000E+00        -0.49739E+08
 
   -0.49705E+08         0.23400E+06         0.00000E+00
    0.23400E+06        -0.49928E+08         0.00000E+00
    0.00000E+00         0.00000E+00        -0.49739E+08
 
   -0.49711E+08         0.23776E+06         0.00000E+00
    0.23776E+06        -0.49925E+08         0.00000E+00
    0.00000E+00         0.00000E+00        -0.49739E+08
 
   -0.49717E+08         0.24145E+06         0.00000E+00
    0.24145E+06        -0.49922E+08         0.00000E+00
    0.00000E+00         0.00000E+00        -0.49739E+08
 
   -0.49723E+08         0.24505E+06         0.00000E+00
    0.24505E+06        -0.49919E+08         0.00000E+00
    0.00000E+00         0.00000E+00        -0.49739E+08
 
   -0.49730E+08         0.24857E+06         0.00000E+00
    0.24857E+06        -0.49916E+08         0.00000E+00
    0.00000E+00         0.00000E+00        -0.49739E+08
 
   -0.49736E+08         0.25202E+06         0.00000E+00
    0.25202E+06        -0.49913E+08         0.00000E+00
    0.00000E+00         0.00000E+00        -0.49740E+08
 
   -0.49477E+08         0.33836E+04         0.00000E+00
    0.33836E+04        -0.50000E+08         0.00000E+00
    0.00000E+00         0.00000E+00        -0.49713E+08
 
   -0.49479E+08         0.10077E+05         0.00000E+00
    0.10077E+05        -0.50000E+08         0.00000E+00
    0.00000E+00         0.00000E+00        -0.49713E+08
 
   -0.49482E+08         0.16740E+05         0.00000E+00
    0.16740E+05        -0.50000E+08         0.00000E+00
    0.00000E+00         0.00000E+00        -0.49713E+08
 
   -0.49484E+08         0.23372E+05         0.00000E+00
    0.23372E+05        -0.49999E+08         0.00000E+00
    0.00000E+00         0.00000E+00        -0.49714E+08
 
   -0.49487E+08         0.29971E+05         0.00000E+00
    0.29971E+05        -0.49999E+08         0.00000E+00
    0.00000E+00         0.00000E+00        -0.49714E+08
 
   -0.49490E+08         0.36536E+05         0.00000E+00
    0.36536E+05        -0.49999E+08         0.00000E+00
    0.00000E+00         0.00000E+00        -0.49714E+08
 
   -0.49493E+08         0.43064E+05         0.00000E+00
    0.43064E+05        -0.49998E+08         0.00000E+00
    0.00000E+00         0.00000E+00        -0.49714E+08
 
   -0.49496E+08         0.49554E+05         0.00000E+00
    0.49554E+05        -0.49998E+08         0.00000E+00
    0.00000E+00         0.00000E+00        -0.49714E+08
 
   -0.49499E+08         0.56004E+05         0.00000E+00
    0.56004E+05        -0.49997E+08         0.00000E+00
    0.00000E+00         0.00000E+00        -0.49714E+08
 
   -0.49502E+08         0.62413E+05         0.00000E+00
    0.62413E+05        -0.49996E+08         0.00000E+00
    0.00000E+00         0.00000E+00        -0.49714E+08
 
   -0.49505E+08         0.68778E+05         0.00000E+00
    0.68778E+05        -0.49995E+08         0.00000E+00
    0.00000E+00         0.00000E+00        -0.49714E+08
 
   -0.49509E+08         0.75099E+05         0.00000E+00
    0.75099E+05        -0.49994E+08         0.00000E+00
    0.00000E+00         0.00000E+00        -0.49715E+08
 
   -0.49513E+08         0.81373E+05         0.00000E+00
    0.81373E+05        -0.49993E+08         0.00000E+00
    0.00000E+00         0.00000E+00        -0.49715E+08
 
   -0.49516E+08         0.87600E+05         0.00000E+00
    0.87600E+05        -0.49992E+08         0.00000E+00
    0.00000E+00         0.00000E+00        -0.49715E+08
 
   -0.49520E+08         0.93777E+05         0.00000E+00
    0.93777E+05        -0.49991E+08         0.00000E+00
    0.00000E+00         0.00000E+00        -0.49715E+08
 
   -0.49524E+08         0.99903E+05         0.00000E+00
    0.99903E+05        -0.49990E+08         0.00000E+00
    0.00000E+00         0.00000E+00        -0.49715E+08
 
   -0.49529E+08         0.10598E+06         0.00000E+00
    0.10598E+06        -0.49989E+08         0.00000E+00
    0.00000E+00         0.00000E+00        -0.49716E+08
 
   -0.49533E+08         0.11200E+06         0.00000E+00
    0.11200E+06        -0.49987E+08         0.00000E+00
    0.00000E+00         0.00000E+00        -0.49716E+08
 
   -0.49537E+08         0.11796E+06         0.00000E+00
    0.11796E+06        -0.49986E+08         0.00000E+00
    0.00000E+00         0.00000E+00        -0.49716E+08
 
   -0.49542E+08         0.12387E+06         0.00000E+00
    0.12387E+06        -0.49984E+08         0.00000E+00
    0.00000E+00         0.00000E+00        -0.49716E+08
 
   -0.49546E+08         0.12972E+06         0.00000E+00
    0.12972E+06        -0.49983E+08         0.00000E+00
    0.00000E+00         0.00000E+00        -0.49717E+08
 
   -0.49551E+08         0.13551E+06         0.00000E+00
    0.13551E+06        -0.49981E+08         0.00000E+00
    0.00000E+00         0.00000E+00        -0.49717E+08
 
   -0.49556E+08         0.14123E+06         0.00000E+00
    0.14123E+06        -0.49979E+08         0.00000E+00
    0.00000E+00         0.00000E+00        -0.49717E+08
 
   -0.49561E+08         0.14690E+06         0.00000E+00
    0.14690E+06        -0.49977E+08         0.00000E+00
    0.00000E+00         0.00000E+00        -0.49717E+08
 
   -0.49566E+08         0.15250E+06         0.00000E+00
    0.15250E+06        -0.49975E+08         0.00000E+00
    0.00000E+00         0.00000E+00        -0.49718E+08
 
   -0.49571E+08         0.15804E+06         0.00000E+00
    0.15804E+06        -0.49973E+08         0.00000E+00
    0.00000E+00         0.00000E+00        -0.49718E+08
 
   -0.49576E+08         0.16351E+06         0.00000E+00
    0.16351E+06        -0.49971E+08         0.00000E+00
    0.00000E+00         0.00000E+00        -0.49718E+08
 
   -0.49582E+08         0.16892E+06         0.00000E+00
    0.16892E+06        -0.49969E+08         0.00000E+00
    0.00000E+00         0.00000E+00        -0.49718E+08
 
   -0.49587E+08         0.17425E+06         0.00000E+00
    0.17425E+06        -0.49967E+08         0.00000E+00
    0.00000E+00         0.00000E+00        -0.49719E+08
 
   -0.49593E+08         0.17952E+06         0.00000E+00
    0.17952E+06        -0.49965E+08         0.00000E+00
    0.00000E+00         0.00000E+00        -0.49719E+08
 
   -0.49598E+08         0.18471E+06         0.00000E+00
    0.18471E+06        -0.49963E+08         0.00000E+00
    0.00000E+00         0.00000E+00        -0.49719E+08
 
   -0.49604E+08         0.18983E+06         0.00000E+00
    0.18983E+06        -0.49960E+08         0.00000E+00
    0.00000E+00         0.00000E+00        -0.49719E+08
 
   -0.49610E+08         0.19488E+06         0.00000E+00
    0.19488E+06        -0.49958E+08         0.00000E+00
    0.00000E+00         0.00000E+00        -0.49720E+08
 
   -0.49616E+08         0.19986E+06         0.00000E+00
    0.19986E+06        -0.49955E+08         0.00000E+00
    0.00000E+00         0.00000E+00        -0.49720E+08
 
   -0.49621E+08         0.20476E+06         0.00000E+00
    0.20476E+06        -0.49953E+08         0.00000E+00
    0.00000E+00         0.00000E+00        -0.49720E+08
 
   -0.49627E+08         0.20958E+06         0.00000E+00
    0.20958E+06        -0.49950E+08         0.00000E+00
    0.00000E+00         0.00000E+00        -0.49720E+08
 
   -0.49634E+08         0.21433E+06         0.00000E+00
    0.21433E+06        -0.49947E+08         0.00000E+00
    0.00000E+00         0.00000E+00        -0.49721E+08
 
   -0.49640E+08         0.21900E+06         0.00000E+00
    0.21900E+06        -0.49944E+08         0.00000E+00
    0.00000E+00         0.00000E+00        -0.49721E+08
 
   -0.49646E+08         0.22359E+06         0.00000E+00
    0.22359E+06        -0.49942E+08         0.00000E+00
    0.00000E+00         0.00000E+00        -0.49721E+08
 
   -0.49652E+08         0.22810E+06         0.00000E+00
    0.22810E+06        -0.49939E+08         0.00000E+00
    0.00000E+00         0.00000E+00        -0.49721E+08
 
   -0.49659E+08         0.23253E+06         0.00000E+00
    0.23253E+06        -0.49936E+08         0.00000E+00
    0.00000E+00         0.00000E+00        -0.49721E+08
 
   -0.49665E+08         0.23688E+06         0.00000E+00
    0.23688E+06        -0.49933E+08         0.00000E+00
    0.00000E+00         0.00000E+00        -0.49721E+08
 
   -0.49672E+08         0.24114E+06         0.00000E+00
    0.24114E+06        -0.49930E+08         0.00000E+00
    0.00000E+00         0.00000E+00        -0.49722E+08
 
   -0.49678E+08         0.24533E+06         0.00000E+00
    0.24533E+06        -0.49927E+08         0.00000E+00
    0.00000E+00         0.00000E+00        -0.49722E+08
 
   -0.49685E+08         0.24942E+06         0.00000E+00
    0.24942E+06        -0.49924E+08         0.00000E+00
    0.00000E+00         0.00000E+00        -0.49722E+08
 
   -0.49692E+08         0.25344E+06         0.00000E+00
    0.25344E+06        -0.49920E+08         0.00000E+00
    0.00000E+00         0.00000E+00        -0.49722E+08
 
   -0.49698E+08         0.25737E+06         0.00000E+00
    0.25737E+06        -0.49917E+08         0.00000E+00
    0.00000E+00         0.00000E+00        -0.49722E+08
 
   -0.49705E+08         0.26121E+06         0.00000E+00
    0.26121E+06        -0.49914E+08         0.00000E+00
    0.00000E+00         0.00000E+00        -0.49722E+08
 
   -0.49712E+08         0.26497E+06         0.00000E+00
    0.26497E+06        -0.49910E+08         0.00000E+00
    0.00000E+00         0.00000E+00        -0.49722E+08
 
   -0.49719E+08         0.26864E+06         0.00000E+00
    0.26864E+06        -0.49907E+08         0.00000E+00
    0.00000E+00         0.00000E+00        -0.49722E+08
 
   -0.49443E+08         0.36055E+04         0.00000E+00
    0.36055E+04        -0.50000E+08         0.00000E+00
    0.00000E+00         0.00000E+00        -0.49694E+08
 
   -0.49445E+08         0.10738E+05         0.00000E+00
    0.10738E+05        -0.50000E+08         0.00000E+00
    0.00000E+00         0.00000E+00        -0.49694E+08
 
   -0.49447E+08         0.17838E+05         0.00000E+00
    0.17838E+05        -0.50000E+08         0.00000E+00
    0.00000E+00         0.00000E+00        -0.49694E+08
 
   -0.49450E+08         0.24906E+05         0.00000E+00
    0.24906E+05        -0.49999E+08         0.00000E+00
    0.00000E+00         0.00000E+00        -0.49694E+08
 
   -0.49453E+08         0.31939E+05         0.00000E+00
    0.31939E+05        -0.49999E+08         0.00000E+00
    0.00000E+00         0.00000E+00        -0.49695E+08
 
   -0.49456E+08         0.38934E+05         0.00000E+00
    0.38934E+05        -0.49999E+08         0.00000E+00
    0.00000E+00         0.00000E+00        -0.49695E+08
 
   -0.49459E+08         0.45891E+05         0.00000E+00
    0.45891E+05        -0.49998E+08         0.00000E+00
    0.00000E+00         0.00000E+00        -0.49695E+08
 
   -0.49462E+08         0.52808E+05         0.00000E+00
    0.52808E+05        -0.49997E+08         0.00000E+00
    0.00000E+00         0.00000E+00        -0.49695E+08
 
   -0.49466E+08         0.59682E+05         0.00000E+00
    0.59682E+05        -0.49997E+08         0.00000E+00
    0.00000E+00         0.00000E+00        -0.49695E+08
 
   -0.49469E+08         0.66512E+05         0.00000E+00
    0.66512E+05        -0.49996E+08         0.00000E+00
    0.00000E+00         0.00000E+00        -0.49695E+08
 
   -0.49473E+08         0.73296E+05         0.00000E+00
    0.73296E+05        -0.49995E+08         0.00000E+00
    0.00000E+00         0.00000E+00        -0.49695E+08
 
   -0.49476E+08         0.80033E+05         0.00000E+00
    0.80033E+05        -0.49994E+08         0.00000E+00
    0.00000E+00         0.00000E+00        -0.49696E+08
 
   -0.49480E+08         0.86720E+05         0.00000E+00
    0.86720E+05        -0.49993E+08         0.00000E+00
    0.00000E+00         0.00000E+00        -0.49696E+08
 
   -0.49484E+08         0.93356E+05         0.00000E+00
    0.93356E+05        -0.49992E+08         0.00000E+00
    0.00000E+00         0.00000E+00        -0.49696E+08
 
   -0.49489E+08         0.99940E+05         0.00000E+00
    0.99940E+05        -0.49991E+08         0.00000E+00
    0.00000E+00         0.00000E+00        -0.49696E+08
 
   -0.49493E+08         0.10647E+06         0.00000E+00
    0.10647E+06        -0.49989E+08         0.00000E+00
    0.00000E+00         0.00000E+00        -0.49696E+08
 
   -0.49497E+08         0.11294E+06         0.00000E+00
    0.11294E+06        -0.49988E+08         0.00000E+00
    0.00000E+00         0.00000E+00        -0.49697E+08
 
   -0.49502E+08         0.11936E+06         0.00000E+00
    0.11936E+06        -0.49986E+08         0.00000E+00
    0.00000E+00         0.00000E+00        -0.49697E+08
 
   -0.49507E+08         0.12572E+06         0.00000E+00
    0.12572E+06        -0.49985E+08         0.00000E+00
    0.00000E+00         0.00000E+00        -0.49697E+08
 
   -0.49511E+08         0.13201E+06         0.00000E+00
    0.13201E+06        -0.49983E+08         0.00000E+00
    0.00000E+00         0.00000E+00        -0.49697E+08
 
   -0.49516E+08         0.13825E+06         0.00000E+00
    0.13825E+06        -0.49982E+08         0.00000E+00
    0.00000E+00         0.00000E+00        -0.49698E+08
 
   -0.49521E+08         0.14442E+06         0.00000E+00
    0.14442E+06        -0.49980E+08         0.00000E+00
    0.00000E+00         0.00000E+00        -0.49698E+08
 
   -0.49526E+08         0.15052E+06         0.00000E+00
    0.15052E+06        -0.49978E+08         0.00000E+00
    0.00000E+00         0.00000E+00        -0.49698E+08
 
   -0.49532E+08         0.15656E+06         0.00000E+00
    0.15656E+06        -0.49976E+08         0.00000E+00
    0.00000E+00         0.00000E+00        -0.49698E+08
 
   -0.49537E+08         0.16254E+06         0.00000E+00
    0.16254E+06        -0.49974E+08         0.00000E+00
    0.00000E+00         0.00000E+00        -0.49699E+08
 
   -0.49543E+08         0.16844E+06         0.00000E+00
    0.16844E+06        -0.49972E+08         0.00000E+00
    0.00000E+00         0.00000E+00        -0.49699E+08
 
   -0.49548E+08         0.17427E+06         0.00000E+00
    0.17427E+06        -0.49970E+08         0.00000E+00
    0.00000E+00         0.00000E+00        -0.49699E+08
 
   -0.49554E+08         0.18003E+06         0.00000E+00
    0.18003E+06        -0.49967E+08         0.00000E+00
    0.00000E+00         0.00000E+00        -0.49700E+08
 
   -0.49560E+08         0.18572E+06         0.00000E+00
    0.18572E+06        -0.49965E+08         0.00000E+00
    0.00000E+00         0.00000E+00        -0.49700E+08
 
   -0.49566E+08         0.19133E+06         0.00000E+00
    0.19133E+06        -0.49963E+08         0.00000E+00
    0.00000E+00         0.00000E+00        -0.49700E+08
 
   -0.49572E+08         0.19687E+06         0.00000E+00
    0.19687E+06        -0.49960E+08         0.00000E+00
    0.00000E+00         0.00000E+00        -0.49700E+08
 
   -0.49578E+08         0.20233E+06         0.00000E+00
    0.20233E+06        -0.49958E+08         0.00000E+00
    0.00000E+00         0.00000E+00        -0.49701E+08
 
   -0.49584E+08         0.20772E+06         0.00000E+00
    0.20772E+06        -0.49955E+08         0.00000E+00
    0.00000E+00         0.00000E+00        -0.49701E+08
 
   -0.49590E+08         0.21302E+06         0.00000E+00
    0.21302E+06        -0.49952E+08         0.00000E+00
    0.00000E+00         0.00000E+00        -0.49701E+08
 
   -0.49596E+08         0.21825E+06         0.00000E+00
    0.21825E+06        -0.49949E+08         0.00000E+00
    0.00000E+00         0.00000E+00        -0.49701E+08
 
   -0.49603E+08         0.22339E+06         0.00000E+00
    0.22339E+06        -0.49947E+08         0.00000E+00
    0.00000E+00         0.00000E+00        -0.49702E+08
 
   -0.49609E+08         0.22845E+06         0.00000E+00
    0.22845E+06        -0.49944E+08         0.00000E+00
    0.00000E+00         0.00000E+00        -0.49702E+08
 
   -0.49616E+08         0.23343E+06         0.00000E+00
    0.23343E+06        -0.49941E+08         0.00000E+00
    0.00000E+00         0.00000E+00        -0.49702E+08
 
   -0.49623E+08         0.23832E+06         0.00000E+00
    0.23832E+06        -0.49938E+08         0.00000E+00
    0.00000E+00         0.00000E+00        -0.49702E+08
 
   -0.49629E+08         0.24313E+06         0.00000E+00
    0.24313E+06        -0.49935E+08         0.00000E+00
    0.00000E+00         0.00000E+00        -0.49703E+08
 
   -0.49636E+08         0.24785E+06         0.00000E+00
    0.24785E+06        -0.49932E+08         0.00000E+00
    0.00000E+00         0.00000E+00        -0.49703E+08
 
   -0.49643E+08         0.25249E+06         0.00000E+00
    0.25249E+06        -0.49928E+08         0.00000E+00
    0.00000E+00         0.00000E+00        -0.49703E+08
 
   -0.49650E+08         0.25704E+06         0.00000E+00
    0.25704E+06        -0.49925E+08         0.00000E+00
    0.00000E+00         0.00000E+00        -0.49703E+08
 
   -0.49657E+08         0.26149E+06         0.00000E+00
    0.26149E+06        -0.49922E+08         0.00000E+00
    0.00000E+00         0.00000E+00        -0.49703E+08
 
   -0.49664E+08         0.26586E+06         0.00000E+00
    0.26586E+06        -0.49919E+08         0.00000E+00
    0.00000E+00         0.00000E+00        -0.49703E+08
 
   -0.49671E+08         0.27014E+06         0.00000E+00
    0.27014E+06        -0.49915E+08         0.00000E+00
    0.00000E+00         0.00000E+00        -0.49703E+08
 
   -0.49678E+08         0.27433E+06         0.00000E+00
    0.27433E+06        -0.49912E+08         0.00000E+00
    0.00000E+00         0.00000E+00        -0.49704E+08
 
   -0.49685E+08         0.27843E+06         0.00000E+00
    0.27843E+06        -0.49908E+08         0.00000E+00
    0.00000E+00         0.00000E+00        -0.49704E+08
 
   -0.49693E+08         0.28244E+06         0.00000E+00
    0.28244E+06        -0.49905E+08         0.00000E+00
    0.00000E+00         0.00000E+00        -0.49704E+08
 
   -0.49700E+08         0.28635E+06         0.00000E+00
    0.28635E+06        -0.49901E+08         0.00000E+00
    0.00000E+00         0.00000E+00        -0.49704E+08
 
   -0.49406E+08         0.38421E+04         0.00000E+00
    0.38421E+04        -0.50000E+08         0.00000E+00
    0.00000E+00         0.00000E+00        -0.49674E+08
 
   -0.49408E+08         0.11442E+05         0.00000E+00
    0.11442E+05        -0.50000E+08         0.00000E+00
    0.00000E+00         0.00000E+00        -0.49674E+08
 
   -0.49411E+08         0.19009E+05         0.00000E+00
    0.19009E+05        -0.50000E+08         0.00000E+00
    0.00000E+00         0.00000E+00        -0.49674E+08
 
   -0.49414E+08         0.26541E+05         0.00000E+00
    0.26541E+05        -0.49999E+08         0.00000E+00
    0.00000E+00         0.00000E+00        -0.49674E+08
 
   -0.49417E+08         0.34036E+05         0.00000E+00
    0.34036E+05        -0.49999E+08         0.00000E+00
    0.00000E+00         0.00000E+00        -0.49674E+08
 
   -0.49420E+08         0.41491E+05         0.00000E+00
    0.41491E+05        -0.49999E+08         0.00000E+00
    0.00000E+00         0.00000E+00        -0.49674E+08
 
   -0.49423E+08         0.48905E+05         0.00000E+00
    0.48905E+05        -0.49998E+08         0.00000E+00
    0.00000E+00         0.00000E+00        -0.49674E+08
 
   -0.49427E+08         0.56276E+05         0.00000E+00
    0.56276E+05        -0.49997E+08         0.00000E+00
    0.00000E+00         0.00000E+00        -0.49675E+08
 
   -0.49430E+08         0.63602E+05         0.00000E+00
    0.63602E+05        -0.49997E+08         0.00000E+00
    0.00000E+00         0.00000E+00        -0.49675E+08
 
   -0.49434E+08         0.70881E+05         0.00000E+00
    0.70881E+05        -0.49996E+08         0.00000E+00
    0.00000E+00         0.00000E+00        -0.49675E+08
 
   -0.49438E+08         0.78111E+05         0.00000E+00
    0.78111E+05        -0.49995E+08         0.00000E+00
    0.00000E+00         0.00000E+00        -0.49675E+08
 
   -0.49442E+08         0.85291E+05         0.00000E+00
    0.85291E+05        -0.49994E+08         0.00000E+00
    0.00000E+00         0.00000E+00        -0.49675E+08
 
   -0.49446E+08         0.92418E+05         0.00000E+00
    0.92418E+05        -0.49993E+08         0.00000E+00
    0.00000E+00         0.00000E+00        -0.49676E+08
 
   -0.49450E+08         0.99491E+05         0.00000E+00
    0.99491E+05        -0.49991E+08         0.00000E+00
    0.00000E+00         0.00000E+00        -0.49676E+08
 
   -0.49455E+08         0.10651E+06         0.00000E+00
    0.10651E+06        -0.49990E+08         0.00000E+00
    0.00000E+00         0.00000E+00        -0.49676E+08
 
   -0.49459E+08         0.11347E+06         0.00000E+00
    0.11347E+06        -0.49989E+08         0.00000E+00
    0.00000E+00         0.00000E+00        -0.49676E+08
 
   -0.49464E+08         0.12037E+06         0.00000E+00
    0.12037E+06        -0.49987E+08         0.00000E+00
    0.00000E+00         0.00000E+00        -0.49676E+08
 
   -0.49469E+08         0.12721E+06         0.00000E+00
    0.12721E+06        -0.49986E+08         0.00000E+00
    0.00000E+00         0.00000E+00        -0.49677E+08
 
   -0.49474E+08         0.13398E+06         0.00000E+00
    0.13398E+06        -0.49984E+08         0.00000E+00
    0.00000E+00         0.00000E+00        -0.49677E+08
 
   -0.49479E+08         0.14069E+06         0.00000E+00
    0.14069E+06        -0.49982E+08         0.00000E+00
    0.00000E+00         0.00000E+00        -0.49677E+08
 
   -0.49484E+08         0.14734E+06         0.00000E+00
    0.14734E+06        -0.49980E+08         0.00000E+00
    0.00000E+00         0.00000E+00        -0.49678E+08
 
   -0.49490E+08         0.15392E+06         0.00000E+00
    0.15392E+06        -0.49978E+08         0.00000E+00
    0.00000E+00         0.00000E+00        -0.49678E+08
 
   -0.49495E+08         0.16043E+06         0.00000E+00
    0.16043E+06        -0.49976E+08         0.00000E+00
    0.00000E+00         0.00000E+00        -0.49678E+08
 
   -0.49501E+08         0.16686E+06         0.00000E+00
    0.16686E+06        -0.49974E+08         0.00000E+00
    0.00000E+00         0.00000E+00        -0.49678E+08
 
   -0.49506E+08         0.17323E+06         0.00000E+00
    0.17323E+06        -0.49972E+08         0.00000E+00
    0.00000E+00         0.00000E+00        -0.49679E+08
 
   -0.49512E+08         0.17952E+06         0.00000E+00
    0.17952E+06        -0.49970E+08         0.00000E+00
    0.00000E+00         0.00000E+00        -0.49679E+08
 
   -0.49518E+08         0.18574E+06         0.00000E+00
    0.18574E+06        -0.49968E+08         0.00000E+00
    0.00000E+00         0.00000E+00        -0.49679E+08
 
   -0.49524E+08         0.19188E+06         0.00000E+00
    0.19188E+06        -0.49965E+08         0.00000E+00
    0.00000E+00         0.00000E+00        -0.49680E+08
 
   -0.49530E+08         0.19794E+06         0.00000E+00
    0.19794E+06        -0.49963E+08         0.00000E+00
    0.00000E+00         0.00000E+00        -0.49680E+08
 
   -0.49537E+08         0.20393E+06         0.00000E+00
    0.20393E+06        -0.49960E+08         0.00000E+00
    0.00000E+00         0.00000E+00        -0.49680E+08
 
   -0.49543E+08         0.20983E+06         0.00000E+00
    0.20983E+06        -0.49957E+08         0.00000E+00
    0.00000E+00         0.00000E+00        -0.49681E+08
 
   -0.49550E+08         0.21565E+06         0.00000E+00
    0.21565E+06        -0.49955E+08         0.00000E+00
    0.00000E+00         0.00000E+00        -0.49681E+08
 
   -0.49556E+08         0.22139E+06         0.00000E+00
    0.22139E+06        -0.49952E+08         0.00000E+00
    0.00000E+00         0.00000E+00        -0.49681E+08
 
   -0.49563E+08         0.22705E+06         0.00000E+00
    0.22705E+06        -0.49949E+08         0.00000E+00
    0.00000E+00         0.00000E+00        -0.49681E+08
 
   -0.49570E+08         0.23262E+06         0.00000E+00
    0.23262E+06        -0.49946E+08         0.00000E+00
    0.00000E+00         0.00000E+00        -0.49682E+08
 
   -0.49576E+08         0.23810E+06         0.00000E+00
    0.23810E+06        -0.49943E+08         0.00000E+00
    0.00000E+00         0.00000E+00        -0.49682E+08
 
   -0.49583E+08         0.24349E+06         0.00000E+00
    0.24349E+06        -0.49940E+08         0.00000E+00
    0.00000E+00         0.00000E+00        -0.49682E+08
 
   -0.49590E+08         0.24880E+06         0.00000E+00
    0.24880E+06        -0.49937E+08         0.00000E+00
    0.00000E+00         0.00000E+00        -0.49682E+08
 
   -0.49597E+08         0.25402E+06         0.00000E+00
    0.25402E+06        -0.49934E+08         0.00000E+00
    0.00000E+00         0.00000E+00        -0.49683E+08
 
   -0.49605E+08         0.25914E+06         0.00000E+00
    0.25914E+06        -0.49930E+08         0.00000E+00
    0.00000E+00         0.00000E+00        -0.49683E+08
 
   -0.49612E+08         0.26418E+06         0.00000E+00
    0.26418E+06        -0.49927E+08         0.00000E+00
    0.00000E+00         0.00000E+00        -0.49683E+08
 
   -0.49619E+08         0.26912E+06         0.00000E+00
    0.26912E+06        -0.49924E+08         0.00000E+00
    0.00000E+00         0.00000E+00        -0.49683E+08
 
   -0.49627E+08         0.27397E+06         0.00000E+00
    0.27397E+06        -0.49920E+08         0.00000E+00
    0.00000E+00         0.00000E+00        -0.49683E+08
 
   -0.49634E+08         0.27872E+06         0.00000E+00
    0.27872E+06        -0.49917E+08         0.00000E+00
    0.00000E+00         0.00000E+00        -0.49683E+08
 
   -0.49642E+08         0.28338E+06         0.00000E+00
    0.28338E+06        -0.49913E+08         0.00000E+00
    0.00000E+00         0.00000E+00        -0.49684E+08
 
   -0.49649E+08         0.28795E+06         0.00000E+00
    0.28795E+06        -0.49910E+08         0.00000E+00
    0.00000E+00         0.00000E+00        -0.49684E+08
 
   -0.49657E+08         0.29241E+06         0.00000E+00
    0.29241E+06        -0.49906E+08         0.00000E+00
    0.00000E+00         0.00000E+00        -0.49684E+08
 
   -0.49664E+08         0.29678E+06         0.00000E+00
    0.29678E+06        -0.49902E+08         0.00000E+00
    0.00000E+00         0.00000E+00        -0.49684E+08
 
   -0.49672E+08         0.30105E+06         0.00000E+00
    0.30105E+06        -0.49898E+08         0.00000E+00
    0.00000E+00         0.00000E+00        -0.49684E+08
 
   -0.49680E+08         0.30523E+06         0.00000E+00
    0.30523E+06        -0.49894E+08         0.00000E+00
    0.00000E+00         0.00000E+00        -0.49684E+08
 
   -0.49366E+08         0.40943E+04         0.00000E+00
    0.40943E+04        -0.50000E+08         0.00000E+00
    0.00000E+00         0.00000E+00        -0.49652E+08
 
   -0.49369E+08         0.12193E+05         0.00000E+00
    0.12193E+05        -0.50000E+08         0.00000E+00
    0.00000E+00         0.00000E+00        -0.49652E+08
 
   -0.49372E+08         0.20257E+05         0.00000E+00
    0.20257E+05        -0.50000E+08         0.00000E+00
    0.00000E+00         0.00000E+00        -0.49652E+08
 
   -0.49375E+08         0.28284E+05         0.00000E+00
    0.28284E+05        -0.49999E+08         0.00000E+00
    0.00000E+00         0.00000E+00        -0.49653E+08
 
   -0.49378E+08         0.36271E+05         0.00000E+00
    0.36271E+05        -0.49999E+08         0.00000E+00
    0.00000E+00         0.00000E+00        -0.49653E+08
 
   -0.49381E+08         0.44216E+05         0.00000E+00
    0.44216E+05        -0.49998E+08         0.00000E+00
    0.00000E+00         0.00000E+00        -0.49653E+08
 
   -0.49385E+08         0.52117E+05         0.00000E+00
    0.52117E+05        -0.49998E+08         0.00000E+00
    0.00000E+00         0.00000E+00        -0.49653E+08
 
   -0.49389E+08         0.59972E+05         0.00000E+00
    0.59972E+05        -0.49997E+08         0.00000E+00
    0.00000E+00         0.00000E+00        -0.49653E+08
 
   -0.49392E+08         0.67780E+05         0.00000E+00
    0.67780E+05        -0.49996E+08         0.00000E+00
    0.00000E+00         0.00000E+00        -0.49653E+08
 
   -0.49396E+08         0.75538E+05         0.00000E+00
    0.75538E+05        -0.49995E+08         0.00000E+00
    0.00000E+00         0.00000E+00        -0.49653E+08
 
   -0.49401E+08         0.83243E+05         0.00000E+00
    0.83243E+05        -0.49994E+08         0.00000E+00
    0.00000E+00         0.00000E+00        -0.49654E+08
 
   -0.49405E+08         0.90895E+05         0.00000E+00
    0.90895E+05        -0.49993E+08         0.00000E+00
    0.00000E+00         0.00000E+00        -0.49654E+08
 
   -0.49409E+08         0.98491E+05         0.00000E+00
    0.98491E+05        -0.49992E+08         0.00000E+00
    0.00000E+00         0.00000E+00        -0.49654E+08
 
   -0.49414E+08         0.10603E+06         0.00000E+00
    0.10603E+06        -0.49991E+08         0.00000E+00
    0.00000E+00         0.00000E+00        -0.49654E+08
 
   -0.49419E+08         0.11351E+06         0.00000E+00
    0.11351E+06        -0.49989E+08         0.00000E+00
    0.00000E+00         0.00000E+00        -0.49654E+08
 
   -0.49424E+08         0.12093E+06         0.00000E+00
    0.12093E+06        -0.49988E+08         0.00000E+00
    0.00000E+00         0.00000E+00        -0.49655E+08
 
   -0.49429E+08         0.12828E+06         0.00000E+00
    0.12828E+06        -0.49986E+08         0.00000E+00
    0.00000E+00         0.00000E+00        -0.49655E+08
 
   -0.49434E+08         0.13557E+06         0.00000E+00
    0.13557E+06        -0.49985E+08         0.00000E+00
    0.00000E+00         0.00000E+00        -0.49655E+08
 
   -0.49439E+08         0.14279E+06         0.00000E+00
    0.14279E+06        -0.49983E+08         0.00000E+00
    0.00000E+00         0.00000E+00        -0.49656E+08
 
   -0.49445E+08         0.14994E+06         0.00000E+00
    0.14994E+06        -0.49981E+08         0.00000E+00
    0.00000E+00         0.00000E+00        -0.49656E+08
 
   -0.49450E+08         0.15703E+06         0.00000E+00
    0.15703E+06        -0.49979E+08         0.00000E+00
    0.00000E+00         0.00000E+00        -0.49656E+08
 
   -0.49456E+08         0.16404E+06         0.00000E+00
    0.16404E+06        -0.49977E+08         0.00000E+00
    0.00000E+00         0.00000E+00        -0.49656E+08
 
   -0.49462E+08         0.17098E+06         0.00000E+00
    0.17098E+06        -0.49975E+08         0.00000E+00
    0.00000E+00         0.00000E+00        -0.49657E+08
 
   -0.49468E+08         0.17784E+06         0.00000E+00
    0.17784E+06        -0.49973E+08         0.00000E+00
    0.00000E+00         0.00000E+00        -0.49657E+08
 
   -0.49474E+08         0.18462E+06         0.00000E+00
    0.18462E+06        -0.49970E+08         0.00000E+00
    0.00000E+00         0.00000E+00        -0.49657E+08
 
   -0.49480E+08         0.19133E+06         0.00000E+00
    0.19133E+06        -0.49968E+08         0.00000E+00
    0.00000E+00         0.00000E+00        -0.49658E+08
 
   -0.49486E+08         0.19796E+06         0.00000E+00
    0.19796E+06        -0.49965E+08         0.00000E+00
    0.00000E+00         0.00000E+00        -0.49658E+08
 
   -0.49493E+08         0.20450E+06         0.00000E+00
    0.20450E+06        -0.49963E+08         0.00000E+00
    0.00000E+00         0.00000E+00        -0.49658E+08
 
   -0.49499E+08         0.21097E+06         0.00000E+00
    0.21097E+06        -0.49960E+08         0.00000E+00
    0.00000E+00         0.00000E+00        -0.49659E+08
 
   -0.49506E+08         0.21735E+06         0.00000E+00
    0.21735E+06        -0.49957E+08         0.00000E+00
    0.00000E+00         0.00000E+00        -0.49659E+08
 
   -0.49513E+08         0.22364E+06         0.00000E+00
    0.22364E+06        -0.49955E+08         0.00000E+00
    0.00000E+00         0.00000E+00        -0.49659E+08
 
   -0.49520E+08         0.22985E+06         0.00000E+00
    0.22985E+06        -0.49952E+08         0.00000E+00
    0.00000E+00         0.00000E+00        -0.49660E+08
 
   -0.49527E+08         0.23596E+06         0.00000E+00
    0.23596E+06        -0.49949E+08         0.00000E+00
    0.00000E+00         0.00000E+00        -0.49660E+08
 
   -0.49534E+08         0.24199E+06         0.00000E+00
    0.24199E+06        -0.49946E+08         0.00000E+00
    0.00000E+00         0.00000E+00        -0.49660E+08
 
   -0.49541E+08         0.24793E+06         0.00000E+00
    0.24793E+06        -0.49943E+08         0.00000E+00
    0.00000E+00         0.00000E+00        -0.49660E+08
 
   -0.49548E+08         0.25377E+06         0.00000E+00
    0.25377E+06        -0.49939E+08         0.00000E+00
    0.00000E+00         0.00000E+00        -0.49661E+08
 
   -0.49556E+08         0.25953E+06         0.00000E+00
    0.25953E+06        -0.49936E+08         0.00000E+00
    0.00000E+00         0.00000E+00        -0.49661E+08
 
   -0.49563E+08         0.26518E+06         0.00000E+00
    0.26518E+06        -0.49933E+08         0.00000E+00
    0.00000E+00         0.00000E+00        -0.49661E+08
 
   -0.49571E+08         0.27074E+06         0.00000E+00
    0.27074E+06        -0.49929E+08         0.00000E+00
    0.00000E+00         0.00000E+00        -0.49661E+08
 
   -0.49578E+08         0.27621E+06         0.00000E+00
    0.27621E+06        -0.49926E+08         0.00000E+00
    0.00000E+00         0.00000E+00        -0.49662E+08
 
   -0.49586E+08         0.28158E+06         0.00000E+00
    0.28158E+06        -0.49922E+08         0.00000E+00
    0.00000E+00         0.00000E+00        -0.49662E+08
 
   -0.49594E+08         0.28685E+06         0.00000E+00
    0.28685E+06        -0.49919E+08         0.00000E+00
    0.00000E+00         0.00000E+00        -0.49662E+08
 
   -0.49602E+08         0.29202E+06         0.00000E+00
    0.29202E+06        -0.49915E+08         0.00000E+00
    0.00000E+00         0.00000E+00        -0.49662E+08
 
   -0.49610E+08         0.29709E+06         0.00000E+00
    0.29709E+06        -0.49911E+08         0.00000E+00
    0.00000E+00         0.00000E+00        -0.49662E+08
 
   -0.49618E+08         0.30205E+06         0.00000E+00
    0.30205E+06        -0.49907E+08         0.00000E+00
    0.00000E+00         0.00000E+00        -0.49663E+08
 
   -0.49626E+08         0.30692E+06         0.00000E+00
    0.30692E+06        -0.49904E+08         0.00000E+00
    0.00000E+00         0.00000E+00        -0.49663E+08
 
   -0.49634E+08         0.31168E+06         0.00000E+00
    0.31168E+06        -0.49900E+08         0.00000E+00
    0.00000E+00         0.00000E+00        -0.49663E+08
 
   -0.49642E+08         0.31634E+06         0.00000E+00
    0.31634E+06        -0.49896E+08         0.00000E+00
    0.00000E+00         0.00000E+00        -0.49663E+08
 
   -0.49650E+08         0.32089E+06         0.00000E+00
    0.32089E+06        -0.49892E+08         0.00000E+00
    0.00000E+00         0.00000E+00        -0.49663E+08
 
   -0.49659E+08         0.32534E+06         0.00000E+00
    0.32534E+06        -0.49887E+08         0.00000E+00
    0.00000E+00         0.00000E+00        -0.49663E+08
 
   -0.49325E+08         0.43631E+04         0.00000E+00
    0.43631E+04        -0.50000E+08         0.00000E+00
    0.00000E+00         0.00000E+00        -0.49629E+08
 
   -0.49327E+08         0.12994E+05         0.00000E+00
    0.12994E+05        -0.50000E+08         0.00000E+00
    0.00000E+00         0.00000E+00        -0.49629E+08
 
   -0.49330E+08         0.21588E+05         0.00000E+00
    0.21588E+05        -0.50000E+08         0.00000E+00
    0.00000E+00         0.00000E+00        -0.49629E+08
 
   -0.49334E+08         0.30142E+05         0.00000E+00
    0.30142E+05        -0.49999E+08         0.00000E+00
    0.00000E+00         0.00000E+00        -0.49629E+08
 
   -0.49337E+08         0.38653E+05         0.00000E+00
    0.38653E+05        -0.49999E+08         0.00000E+00
    0.00000E+00         0.00000E+00        -0.49630E+08
 
   -0.49341E+08         0.47120E+05         0.00000E+00
    0.47120E+05        -0.49998E+08         0.00000E+00
    0.00000E+00         0.00000E+00        -0.49630E+08
 
   -0.49344E+08         0.55541E+05         0.00000E+00
    0.55541E+05        -0.49998E+08         0.00000E+00
    0.00000E+00         0.00000E+00        -0.49630E+08
 
   -0.49348E+08         0.63913E+05         0.00000E+00
    0.63913E+05        -0.49997E+08         0.00000E+00
    0.00000E+00         0.00000E+00        -0.49630E+08
 
   -0.49352E+08         0.72233E+05         0.00000E+00
    0.72233E+05        -0.49996E+08         0.00000E+00
    0.00000E+00         0.00000E+00        -0.49630E+08
 
   -0.49357E+08         0.80501E+05         0.00000E+00
    0.80501E+05        -0.49995E+08         0.00000E+00
    0.00000E+00         0.00000E+00        -0.49630E+08
 
   -0.49361E+08         0.88713E+05         0.00000E+00
    0.88713E+05        -0.49994E+08         0.00000E+00
    0.00000E+00         0.00000E+00        -0.49631E+08
 
   -0.49366E+08         0.96869E+05         0.00000E+00
    0.96869E+05        -0.49993E+08         0.00000E+00
    0.00000E+00         0.00000E+00        -0.49631E+08
 
   -0.49370E+08         0.10496E+06         0.00000E+00
    0.10496E+06        -0.49992E+08         0.00000E+00
    0.00000E+00         0.00000E+00        -0.49631E+08
 
   -0.49375E+08         0.11300E+06         0.00000E+00
    0.11300E+06        -0.49990E+08         0.00000E+00
    0.00000E+00         0.00000E+00        -0.49631E+08
 
   -0.49380E+08         0.12097E+06         0.00000E+00
    0.12097E+06        -0.49989E+08         0.00000E+00
    0.00000E+00         0.00000E+00        -0.49632E+08
 
   -0.49385E+08         0.12887E+06         0.00000E+00
    0.12887E+06        -0.49987E+08         0.00000E+00
    0.00000E+00         0.00000E+00        -0.49632E+08
 
   -0.49391E+08         0.13671E+06         0.00000E+00
    0.13671E+06        -0.49985E+08         0.00000E+00
    0.00000E+00         0.00000E+00        -0.49632E+08
 
   -0.49396E+08         0.14448E+06         0.00000E+00
    0.14448E+06        -0.49984E+08         0.00000E+00
    0.00000E+00         0.00000E+00        -0.49632E+08
 
   -0.49402E+08         0.15218E+06         0.00000E+00
    0.15218E+06        -0.49982E+08         0.00000E+00
    0.00000E+00         0.00000E+00        -0.49633E+08
 
   -0.49408E+08         0.15980E+06         0.00000E+00
    0.15980E+06        -0.49980E+08         0.00000E+00
    0.00000E+00         0.00000E+00        -0.49633E+08
 
   -0.49414E+08         0.16735E+06         0.00000E+00
    0.16735E+06        -0.49978E+08         0.00000E+00
    0.00000E+00         0.00000E+00        -0.49633E+08
 
   -0.49420E+08         0.17483E+06         0.00000E+00
    0.17483E+06        -0.49975E+08         0.00000E+00
    0.00000E+00         0.00000E+00        -0.49634E+08
 
   -0.49426E+08         0.18222E+06         0.00000E+00
    0.18222E+06        -0.49973E+08         0.00000E+00
    0.00000E+00         0.00000E+00        -0.49634E+08
 
   -0.49432E+08         0.18954E+06         0.00000E+00
    0.18954E+06        -0.49971E+08         0.00000E+00
    0.00000E+00         0.00000E+00        -0.49634E+08
 
   -0.49439E+08         0.19677E+06         0.00000E+00
    0.19677E+06        -0.49968E+08         0.00000E+00
    0.00000E+00         0.00000E+00        -0.49635E+08
 
   -0.49446E+08         0.20392E+06         0.00000E+00
    0.20392E+06        -0.49966E+08         0.00000E+00
    0.00000E+00         0.00000E+00        -0.49635E+08
 
   -0.49452E+08         0.21098E+06         0.00000E+00
    0.21098E+06        -0.49963E+08         0.00000E+00
    0.00000E+00         0.00000E+00        -0.49635E+08
 
   -0.49459E+08         0.21796E+06         0.00000E+00
    0.21796E+06        -0.49960E+08         0.00000E+00
    0.00000E+00         0.00000E+00        -0.49636E+08
 
   -0.49466E+08         0.22485E+06         0.00000E+00
    0.22485E+06        -0.49958E+08         0.00000E+00
    0.00000E+00         0.00000E+00        -0.49636E+08
 
   -0.49473E+08         0.23165E+06         0.00000E+00
    0.23165E+06        -0.49955E+08         0.00000E+00
    0.00000E+00         0.00000E+00        -0.49636E+08
 
   -0.49481E+08         0.23836E+06         0.00000E+00
    0.23836E+06        -0.49952E+08         0.00000E+00
    0.00000E+00         0.00000E+00        -0.49637E+08
 
   -0.49488E+08         0.24497E+06         0.00000E+00
    0.24497E+06        -0.49949E+08         0.00000E+00
    0.00000E+00         0.00000E+00        -0.49637E+08
 
   -0.49495E+08         0.25149E+06         0.00000E+00
    0.25149E+06        -0.49945E+08         0.00000E+00
    0.00000E+00         0.00000E+00        -0.49637E+08
 
   -0.49503E+08         0.25792E+06         0.00000E+00
    0.25792E+06        -0.49942E+08         0.00000E+00
    0.00000E+00         0.00000E+00        -0.49638E+08
 
   -0.49511E+08         0.26425E+06         0.00000E+00
    0.26425E+06        -0.49939E+08         0.00000E+00
    0.00000E+00         0.00000E+00        -0.49638E+08
 
   -0.49518E+08         0.27048E+06         0.00000E+00
    0.27048E+06        -0.49935E+08         0.00000E+00
    0.00000E+00         0.00000E+00        -0.49638E+08
 
   -0.49526E+08         0.27661E+06         0.00000E+00
    0.27661E+06        -0.49932E+08         0.00000E+00
    0.00000E+00         0.00000E+00        -0.49638E+08
 
   -0.49534E+08         0.28264E+06         0.00000E+00
    0.28264E+06        -0.49928E+08         0.00000E+00
    0.00000E+00         0.00000E+00        -0.49639E+08
 
   -0.49542E+08         0.28857E+06         0.00000E+00
    0.28857E+06        -0.49925E+08         0.00000E+00
    0.00000E+00         0.00000E+00        -0.49639E+08
 
   -0.49550E+08         0.29440E+06         0.00000E+00
    0.29440E+06        -0.49921E+08         0.00000E+00
    0.00000E+00         0.00000E+00        -0.49639E+08
 
   -0.49559E+08         0.30012E+06         0.00000E+00
    0.30012E+06        -0.49917E+08         0.00000E+00
    0.00000E+00         0.00000E+00        -0.49639E+08
 
   -0.49567E+08         0.30574E+06         0.00000E+00
    0.30574E+06        -0.49913E+08         0.00000E+00
    0.00000E+00         0.00000E+00        -0.49640E+08
 
   -0.49575E+08         0.31125E+06         0.00000E+00
    0.31125E+06        -0.49909E+08         0.00000E+00
    0.00000E+00         0.00000E+00        -0.49640E+08
 
   -0.49584E+08         0.31665E+06         0.00000E+00
    0.31665E+06        -0.49905E+08         0.00000E+00
    0.00000E+00         0.00000E+00        -0.49640E+08
 
   -0.49592E+08         0.32195E+06         0.00000E+00
    0.32195E+06        -0.49901E+08         0.00000E+00
    0.00000E+00         0.00000E+00        -0.49640E+08
 
   -0.49601E+08         0.32713E+06         0.00000E+00
    0.32713E+06        -0.49897E+08         0.00000E+00
    0.00000E+00         0.00000E+00        -0.49640E+08
 
   -0.49610E+08         0.33221E+06         0.00000E+00
    0.33221E+06        -0.49893E+08         0.00000E+00
    0.00000E+00         0.00000E+00        -0.49640E+08
 
   -0.49618E+08         0.33718E+06         0.00000E+00
    0.33718E+06        -0.49889E+08         0.00000E+00
    0.00000E+00         0.00000E+00        -0.49640E+08
 
   -0.49627E+08         0.34203E+06         0.00000E+00
    0.34203E+06        -0.49884E+08         0.00000E+00
    0.00000E+00         0.00000E+00        -0.49640E+08
 
   -0.49636E+08         0.34678E+06         0.00000E+00
    0.34678E+06        -0.49880E+08         0.00000E+00
    0.00000E+00         0.00000E+00        -0.49640E+08
 
   -0.49280E+08         0.46496E+04         0.00000E+00
    0.46496E+04        -0.50000E+08         0.00000E+00
    0.00000E+00         0.00000E+00        -0.49605E+08
 
   -0.49283E+08         0.13848E+05         0.00000E+00
    0.13848E+05        -0.50000E+08         0.00000E+00
    0.00000E+00         0.00000E+00        -0.49605E+08
 
   -0.49286E+08         0.23006E+05         0.00000E+00
    0.23006E+05        -0.50000E+08         0.00000E+00
    0.00000E+00         0.00000E+00        -0.49605E+08
 
   -0.49290E+08         0.32122E+05         0.00000E+00
    0.32122E+05        -0.49999E+08         0.00000E+00
    0.00000E+00         0.00000E+00        -0.49605E+08
 
   -0.49293E+08         0.41193E+05         0.00000E+00
    0.41193E+05        -0.49999E+08         0.00000E+00
    0.00000E+00         0.00000E+00        -0.49605E+08
 
   -0.49297E+08         0.50216E+05         0.00000E+00
    0.50216E+05        -0.49998E+08         0.00000E+00
    0.00000E+00         0.00000E+00        -0.49605E+08
 
   -0.49301E+08         0.59190E+05         0.00000E+00
    0.59190E+05        -0.49998E+08         0.00000E+00
    0.00000E+00         0.00000E+00        -0.49605E+08
 
   -0.49305E+08         0.68112E+05         0.00000E+00
    0.68112E+05        -0.49997E+08         0.00000E+00
    0.00000E+00         0.00000E+00        -0.49605E+08
 
   -0.49309E+08         0.76980E+05         0.00000E+00
    0.76980E+05        -0.49996E+08         0.00000E+00
    0.00000E+00         0.00000E+00        -0.49606E+08
 
   -0.49314E+08         0.85791E+05         0.00000E+00
    0.85791E+05        -0.49995E+08         0.00000E+00
    0.00000E+00         0.00000E+00        -0.49606E+08
 
   -0.49319E+08         0.94544E+05         0.00000E+00
    0.94544E+05        -0.49994E+08         0.00000E+00
    0.00000E+00         0.00000E+00        -0.49606E+08
 
   -0.49324E+08         0.10324E+06         0.00000E+00
    0.10324E+06        -0.49992E+08         0.00000E+00
    0.00000E+00         0.00000E+00        -0.49606E+08
 
   -0.49329E+08         0.11186E+06         0.00000E+00
    0.11186E+06        -0.49991E+08         0.00000E+00
    0.00000E+00         0.00000E+00        -0.49607E+08
 
   -0.49334E+08         0.12043E+06         0.00000E+00
    0.12043E+06        -0.49990E+08         0.00000E+00
    0.00000E+00         0.00000E+00        -0.49607E+08
 
   -0.49339E+08         0.12892E+06         0.00000E+00
    0.12892E+06        -0.49988E+08         0.00000E+00
    0.00000E+00         0.00000E+00        -0.49607E+08
 
   -0.49345E+08         0.13735E+06         0.00000E+00
    0.13735E+06        -0.49986E+08         0.00000E+00
    0.00000E+00         0.00000E+00        -0.49607E+08
 
   -0.49350E+08         0.14570E+06         0.00000E+00
    0.14570E+06        -0.49984E+08         0.00000E+00
    0.00000E+00         0.00000E+00        -0.49608E+08
 
   -0.49356E+08         0.15398E+06         0.00000E+00
    0.15398E+06        -0.49983E+08         0.00000E+00
    0.00000E+00         0.00000E+00        -0.49608E+08
 
   -0.49362E+08         0.16218E+06         0.00000E+00
    0.16218E+06        -0.49980E+08         0.00000E+00
    0.00000E+00         0.00000E+00        -0.49608E+08
 
   -0.49369E+08         0.17031E+06         0.00000E+00
    0.17031E+06        -0.49978E+08         0.00000E+00
    0.00000E+00         0.00000E+00        -0.49609E+08
 
   -0.49375E+08         0.17836E+06         0.00000E+00
    0.17836E+06        -0.49976E+08         0.00000E+00
    0.00000E+00         0.00000E+00        -0.49609E+08
 
   -0.49381E+08         0.18632E+06         0.00000E+00
    0.18632E+06        -0.49974E+08         0.00000E+00
    0.00000E+00         0.00000E+00        -0.49609E+08
 
   -0.49388E+08         0.19420E+06         0.00000E+00
    0.19420E+06        -0.49971E+08         0.00000E+00
    0.00000E+00         0.00000E+00        -0.49610E+08
 
   -0.49395E+08         0.20200E+06         0.00000E+00
    0.20200E+06        -0.49969E+08         0.00000E+00
    0.00000E+00         0.00000E+00        -0.49610E+08
 
   -0.49402E+08         0.20971E+06         0.00000E+00
    0.20971E+06        -0.49966E+08         0.00000E+00
    0.00000E+00         0.00000E+00        -0.49610E+08
 
   -0.49409E+08         0.21733E+06         0.00000E+00
    0.21733E+06        -0.49964E+08         0.00000E+00
    0.00000E+00         0.00000E+00        -0.49611E+08
 
   -0.49416E+08         0.22486E+06         0.00000E+00
    0.22486E+06        -0.49961E+08         0.00000E+00
    0.00000E+00         0.00000E+00        -0.49611E+08
 
   -0.49423E+08         0.23230E+06         0.00000E+00
    0.23230E+06        -0.49958E+08         0.00000E+00
    0.00000E+00         0.00000E+00        -0.49611E+08
 
   -0.49431E+08         0.23964E+06         0.00000E+00
    0.23964E+06        -0.49955E+08         0.00000E+00
    0.00000E+00         0.00000E+00        -0.49612E+08
 
   -0.49438E+08         0.24689E+06         0.00000E+00
    0.24689E+06        -0.49952E+08         0.00000E+00
    0.00000E+00         0.00000E+00        -0.49612E+08
 
   -0.49446E+08         0.25404E+06         0.00000E+00
    0.25404E+06        -0.49949E+08         0.00000E+00
    0.00000E+00         0.00000E+00        -0.49612E+08
 
   -0.49454E+08         0.26109E+06         0.00000E+00
    0.26109E+06        -0.49945E+08         0.00000E+00
    0.00000E+00         0.00000E+00        -0.49613E+08
 
   -0.49462E+08         0.26804E+06         0.00000E+00
    0.26804E+06        -0.49942E+08         0.00000E+00
    0.00000E+00         0.00000E+00        -0.49613E+08
 
   -0.49470E+08         0.27489E+06         0.00000E+00
    0.27489E+06        -0.49938E+08         0.00000E+00
    0.00000E+00         0.00000E+00        -0.49613E+08
 
   -0.49478E+08         0.28164E+06         0.00000E+00
    0.28164E+06        -0.49935E+08         0.00000E+00
    0.00000E+00         0.00000E+00        -0.49614E+08
 
   -0.49486E+08         0.28828E+06         0.00000E+00
    0.28828E+06        -0.49931E+08         0.00000E+00
    0.00000E+00         0.00000E+00        -0.49614E+08
 
   -0.49495E+08         0.29482E+06         0.00000E+00
    0.29482E+06        -0.49928E+08         0.00000E+00
    0.00000E+00         0.00000E+00        -0.49614E+08
 
   -0.49503E+08         0.30124E+06         0.00000E+00
    0.30124E+06        -0.49924E+08         0.00000E+00
    0.00000E+00         0.00000E+00        -0.49615E+08
 
   -0.49512E+08         0.30757E+06         0.00000E+00
    0.30757E+06        -0.49920E+08         0.00000E+00
    0.00000E+00         0.00000E+00        -0.49615E+08
 
   -0.49521E+08         0.31378E+06         0.00000E+00
    0.31378E+06        -0.49916E+08         0.00000E+00
    0.00000E+00         0.00000E+00        -0.49615E+08
 
   -0.49529E+08         0.31988E+06         0.00000E+00
    0.31988E+06        -0.49912E+08         0.00000E+00
    0.00000E+00         0.00000E+00        -0.49615E+08
 
   -0.49538E+08         0.32587E+06         0.00000E+00
    0.32587E+06        -0.49908E+08         0.00000E+00
    0.00000E+00         0.00000E+00        -0.49616E+08
 
   -0.49547E+08         0.33174E+06         0.00000E+00
    0.33174E+06        -0.49904E+08         0.00000E+00
    0.00000E+00         0.00000E+00        -0.49616E+08
 
   -0.49556E+08         0.33750E+06         0.00000E+00
    0.33750E+06        -0.49899E+08         0.00000E+00
    0.00000E+00         0.00000E+00        -0.49616E+08
 
   -0.49565E+08         0.34315E+06         0.00000E+00
    0.34315E+06        -0.49895E+08         0.00000E+00
    0.00000E+00         0.00000E+00        -0.49616E+08
 
   -0.49574E+08         0.34868E+06         0.00000E+00
    0.34868E+06        -0.49890E+08         0.00000E+00
    0.00000E+00         0.00000E+00        -0.49616E+08
 
   -0.49584E+08         0.35409E+06         0.00000E+00
    0.35409E+06        -0.49886E+08         0.00000E+00
    0.00000E+00         0.00000E+00        -0.49616E+08
 
   -0.49593E+08         0.35939E+06         0.00000E+00
    0.35939E+06        -0.49881E+08         0.00000E+00
    0.00000E+00         0.00000E+00        -0.49616E+08
 
   -0.49602E+08         0.36456E+06         0.00000E+00
    0.36456E+06        -0.49877E+08         0.00000E+00
    0.00000E+00         0.00000E+00        -0.49617E+08
 
   -0.49612E+08         0.36962E+06         0.00000E+00
    0.36962E+06        -0.49872E+08         0.00000E+00
    0.00000E+00         0.00000E+00        -0.49617E+08
 
   -0.49232E+08         0.49550E+04         0.00000E+00
    0.49550E+04        -0.50000E+08         0.00000E+00
    0.00000E+00         0.00000E+00        -0.49579E+08
 
   -0.49235E+08         0.14758E+05         0.00000E+00
    0.14758E+05        -0.50000E+08         0.00000E+00
    0.00000E+00         0.00000E+00        -0.49579E+08
 
   -0.49239E+08         0.24518E+05         0.00000E+00
    0.24518E+05        -0.50000E+08         0.00000E+00
    0.00000E+00         0.00000E+00        -0.49579E+08
 
   -0.49243E+08         0.34232E+05         0.00000E+00
    0.34232E+05        -0.49999E+08         0.00000E+00
    0.00000E+00         0.00000E+00        -0.49579E+08
 
   -0.49246E+08         0.43899E+05         0.00000E+00
    0.43899E+05        -0.49999E+08         0.00000E+00
    0.00000E+00         0.00000E+00        -0.49579E+08
 
   -0.49250E+08         0.53516E+05         0.00000E+00
    0.53516E+05        -0.49998E+08         0.00000E+00
    0.00000E+00         0.00000E+00        -0.49579E+08
 
   -0.49255E+08         0.63080E+05         0.00000E+00
    0.63080E+05        -0.49997E+08         0.00000E+00
    0.00000E+00         0.00000E+00        -0.49579E+08
 
   -0.49259E+08         0.72589E+05         0.00000E+00
    0.72589E+05        -0.49996E+08         0.00000E+00
    0.00000E+00         0.00000E+00        -0.49579E+08
 
   -0.49264E+08         0.82040E+05         0.00000E+00
    0.82040E+05        -0.49996E+08         0.00000E+00
    0.00000E+00         0.00000E+00        -0.49579E+08
 
   -0.49269E+08         0.91430E+05         0.00000E+00
    0.91430E+05        -0.49994E+08         0.00000E+00
    0.00000E+00         0.00000E+00        -0.49580E+08
 
   -0.49274E+08         0.10076E+06         0.00000E+00
    0.10076E+06        -0.49993E+08         0.00000E+00
    0.00000E+00         0.00000E+00        -0.49580E+08
 
   -0.49279E+08         0.11002E+06         0.00000E+00
    0.11002E+06        -0.49992E+08         0.00000E+00
    0.00000E+00         0.00000E+00        -0.49580E+08
 
   -0.49284E+08         0.11922E+06         0.00000E+00
    0.11922E+06        -0.49990E+08         0.00000E+00
    0.00000E+00         0.00000E+00        -0.49580E+08
 
   -0.49290E+08         0.12834E+06         0.00000E+00
    0.12834E+06        -0.49989E+08         0.00000E+00
    0.00000E+00         0.00000E+00        -0.49581E+08
 
   -0.49296E+08         0.13740E+06         0.00000E+00
    0.13740E+06        -0.49987E+08         0.00000E+00
    0.00000E+00         0.00000E+00        -0.49581E+08
 
   -0.49301E+08         0.14638E+06         0.00000E+00
    0.14638E+06        -0.49985E+08         0.00000E+00
    0.00000E+00         0.00000E+00        -0.49581E+08
 
   -0.49308E+08         0.15528E+06         0.00000E+00
    0.15528E+06        -0.49983E+08         0.00000E+00
    0.00000E+00         0.00000E+00        -0.49582E+08
 
   -0.49314E+08         0.16411E+06         0.00000E+00
    0.16411E+06        -0.49981E+08         0.00000E+00
    0.00000E+00         0.00000E+00        -0.49582E+08
 
   -0.49320E+08         0.17285E+06         0.00000E+00
    0.17285E+06        -0.49979E+08         0.00000E+00
    0.00000E+00         0.00000E+00        -0.49582E+08
 
   -0.49327E+08         0.18151E+06         0.00000E+00
    0.18151E+06        -0.49977E+08         0.00000E+00
    0.00000E+00         0.00000E+00        -0.49583E+08
 
   -0.49334E+08         0.19009E+06         0.00000E+00
    0.19009E+06        -0.49975E+08         0.00000E+00
    0.00000E+00         0.00000E+00        -0.49583E+08
 
   -0.49341E+08         0.19858E+06         0.00000E+00
    0.19858E+06        -0.49972E+08         0.00000E+00
    0.00000E+00         0.00000E+00        -0.49583E+08
 
   -0.49348E+08         0.20698E+06         0.00000E+00
    0.20698E+06        -0.49970E+08         0.00000E+00
    0.00000E+00         0.00000E+00        -0.49584E+08
 
   -0.49355E+08         0.21529E+06         0.00000E+00
    0.21529E+06        -0.49967E+08         0.00000E+00
    0.00000E+00         0.00000E+00        -0.49584E+08
 
   -0.49362E+08         0.22350E+06         0.00000E+00
    0.22350E+06        -0.49964E+08         0.00000E+00
    0.00000E+00         0.00000E+00        -0.49584E+08
 
   -0.49370E+08         0.23162E+06         0.00000E+00
    0.23162E+06        -0.49961E+08         0.00000E+00
    0.00000E+00         0.00000E+00        -0.49585E+08
 
   -0.49377E+08         0.23965E+06         0.00000E+00
    0.23965E+06        -0.49958E+08         0.00000E+00
    0.00000E+00         0.00000E+00        -0.49585E+08
 
   -0.49385E+08         0.24758E+06         0.00000E+00
    0.24758E+06        -0.49955E+08         0.00000E+00
    0.00000E+00         0.00000E+00        -0.49586E+08
 
   -0.49393E+08         0.25540E+06         0.00000E+00
    0.25540E+06        -0.49952E+08         0.00000E+00
    0.00000E+00         0.00000E+00        -0.49586E+08
 
   -0.49401E+08         0.26313E+06         0.00000E+00
    0.26313E+06        -0.49949E+08         0.00000E+00
    0.00000E+00         0.00000E+00        -0.49586E+08
 
   -0.49410E+08         0.27075E+06         0.00000E+00
    0.27075E+06        -0.49945E+08         0.00000E+00
    0.00000E+00         0.00000E+00        -0.49587E+08
 
   -0.49418E+08         0.27827E+06         0.00000E+00
    0.27827E+06        -0.49942E+08         0.00000E+00
    0.00000E+00         0.00000E+00        -0.49587E+08
 
   -0.49426E+08         0.28568E+06         0.00000E+00
    0.28568E+06        -0.49938E+08         0.00000E+00
    0.00000E+00         0.00000E+00        -0.49587E+08
 
   -0.49435E+08         0.29298E+06         0.00000E+00
    0.29298E+06        -0.49934E+08         0.00000E+00
    0.00000E+00         0.00000E+00        -0.49588E+08
 
   -0.49444E+08         0.30017E+06         0.00000E+00
    0.30017E+06        -0.49931E+08         0.00000E+00
    0.00000E+00         0.00000E+00        -0.49588E+08
 
   -0.49452E+08         0.30725E+06         0.00000E+00
    0.30725E+06        -0.49927E+08         0.00000E+00
    0.00000E+00         0.00000E+00        -0.49588E+08
 
   -0.49461E+08         0.31422E+06         0.00000E+00
    0.31422E+06        -0.49923E+08         0.00000E+00
    0.00000E+00         0.00000E+00        -0.49589E+08
 
   -0.49470E+08         0.32107E+06         0.00000E+00
    0.32107E+06        -0.49919E+08         0.00000E+00
    0.00000E+00         0.00000E+00        -0.49589E+08
 
   -0.49480E+08         0.32781E+06         0.00000E+00
    0.32781E+06        -0.49915E+08         0.00000E+00
    0.00000E+00         0.00000E+00        -0.49589E+08
 
   -0.49489E+08         0.33443E+06         0.00000E+00
    0.33443E+06        -0.49910E+08         0.00000E+00
    0.00000E+00         0.00000E+00        -0.49590E+08
 
   -0.49498E+08         0.34093E+06         0.00000E+00
    0.34093E+06        -0.49906E+08         0.00000E+00
    0.00000E+00         0.00000E+00        -0.49590E+08
 
   -0.49508E+08         0.34732E+06         0.00000E+00
    0.34732E+06        -0.49902E+08         0.00000E+00
    0.00000E+00         0.00000E+00        -0.49590E+08
 
   -0.49517E+08         0.35358E+06         0.00000E+00
    0.35358E+06        -0.49897E+08         0.00000E+00
    0.00000E+00         0.00000E+00        -0.49590E+08
 
   -0.49527E+08         0.35972E+06         0.00000E+00
    0.35972E+06        -0.49893E+08         0.00000E+00
    0.00000E+00         0.00000E+00        -0.49590E+08
 
   -0.49536E+08         0.36574E+06         0.00000E+00
    0.36574E+06        -0.49888E+08         0.00000E+00
    0.00000E+00         0.00000E+00        -0.49591E+08
 
   -0.49546E+08         0.37164E+06         0.00000E+00
    0.37164E+06        -0.49883E+08         0.00000E+00
    0.00000E+00         0.00000E+00        -0.49591E+08
 
   -0.49556E+08         0.37741E+06         0.00000E+00
    0.37741E+06        -0.49879E+08         0.00000E+00
    0.00000E+00         0.00000E+00        -0.49591E+08
 
   -0.49566E+08         0.38305E+06         0.00000E+00
    0.38305E+06        -0.49874E+08         0.00000E+00
    0.00000E+00         0.00000E+00        -0.49591E+08
 
   -0.49576E+08         0.38857E+06         0.00000E+00
    0.38857E+06        -0.49869E+08         0.00000E+00
    0.00000E+00         0.00000E+00        -0.49591E+08
 
   -0.49586E+08         0.39396E+06         0.00000E+00
    0.39396E+06        -0.49864E+08         0.00000E+00
    0.00000E+00         0.00000E+00        -0.49591E+08
 
   -0.49182E+08         0.52806E+04         0.00000E+00
    0.52806E+04        -0.50000E+08         0.00000E+00
    0.00000E+00         0.00000E+00        -0.49551E+08
 
   -0.49185E+08         0.15727E+05         0.00000E+00
    0.15727E+05        -0.50000E+08         0.00000E+00
    0.00000E+00         0.00000E+00        -0.49551E+08
 
   -0.49189E+08         0.26129E+05         0.00000E+00
    0.26129E+05        -0.50000E+08         0.00000E+00
    0.00000E+00         0.00000E+00        -0.49551E+08
 
   -0.49193E+08         0.36482E+05         0.00000E+00
    0.36482E+05        -0.49999E+08         0.00000E+00
    0.00000E+00         0.00000E+00        -0.49551E+08
 
   -0.49197E+08         0.46785E+05         0.00000E+00
    0.46785E+05        -0.49999E+08         0.00000E+00
    0.00000E+00         0.00000E+00        -0.49551E+08
 
   -0.49201E+08         0.57034E+05         0.00000E+00
    0.57034E+05        -0.49998E+08         0.00000E+00
    0.00000E+00         0.00000E+00        -0.49551E+08
 
   -0.49205E+08         0.67227E+05         0.00000E+00
    0.67227E+05        -0.49997E+08         0.00000E+00
    0.00000E+00         0.00000E+00        -0.49551E+08
 
   -0.49210E+08         0.77361E+05         0.00000E+00
    0.77361E+05        -0.49996E+08         0.00000E+00
    0.00000E+00         0.00000E+00        -0.49551E+08
 
   -0.49215E+08         0.87433E+05         0.00000E+00
    0.87433E+05        -0.49995E+08         0.00000E+00
    0.00000E+00         0.00000E+00        -0.49552E+08
 
   -0.49220E+08         0.97441E+05         0.00000E+00
    0.97441E+05        -0.49994E+08         0.00000E+00
    0.00000E+00         0.00000E+00        -0.49552E+08
 
   -0.49226E+08         0.10738E+06         0.00000E+00
    0.10738E+06        -0.49993E+08         0.00000E+00
    0.00000E+00         0.00000E+00        -0.49552E+08
 
   -0.49231E+08         0.11725E+06         0.00000E+00
    0.11725E+06        -0.49991E+08         0.00000E+00
    0.00000E+00         0.00000E+00        -0.49552E+08
 
   -0.49237E+08         0.12706E+06         0.00000E+00
    0.12706E+06        -0.49990E+08         0.00000E+00
    0.00000E+00         0.00000E+00        -0.49553E+08
 
   -0.49243E+08         0.13678E+06         0.00000E+00
    0.13678E+06        -0.49988E+08         0.00000E+00
    0.00000E+00         0.00000E+00        -0.49553E+08
 
   -0.49249E+08         0.14643E+06         0.00000E+00
    0.14643E+06        -0.49986E+08         0.00000E+00
    0.00000E+00         0.00000E+00        -0.49553E+08
 
   -0.49255E+08         0.15600E+06         0.00000E+00
    0.15600E+06        -0.49984E+08         0.00000E+00
    0.00000E+00         0.00000E+00        -0.49553E+08
 
   -0.49262E+08         0.16549E+06         0.00000E+00
    0.16549E+06        -0.49982E+08         0.00000E+00
    0.00000E+00         0.00000E+00        -0.49554E+08
 
   -0.49268E+08         0.17490E+06         0.00000E+00
    0.17490E+06        -0.49980E+08         0.00000E+00
    0.00000E+00         0.00000E+00        -0.49554E+08
 
   -0.49275E+08         0.18422E+06         0.00000E+00
    0.18422E+06        -0.49978E+08         0.00000E+00
    0.00000E+00         0.00000E+00        -0.49555E+08
 
   -0.49282E+08         0.19345E+06         0.00000E+00
    0.19345E+06        -0.49975E+08         0.00000E+00
    0.00000E+00         0.00000E+00        -0.49555E+08
 
   -0.49290E+08         0.20259E+06         0.00000E+00
    0.20259E+06        -0.49973E+08         0.00000E+00
    0.00000E+00         0.00000E+00        -0.49555E+08
 
   -0.49297E+08         0.21164E+06         0.00000E+00
    0.21164E+06        -0.49970E+08         0.00000E+00
    0.00000E+00         0.00000E+00        -0.49556E+08
 
   -0.49304E+08         0.22059E+06         0.00000E+00
    0.22059E+06        -0.49968E+08         0.00000E+00
    0.00000E+00         0.00000E+00        -0.49556E+08
 
   -0.49312E+08         0.22945E+06         0.00000E+00
    0.22945E+06        -0.49965E+08         0.00000E+00
    0.00000E+00         0.00000E+00        -0.49556E+08
 
   -0.49320E+08         0.23820E+06         0.00000E+00
    0.23820E+06        -0.49962E+08         0.00000E+00
    0.00000E+00         0.00000E+00        -0.49557E+08
 
   -0.49328E+08         0.24686E+06         0.00000E+00
    0.24686E+06        -0.49959E+08         0.00000E+00
    0.00000E+00         0.00000E+00        -0.49557E+08
 
   -0.49336E+08         0.25541E+06         0.00000E+00
    0.25541E+06        -0.49955E+08         0.00000E+00
    0.00000E+00         0.00000E+00        -0.49558E+08
 
   -0.49345E+08         0.26386E+06         0.00000E+00
    0.26386E+06        -0.49952E+08         0.00000E+00
    0.00000E+00         0.00000E+00        -0.49558E+08
 
   -0.49353E+08         0.27220E+06         0.00000E+00
    0.27220E+06        -0.49949E+08         0.00000E+00
    0.00000E+00         0.00000E+00        -0.49558E+08
 
   -0.49362E+08         0.28044E+06         0.00000E+00
    0.28044E+06        -0.49945E+08         0.00000E+00
    0.00000E+00         0.00000E+00        -0.49559E+08
 
   -0.49370E+08         0.28856E+06         0.00000E+00
    0.28856E+06        -0.49942E+08         0.00000E+00
    0.00000E+00         0.00000E+00        -0.49559E+08
 
   -0.49379E+08         0.29657E+06         0.00000E+00
    0.29657E+06        -0.49938E+08         0.00000E+00
    0.00000E+00         0.00000E+00        -0.49560E+08
 
   -0.49388E+08         0.30447E+06         0.00000E+00
    0.30447E+06        -0.49934E+08         0.00000E+00
    0.00000E+00         0.00000E+00        -0.49560E+08
 
   -0.49397E+08         0.31225E+06         0.00000E+00
    0.31225E+06        -0.49930E+08         0.00000E+00
    0.00000E+00         0.00000E+00        -0.49560E+08
 
   -0.49407E+08         0.31992E+06         0.00000E+00
    0.31992E+06        -0.49926E+08         0.00000E+00
    0.00000E+00         0.00000E+00        -0.49561E+08
 
   -0.49416E+08         0.32747E+06         0.00000E+00
    0.32747E+06        -0.49922E+08         0.00000E+00
    0.00000E+00         0.00000E+00        -0.49561E+08
 
   -0.49426E+08         0.33489E+06         0.00000E+00
    0.33489E+06        -0.49918E+08         0.00000E+00
    0.00000E+00         0.00000E+00        -0.49561E+08
 
   -0.49435E+08         0.34220E+06         0.00000E+00
    0.34220E+06        -0.49913E+08         0.00000E+00
    0.00000E+00         0.00000E+00        -0.49562E+08
 
   -0.49445E+08         0.34938E+06         0.00000E+00
    0.34938E+06        -0.49909E+08         0.00000E+00
    0.00000E+00         0.00000E+00        -0.49562E+08
 
   -0.49455E+08         0.35644E+06         0.00000E+00
    0.35644E+06        -0.49904E+08         0.00000E+00
    0.00000E+00         0.00000E+00        -0.49562E+08
 
   -0.49465E+08         0.36337E+06         0.00000E+00
    0.36337E+06        -0.49900E+08         0.00000E+00
    0.00000E+00         0.00000E+00        -0.49563E+08
 
   -0.49475E+08         0.37017E+06         0.00000E+00
    0.37017E+06        -0.49895E+08         0.00000E+00
    0.00000E+00         0.00000E+00        -0.49563E+08
 
   -0.49485E+08         0.37685E+06         0.00000E+00
    0.37685E+06        -0.49890E+08         0.00000E+00
    0.00000E+00         0.00000E+00        -0.49563E+08
 
   -0.49495E+08         0.38340E+06         0.00000E+00
    0.38340E+06        -0.49886E+08         0.00000E+00
    0.00000E+00         0.00000E+00        -0.49563E+08
 
   -0.49506E+08         0.38982E+06         0.00000E+00
    0.38982E+06        -0.49881E+08         0.00000E+00
    0.00000E+00         0.00000E+00        -0.49563E+08
 
   -0.49516E+08         0.39610E+06         0.00000E+00
    0.39610E+06        -0.49876E+08         0.00000E+00
    0.00000E+00         0.00000E+00        -0.49564E+08
 
   -0.49527E+08         0.40225E+06         0.00000E+00
    0.40225E+06        -0.49871E+08         0.00000E+00
    0.00000E+00         0.00000E+00        -0.49564E+08
 
   -0.49537E+08         0.40827E+06         0.00000E+00
    0.40827E+06        -0.49865E+08         0.00000E+00
    0.00000E+00         0.00000E+00        -0.49564E+08
 
   -0.49548E+08         0.41415E+06         0.00000E+00
    0.41415E+06        -0.49860E+08         0.00000E+00
    0.00000E+00         0.00000E+00        -0.49564E+08
 
   -0.49559E+08         0.41990E+06         0.00000E+00
    0.41990E+06        -0.49855E+08         0.00000E+00
    0.00000E+00         0.00000E+00        -0.49564E+08
 
   -0.49127E+08         0.56277E+04         0.00000E+00
    0.56277E+04        -0.50000E+08         0.00000E+00
    0.00000E+00         0.00000E+00        -0.49521E+08
 
   -0.49131E+08         0.16761E+05         0.00000E+00
    0.16761E+05        -0.50000E+08         0.00000E+00
    0.00000E+00         0.00000E+00        -0.49521E+08
 
   -0.49135E+08         0.27847E+05         0.00000E+00
    0.27847E+05        -0.50000E+08         0.00000E+00
    0.00000E+00         0.00000E+00        -0.49521E+08
 
   -0.49139E+08         0.38881E+05         0.00000E+00
    0.38881E+05        -0.49999E+08         0.00000E+00
    0.00000E+00         0.00000E+00        -0.49521E+08
 
   -0.49144E+08         0.49861E+05         0.00000E+00
    0.49861E+05        -0.49999E+08         0.00000E+00
    0.00000E+00         0.00000E+00        -0.49521E+08
 
   -0.49148E+08         0.60784E+05         0.00000E+00
    0.60784E+05        -0.49998E+08         0.00000E+00
    0.00000E+00         0.00000E+00        -0.49521E+08
 
   -0.49153E+08         0.71647E+05         0.00000E+00
    0.71647E+05        -0.49997E+08         0.00000E+00
    0.00000E+00         0.00000E+00        -0.49521E+08
 
   -0.49158E+08         0.82448E+05         0.00000E+00
    0.82448E+05        -0.49996E+08         0.00000E+00
    0.00000E+00         0.00000E+00        -0.49522E+08
 
   -0.49163E+08         0.93182E+05         0.00000E+00
    0.93182E+05        -0.49995E+08         0.00000E+00
    0.00000E+00         0.00000E+00        -0.49522E+08
 
   -0.49169E+08         0.10385E+06         0.00000E+00
    0.10385E+06        -0.49994E+08         0.00000E+00
    0.00000E+00         0.00000E+00        -0.49522E+08
 
   -0.49174E+08         0.11444E+06         0.00000E+00
    0.11444E+06        -0.49992E+08         0.00000E+00
    0.00000E+00         0.00000E+00        -0.49522E+08
 
   -0.49180E+08         0.12497E+06         0.00000E+00
    0.12497E+06        -0.49991E+08         0.00000E+00
    0.00000E+00         0.00000E+00        -0.49523E+08
 
   -0.49187E+08         0.13541E+06         0.00000E+00
    0.13541E+06        -0.49989E+08         0.00000E+00
    0.00000E+00         0.00000E+00        -0.49523E+08
 
   -0.49193E+08         0.14578E+06         0.00000E+00
    0.14578E+06        -0.49987E+08         0.00000E+00
    0.00000E+00         0.00000E+00        -0.49523E+08
 
   -0.49199E+08         0.15606E+06         0.00000E+00
    0.15606E+06        -0.49985E+08         0.00000E+00
    0.00000E+00         0.00000E+00        -0.49524E+08
 
   -0.49206E+08         0.16626E+06         0.00000E+00
    0.16626E+06        -0.49983E+08         0.00000E+00
    0.00000E+00         0.00000E+00        -0.49524E+08
 
   -0.49213E+08         0.17637E+06         0.00000E+00
    0.17637E+06        -0.49981E+08         0.00000E+00
    0.00000E+00         0.00000E+00        -0.49524E+08
 
   -0.49220E+08         0.18640E+06         0.00000E+00
    0.18640E+06        -0.49979E+08         0.00000E+00
    0.00000E+00         0.00000E+00        -0.49525E+08
 
   -0.49227E+08         0.19633E+06         0.00000E+00
    0.19633E+06        -0.49976E+08         0.00000E+00
    0.00000E+00         0.00000E+00        -0.49525E+08
 
   -0.49235E+08         0.20617E+06         0.00000E+00
    0.20617E+06        -0.49974E+08         0.00000E+00
    0.00000E+00         0.00000E+00        -0.49525E+08
 
   -0.49243E+08         0.21591E+06         0.00000E+00
    0.21591E+06        -0.49971E+08         0.00000E+00
    0.00000E+00         0.00000E+00        -0.49526E+08
 
   -0.49250E+08         0.22555E+06         0.00000E+00
    0.22555E+06        -0.49968E+08         0.00000E+00
    0.00000E+00         0.00000E+00        -0.49526E+08
 
   -0.49258E+08         0.23510E+06         0.00000E+00
    0.23510E+06        -0.49965E+08         0.00000E+00
    0.00000E+00         0.00000E+00        -0.49527E+08
 
   -0.49267E+08         0.24454E+06         0.00000E+00
    0.24454E+06        -0.49962E+08         0.00000E+00
    0.00000E+00         0.00000E+00        -0.49527E+08
 
   -0.49275E+08         0.25387E+06         0.00000E+00
    0.25387E+06        -0.49959E+08         0.00000E+00
    0.00000E+00         0.00000E+00        -0.49527E+08
 
   -0.49284E+08         0.26310E+06         0.00000E+00
    0.26310E+06        -0.49956E+08         0.00000E+00
    0.00000E+00         0.00000E+00        -0.49528E+08
 
   -0.49292E+08         0.27221E+06         0.00000E+00
    0.27221E+06        -0.49952E+08         0.00000E+00
    0.00000E+00         0.00000E+00        -0.49528E+08
 
   -0.49301E+08         0.28122E+06         0.00000E+00
    0.28122E+06        -0.49949E+08         0.00000E+00
    0.00000E+00         0.00000E+00        -0.49529E+08
 
   -0.49310E+08         0.29011E+06         0.00000E+00
    0.29011E+06        -0.49945E+08         0.00000E+00
    0.00000E+00         0.00000E+00        -0.49529E+08
 
   -0.49319E+08         0.29888E+06         0.00000E+00
    0.29888E+06        -0.49942E+08         0.00000E+00
    0.00000E+00         0.00000E+00        -0.49530E+08
 
   -0.49329E+08         0.30754E+06         0.00000E+00
    0.30754E+06        -0.49938E+08         0.00000E+00
    0.00000E+00         0.00000E+00        -0.49530E+08
 
   -0.49338E+08         0.31608E+06         0.00000E+00
    0.31608E+06        -0.49934E+08         0.00000E+00
    0.00000E+00         0.00000E+00        -0.49530E+08
 
   -0.49348E+08         0.32450E+06         0.00000E+00
    0.32450E+06        -0.49930E+08         0.00000E+00
    0.00000E+00         0.00000E+00        -0.49531E+08
 
   -0.49358E+08         0.33279E+06         0.00000E+00
    0.33279E+06        -0.49925E+08         0.00000E+00
    0.00000E+00         0.00000E+00        -0.49531E+08
 
   -0.49367E+08         0.34096E+06         0.00000E+00
    0.34096E+06        -0.49921E+08         0.00000E+00
    0.00000E+00         0.00000E+00        -0.49532E+08
 
   -0.49378E+08         0.34901E+06         0.00000E+00
    0.34901E+06        -0.49917E+08         0.00000E+00
    0.00000E+00         0.00000E+00        -0.49532E+08
 
   -0.49388E+08         0.35692E+06         0.00000E+00
    0.35692E+06        -0.49912E+08         0.00000E+00
    0.00000E+00         0.00000E+00        -0.49532E+08
 
   -0.49398E+08         0.36471E+06         0.00000E+00
    0.36471E+06        -0.49908E+08         0.00000E+00
    0.00000E+00         0.00000E+00        -0.49533E+08
 
   -0.49408E+08         0.37237E+06         0.00000E+00
    0.37237E+06        -0.49903E+08         0.00000E+00
    0.00000E+00         0.00000E+00        -0.49533E+08
 
   -0.49419E+08         0.37989E+06         0.00000E+00
    0.37989E+06        -0.49898E+08         0.00000E+00
    0.00000E+00         0.00000E+00        -0.49533E+08
 
   -0.49429E+08         0.38728E+06         0.00000E+00
    0.38728E+06        -0.49893E+08         0.00000E+00
    0.00000E+00         0.00000E+00        -0.49534E+08
 
   -0.49440E+08         0.39453E+06         0.00000E+00
    0.39453E+06        -0.49888E+08         0.00000E+00
    0.00000E+00         0.00000E+00        -0.49534E+08
 
   -0.49451E+08         0.40165E+06         0.00000E+00
    0.40165E+06        -0.49883E+08         0.00000E+00
    0.00000E+00         0.00000E+00        -0.49534E+08
 
   -0.49462E+08         0.40863E+06         0.00000E+00
    0.40863E+06        -0.49878E+08         0.00000E+00
    0.00000E+00         0.00000E+00        -0.49534E+08
 
   -0.49473E+08         0.41547E+06         0.00000E+00
    0.41547E+06        -0.49873E+08         0.00000E+00
    0.00000E+00         0.00000E+00        -0.49534E+08
 
   -0.49484E+08         0.42217E+06         0.00000E+00
    0.42217E+06        -0.49867E+08         0.00000E+00
    0.00000E+00         0.00000E+00        -0.49535E+08
 
   -0.49495E+08         0.42873E+06         0.00000E+00
    0.42873E+06        -0.49862E+08         0.00000E+00
    0.00000E+00         0.00000E+00        -0.49535E+08
 
   -0.49506E+08         0.43514E+06         0.00000E+00
    0.43514E+06        -0.49857E+08         0.00000E+00
    0.00000E+00         0.00000E+00        -0.49535E+08
 
   -0.49518E+08         0.44142E+06         0.00000E+00
    0.44142E+06        -0.49851E+08         0.00000E+00
    0.00000E+00         0.00000E+00        -0.49535E+08
 
   -0.49529E+08         0.44755E+06         0.00000E+00
    0.44755E+06        -0.49845E+08         0.00000E+00
    0.00000E+00         0.00000E+00        -0.49535E+08
 
   -0.49070E+08         0.59978E+04         0.00000E+00
    0.59978E+04        -0.50000E+08         0.00000E+00
    0.00000E+00         0.00000E+00        -0.49489E+08
 
   -0.49074E+08         0.17864E+05         0.00000E+00
    0.17864E+05        -0.50000E+08         0.00000E+00
    0.00000E+00         0.00000E+00        -0.49489E+08
 
   -0.49078E+08         0.29678E+05         0.00000E+00
    0.29678E+05        -0.50000E+08         0.00000E+00
    0.00000E+00         0.00000E+00        -0.49489E+08
 
   -0.49082E+08         0.41438E+05         0.00000E+00
    0.41438E+05        -0.49999E+08         0.00000E+00
    0.00000E+00         0.00000E+00        -0.49489E+08
 
   -0.49087E+08         0.53141E+05         0.00000E+00
    0.53141E+05        -0.49998E+08         0.00000E+00
    0.00000E+00         0.00000E+00        -0.49489E+08
 
   -0.49092E+08         0.64782E+05         0.00000E+00
    0.64782E+05        -0.49998E+08         0.00000E+00
    0.00000E+00         0.00000E+00        -0.49489E+08
 
   -0.49097E+08         0.76360E+05         0.00000E+00
    0.76360E+05        -0.49997E+08         0.00000E+00
    0.00000E+00         0.00000E+00        -0.49490E+08
 
   -0.49102E+08         0.87870E+05         0.00000E+00
    0.87870E+05        -0.49996E+08         0.00000E+00
    0.00000E+00         0.00000E+00        -0.49490E+08
 
   -0.49108E+08         0.99311E+05         0.00000E+00
    0.99311E+05        -0.49995E+08         0.00000E+00
    0.00000E+00         0.00000E+00        -0.49490E+08
 
   -0.49114E+08         0.11068E+06         0.00000E+00
    0.11068E+06        -0.49993E+08         0.00000E+00
    0.00000E+00         0.00000E+00        -0.49490E+08
 
   -0.49120E+08         0.12197E+06         0.00000E+00
    0.12197E+06        -0.49992E+08         0.00000E+00
    0.00000E+00         0.00000E+00        -0.49491E+08
 
   -0.49126E+08         0.13319E+06         0.00000E+00
    0.13319E+06        -0.49990E+08         0.00000E+00
    0.00000E+00         0.00000E+00        -0.49491E+08
 
   -0.49133E+08         0.14432E+06         0.00000E+00
    0.14432E+06        -0.49988E+08         0.00000E+00
    0.00000E+00         0.00000E+00        -0.49491E+08
 
   -0.49140E+08         0.15537E+06         0.00000E+00
    0.15537E+06        -0.49986E+08         0.00000E+00
    0.00000E+00         0.00000E+00        -0.49492E+08
 
   -0.49146E+08         0.16633E+06         0.00000E+00
    0.16633E+06        -0.49984E+08         0.00000E+00
    0.00000E+00         0.00000E+00        -0.49492E+08
 
   -0.49154E+08         0.17720E+06         0.00000E+00
    0.17720E+06        -0.49982E+08         0.00000E+00
    0.00000E+00         0.00000E+00        -0.49492E+08
 
   -0.49161E+08         0.18798E+06         0.00000E+00
    0.18798E+06        -0.49980E+08         0.00000E+00
    0.00000E+00         0.00000E+00        -0.49493E+08
 
   -0.49169E+08         0.19866E+06         0.00000E+00
    0.19866E+06        -0.49977E+08         0.00000E+00
    0.00000E+00         0.00000E+00        -0.49493E+08
 
   -0.49176E+08         0.20924E+06         0.00000E+00
    0.20924E+06        -0.49975E+08         0.00000E+00
    0.00000E+00         0.00000E+00        -0.49493E+08
 
   -0.49184E+08         0.21973E+06         0.00000E+00
    0.21973E+06        -0.49972E+08         0.00000E+00
    0.00000E+00         0.00000E+00        -0.49494E+08
 
   -0.49193E+08         0.23011E+06         0.00000E+00
    0.23011E+06        -0.49969E+08         0.00000E+00
    0.00000E+00         0.00000E+00        -0.49494E+08
 
   -0.49201E+08         0.24039E+06         0.00000E+00
    0.24039E+06        -0.49966E+08         0.00000E+00
    0.00000E+00         0.00000E+00        -0.49495E+08
 
   -0.49209E+08         0.25056E+06         0.00000E+00
    0.25056E+06        -0.49963E+08         0.00000E+00
    0.00000E+00         0.00000E+00        -0.49495E+08
 
   -0.49218E+08         0.26062E+06         0.00000E+00
    0.26062E+06        -0.49960E+08         0.00000E+00
    0.00000E+00         0.00000E+00        -0.49496E+08
 
   -0.49227E+08         0.27057E+06         0.00000E+00
    0.27057E+06        -0.49956E+08         0.00000E+00
    0.00000E+00         0.00000E+00        -0.49496E+08
 
   -0.49236E+08         0.28040E+06         0.00000E+00
    0.28040E+06        -0.49953E+08         0.00000E+00
    0.00000E+00         0.00000E+00        -0.49497E+08
 
   -0.49246E+08         0.29012E+06         0.00000E+00
    0.29012E+06        -0.49949E+08         0.00000E+00
    0.00000E+00         0.00000E+00        -0.49497E+08
 
   -0.49255E+08         0.29971E+06         0.00000E+00
    0.29971E+06        -0.49946E+08         0.00000E+00
    0.00000E+00         0.00000E+00        -0.49497E+08
 
   -0.49265E+08         0.30919E+06         0.00000E+00
    0.30919E+06        -0.49942E+08         0.00000E+00
    0.00000E+00         0.00000E+00        -0.49498E+08
 
   -0.49274E+08         0.31854E+06         0.00000E+00
    0.31854E+06        -0.49938E+08         0.00000E+00
    0.00000E+00         0.00000E+00        -0.49498E+08
 
   -0.49284E+08         0.32777E+06         0.00000E+00
    0.32777E+06        -0.49934E+08         0.00000E+00
    0.00000E+00         0.00000E+00        -0.49499E+08
 
   -0.49294E+08         0.33687E+06         0.00000E+00
    0.33687E+06        -0.49929E+08         0.00000E+00
    0.00000E+00         0.00000E+00        -0.49499E+08
 
   -0.49305E+08         0.34584E+06         0.00000E+00
    0.34584E+06        -0.49925E+08         0.00000E+00
    0.00000E+00         0.00000E+00        -0.49500E+08
 
   -0.49315E+08         0.35468E+06         0.00000E+00
    0.35468E+06        -0.49921E+08         0.00000E+00
    0.00000E+00         0.00000E+00        -0.49500E+08
 
   -0.49326E+08         0.36339E+06         0.00000E+00
    0.36339E+06        -0.49916E+08         0.00000E+00
    0.00000E+00         0.00000E+00        -0.49500E+08
 
   -0.49336E+08         0.37196E+06         0.00000E+00
    0.37196E+06        -0.49911E+08         0.00000E+00
    0.00000E+00         0.00000E+00        -0.49501E+08
 
   -0.49347E+08         0.38040E+06         0.00000E+00
    0.38040E+06        -0.49906E+08         0.00000E+00
    0.00000E+00         0.00000E+00        -0.49501E+08
 
   -0.49358E+08         0.38870E+06         0.00000E+00
    0.38870E+06        -0.49902E+08         0.00000E+00
    0.00000E+00         0.00000E+00        -0.49502E+08
 
   -0.49369E+08         0.39686E+06         0.00000E+00
    0.39686E+06        -0.49897E+08         0.00000E+00
    0.00000E+00         0.00000E+00        -0.49502E+08
 
   -0.49380E+08         0.40488E+06         0.00000E+00
    0.40488E+06        -0.49891E+08         0.00000E+00
    0.00000E+00         0.00000E+00        -0.49502E+08
 
   -0.49392E+08         0.41276E+06         0.00000E+00
    0.41276E+06        -0.49886E+08         0.00000E+00
    0.00000E+00         0.00000E+00        -0.49503E+08
 
   -0.49403E+08         0.42049E+06         0.00000E+00
    0.42049E+06        -0.49881E+08         0.00000E+00
    0.00000E+00         0.00000E+00        -0.49503E+08
 
   -0.49415E+08         0.42807E+06         0.00000E+00
    0.42807E+06        -0.49876E+08         0.00000E+00
    0.00000E+00         0.00000E+00        -0.49503E+08
 
   -0.49426E+08         0.43551E+06         0.00000E+00
    0.43551E+06        -0.49870E+08         0.00000E+00
    0.00000E+00         0.00000E+00        -0.49503E+08
 
   -0.49438E+08         0.44281E+06         0.00000E+00
    0.44281E+06        -0.49864E+08         0.00000E+00
    0.00000E+00         0.00000E+00        -0.49503E+08
 
   -0.49450E+08         0.44995E+06         0.00000E+00
    0.44995E+06        -0.49859E+08         0.00000E+00
    0.00000E+00         0.00000E+00        -0.49504E+08
 
   -0.49462E+08         0.45694E+06         0.00000E+00
    0.45694E+06        -0.49853E+08         0.00000E+00
    0.00000E+00         0.00000E+00        -0.49504E+08
 
   -0.49474E+08         0.46378E+06         0.00000E+00
    0.46378E+06        -0.49847E+08         0.00000E+00
    0.00000E+00         0.00000E+00        -0.49504E+08
 
   -0.49486E+08         0.47047E+06         0.00000E+00
    0.47047E+06        -0.49841E+08         0.00000E+00
    0.00000E+00         0.00000E+00        -0.49504E+08
 
   -0.49498E+08         0.47700E+06         0.00000E+00
    0.47700E+06        -0.49835E+08         0.00000E+00
    0.00000E+00         0.00000E+00        -0.49504E+08
 
   -0.49008E+08         0.63924E+04         0.00000E+00
    0.63924E+04        -0.50000E+08         0.00000E+00
    0.00000E+00         0.00000E+00        -0.49455E+08
 
   -0.49013E+08         0.19039E+05         0.00000E+00
    0.19039E+05        -0.50000E+08         0.00000E+00
    0.00000E+00         0.00000E+00        -0.49455E+08
 
   -0.49017E+08         0.31631E+05         0.00000E+00
    0.31631E+05        -0.49999E+08         0.00000E+00
    0.00000E+00         0.00000E+00        -0.49455E+08
 
   -0.49022E+08         0.44165E+05         0.00000E+00
    0.44165E+05        -0.49999E+08         0.00000E+00
    0.00000E+00         0.00000E+00        -0.49455E+08
 
   -0.49027E+08         0.56637E+05         0.00000E+00
    0.56637E+05        -0.49998E+08         0.00000E+00
    0.00000E+00         0.00000E+00        -0.49455E+08
 
   -0.49032E+08         0.69045E+05         0.00000E+00
    0.69045E+05        -0.49998E+08         0.00000E+00
    0.00000E+00         0.00000E+00        -0.49456E+08
 
   -0.49037E+08         0.81384E+05         0.00000E+00
    0.81384E+05        -0.49997E+08         0.00000E+00
    0.00000E+00         0.00000E+00        -0.49456E+08
 
   -0.49043E+08         0.93652E+05         0.00000E+00
    0.93652E+05        -0.49995E+08         0.00000E+00
    0.00000E+00         0.00000E+00        -0.49456E+08
 
   -0.49049E+08         0.10585E+06         0.00000E+00
    0.10585E+06        -0.49994E+08         0.00000E+00
    0.00000E+00         0.00000E+00        -0.49456E+08
 
   -0.49055E+08         0.11796E+06         0.00000E+00
    0.11796E+06        -0.49993E+08         0.00000E+00
    0.00000E+00         0.00000E+00        -0.49457E+08
 
   -0.49062E+08         0.13000E+06         0.00000E+00
    0.13000E+06        -0.49991E+08         0.00000E+00
    0.00000E+00         0.00000E+00        -0.49457E+08
 
   -0.49069E+08         0.14195E+06         0.00000E+00
    0.14195E+06        -0.49989E+08         0.00000E+00
    0.00000E+00         0.00000E+00        -0.49457E+08
 
   -0.49076E+08         0.15381E+06         0.00000E+00
    0.15381E+06        -0.49988E+08         0.00000E+00
    0.00000E+00         0.00000E+00        -0.49458E+08
 
   -0.49083E+08         0.16559E+06         0.00000E+00
    0.16559E+06        -0.49986E+08         0.00000E+00
    0.00000E+00         0.00000E+00        -0.49458E+08
 
   -0.49090E+08         0.17727E+06         0.00000E+00
    0.17727E+06        -0.49983E+08         0.00000E+00
    0.00000E+00         0.00000E+00        -0.49458E+08
 
   -0.49098E+08         0.18885E+06         0.00000E+00
    0.18885E+06        -0.49981E+08         0.00000E+00
    0.00000E+00         0.00000E+00        -0.49459E+08
 
   -0.49106E+08         0.20034E+06         0.00000E+00
    0.20034E+06        -0.49979E+08         0.00000E+00
    0.00000E+00         0.00000E+00        -0.49459E+08
 
   -0.49114E+08         0.21173E+06         0.00000E+00
    0.21173E+06        -0.49976E+08         0.00000E+00
    0.00000E+00         0.00000E+00        -0.49459E+08
 
   -0.49122E+08         0.22301E+06         0.00000E+00
    0.22301E+06        -0.49973E+08         0.00000E+00
    0.00000E+00         0.00000E+00        -0.49460E+08
 
   -0.49130E+08         0.23418E+06         0.00000E+00
    0.23418E+06        -0.49970E+08         0.00000E+00
    0.00000E+00         0.00000E+00        -0.49460E+08
 
   -0.49139E+08         0.24525E+06         0.00000E+00
    0.24525E+06        -0.49967E+08         0.00000E+00
    0.00000E+00         0.00000E+00        -0.49461E+08
 
   -0.49148E+08         0.25620E+06         0.00000E+00
    0.25620E+06        -0.49964E+08         0.00000E+00
    0.00000E+00         0.00000E+00        -0.49461E+08
 
   -0.49157E+08         0.26704E+06         0.00000E+00
    0.26704E+06        -0.49961E+08         0.00000E+00
    0.00000E+00         0.00000E+00        -0.49462E+08
 
   -0.49167E+08         0.27776E+06         0.00000E+00
    0.27776E+06        -0.49957E+08         0.00000E+00
    0.00000E+00         0.00000E+00        -0.49462E+08
 
   -0.49176E+08         0.28836E+06         0.00000E+00
    0.28836E+06        -0.49954E+08         0.00000E+00
    0.00000E+00         0.00000E+00        -0.49463E+08
 
   -0.49186E+08         0.29884E+06         0.00000E+00
    0.29884E+06        -0.49950E+08         0.00000E+00
    0.00000E+00         0.00000E+00        -0.49463E+08
 
   -0.49196E+08         0.30920E+06         0.00000E+00
    0.30920E+06        -0.49946E+08         0.00000E+00
    0.00000E+00         0.00000E+00        -0.49464E+08
 
   -0.49206E+08         0.31943E+06         0.00000E+00
    0.31943E+06        -0.49942E+08         0.00000E+00
    0.00000E+00         0.00000E+00        -0.49464E+08
 
   -0.49216E+08         0.32952E+06         0.00000E+00
    0.32952E+06        -0.49938E+08         0.00000E+00
    0.00000E+00         0.00000E+00        -0.49465E+08
 
   -0.49226E+08         0.33949E+06         0.00000E+00
    0.33949E+06        -0.49934E+08         0.00000E+00
    0.00000E+00         0.00000E+00        -0.49465E+08
 
   -0.49237E+08         0.34933E+06         0.00000E+00
    0.34933E+06        -0.49929E+08         0.00000E+00
    0.00000E+00         0.00000E+00        -0.49466E+08
 
   -0.49248E+08         0.35903E+06         0.00000E+00
    0.35903E+06        -0.49925E+08         0.00000E+00
    0.00000E+00         0.00000E+00        -0.49466E+08
 
   -0.49259E+08         0.36859E+06         0.00000E+00
    0.36859E+06        -0.49920E+08         0.00000E+00
    0.00000E+00         0.00000E+00        -0.49466E+08
 
   -0.49270E+08         0.37801E+06         0.00000E+00
    0.37801E+06        -0.49915E+08         0.00000E+00
    0.00000E+00         0.00000E+00        -0.49467E+08
 
   -0.49281E+08         0.38729E+06         0.00000E+00
    0.38729E+06        -0.49910E+08         0.00000E+00
    0.00000E+00         0.00000E+00        -0.49467E+08
 
   -0.49292E+08         0.39643E+06         0.00000E+00
    0.39643E+06        -0.49905E+08         0.00000E+00
    0.00000E+00         0.00000E+00        -0.49468E+08
 
   -0.49304E+08         0.40542E+06         0.00000E+00
    0.40542E+06        -0.49900E+08         0.00000E+00
    0.00000E+00         0.00000E+00        -0.49468E+08
 
   -0.49316E+08         0.41426E+06         0.00000E+00
    0.41426E+06        -0.49895E+08         0.00000E+00
    0.00000E+00         0.00000E+00        -0.49468E+08
 
   -0.49327E+08         0.42296E+06         0.00000E+00
    0.42296E+06        -0.49890E+08         0.00000E+00
    0.00000E+00         0.00000E+00        -0.49469E+08
 
   -0.49339E+08         0.43151E+06         0.00000E+00
    0.43151E+06        -0.49884E+08         0.00000E+00
    0.00000E+00         0.00000E+00        -0.49469E+08
 
   -0.49351E+08         0.43990E+06         0.00000E+00
    0.43990E+06        -0.49879E+08         0.00000E+00
    0.00000E+00         0.00000E+00        -0.49470E+08
 
   -0.49363E+08         0.44814E+06         0.00000E+00
    0.44814E+06        -0.49873E+08         0.00000E+00
    0.00000E+00         0.00000E+00        -0.49470E+08
 
   -0.49376E+08         0.45623E+06         0.00000E+00
    0.45623E+06        -0.49867E+08         0.00000E+00
    0.00000E+00         0.00000E+00        -0.49470E+08
 
   -0.49388E+08         0.46416E+06         0.00000E+00
    0.46416E+06        -0.49861E+08         0.00000E+00
    0.00000E+00         0.00000E+00        -0.49470E+08
 
   -0.49401E+08         0.47193E+06         0.00000E+00
    0.47193E+06        -0.49856E+08         0.00000E+00
    0.00000E+00         0.00000E+00        -0.49471E+08
 
   -0.49413E+08         0.47955E+06         0.00000E+00
    0.47955E+06        -0.49849E+08         0.00000E+00
    0.00000E+00         0.00000E+00        -0.49471E+08
 
   -0.49426E+08         0.48700E+06         0.00000E+00
    0.48700E+06        -0.49843E+08         0.00000E+00
    0.00000E+00         0.00000E+00        -0.49471E+08
 
   -0.49439E+08         0.49429E+06         0.00000E+00
    0.49429E+06        -0.49837E+08         0.00000E+00
    0.00000E+00         0.00000E+00        -0.49471E+08
 
   -0.49452E+08         0.50142E+06         0.00000E+00
    0.50142E+06        -0.49831E+08         0.00000E+00
    0.00000E+00         0.00000E+00        -0.49471E+08
 
   -0.49465E+08         0.50838E+06         0.00000E+00
    0.50838E+06        -0.49824E+08         0.00000E+00
    0.00000E+00         0.00000E+00        -0.49471E+08
 
   -0.48943E+08         0.68133E+04         0.00000E+00
    0.68133E+04        -0.50000E+08         0.00000E+00
    0.00000E+00         0.00000E+00        -0.49419E+08
 
   -0.48948E+08         0.20293E+05         0.00000E+00
    0.20293E+05        -0.50000E+08         0.00000E+00
    0.00000E+00         0.00000E+00        -0.49419E+08
 
   -0.48952E+08         0.33714E+05         0.00000E+00
    0.33714E+05        -0.49999E+08         0.00000E+00
    0.00000E+00         0.00000E+00        -0.49419E+08
 
   -0.48957E+08         0.47073E+05         0.00000E+00
    0.47073E+05        -0.49999E+08         0.00000E+00
    0.00000E+00         0.00000E+00        -0.49419E+08
 
   -0.48963E+08         0.60366E+05         0.00000E+00
    0.60366E+05        -0.49998E+08         0.00000E+00
    0.00000E+00         0.00000E+00        -0.49419E+08
 
   -0.48968E+08         0.73590E+05         0.00000E+00
    0.73590E+05        -0.49997E+08         0.00000E+00
    0.00000E+00         0.00000E+00        -0.49420E+08
 
   -0.48974E+08         0.86742E+05         0.00000E+00
    0.86742E+05        -0.49996E+08         0.00000E+00
    0.00000E+00         0.00000E+00        -0.49420E+08
 
   -0.48980E+08         0.99817E+05         0.00000E+00
    0.99817E+05        -0.49995E+08         0.00000E+00
    0.00000E+00         0.00000E+00        -0.49420E+08
 
   -0.48986E+08         0.11281E+06         0.00000E+00
    0.11281E+06        -0.49994E+08         0.00000E+00
    0.00000E+00         0.00000E+00        -0.49420E+08
 
   -0.48993E+08         0.12573E+06         0.00000E+00
    0.12573E+06        -0.49992E+08         0.00000E+00
    0.00000E+00         0.00000E+00        -0.49421E+08
 
   -0.49000E+08         0.13855E+06         0.00000E+00
    0.13855E+06        -0.49991E+08         0.00000E+00
    0.00000E+00         0.00000E+00        -0.49421E+08
 
   -0.49007E+08         0.15129E+06         0.00000E+00
    0.15129E+06        -0.49989E+08         0.00000E+00
    0.00000E+00         0.00000E+00        -0.49421E+08
 
   -0.49014E+08         0.16394E+06         0.00000E+00
    0.16394E+06        -0.49987E+08         0.00000E+00
    0.00000E+00         0.00000E+00        -0.49422E+08
 
   -0.49022E+08         0.17648E+06         0.00000E+00
    0.17648E+06        -0.49985E+08         0.00000E+00
    0.00000E+00         0.00000E+00        -0.49422E+08
 
   -0.49030E+08         0.18893E+06         0.00000E+00
    0.18893E+06        -0.49982E+08         0.00000E+00
    0.00000E+00         0.00000E+00        -0.49422E+08
 
   -0.49038E+08         0.20128E+06         0.00000E+00
    0.20128E+06        -0.49980E+08         0.00000E+00
    0.00000E+00         0.00000E+00        -0.49423E+08
 
   -0.49047E+08         0.21352E+06         0.00000E+00
    0.21352E+06        -0.49977E+08         0.00000E+00
    0.00000E+00         0.00000E+00        -0.49423E+08
 
   -0.49055E+08         0.22566E+06         0.00000E+00
    0.22566E+06        -0.49974E+08         0.00000E+00
    0.00000E+00         0.00000E+00        -0.49424E+08
 
   -0.49064E+08         0.23768E+06         0.00000E+00
    0.23768E+06        -0.49971E+08         0.00000E+00
    0.00000E+00         0.00000E+00        -0.49424E+08
 
   -0.49073E+08         0.24959E+06         0.00000E+00
    0.24959E+06        -0.49968E+08         0.00000E+00
    0.00000E+00         0.00000E+00        -0.49425E+08
 
   -0.49082E+08         0.26138E+06         0.00000E+00
    0.26138E+06        -0.49965E+08         0.00000E+00
    0.00000E+00         0.00000E+00        -0.49425E+08
 
   -0.49092E+08         0.27306E+06         0.00000E+00
    0.27306E+06        -0.49962E+08         0.00000E+00
    0.00000E+00         0.00000E+00        -0.49426E+08
 
   -0.49102E+08         0.28461E+06         0.00000E+00
    0.28461E+06        -0.49958E+08         0.00000E+00
    0.00000E+00         0.00000E+00        -0.49426E+08
 
   -0.49112E+08         0.29603E+06         0.00000E+00
    0.29603E+06        -0.49954E+08         0.00000E+00
    0.00000E+00         0.00000E+00        -0.49427E+08
 
   -0.49122E+08         0.30733E+06         0.00000E+00
    0.30733E+06        -0.49951E+08         0.00000E+00
    0.00000E+00         0.00000E+00        -0.49427E+08
 
   -0.49132E+08         0.31850E+06         0.00000E+00
    0.31850E+06        -0.49947E+08         0.00000E+00
    0.00000E+00         0.00000E+00        -0.49428E+08
 
   -0.49143E+08         0.32953E+06         0.00000E+00
    0.32953E+06        -0.49942E+08         0.00000E+00
    0.00000E+00         0.00000E+00        -0.49428E+08
 
   -0.49153E+08         0.34043E+06         0.00000E+00
    0.34043E+06        -0.49938E+08         0.00000E+00
    0.00000E+00         0.00000E+00        -0.49429E+08
 
   -0.49164E+08         0.35120E+06         0.00000E+00
    0.35120E+06        -0.49934E+08         0.00000E+00
    0.00000E+00         0.00000E+00        -0.49429E+08
 
   -0.49175E+08         0.36182E+06         0.00000E+00
    0.36182E+06        -0.49929E+08         0.00000E+00
    0.00000E+00         0.00000E+00        -0.49430E+08
 
   -0.49187E+08         0.37230E+06         0.00000E+00
    0.37230E+06        -0.49925E+08         0.00000E+00
    0.00000E+00         0.00000E+00        -0.49430E+08
 
   -0.49198E+08         0.38264E+06         0.00000E+00
    0.38264E+06        -0.49920E+08         0.00000E+00
    0.00000E+00         0.00000E+00        -0.49431E+08
 
   -0.49210E+08         0.39282E+06         0.00000E+00
    0.39282E+06        -0.49915E+08         0.00000E+00
    0.00000E+00         0.00000E+00        -0.49431E+08
 
   -0.49222E+08         0.40287E+06         0.00000E+00
    0.40287E+06        -0.49910E+08         0.00000E+00
    0.00000E+00         0.00000E+00        -0.49432E+08
 
   -0.49233E+08         0.41276E+06         0.00000E+00
    0.41276E+06        -0.49904E+08         0.00000E+00
    0.00000E+00         0.00000E+00        -0.49432E+08
 
   -0.49246E+08         0.42249E+06         0.00000E+00
    0.42249E+06        -0.49899E+08         0.00000E+00
    0.00000E+00         0.00000E+00        -0.49432E+08
 
   -0.49258E+08         0.43208E+06         0.00000E+00
    0.43208E+06        -0.49894E+08         0.00000E+00
    0.00000E+00         0.00000E+00        -0.49433E+08
 
   -0.49270E+08         0.44150E+06         0.00000E+00
    0.44150E+06        -0.49888E+08         0.00000E+00
    0.00000E+00         0.00000E+00        -0.49433E+08
 
   -0.49283E+08         0.45077E+06         0.00000E+00
    0.45077E+06        -0.49882E+08         0.00000E+00
    0.00000E+00         0.00000E+00        -0.49434E+08
 
   -0.49296E+08         0.45988E+06         0.00000E+00
    0.45988E+06        -0.49877E+08         0.00000E+00
    0.00000E+00         0.00000E+00        -0.49434E+08
 
   -0.49308E+08         0.46883E+06         0.00000E+00
    0.46883E+06        -0.49871E+08         0.00000E+00
    0.00000E+00         0.00000E+00        -0.49434E+08
 
   -0.49321E+08         0.47761E+06         0.00000E+00
    0.47761E+06        -0.49865E+08         0.00000E+00
    0.00000E+00         0.00000E+00        -0.49435E+08
 
   -0.49334E+08         0.48623E+06         0.00000E+00
    0.48623E+06        -0.49859E+08         0.00000E+00
    0.00000E+00         0.00000E+00        -0.49435E+08
 
   -0.49348E+08         0.49468E+06         0.00000E+00
    0.49468E+06        -0.49852E+08         0.00000E+00
    0.00000E+00         0.00000E+00        -0.49435E+08
 
   -0.49361E+08         0.50297E+06         0.00000E+00
    0.50297E+06        -0.49846E+08         0.00000E+00
    0.00000E+00         0.00000E+00        -0.49435E+08
 
   -0.49374E+08         0.51108E+06         0.00000E+00
    0.51108E+06        -0.49840E+08         0.00000E+00
    0.00000E+00         0.00000E+00        -0.49436E+08
 
   -0.49388E+08         0.51903E+06         0.00000E+00
    0.51903E+06        -0.49833E+08         0.00000E+00
    0.00000E+00         0.00000E+00        -0.49436E+08
 
   -0.49402E+08         0.52680E+06         0.00000E+00
    0.52680E+06        -0.49826E+08         0.00000E+00
    0.00000E+00         0.00000E+00        -0.49436E+08
 
   -0.49415E+08         0.53440E+06         0.00000E+00
    0.53440E+06        -0.49820E+08         0.00000E+00
    0.00000E+00         0.00000E+00        -0.49436E+08
 
   -0.49429E+08         0.54182E+06         0.00000E+00
    0.54182E+06        -0.49813E+08         0.00000E+00
    0.00000E+00         0.00000E+00        -0.49436E+08
 
   -0.48873E+08         0.72622E+04         0.00000E+00
    0.72622E+04        -0.50000E+08         0.00000E+00
    0.00000E+00         0.00000E+00        -0.49381E+08
 
   -0.48878E+08         0.21630E+05         0.00000E+00
    0.21630E+05        -0.50000E+08         0.00000E+00
    0.00000E+00         0.00000E+00        -0.49381E+08
 
   -0.48883E+08         0.35935E+05         0.00000E+00
    0.35935E+05        -0.49999E+08         0.00000E+00
    0.00000E+00         0.00000E+00        -0.49381E+08
 
   -0.48888E+08         0.50174E+05         0.00000E+00
    0.50174E+05        -0.49999E+08         0.00000E+00
    0.00000E+00         0.00000E+00        -0.49381E+08
 
   -0.48894E+08         0.64342E+05         0.00000E+00
    0.64342E+05        -0.49998E+08         0.00000E+00
    0.00000E+00         0.00000E+00        -0.49381E+08
 
   -0.48900E+08         0.78438E+05         0.00000E+00
    0.78438E+05        -0.49997E+08         0.00000E+00
    0.00000E+00         0.00000E+00        -0.49381E+08
 
   -0.48906E+08         0.92455E+05         0.00000E+00
    0.92455E+05        -0.49996E+08         0.00000E+00
    0.00000E+00         0.00000E+00        -0.49381E+08
 
   -0.48913E+08         0.10639E+06         0.00000E+00
    0.10639E+06        -0.49995E+08         0.00000E+00
    0.00000E+00         0.00000E+00        -0.49382E+08
 
   -0.48920E+08         0.12024E+06         0.00000E+00
    0.12024E+06        -0.49993E+08         0.00000E+00
    0.00000E+00         0.00000E+00        -0.49382E+08
 
   -0.48927E+08         0.13401E+06         0.00000E+00
    0.13401E+06        -0.49992E+08         0.00000E+00
    0.00000E+00         0.00000E+00        -0.49382E+08
 
   -0.48934E+08         0.14768E+06         0.00000E+00
    0.14768E+06        -0.49990E+08         0.00000E+00
    0.00000E+00         0.00000E+00        -0.49382E+08
 
   -0.48942E+08         0.16125E+06         0.00000E+00
    0.16125E+06        -0.49988E+08         0.00000E+00
    0.00000E+00         0.00000E+00        -0.49383E+08
 
   -0.48949E+08         0.17473E+06         0.00000E+00
    0.17473E+06        -0.49986E+08         0.00000E+00
    0.00000E+00         0.00000E+00        -0.49383E+08
 
   -0.48958E+08         0.18810E+06         0.00000E+00
    0.18810E+06        -0.49984E+08         0.00000E+00
    0.00000E+00         0.00000E+00        -0.49384E+08
 
   -0.48966E+08         0.20137E+06         0.00000E+00
    0.20137E+06        -0.49981E+08         0.00000E+00
    0.00000E+00         0.00000E+00        -0.49384E+08
 
   -0.48975E+08         0.21453E+06         0.00000E+00
    0.21453E+06        -0.49978E+08         0.00000E+00
    0.00000E+00         0.00000E+00        -0.49384E+08
 
   -0.48984E+08         0.22758E+06         0.00000E+00
    0.22758E+06        -0.49976E+08         0.00000E+00
    0.00000E+00         0.00000E+00        -0.49385E+08
 
   -0.48993E+08         0.24051E+06         0.00000E+00
    0.24051E+06        -0.49973E+08         0.00000E+00
    0.00000E+00         0.00000E+00        -0.49385E+08
 
   -0.49002E+08         0.25332E+06         0.00000E+00
    0.25332E+06        -0.49969E+08         0.00000E+00
    0.00000E+00         0.00000E+00        -0.49386E+08
 
   -0.49012E+08         0.26602E+06         0.00000E+00
    0.26602E+06        -0.49966E+08         0.00000E+00
    0.00000E+00         0.00000E+00        -0.49386E+08
 
   -0.49022E+08         0.27858E+06         0.00000E+00
    0.27858E+06        -0.49963E+08         0.00000E+00
    0.00000E+00         0.00000E+00        -0.49387E+08
 
   -0.49032E+08         0.29102E+06         0.00000E+00
    0.29102E+06        -0.49959E+08         0.00000E+00
    0.00000E+00         0.00000E+00        -0.49387E+08
 
   -0.49042E+08         0.30333E+06         0.00000E+00
    0.30333E+06        -0.49955E+08         0.00000E+00
    0.00000E+00         0.00000E+00        -0.49388E+08
 
   -0.49053E+08         0.31551E+06         0.00000E+00
    0.31551E+06        -0.49951E+08         0.00000E+00
    0.00000E+00         0.00000E+00        -0.49389E+08
 
   -0.49064E+08         0.32755E+06         0.00000E+00
    0.32755E+06        -0.49947E+08         0.00000E+00
    0.00000E+00         0.00000E+00        -0.49389E+08
 
   -0.49075E+08         0.33945E+06         0.00000E+00
    0.33945E+06        -0.49943E+08         0.00000E+00
    0.00000E+00         0.00000E+00        -0.49390E+08
 
   -0.49086E+08         0.35121E+06         0.00000E+00
    0.35121E+06        -0.49939E+08         0.00000E+00
    0.00000E+00         0.00000E+00        -0.49390E+08
 
   -0.49097E+08         0.36282E+06         0.00000E+00
    0.36282E+06        -0.49934E+08         0.00000E+00
    0.00000E+00         0.00000E+00        -0.49391E+08
 
   -0.49109E+08         0.37429E+06         0.00000E+00
    0.37429E+06        -0.49929E+08         0.00000E+00
    0.00000E+00         0.00000E+00        -0.49391E+08
 
   -0.49121E+08         0.38561E+06         0.00000E+00
    0.38561E+06        -0.49925E+08         0.00000E+00
    0.00000E+00         0.00000E+00        -0.49392E+08
 
   -0.49133E+08         0.39678E+06         0.00000E+00
    0.39678E+06        -0.49920E+08         0.00000E+00
    0.00000E+00         0.00000E+00        -0.49392E+08
 
   -0.49145E+08         0.40779E+06         0.00000E+00
    0.40779E+06        -0.49914E+08         0.00000E+00
    0.00000E+00         0.00000E+00        -0.49393E+08
 
   -0.49157E+08         0.41865E+06         0.00000E+00
    0.41865E+06        -0.49909E+08         0.00000E+00
    0.00000E+00         0.00000E+00        -0.49393E+08
 
   -0.49170E+08         0.42935E+06         0.00000E+00
    0.42935E+06        -0.49904E+08         0.00000E+00
    0.00000E+00         0.00000E+00        -0.49394E+08
 
   -0.49183E+08         0.43989E+06         0.00000E+00
    0.43989E+06        -0.49898E+08         0.00000E+00
    0.00000E+00         0.00000E+00        -0.49394E+08
 
   -0.49196E+08         0.45027E+06         0.00000E+00
    0.45027E+06        -0.49893E+08         0.00000E+00
    0.00000E+00         0.00000E+00        -0.49395E+08
 
   -0.49209E+08         0.46048E+06         0.00000E+00
    0.46048E+06        -0.49887E+08         0.00000E+00
    0.00000E+00         0.00000E+00        -0.49395E+08
 
   -0.49222E+08         0.47053E+06         0.00000E+00
    0.47053E+06        -0.49881E+08         0.00000E+00
    0.00000E+00         0.00000E+00        -0.49396E+08
 
   -0.49235E+08         0.48040E+06         0.00000E+00
    0.48040E+06        -0.49875E+08         0.00000E+00
    0.00000E+00         0.00000E+00        -0.49396E+08
 
   -0.49249E+08         0.49011E+06         0.00000E+00
    0.49011E+06        -0.49869E+08         0.00000E+00
    0.00000E+00         0.00000E+00        -0.49396E+08
 
   -0.49263E+08         0.49965E+06         0.00000E+00
    0.49965E+06        -0.49862E+08         0.00000E+00
    0.00000E+00         0.00000E+00        -0.49397E+08
 
   -0.49276E+08         0.50901E+06         0.00000E+00
    0.50901E+06        -0.49856E+08         0.00000E+00
    0.00000E+00         0.00000E+00        -0.49397E+08
 
   -0.49290E+08         0.51819E+06         0.00000E+00
    0.51819E+06        -0.49849E+08         0.00000E+00
    0.00000E+00         0.00000E+00        -0.49397E+08
 
   -0.49304E+08         0.52720E+06         0.00000E+00
    0.52720E+06        -0.49843E+08         0.00000E+00
    0.00000E+00         0.00000E+00        -0.49398E+08
 
   -0.49319E+08         0.53603E+06         0.00000E+00
    0.53603E+06        -0.49836E+08         0.00000E+00
    0.00000E+00         0.00000E+00        -0.49398E+08
 
   -0.49333E+08         0.54468E+06         0.00000E+00
    0.54468E+06        -0.49829E+08         0.00000E+00
    0.00000E+00         0.00000E+00        -0.49398E+08
 
   -0.49347E+08         0.55315E+06         0.00000E+00
    0.55315E+06        -0.49822E+08         0.00000E+00
    0.00000E+00         0.00000E+00        -0.49398E+08
 
   -0.49362E+08         0.56143E+06         0.00000E+00
    0.56143E+06        -0.49815E+08         0.00000E+00
    0.00000E+00         0.00000E+00        -0.49398E+08
 
   -0.49376E+08         0.56953E+06         0.00000E+00
    0.56953E+06        -0.49808E+08         0.00000E+00
    0.00000E+00         0.00000E+00        -0.49398E+08
 
   -0.49391E+08         0.57745E+06         0.00000E+00
    0.57745E+06        -0.49800E+08         0.00000E+00
    0.00000E+00         0.00000E+00        -0.49399E+08
 
   -0.48799E+08         0.77412E+04         0.00000E+00
    0.77412E+04        -0.50000E+08         0.00000E+00
    0.00000E+00         0.00000E+00        -0.49339E+08
 
   -0.48804E+08         0.23056E+05         0.00000E+00
    0.23056E+05        -0.50000E+08         0.00000E+00
    0.00000E+00         0.00000E+00        -0.49340E+08
 
   -0.48809E+08         0.38304E+05         0.00000E+00
    0.38304E+05        -0.49999E+08         0.00000E+00
    0.00000E+00         0.00000E+00        -0.49340E+08
 
   -0.48815E+08         0.53481E+05         0.00000E+00
    0.53481E+05        -0.49999E+08         0.00000E+00
    0.00000E+00         0.00000E+00        -0.49340E+08
 
   -0.48821E+08         0.68584E+05         0.00000E+00
    0.68584E+05        -0.49998E+08         0.00000E+00
    0.00000E+00         0.00000E+00        -0.49340E+08
 
   -0.48827E+08         0.83608E+05         0.00000E+00
    0.83608E+05        -0.49997E+08         0.00000E+00
    0.00000E+00         0.00000E+00        -0.49340E+08
 
   -0.48834E+08         0.98549E+05         0.00000E+00
    0.98549E+05        -0.49996E+08         0.00000E+00
    0.00000E+00         0.00000E+00        -0.49340E+08
 
   -0.48841E+08         0.11340E+06         0.00000E+00
    0.11340E+06        -0.49995E+08         0.00000E+00
    0.00000E+00         0.00000E+00        -0.49341E+08
 
   -0.48848E+08         0.12817E+06         0.00000E+00
    0.12817E+06        -0.49993E+08         0.00000E+00
    0.00000E+00         0.00000E+00        -0.49341E+08
 
   -0.48856E+08         0.14284E+06         0.00000E+00
    0.14284E+06        -0.49991E+08         0.00000E+00
    0.00000E+00         0.00000E+00        -0.49341E+08
 
   -0.48864E+08         0.15741E+06         0.00000E+00
    0.15741E+06        -0.49989E+08         0.00000E+00
    0.00000E+00         0.00000E+00        -0.49342E+08
 
   -0.48872E+08         0.17188E+06         0.00000E+00
    0.17188E+06        -0.49987E+08         0.00000E+00
    0.00000E+00         0.00000E+00        -0.49342E+08
 
   -0.48880E+08         0.18624E+06         0.00000E+00
    0.18624E+06        -0.49985E+08         0.00000E+00
    0.00000E+00         0.00000E+00        -0.49342E+08
 
   -0.48889E+08         0.20049E+06         0.00000E+00
    0.20049E+06        -0.49982E+08         0.00000E+00
    0.00000E+00         0.00000E+00        -0.49343E+08
 
   -0.48898E+08         0.21463E+06         0.00000E+00
    0.21463E+06        -0.49980E+08         0.00000E+00
    0.00000E+00         0.00000E+00        -0.49343E+08
 
   -0.48907E+08         0.22866E+06         0.00000E+00
    0.22866E+06        -0.49977E+08         0.00000E+00
    0.00000E+00         0.00000E+00        -0.49344E+08
 
   -0.48917E+08         0.24256E+06         0.00000E+00
    0.24256E+06        -0.49974E+08         0.00000E+00
    0.00000E+00         0.00000E+00        -0.49344E+08
 
   -0.48926E+08         0.25635E+06         0.00000E+00
    0.25635E+06        -0.49971E+08         0.00000E+00
    0.00000E+00         0.00000E+00        -0.49345E+08
 
   -0.48936E+08         0.27000E+06         0.00000E+00
    0.27000E+06        -0.49967E+08         0.00000E+00
    0.00000E+00         0.00000E+00        -0.49345E+08
 
   -0.48947E+08         0.28353E+06         0.00000E+00
    0.28353E+06        -0.49964E+08         0.00000E+00
    0.00000E+00         0.00000E+00        -0.49346E+08
 
   -0.48957E+08         0.29692E+06         0.00000E+00
    0.29692E+06        -0.49960E+08         0.00000E+00
    0.00000E+00         0.00000E+00        -0.49346E+08
 
   -0.48968E+08         0.31017E+06         0.00000E+00
    0.31017E+06        -0.49956E+08         0.00000E+00
    0.00000E+00         0.00000E+00        -0.49347E+08
 
   -0.48979E+08         0.32329E+06         0.00000E+00
    0.32329E+06        -0.49952E+08         0.00000E+00
    0.00000E+00         0.00000E+00        -0.49347E+08
 
   -0.48990E+08         0.33626E+06         0.00000E+00
    0.33626E+06        -0.49948E+08         0.00000E+00
    0.00000E+00         0.00000E+00        -0.49348E+08
 
   -0.49002E+08         0.34909E+06         0.00000E+00
    0.34909E+06        -0.49944E+08         0.00000E+00
    0.00000E+00         0.00000E+00        -0.49349E+08
 
   -0.49014E+08         0.36178E+06         0.00000E+00
    0.36178E+06        -0.49939E+08         0.00000E+00
    0.00000E+00         0.00000E+00        -0.49349E+08
 
   -0.49026E+08         0.37431E+06         0.00000E+00
    0.37431E+06        -0.49935E+08         0.00000E+00
    0.00000E+00         0.00000E+00        -0.49350E+08
 
   -0.49038E+08         0.38668E+06         0.00000E+00
    0.38668E+06        -0.49930E+08         0.00000E+00
    0.00000E+00         0.00000E+00        -0.49350E+08
 
   -0.49050E+08         0.39890E+06         0.00000E+00
    0.39890E+06        -0.49925E+08         0.00000E+00
    0.00000E+00         0.00000E+00        -0.49351E+08
 
   -0.49063E+08         0.41097E+06         0.00000E+00
    0.41097E+06        -0.49920E+08         0.00000E+00
    0.00000E+00         0.00000E+00        -0.49351E+08
 
   -0.49076E+08         0.42287E+06         0.00000E+00
    0.42287E+06        -0.49914E+08         0.00000E+00
    0.00000E+00         0.00000E+00        -0.49352E+08
 
   -0.49089E+08         0.43460E+06         0.00000E+00
    0.43460E+06        -0.49909E+08         0.00000E+00
    0.00000E+00         0.00000E+00        -0.49353E+08
 
   -0.49102E+08         0.44617E+06         0.00000E+00
    0.44617E+06        -0.49903E+08         0.00000E+00
    0.00000E+00         0.00000E+00        -0.49353E+08
 
   -0.49115E+08         0.45757E+06         0.00000E+00
    0.45757E+06        -0.49897E+08         0.00000E+00
    0.00000E+00         0.00000E+00        -0.49354E+08
 
   -0.49129E+08         0.46880E+06         0.00000E+00
    0.46880E+06        -0.49891E+08         0.00000E+00
    0.00000E+00         0.00000E+00        -0.49354E+08
 
   -0.49143E+08         0.47986E+06         0.00000E+00
    0.47986E+06        -0.49885E+08         0.00000E+00
    0.00000E+00         0.00000E+00        -0.49355E+08
 
   -0.49156E+08         0.49074E+06         0.00000E+00
    0.49074E+06        -0.49879E+08         0.00000E+00
    0.00000E+00         0.00000E+00        -0.49355E+08
 
   -0.49171E+08         0.50145E+06         0.00000E+00
    0.50145E+06        -0.49873E+08         0.00000E+00
    0.00000E+00         0.00000E+00        -0.49356E+08
 
   -0.49185E+08         0.51197E+06         0.00000E+00
    0.51197E+06        -0.49867E+08         0.00000E+00
    0.00000E+00         0.00000E+00        -0.49356E+08
 
   -0.49199E+08         0.52232E+06         0.00000E+00
    0.52232E+06        -0.49860E+08         0.00000E+00
    0.00000E+00         0.00000E+00        -0.49356E+08
 
   -0.49214E+08         0.53248E+06         0.00000E+00
    0.53248E+06        -0.49853E+08         0.00000E+00
    0.00000E+00         0.00000E+00        -0.49357E+08
 
   -0.49229E+08         0.54245E+06         0.00000E+00
    0.54245E+06        -0.49846E+08         0.00000E+00
    0.00000E+00         0.00000E+00        -0.49357E+08
 
   -0.49243E+08         0.55224E+06         0.00000E+00
    0.55224E+06        -0.49839E+08         0.00000E+00
    0.00000E+00         0.00000E+00        -0.49357E+08
 
   -0.49258E+08         0.56184E+06         0.00000E+00
    0.56184E+06        -0.49832E+08         0.00000E+00
    0.00000E+00         0.00000E+00        -0.49358E+08
 
   -0.49273E+08         0.57125E+06         0.00000E+00
    0.57125E+06        -0.49825E+08         0.00000E+00
    0.00000E+00         0.00000E+00        -0.49358E+08
 
   -0.49289E+08         0.58047E+06         0.00000E+00
    0.58047E+06        -0.49818E+08         0.00000E+00
    0.00000E+00         0.00000E+00        -0.49358E+08
 
   -0.49304E+08         0.58950E+06         0.00000E+00
    0.58950E+06        -0.49810E+08         0.00000E+00
    0.00000E+00         0.00000E+00        -0.49358E+08
 
   -0.49320E+08         0.59833E+06         0.00000E+00
    0.59833E+06        -0.49803E+08         0.00000E+00
    0.00000E+00         0.00000E+00        -0.49358E+08
 
   -0.49335E+08         0.60696E+06         0.00000E+00
    0.60696E+06        -0.49795E+08         0.00000E+00
    0.00000E+00         0.00000E+00        -0.49359E+08
 
   -0.49351E+08         0.61540E+06         0.00000E+00
    0.61540E+06        -0.49787E+08         0.00000E+00
    0.00000E+00         0.00000E+00        -0.49359E+08
 
   -0.48720E+08         0.82523E+04         0.00000E+00
    0.82523E+04        -0.50000E+08         0.00000E+00
    0.00000E+00         0.00000E+00        -0.49296E+08
 
   -0.48725E+08         0.24578E+05         0.00000E+00
    0.24578E+05        -0.50000E+08         0.00000E+00
    0.00000E+00         0.00000E+00        -0.49296E+08
 
   -0.48731E+08         0.40832E+05         0.00000E+00
    0.40832E+05        -0.49999E+08         0.00000E+00
    0.00000E+00         0.00000E+00        -0.49296E+08
 
   -0.48737E+08         0.57011E+05         0.00000E+00
    0.57011E+05        -0.49999E+08         0.00000E+00
    0.00000E+00         0.00000E+00        -0.49296E+08
 
   -0.48743E+08         0.73110E+05         0.00000E+00
    0.73110E+05        -0.49998E+08         0.00000E+00
    0.00000E+00         0.00000E+00        -0.49296E+08
 
   -0.48750E+08         0.89124E+05         0.00000E+00
    0.89124E+05        -0.49997E+08         0.00000E+00
    0.00000E+00         0.00000E+00        -0.49296E+08
 
   -0.48757E+08         0.10505E+06         0.00000E+00
    0.10505E+06        -0.49996E+08         0.00000E+00
    0.00000E+00         0.00000E+00        -0.49297E+08
 
   -0.48765E+08         0.12088E+06         0.00000E+00
    0.12088E+06        -0.49994E+08         0.00000E+00
    0.00000E+00         0.00000E+00        -0.49297E+08
 
   -0.48772E+08         0.13662E+06         0.00000E+00
    0.13662E+06        -0.49992E+08         0.00000E+00
    0.00000E+00         0.00000E+00        -0.49297E+08
 
   -0.48780E+08         0.15226E+06         0.00000E+00
    0.15226E+06        -0.49991E+08         0.00000E+00
    0.00000E+00         0.00000E+00        -0.49298E+08
 
   -0.48789E+08         0.16779E+06         0.00000E+00
    0.16779E+06        -0.49989E+08         0.00000E+00
    0.00000E+00         0.00000E+00        -0.49298E+08
 
   -0.48797E+08         0.18321E+06         0.00000E+00
    0.18321E+06        -0.49986E+08         0.00000E+00
    0.00000E+00         0.00000E+00        -0.49298E+08
 
   -0.48806E+08         0.19851E+06         0.00000E+00
    0.19851E+06        -0.49984E+08         0.00000E+00
    0.00000E+00         0.00000E+00        -0.49299E+08
 
   -0.48816E+08         0.21371E+06         0.00000E+00
    0.21371E+06        -0.49981E+08         0.00000E+00
    0.00000E+00         0.00000E+00        -0.49299E+08
 
   -0.48825E+08         0.22878E+06         0.00000E+00
    0.22878E+06        -0.49978E+08         0.00000E+00
    0.00000E+00         0.00000E+00        -0.49300E+08
 
   -0.48835E+08         0.24372E+06         0.00000E+00
    0.24372E+06        -0.49975E+08         0.00000E+00
    0.00000E+00         0.00000E+00        -0.49300E+08
 
   -0.48845E+08         0.25854E+06         0.00000E+00
    0.25854E+06        -0.49972E+08         0.00000E+00
    0.00000E+00         0.00000E+00        -0.49301E+08
 
   -0.48856E+08         0.27323E+06         0.00000E+00
    0.27323E+06        -0.49969E+08         0.00000E+00
    0.00000E+00         0.00000E+00        -0.49301E+08
 
   -0.48866E+08         0.28778E+06         0.00000E+00
    0.28778E+06        -0.49965E+08         0.00000E+00
    0.00000E+00         0.00000E+00        -0.49302E+08
 
   -0.48877E+08         0.30219E+06         0.00000E+00
    0.30219E+06        -0.49962E+08         0.00000E+00
    0.00000E+00         0.00000E+00        -0.49302E+08
 
   -0.48888E+08         0.31646E+06         0.00000E+00
    0.31646E+06        -0.49958E+08         0.00000E+00
    0.00000E+00         0.00000E+00        -0.49303E+08
 
   -0.48900E+08         0.33059E+06         0.00000E+00
    0.33059E+06        -0.49953E+08         0.00000E+00
    0.00000E+00         0.00000E+00        -0.49304E+08
 
   -0.48912E+08         0.34456E+06         0.00000E+00
    0.34456E+06        -0.49949E+08         0.00000E+00
    0.00000E+00         0.00000E+00        -0.49304E+08
 
   -0.48924E+08         0.35839E+06         0.00000E+00
    0.35839E+06        -0.49945E+08         0.00000E+00
    0.00000E+00         0.00000E+00        -0.49305E+08
 
   -0.48936E+08         0.37206E+06         0.00000E+00
    0.37206E+06        -0.49940E+08         0.00000E+00
    0.00000E+00         0.00000E+00        -0.49305E+08
 
   -0.48949E+08         0.38557E+06         0.00000E+00
    0.38557E+06        -0.49935E+08         0.00000E+00
    0.00000E+00         0.00000E+00        -0.49306E+08
 
   -0.48961E+08         0.39892E+06         0.00000E+00
    0.39892E+06        -0.49930E+08         0.00000E+00
    0.00000E+00         0.00000E+00        -0.49307E+08
 
   -0.48974E+08         0.41211E+06         0.00000E+00
    0.41211E+06        -0.49925E+08         0.00000E+00
    0.00000E+00         0.00000E+00        -0.49307E+08
 
   -0.48988E+08         0.42513E+06         0.00000E+00
    0.42513E+06        -0.49920E+08         0.00000E+00
    0.00000E+00         0.00000E+00        -0.49308E+08
 
   -0.49001E+08         0.43798E+06         0.00000E+00
    0.43798E+06        -0.49914E+08         0.00000E+00
    0.00000E+00         0.00000E+00        -0.49308E+08
 
   -0.49015E+08         0.45066E+06         0.00000E+00
    0.45066E+06        -0.49909E+08         0.00000E+00
    0.00000E+00         0.00000E+00        -0.49309E+08
 
   -0.49028E+08         0.46317E+06         0.00000E+00
    0.46317E+06        -0.49903E+08         0.00000E+00
    0.00000E+00         0.00000E+00        -0.49310E+08
 
   -0.49043E+08         0.47550E+06         0.00000E+00
    0.47550E+06        -0.49897E+08         0.00000E+00
    0.00000E+00         0.00000E+00        -0.49310E+08
 
   -0.49057E+08         0.48764E+06         0.00000E+00
    0.48764E+06        -0.49891E+08         0.00000E+00
    0.00000E+00         0.00000E+00        -0.49311E+08
 
   -0.49071E+08         0.49961E+06         0.00000E+00
    0.49961E+06        -0.49884E+08         0.00000E+00
    0.00000E+00         0.00000E+00        -0.49311E+08
 
   -0.49086E+08         0.51139E+06         0.00000E+00
    0.51139E+06        -0.49878E+08         0.00000E+00
    0.00000E+00         0.00000E+00        -0.49312E+08
 
   -0.49101E+08         0.52299E+06         0.00000E+00
    0.52299E+06        -0.49871E+08         0.00000E+00
    0.00000E+00         0.00000E+00        -0.49312E+08
 
   -0.49116E+08         0.53439E+06         0.00000E+00
    0.53439E+06        -0.49865E+08         0.00000E+00
    0.00000E+00         0.00000E+00        -0.49313E+08
 
   -0.49131E+08         0.54561E+06         0.00000E+00
    0.54561E+06        -0.49858E+08         0.00000E+00
    0.00000E+00         0.00000E+00        -0.49313E+08
 
   -0.49146E+08         0.55663E+06         0.00000E+00
    0.55663E+06        -0.49851E+08         0.00000E+00
    0.00000E+00         0.00000E+00        -0.49314E+08
 
   -0.49162E+08         0.56745E+06         0.00000E+00
    0.56745E+06        -0.49844E+08         0.00000E+00
    0.00000E+00         0.00000E+00        -0.49314E+08
 
   -0.49178E+08         0.57808E+06         0.00000E+00
    0.57808E+06        -0.49836E+08         0.00000E+00
    0.00000E+00         0.00000E+00        -0.49314E+08
 
   -0.49193E+08         0.58852E+06         0.00000E+00
    0.58852E+06        -0.49829E+08         0.00000E+00
    0.00000E+00         0.00000E+00        -0.49315E+08
 
   -0.49209E+08         0.59875E+06         0.00000E+00
    0.59875E+06        -0.49821E+08         0.00000E+00
    0.00000E+00         0.00000E+00        -0.49315E+08
 
   -0.49225E+08         0.60877E+06         0.00000E+00
    0.60877E+06        -0.49814E+08         0.00000E+00
    0.00000E+00         0.00000E+00        -0.49315E+08
 
   -0.49242E+08         0.61860E+06         0.00000E+00
    0.61860E+06        -0.49806E+08         0.00000E+00
    0.00000E+00         0.00000E+00        -0.49316E+08
 
   -0.49258E+08         0.62822E+06         0.00000E+00
    0.62822E+06        -0.49798E+08         0.00000E+00
    0.00000E+00         0.00000E+00        -0.49316E+08
 
   -0.49274E+08         0.63763E+06         0.00000E+00
    0.63763E+06        -0.49790E+08         0.00000E+00
    0.00000E+00         0.00000E+00        -0.49316E+08
 
   -0.49291E+08         0.64683E+06         0.00000E+00
    0.64683E+06        -0.49782E+08         0.00000E+00
    0.00000E+00         0.00000E+00        -0.49316E+08
 
   -0.49308E+08         0.65583E+06         0.00000E+00
    0.65583E+06        -0.49773E+08         0.00000E+00
    0.00000E+00         0.00000E+00        -0.49316E+08
 
   -0.48635E+08         0.87979E+04         0.00000E+00
    0.87979E+04        -0.50000E+08         0.00000E+00
    0.00000E+00         0.00000E+00        -0.49249E+08
 
   -0.48641E+08         0.26202E+05         0.00000E+00
    0.26202E+05        -0.50000E+08         0.00000E+00
    0.00000E+00         0.00000E+00        -0.49249E+08
 
   -0.48647E+08         0.43530E+05         0.00000E+00
    0.43530E+05        -0.49999E+08         0.00000E+00
    0.00000E+00         0.00000E+00        -0.49249E+08
 
   -0.48654E+08         0.60777E+05         0.00000E+00
    0.60777E+05        -0.49999E+08         0.00000E+00
    0.00000E+00         0.00000E+00        -0.49249E+08
 
   -0.48660E+08         0.77938E+05         0.00000E+00
    0.77938E+05        -0.49998E+08         0.00000E+00
    0.00000E+00         0.00000E+00        -0.49250E+08
 
   -0.48668E+08         0.95010E+05         0.00000E+00
    0.95010E+05        -0.49997E+08         0.00000E+00
    0.00000E+00         0.00000E+00        -0.49250E+08
 
   -0.48675E+08         0.11199E+06         0.00000E+00
    0.11199E+06        -0.49995E+08         0.00000E+00
    0.00000E+00         0.00000E+00        -0.49250E+08
 
   -0.48683E+08         0.12886E+06         0.00000E+00
    0.12886E+06        -0.49994E+08         0.00000E+00
    0.00000E+00         0.00000E+00        -0.49250E+08
 
   -0.48691E+08         0.14564E+06         0.00000E+00
    0.14564E+06        -0.49992E+08         0.00000E+00
    0.00000E+00         0.00000E+00        -0.49251E+08
 
   -0.48700E+08         0.16230E+06         0.00000E+00
    0.16230E+06        -0.49990E+08         0.00000E+00
    0.00000E+00         0.00000E+00        -0.49251E+08
 
   -0.48709E+08         0.17886E+06         0.00000E+00
    0.17886E+06        -0.49988E+08         0.00000E+00
    0.00000E+00         0.00000E+00        -0.49251E+08
 
   -0.48718E+08         0.19529E+06         0.00000E+00
    0.19529E+06        -0.49985E+08         0.00000E+00
    0.00000E+00         0.00000E+00        -0.49252E+08
 
   -0.48728E+08         0.21161E+06         0.00000E+00
    0.21161E+06        -0.49983E+08         0.00000E+00
    0.00000E+00         0.00000E+00        -0.49252E+08
 
   -0.48737E+08         0.22780E+06         0.00000E+00
    0.22780E+06        -0.49980E+08         0.00000E+00
    0.00000E+00         0.00000E+00        -0.49253E+08
 
   -0.48748E+08         0.24386E+06         0.00000E+00
    0.24386E+06        -0.49977E+08         0.00000E+00
    0.00000E+00         0.00000E+00        -0.49253E+08
 
   -0.48758E+08         0.25979E+06         0.00000E+00
    0.25979E+06        -0.49974E+08         0.00000E+00
    0.00000E+00         0.00000E+00        -0.49254E+08
 
   -0.48769E+08         0.27558E+06         0.00000E+00
    0.27558E+06        -0.49970E+08         0.00000E+00
    0.00000E+00         0.00000E+00        -0.49254E+08
 
   -0.48780E+08         0.29123E+06         0.00000E+00
    0.29123E+06        -0.49967E+08         0.00000E+00
    0.00000E+00         0.00000E+00        -0.49255E+08
 
   -0.48791E+08         0.30673E+06         0.00000E+00
    0.30673E+06        -0.49963E+08         0.00000E+00
    0.00000E+00         0.00000E+00        -0.49256E+08
 
   -0.48803E+08         0.32209E+06         0.00000E+00
    0.32209E+06        -0.49959E+08         0.00000E+00
    0.00000E+00         0.00000E+00        -0.49256E+08
 
   -0.48815E+08         0.33730E+06         0.00000E+00
    0.33730E+06        -0.49955E+08         0.00000E+00
    0.00000E+00         0.00000E+00        -0.49257E+08
 
   -0.48827E+08         0.35235E+06         0.00000E+00
    0.35235E+06        -0.49950E+08         0.00000E+00
    0.00000E+00         0.00000E+00        -0.49257E+08
 
   -0.48840E+08         0.36724E+06         0.00000E+00
    0.36724E+06        -0.49946E+08         0.00000E+00
    0.00000E+00         0.00000E+00        -0.49258E+08
 
   -0.48853E+08         0.38197E+06         0.00000E+00
    0.38197E+06        -0.49941E+08         0.00000E+00
    0.00000E+00         0.00000E+00        -0.49259E+08
 
   -0.48866E+08         0.39654E+06         0.00000E+00
    0.39654E+06        -0.49936E+08         0.00000E+00
    0.00000E+00         0.00000E+00        -0.49259E+08
 
   -0.48879E+08         0.41093E+06         0.00000E+00
    0.41093E+06        -0.49931E+08         0.00000E+00
    0.00000E+00         0.00000E+00        -0.49260E+08
 
   -0.48893E+08         0.42516E+06         0.00000E+00
    0.42516E+06        -0.49926E+08         0.00000E+00
    0.00000E+00         0.00000E+00        -0.49261E+08
 
   -0.48907E+08         0.43921E+06         0.00000E+00
    0.43921E+06        -0.49920E+08         0.00000E+00
    0.00000E+00         0.00000E+00        -0.49261E+08
 
   -0.48921E+08         0.45308E+06         0.00000E+00
    0.45308E+06        -0.49914E+08         0.00000E+00
    0.00000E+00         0.00000E+00        -0.49262E+08
 
   -0.48935E+08         0.46677E+06         0.00000E+00
    0.46677E+06        -0.49909E+08         0.00000E+00
    0.00000E+00         0.00000E+00        -0.49263E+08
 
   -0.48950E+08         0.48028E+06         0.00000E+00
    0.48028E+06        -0.49902E+08         0.00000E+00
    0.00000E+00         0.00000E+00        -0.49263E+08
 
   -0.48964E+08         0.49360E+06         0.00000E+00
    0.49360E+06        -0.49896E+08         0.00000E+00
    0.00000E+00         0.00000E+00        -0.49264E+08
 
   -0.48979E+08         0.50674E+06         0.00000E+00
    0.50674E+06        -0.49890E+08         0.00000E+00
    0.00000E+00         0.00000E+00        -0.49264E+08
 
   -0.48995E+08         0.51968E+06         0.00000E+00
    0.51968E+06        -0.49883E+08         0.00000E+00
    0.00000E+00         0.00000E+00        -0.49265E+08
 
   -0.49010E+08         0.53243E+06         0.00000E+00
    0.53243E+06        -0.49877E+08         0.00000E+00
    0.00000E+00         0.00000E+00        -0.49266E+08
 
   -0.49026E+08         0.54498E+06         0.00000E+00
    0.54498E+06        -0.49870E+08         0.00000E+00
    0.00000E+00         0.00000E+00        -0.49266E+08
 
   -0.49041E+08         0.55733E+06         0.00000E+00
    0.55733E+06        -0.49863E+08         0.00000E+00
    0.00000E+00         0.00000E+00        -0.49267E+08
 
   -0.49057E+08         0.56948E+06         0.00000E+00
    0.56948E+06        -0.49856E+08         0.00000E+00
    0.00000E+00         0.00000E+00        -0.49267E+08
 
   -0.49074E+08         0.58143E+06         0.00000E+00
    0.58143E+06        -0.49848E+08         0.00000E+00
    0.00000E+00         0.00000E+00        -0.49268E+08
 
   -0.49090E+08         0.59318E+06         0.00000E+00
    0.59318E+06        -0.49841E+08         0.00000E+00
    0.00000E+00         0.00000E+00        -0.49268E+08
 
   -0.49106E+08         0.60471E+06         0.00000E+00
    0.60471E+06        -0.49833E+08         0.00000E+00
    0.00000E+00         0.00000E+00        -0.49269E+08
 
   -0.49123E+08         0.61604E+06         0.00000E+00
    0.61604E+06        -0.49826E+08         0.00000E+00
    0.00000E+00         0.00000E+00        -0.49269E+08
 
   -0.49140E+08         0.62715E+06         0.00000E+00
    0.62715E+06        -0.49818E+08         0.00000E+00
    0.00000E+00         0.00000E+00        -0.49269E+08
 
   -0.49157E+08         0.63805E+06         0.00000E+00
    0.63805E+06        -0.49810E+08         0.00000E+00
    0.00000E+00         0.00000E+00        -0.49270E+08
 
   -0.49174E+08         0.64874E+06         0.00000E+00
    0.64874E+06        -0.49801E+08         0.00000E+00
    0.00000E+00         0.00000E+00        -0.49270E+08
 
   -0.49191E+08         0.65921E+06         0.00000E+00
    0.65921E+06        -0.49793E+08         0.00000E+00
    0.00000E+00         0.00000E+00        -0.49270E+08
 
   -0.49209E+08         0.66946E+06         0.00000E+00
    0.66946E+06        -0.49785E+08         0.00000E+00
    0.00000E+00         0.00000E+00        -0.49270E+08
 
   -0.49226E+08         0.67949E+06         0.00000E+00
    0.67949E+06        -0.49776E+08         0.00000E+00
    0.00000E+00         0.00000E+00        -0.49271E+08
 
   -0.49244E+08         0.68930E+06         0.00000E+00
    0.68930E+06        -0.49767E+08         0.00000E+00
    0.00000E+00         0.00000E+00        -0.49271E+08
 
   -0.49262E+08         0.69888E+06         0.00000E+00
    0.69888E+06        -0.49759E+08         0.00000E+00
    0.00000E+00         0.00000E+00        -0.49271E+08
 
   -0.48545E+08         0.93804E+04         0.00000E+00
    0.93804E+04        -0.50000E+08         0.00000E+00
    0.00000E+00         0.00000E+00        -0.49199E+08
 
   -0.48551E+08         0.27936E+05         0.00000E+00
    0.27936E+05        -0.50000E+08         0.00000E+00
    0.00000E+00         0.00000E+00        -0.49199E+08
 
   -0.48558E+08         0.46410E+05         0.00000E+00
    0.46410E+05        -0.49999E+08         0.00000E+00
    0.00000E+00         0.00000E+00        -0.49200E+08
 
   -0.48565E+08         0.64797E+05         0.00000E+00
    0.64797E+05        -0.49999E+08         0.00000E+00
    0.00000E+00         0.00000E+00        -0.49200E+08
 
   -0.48572E+08         0.83092E+05         0.00000E+00
    0.83092E+05        -0.49998E+08         0.00000E+00
    0.00000E+00         0.00000E+00        -0.49200E+08
 
   -0.48580E+08         0.10129E+06         0.00000E+00
    0.10129E+06        -0.49996E+08         0.00000E+00
    0.00000E+00         0.00000E+00        -0.49200E+08
 
   -0.48588E+08         0.11939E+06         0.00000E+00
    0.11939E+06        -0.49995E+08         0.00000E+00
    0.00000E+00         0.00000E+00        -0.49200E+08
 
   -0.48596E+08         0.13738E+06         0.00000E+00
    0.13738E+06        -0.49993E+08         0.00000E+00
    0.00000E+00         0.00000E+00        -0.49201E+08
 
   -0.48605E+08         0.15526E+06         0.00000E+00
    0.15526E+06        -0.49991E+08         0.00000E+00
    0.00000E+00         0.00000E+00        -0.49201E+08
 
   -0.48614E+08         0.17302E+06         0.00000E+00
    0.17302E+06        -0.49989E+08         0.00000E+00
    0.00000E+00         0.00000E+00        -0.49201E+08
 
   -0.48624E+08         0.19067E+06         0.00000E+00
    0.19067E+06        -0.49987E+08         0.00000E+00
    0.00000E+00         0.00000E+00        -0.49202E+08
 
   -0.48633E+08         0.20818E+06         0.00000E+00
    0.20818E+06        -0.49984E+08         0.00000E+00
    0.00000E+00         0.00000E+00        -0.49202E+08
 
   -0.48644E+08         0.22557E+06         0.00000E+00
    0.22557E+06        -0.49982E+08         0.00000E+00
    0.00000E+00         0.00000E+00        -0.49203E+08
 
   -0.48654E+08         0.24283E+06         0.00000E+00
    0.24283E+06        -0.49979E+08         0.00000E+00
    0.00000E+00         0.00000E+00        -0.49203E+08
 
   -0.48665E+08         0.25994E+06         0.00000E+00
    0.25994E+06        -0.49975E+08         0.00000E+00
    0.00000E+00         0.00000E+00        -0.49204E+08
 
   -0.48676E+08         0.27692E+06         0.00000E+00
    0.27692E+06        -0.49972E+08         0.00000E+00
    0.00000E+00         0.00000E+00        -0.49204E+08
 
   -0.48688E+08         0.29375E+06         0.00000E+00
    0.29375E+06        -0.49968E+08         0.00000E+00
    0.00000E+00         0.00000E+00        -0.49205E+08
 
   -0.48700E+08         0.31042E+06         0.00000E+00
    0.31042E+06        -0.49965E+08         0.00000E+00
    0.00000E+00         0.00000E+00        -0.49206E+08
 
   -0.48712E+08         0.32695E+06         0.00000E+00
    0.32695E+06        -0.49960E+08         0.00000E+00
    0.00000E+00         0.00000E+00        -0.49206E+08
 
   -0.48724E+08         0.34331E+06         0.00000E+00
    0.34331E+06        -0.49956E+08         0.00000E+00
    0.00000E+00         0.00000E+00        -0.49207E+08
 
   -0.48737E+08         0.35951E+06         0.00000E+00
    0.35951E+06        -0.49952E+08         0.00000E+00
    0.00000E+00         0.00000E+00        -0.49208E+08
 
   -0.48750E+08         0.37555E+06         0.00000E+00
    0.37555E+06        -0.49947E+08         0.00000E+00
    0.00000E+00         0.00000E+00        -0.49208E+08
 
   -0.48763E+08         0.39142E+06         0.00000E+00
    0.39142E+06        -0.49942E+08         0.00000E+00
    0.00000E+00         0.00000E+00        -0.49209E+08
 
   -0.48777E+08         0.40711E+06         0.00000E+00
    0.40711E+06        -0.49937E+08         0.00000E+00
    0.00000E+00         0.00000E+00        -0.49210E+08
 
   -0.48791E+08         0.42263E+06         0.00000E+00
    0.42263E+06        -0.49932E+08         0.00000E+00
    0.00000E+00         0.00000E+00        -0.49210E+08
 
   -0.48805E+08         0.43796E+06         0.00000E+00
    0.43796E+06        -0.49926E+08         0.00000E+00
    0.00000E+00         0.00000E+00        -0.49211E+08
 
   -0.48820E+08         0.45312E+06         0.00000E+00
    0.45312E+06        -0.49921E+08         0.00000E+00
    0.00000E+00         0.00000E+00        -0.49212E+08
 
   -0.48835E+08         0.46809E+06         0.00000E+00
    0.46809E+06        -0.49915E+08         0.00000E+00
    0.00000E+00         0.00000E+00        -0.49212E+08
 
   -0.48850E+08         0.48286E+06         0.00000E+00
    0.48286E+06        -0.49909E+08         0.00000E+00
    0.00000E+00         0.00000E+00        -0.49213E+08
 
   -0.48865E+08         0.49745E+06         0.00000E+00
    0.49745E+06        -0.49902E+08         0.00000E+00
    0.00000E+00         0.00000E+00        -0.49214E+08
 
   -0.48880E+08         0.51184E+06         0.00000E+00
    0.51184E+06        -0.49896E+08         0.00000E+00
    0.00000E+00         0.00000E+00        -0.49214E+08
 
   -0.48896E+08         0.52603E+06         0.00000E+00
    0.52603E+06        -0.49889E+08         0.00000E+00
    0.00000E+00         0.00000E+00        -0.49215E+08
 
   -0.48912E+08         0.54002E+06         0.00000E+00
    0.54002E+06        -0.49883E+08         0.00000E+00
    0.00000E+00         0.00000E+00        -0.49216E+08
 
   -0.48928E+08         0.55381E+06         0.00000E+00
    0.55381E+06        -0.49876E+08         0.00000E+00
    0.00000E+00         0.00000E+00        -0.49216E+08
 
   -0.48945E+08         0.56739E+06         0.00000E+00
    0.56739E+06        -0.49869E+08         0.00000E+00
    0.00000E+00         0.00000E+00        -0.49217E+08
 
   -0.48961E+08         0.58076E+06         0.00000E+00
    0.58076E+06        -0.49861E+08         0.00000E+00
    0.00000E+00         0.00000E+00        -0.49218E+08
 
   -0.48978E+08         0.59392E+06         0.00000E+00
    0.59392E+06        -0.49854E+08         0.00000E+00
    0.00000E+00         0.00000E+00        -0.49218E+08
 
   -0.48995E+08         0.60686E+06         0.00000E+00
    0.60686E+06        -0.49846E+08         0.00000E+00
    0.00000E+00         0.00000E+00        -0.49219E+08
 
   -0.49012E+08         0.61959E+06         0.00000E+00
    0.61959E+06        -0.49838E+08         0.00000E+00
    0.00000E+00         0.00000E+00        -0.49219E+08
 
   -0.49030E+08         0.63210E+06         0.00000E+00
    0.63210E+06        -0.49830E+08         0.00000E+00
    0.00000E+00         0.00000E+00        -0.49220E+08
 
   -0.49047E+08         0.64439E+06         0.00000E+00
    0.64439E+06        -0.49822E+08         0.00000E+00
    0.00000E+00         0.00000E+00        -0.49220E+08
 
   -0.49065E+08         0.65646E+06         0.00000E+00
    0.65646E+06        -0.49814E+08         0.00000E+00
    0.00000E+00         0.00000E+00        -0.49221E+08
 
   -0.49083E+08         0.66830E+06         0.00000E+00
    0.66830E+06        -0.49806E+08         0.00000E+00
    0.00000E+00         0.00000E+00        -0.49221E+08
 
   -0.49101E+08         0.67991E+06         0.00000E+00
    0.67991E+06        -0.49797E+08         0.00000E+00
    0.00000E+00         0.00000E+00        -0.49221E+08
 
   -0.49120E+08         0.69130E+06         0.00000E+00
    0.69130E+06        -0.49788E+08         0.00000E+00
    0.00000E+00         0.00000E+00        -0.49222E+08
 
   -0.49138E+08         0.70245E+06         0.00000E+00
    0.70245E+06        -0.49780E+08         0.00000E+00
    0.00000E+00         0.00000E+00        -0.49222E+08
 
   -0.49156E+08         0.71338E+06         0.00000E+00
    0.71338E+06        -0.49771E+08         0.00000E+00
    0.00000E+00         0.00000E+00        -0.49222E+08
 
   -0.49175E+08         0.72407E+06         0.00000E+00
    0.72407E+06        -0.49761E+08         0.00000E+00
    0.00000E+00         0.00000E+00        -0.49222E+08
 
   -0.49194E+08         0.73452E+06         0.00000E+00
    0.73452E+06        -0.49752E+08         0.00000E+00
    0.00000E+00         0.00000E+00        -0.49222E+08
 
   -0.49213E+08         0.74474E+06         0.00000E+00
    0.74474E+06        -0.49743E+08         0.00000E+00
    0.00000E+00         0.00000E+00        -0.49222E+08
 
   -0.48449E+08         0.10003E+05         0.00000E+00
    0.10003E+05        -0.50000E+08         0.00000E+00
    0.00000E+00         0.00000E+00        -0.49146E+08
 
   -0.48456E+08         0.29788E+05         0.00000E+00
    0.29788E+05        -0.50000E+08         0.00000E+00
    0.00000E+00         0.00000E+00        -0.49146E+08
 
   -0.48463E+08         0.49485E+05         0.00000E+00
    0.49485E+05        -0.49999E+08         0.00000E+00
    0.00000E+00         0.00000E+00        -0.49147E+08
 
   -0.48470E+08         0.69089E+05         0.00000E+00
    0.69089E+05        -0.49998E+08         0.00000E+00
    0.00000E+00         0.00000E+00        -0.49147E+08
 
   -0.48478E+08         0.88594E+05         0.00000E+00
    0.88594E+05        -0.49997E+08         0.00000E+00
    0.00000E+00         0.00000E+00        -0.49147E+08
 
   -0.48486E+08         0.10800E+06         0.00000E+00
    0.10800E+06        -0.49996E+08         0.00000E+00
    0.00000E+00         0.00000E+00        -0.49147E+08
 
   -0.48495E+08         0.12729E+06         0.00000E+00
    0.12729E+06        -0.49995E+08         0.00000E+00
    0.00000E+00         0.00000E+00        -0.49148E+08
 
   -0.48504E+08         0.14647E+06         0.00000E+00
    0.14647E+06        -0.49993E+08         0.00000E+00
    0.00000E+00         0.00000E+00        -0.49148E+08
 
   -0.48513E+08         0.16553E+06         0.00000E+00
    0.16553E+06        -0.49991E+08         0.00000E+00
    0.00000E+00         0.00000E+00        -0.49148E+08
 
   -0.48523E+08         0.18446E+06         0.00000E+00
    0.18446E+06        -0.49989E+08         0.00000E+00
    0.00000E+00         0.00000E+00        -0.49149E+08
 
   -0.48533E+08         0.20327E+06         0.00000E+00
    0.20327E+06        -0.49986E+08         0.00000E+00
    0.00000E+00         0.00000E+00        -0.49149E+08
 
   -0.48543E+08         0.22194E+06         0.00000E+00
    0.22194E+06        -0.49983E+08         0.00000E+00
    0.00000E+00         0.00000E+00        -0.49150E+08
 
   -0.48554E+08         0.24047E+06         0.00000E+00
    0.24047E+06        -0.49980E+08         0.00000E+00
    0.00000E+00         0.00000E+00        -0.49150E+08
 
   -0.48565E+08         0.25886E+06         0.00000E+00
    0.25886E+06        -0.49977E+08         0.00000E+00
    0.00000E+00         0.00000E+00        -0.49151E+08
 
   -0.48577E+08         0.27710E+06         0.00000E+00
    0.27710E+06        -0.49974E+08         0.00000E+00
    0.00000E+00         0.00000E+00        -0.49151E+08
 
   -0.48589E+08         0.29519E+06         0.00000E+00
    0.29519E+06        -0.49970E+08         0.00000E+00
    0.00000E+00         0.00000E+00        -0.49152E+08
 
   -0.48601E+08         0.31312E+06         0.00000E+00
    0.31312E+06        -0.49966E+08         0.00000E+00
    0.00000E+00         0.00000E+00        -0.49152E+08
 
   -0.48614E+08         0.33089E+06         0.00000E+00
    0.33089E+06        -0.49962E+08         0.00000E+00
    0.00000E+00         0.00000E+00        -0.49153E+08
 
   -0.48627E+08         0.34850E+06         0.00000E+00
    0.34850E+06        -0.49958E+08         0.00000E+00
    0.00000E+00         0.00000E+00        -0.49154E+08
 
   -0.48640E+08         0.36593E+06         0.00000E+00
    0.36593E+06        -0.49953E+08         0.00000E+00
    0.00000E+00         0.00000E+00        -0.49154E+08
 
   -0.48654E+08         0.38319E+06         0.00000E+00
    0.38319E+06        -0.49949E+08         0.00000E+00
    0.00000E+00         0.00000E+00        -0.49155E+08
 
   -0.48668E+08         0.40028E+06         0.00000E+00
    0.40028E+06        -0.49944E+08         0.00000E+00
    0.00000E+00         0.00000E+00        -0.49156E+08
 
   -0.48682E+08         0.41718E+06         0.00000E+00
    0.41718E+06        -0.49938E+08         0.00000E+00
    0.00000E+00         0.00000E+00        -0.49157E+08
 
   -0.48697E+08         0.43390E+06         0.00000E+00
    0.43390E+06        -0.49933E+08         0.00000E+00
    0.00000E+00         0.00000E+00        -0.49157E+08
 
   -0.48711E+08         0.45043E+06         0.00000E+00
    0.45043E+06        -0.49927E+08         0.00000E+00
    0.00000E+00         0.00000E+00        -0.49158E+08
 
   -0.48727E+08         0.46677E+06         0.00000E+00
    0.46677E+06        -0.49921E+08         0.00000E+00
    0.00000E+00         0.00000E+00        -0.49159E+08
 
   -0.48742E+08         0.48291E+06         0.00000E+00
    0.48291E+06        -0.49915E+08         0.00000E+00
    0.00000E+00         0.00000E+00        -0.49160E+08
 
   -0.48758E+08         0.49886E+06         0.00000E+00
    0.49886E+06        -0.49909E+08         0.00000E+00
    0.00000E+00         0.00000E+00        -0.49160E+08
 
   -0.48774E+08         0.51460E+06         0.00000E+00
    0.51460E+06        -0.49903E+08         0.00000E+00
    0.00000E+00         0.00000E+00        -0.49161E+08
 
   -0.48790E+08         0.53013E+06         0.00000E+00
    0.53013E+06        -0.49896E+08         0.00000E+00
    0.00000E+00         0.00000E+00        -0.49162E+08
 
   -0.48807E+08         0.54546E+06         0.00000E+00
    0.54546E+06        -0.49889E+08         0.00000E+00
    0.00000E+00         0.00000E+00        -0.49162E+08
 
   -0.48823E+08         0.56058E+06         0.00000E+00
    0.56058E+06        -0.49882E+08         0.00000E+00
    0.00000E+00         0.00000E+00        -0.49163E+08
 
   -0.48840E+08         0.57548E+06         0.00000E+00
    0.57548E+06        -0.49875E+08         0.00000E+00
    0.00000E+00         0.00000E+00        -0.49164E+08
 
   -0.48858E+08         0.59016E+06         0.00000E+00
    0.59016E+06        -0.49867E+08         0.00000E+00
    0.00000E+00         0.00000E+00        -0.49164E+08
 
   -0.48875E+08         0.60463E+06         0.00000E+00
    0.60463E+06        -0.49860E+08         0.00000E+00
    0.00000E+00         0.00000E+00        -0.49165E+08
 
   -0.48893E+08         0.61887E+06         0.00000E+00
    0.61887E+06        -0.49852E+08         0.00000E+00
    0.00000E+00         0.00000E+00        -0.49166E+08
 
   -0.48911E+08         0.63288E+06         0.00000E+00
    0.63288E+06        -0.49844E+08         0.00000E+00
    0.00000E+00         0.00000E+00        -0.49166E+08
 
   -0.48929E+08         0.64667E+06         0.00000E+00
    0.64667E+06        -0.49836E+08         0.00000E+00
    0.00000E+00         0.00000E+00        -0.49167E+08
 
   -0.48947E+08         0.66023E+06         0.00000E+00
    0.66023E+06        -0.49828E+08         0.00000E+00
    0.00000E+00         0.00000E+00        -0.49167E+08
 
   -0.48966E+08         0.67355E+06         0.00000E+00
    0.67355E+06        -0.49819E+08         0.00000E+00
    0.00000E+00         0.00000E+00        -0.49168E+08
 
   -0.48985E+08         0.68664E+06         0.00000E+00
    0.68664E+06        -0.49811E+08         0.00000E+00
    0.00000E+00         0.00000E+00        -0.49168E+08
 
   -0.49004E+08         0.69950E+06         0.00000E+00
    0.69950E+06        -0.49802E+08         0.00000E+00
    0.00000E+00         0.00000E+00        -0.49169E+08
 
   -0.49023E+08         0.71211E+06         0.00000E+00
    0.71211E+06        -0.49793E+08         0.00000E+00
    0.00000E+00         0.00000E+00        -0.49169E+08
 
   -0.49042E+08         0.72449E+06         0.00000E+00
    0.72449E+06        -0.49784E+08         0.00000E+00
    0.00000E+00         0.00000E+00        -0.49170E+08
 
   -0.49061E+08         0.73662E+06         0.00000E+00
    0.73662E+06        -0.49774E+08         0.00000E+00
    0.00000E+00         0.00000E+00        -0.49170E+08
 
   -0.49081E+08         0.74850E+06         0.00000E+00
    0.74850E+06        -0.49765E+08         0.00000E+00
    0.00000E+00         0.00000E+00        -0.49170E+08
 
   -0.49101E+08         0.76014E+06         0.00000E+00
    0.76014E+06        -0.49755E+08         0.00000E+00
    0.00000E+00         0.00000E+00        -0.49170E+08
 
   -0.49121E+08         0.77153E+06         0.00000E+00
    0.77153E+06        -0.49746E+08         0.00000E+00
    0.00000E+00         0.00000E+00        -0.49171E+08
 
   -0.49141E+08         0.78267E+06         0.00000E+00
    0.78267E+06        -0.49736E+08         0.00000E+00
    0.00000E+00         0.00000E+00        -0.49171E+08
 
   -0.49161E+08         0.79356E+06         0.00000E+00
    0.79356E+06        -0.49726E+08         0.00000E+00
    0.00000E+00         0.00000E+00        -0.49171E+08
 
   -0.48347E+08         0.10668E+05         0.00000E+00
    0.10668E+05        -0.50000E+08         0.00000E+00
    0.00000E+00         0.00000E+00        -0.49090E+08
 
   -0.48354E+08         0.31765E+05         0.00000E+00
    0.31765E+05        -0.50000E+08         0.00000E+00
    0.00000E+00         0.00000E+00        -0.49090E+08
 
   -0.48361E+08         0.52769E+05         0.00000E+00
    0.52769E+05        -0.49999E+08         0.00000E+00
    0.00000E+00         0.00000E+00        -0.49090E+08
 
   -0.48369E+08         0.73672E+05         0.00000E+00
    0.73672E+05        -0.49998E+08         0.00000E+00
    0.00000E+00         0.00000E+00        -0.49090E+08
 
   -0.48377E+08         0.94469E+05         0.00000E+00
    0.94469E+05        -0.49997E+08         0.00000E+00
    0.00000E+00         0.00000E+00        -0.49091E+08
 
   -0.48386E+08         0.11515E+06         0.00000E+00
    0.11515E+06        -0.49996E+08         0.00000E+00
    0.00000E+00         0.00000E+00        -0.49091E+08
 
   -0.48395E+08         0.13572E+06         0.00000E+00
    0.13572E+06        -0.49994E+08         0.00000E+00
    0.00000E+00         0.00000E+00        -0.49091E+08
 
   -0.48405E+08         0.15617E+06         0.00000E+00
    0.15617E+06        -0.49992E+08         0.00000E+00
    0.00000E+00         0.00000E+00        -0.49091E+08
 
   -0.48415E+08         0.17648E+06         0.00000E+00
    0.17648E+06        -0.49990E+08         0.00000E+00
    0.00000E+00         0.00000E+00        -0.49092E+08
 
   -0.48425E+08         0.19667E+06         0.00000E+00
    0.19667E+06        -0.49988E+08         0.00000E+00
    0.00000E+00         0.00000E+00        -0.49092E+08
 
   -0.48436E+08         0.21671E+06         0.00000E+00
    0.21671E+06        -0.49985E+08         0.00000E+00
    0.00000E+00         0.00000E+00        -0.49093E+08
 
   -0.48447E+08         0.23661E+06         0.00000E+00
    0.23661E+06        -0.49982E+08         0.00000E+00
    0.00000E+00         0.00000E+00        -0.49093E+08
 
   -0.48459E+08         0.25636E+06         0.00000E+00
    0.25636E+06        -0.49979E+08         0.00000E+00
    0.00000E+00         0.00000E+00        -0.49094E+08
 
   -0.48471E+08         0.27596E+06         0.00000E+00
    0.27596E+06        -0.49976E+08         0.00000E+00
    0.00000E+00         0.00000E+00        -0.49094E+08
 
   -0.48483E+08         0.29540E+06         0.00000E+00
    0.29540E+06        -0.49972E+08         0.00000E+00
    0.00000E+00         0.00000E+00        -0.49095E+08
 
   -0.48496E+08         0.31468E+06         0.00000E+00
    0.31468E+06        -0.49968E+08         0.00000E+00
    0.00000E+00         0.00000E+00        -0.49096E+08
 
   -0.48509E+08         0.33378E+06         0.00000E+00
    0.33378E+06        -0.49964E+08         0.00000E+00
    0.00000E+00         0.00000E+00        -0.49096E+08
 
   -0.48523E+08         0.35272E+06         0.00000E+00
    0.35272E+06        -0.49960E+08         0.00000E+00
    0.00000E+00         0.00000E+00        -0.49097E+08
 
   -0.48536E+08         0.37147E+06         0.00000E+00
    0.37147E+06        -0.49955E+08         0.00000E+00
    0.00000E+00         0.00000E+00        -0.49098E+08
 
   -0.48551E+08         0.39005E+06         0.00000E+00
    0.39005E+06        -0.49950E+08         0.00000E+00
    0.00000E+00         0.00000E+00        -0.49098E+08
 
   -0.48565E+08         0.40844E+06         0.00000E+00
    0.40844E+06        -0.49945E+08         0.00000E+00
    0.00000E+00         0.00000E+00        -0.49099E+08
 
   -0.48580E+08         0.42664E+06         0.00000E+00
    0.42664E+06        -0.49940E+08         0.00000E+00
    0.00000E+00         0.00000E+00        -0.49100E+08
 
   -0.48595E+08         0.44465E+06         0.00000E+00
    0.44465E+06        -0.49934E+08         0.00000E+00
    0.00000E+00         0.00000E+00        -0.49101E+08
 
   -0.48611E+08         0.46245E+06         0.00000E+00
    0.46245E+06        -0.49928E+08         0.00000E+00
    0.00000E+00         0.00000E+00        -0.49102E+08
 
   -0.48627E+08         0.48006E+06         0.00000E+00
    0.48006E+06        -0.49922E+08         0.00000E+00
    0.00000E+00         0.00000E+00        -0.49102E+08
 
   -0.48643E+08         0.49746E+06         0.00000E+00
    0.49746E+06        -0.49916E+08         0.00000E+00
    0.00000E+00         0.00000E+00        -0.49103E+08
 
   -0.48659E+08         0.51466E+06         0.00000E+00
    0.51466E+06        -0.49910E+08         0.00000E+00
    0.00000E+00         0.00000E+00        -0.49104E+08
 
   -0.48676E+08         0.53164E+06         0.00000E+00
    0.53164E+06        -0.49903E+08         0.00000E+00
    0.00000E+00         0.00000E+00        -0.49105E+08
 
   -0.48693E+08         0.54840E+06         0.00000E+00
    0.54840E+06        -0.49896E+08         0.00000E+00
    0.00000E+00         0.00000E+00        -0.49105E+08
 
   -0.48710E+08         0.56495E+06         0.00000E+00
    0.56495E+06        -0.49889E+08         0.00000E+00
    0.00000E+00         0.00000E+00        -0.49106E+08
 
   -0.48728E+08         0.58127E+06         0.00000E+00
    0.58127E+06        -0.49882E+08         0.00000E+00
    0.00000E+00         0.00000E+00        -0.49107E+08
 
   -0.48746E+08         0.59737E+06         0.00000E+00
    0.59737E+06        -0.49874E+08         0.00000E+00
    0.00000E+00         0.00000E+00        -0.49108E+08
 
   -0.48764E+08         0.61324E+06         0.00000E+00
    0.61324E+06        -0.49867E+08         0.00000E+00
    0.00000E+00         0.00000E+00        -0.49108E+08
 
   -0.48782E+08         0.62888E+06         0.00000E+00
    0.62888E+06        -0.49859E+08         0.00000E+00
    0.00000E+00         0.00000E+00        -0.49109E+08
 
   -0.48801E+08         0.64428E+06         0.00000E+00
    0.64428E+06        -0.49851E+08         0.00000E+00
    0.00000E+00         0.00000E+00        -0.49110E+08
 
   -0.48820E+08         0.65945E+06         0.00000E+00
    0.65945E+06        -0.49842E+08         0.00000E+00
    0.00000E+00         0.00000E+00        -0.49111E+08
 
   -0.48839E+08         0.67437E+06         0.00000E+00
    0.67437E+06        -0.49834E+08         0.00000E+00
    0.00000E+00         0.00000E+00        -0.49111E+08
 
   -0.48858E+08         0.68906E+06         0.00000E+00
    0.68906E+06        -0.49825E+08         0.00000E+00
    0.00000E+00         0.00000E+00        -0.49112E+08
 
   -0.48878E+08         0.70350E+06         0.00000E+00
    0.70350E+06        -0.49816E+08         0.00000E+00
    0.00000E+00         0.00000E+00        -0.49112E+08
 
   -0.48898E+08         0.71769E+06         0.00000E+00
    0.71769E+06        -0.49807E+08         0.00000E+00
    0.00000E+00         0.00000E+00        -0.49113E+08
 
   -0.48918E+08         0.73163E+06         0.00000E+00
    0.73163E+06        -0.49798E+08         0.00000E+00
    0.00000E+00         0.00000E+00        -0.49113E+08
 
   -0.48938E+08         0.74532E+06         0.00000E+00
    0.74532E+06        -0.49789E+08         0.00000E+00
    0.00000E+00         0.00000E+00        -0.49114E+08
 
   -0.48958E+08         0.75876E+06         0.00000E+00
    0.75876E+06        -0.49779E+08         0.00000E+00
    0.00000E+00         0.00000E+00        -0.49114E+08
 
   -0.48979E+08         0.77194E+06         0.00000E+00
    0.77194E+06        -0.49770E+08         0.00000E+00
    0.00000E+00         0.00000E+00        -0.49115E+08
 
   -0.48999E+08         0.78486E+06         0.00000E+00
    0.78486E+06        -0.49760E+08         0.00000E+00
    0.00000E+00         0.00000E+00        -0.49115E+08
 
   -0.49020E+08         0.79753E+06         0.00000E+00
    0.79753E+06        -0.49750E+08         0.00000E+00
    0.00000E+00         0.00000E+00        -0.49115E+08
 
   -0.49041E+08         0.80993E+06         0.00000E+00
    0.80993E+06        -0.49740E+08         0.00000E+00
    0.00000E+00         0.00000E+00        -0.49116E+08
 
   -0.49062E+08         0.82206E+06         0.00000E+00
    0.82206E+06        -0.49729E+08         0.00000E+00
    0.00000E+00         0.00000E+00        -0.49116E+08
 
   -0.49084E+08         0.83393E+06         0.00000E+00
    0.83393E+06        -0.49719E+08         0.00000E+00
    0.00000E+00         0.00000E+00        -0.49116E+08
 
   -0.49105E+08         0.84554E+06         0.00000E+00
    0.84554E+06        -0.49708E+08         0.00000E+00
    0.00000E+00         0.00000E+00        -0.49116E+08
 
   -0.48238E+08         0.11379E+05         0.00000E+00
    0.11379E+05        -0.50000E+08         0.00000E+00
    0.00000E+00         0.00000E+00        -0.49030E+08
 
   -0.48245E+08         0.33879E+05         0.00000E+00
    0.33879E+05        -0.50000E+08         0.00000E+00
    0.00000E+00         0.00000E+00        -0.49030E+08
 
   -0.48253E+08         0.56277E+05         0.00000E+00
    0.56277E+05        -0.49999E+08         0.00000E+00
    0.00000E+00         0.00000E+00        -0.49030E+08
 
   -0.48261E+08         0.78568E+05         0.00000E+00
    0.78568E+05        -0.49998E+08         0.00000E+00
    0.00000E+00         0.00000E+00        -0.49030E+08
 
   -0.48270E+08         0.10074E+06         0.00000E+00
    0.10074E+06        -0.49997E+08         0.00000E+00
    0.00000E+00         0.00000E+00        -0.49030E+08
 
   -0.48280E+08         0.12280E+06         0.00000E+00
    0.12280E+06        -0.49996E+08         0.00000E+00
    0.00000E+00         0.00000E+00        -0.49031E+08
 
   -0.48289E+08         0.14473E+06         0.00000E+00
    0.14473E+06        -0.49994E+08         0.00000E+00
    0.00000E+00         0.00000E+00        -0.49031E+08
 
   -0.48300E+08         0.16652E+06         0.00000E+00
    0.16652E+06        -0.49992E+08         0.00000E+00
    0.00000E+00         0.00000E+00        -0.49031E+08
 
   -0.48310E+08         0.18818E+06         0.00000E+00
    0.18818E+06        -0.49990E+08         0.00000E+00
    0.00000E+00         0.00000E+00        -0.49032E+08
 
   -0.48321E+08         0.20970E+06         0.00000E+00
    0.20970E+06        -0.49987E+08         0.00000E+00
    0.00000E+00         0.00000E+00        -0.49032E+08
 
   -0.48333E+08         0.23106E+06         0.00000E+00
    0.23106E+06        -0.49984E+08         0.00000E+00
    0.00000E+00         0.00000E+00        -0.49033E+08
 
   -0.48345E+08         0.25227E+06         0.00000E+00
    0.25227E+06        -0.49981E+08         0.00000E+00
    0.00000E+00         0.00000E+00        -0.49033E+08
 
   -0.48357E+08         0.27332E+06         0.00000E+00
    0.27332E+06        -0.49978E+08         0.00000E+00
    0.00000E+00         0.00000E+00        -0.49034E+08
 
   -0.48370E+08         0.29421E+06         0.00000E+00
    0.29421E+06        -0.49974E+08         0.00000E+00
    0.00000E+00         0.00000E+00        -0.49035E+08
 
   -0.48383E+08         0.31492E+06         0.00000E+00
    0.31492E+06        -0.49970E+08         0.00000E+00
    0.00000E+00         0.00000E+00        -0.49035E+08
 
   -0.48397E+08         0.33546E+06         0.00000E+00
    0.33546E+06        -0.49966E+08         0.00000E+00
    0.00000E+00         0.00000E+00        -0.49036E+08
 
   -0.48411E+08         0.35582E+06         0.00000E+00
    0.35582E+06        -0.49962E+08         0.00000E+00
    0.00000E+00         0.00000E+00        -0.49037E+08
 
   -0.48425E+08         0.37599E+06         0.00000E+00
    0.37599E+06        -0.49957E+08         0.00000E+00
    0.00000E+00         0.00000E+00        -0.49037E+08
 
   -0.48440E+08         0.39597E+06         0.00000E+00
    0.39597E+06        -0.49952E+08         0.00000E+00
    0.00000E+00         0.00000E+00        -0.49038E+08
 
   -0.48455E+08         0.41576E+06         0.00000E+00
    0.41576E+06        -0.49947E+08         0.00000E+00
    0.00000E+00         0.00000E+00        -0.49039E+08
 
   -0.48471E+08         0.43535E+06         0.00000E+00
    0.43535E+06        -0.49941E+08         0.00000E+00
    0.00000E+00         0.00000E+00        -0.49040E+08
 
   -0.48487E+08         0.45474E+06         0.00000E+00
    0.45474E+06        -0.49936E+08         0.00000E+00
    0.00000E+00         0.00000E+00        -0.49040E+08
 
   -0.48503E+08         0.47392E+06         0.00000E+00
    0.47392E+06        -0.49930E+08         0.00000E+00
    0.00000E+00         0.00000E+00        -0.49041E+08
 
   -0.48519E+08         0.49288E+06         0.00000E+00
    0.49288E+06        -0.49924E+08         0.00000E+00
    0.00000E+00         0.00000E+00        -0.49042E+08
 
   -0.48536E+08         0.51164E+06         0.00000E+00
    0.51164E+06        -0.49917E+08         0.00000E+00
    0.00000E+00         0.00000E+00        -0.49043E+08
 
   -0.48554E+08         0.53017E+06         0.00000E+00
    0.53017E+06        -0.49911E+08         0.00000E+00
    0.00000E+00         0.00000E+00        -0.49044E+08
 
   -0.48571E+08         0.54848E+06         0.00000E+00
    0.54848E+06        -0.49904E+08         0.00000E+00
    0.00000E+00         0.00000E+00        -0.49045E+08
 
   -0.48589E+08         0.56656E+06         0.00000E+00
    0.56656E+06        -0.49897E+08         0.00000E+00
    0.00000E+00         0.00000E+00        -0.49045E+08
 
   -0.48607E+08         0.58441E+06         0.00000E+00
    0.58441E+06        -0.49889E+08         0.00000E+00
    0.00000E+00         0.00000E+00        -0.49046E+08
 
   -0.48626E+08         0.60203E+06         0.00000E+00
    0.60203E+06        -0.49882E+08         0.00000E+00
    0.00000E+00         0.00000E+00        -0.49047E+08
 
   -0.48644E+08         0.61941E+06         0.00000E+00
    0.61941E+06        -0.49874E+08         0.00000E+00
    0.00000E+00         0.00000E+00        -0.49048E+08
 
   -0.48663E+08         0.63655E+06         0.00000E+00
    0.63655E+06        -0.49866E+08         0.00000E+00
    0.00000E+00         0.00000E+00        -0.49049E+08
 
   -0.48683E+08         0.65345E+06         0.00000E+00
    0.65345E+06        -0.49858E+08         0.00000E+00
    0.00000E+00         0.00000E+00        -0.49049E+08
 
   -0.48702E+08         0.67010E+06         0.00000E+00
    0.67010E+06        -0.49849E+08         0.00000E+00
    0.00000E+00         0.00000E+00        -0.49050E+08
 
   -0.48722E+08         0.68650E+06         0.00000E+00
    0.68650E+06        -0.49841E+08         0.00000E+00
    0.00000E+00         0.00000E+00        -0.49051E+08
 
   -0.48742E+08         0.70265E+06         0.00000E+00
    0.70265E+06        -0.49832E+08         0.00000E+00
    0.00000E+00         0.00000E+00        -0.49052E+08
 
   -0.48763E+08         0.71855E+06         0.00000E+00
    0.71855E+06        -0.49823E+08         0.00000E+00
    0.00000E+00         0.00000E+00        -0.49052E+08
 
   -0.48783E+08         0.73418E+06         0.00000E+00
    0.73418E+06        -0.49814E+08         0.00000E+00
    0.00000E+00         0.00000E+00        -0.49053E+08
 
   -0.48804E+08         0.74956E+06         0.00000E+00
    0.74956E+06        -0.49804E+08         0.00000E+00
    0.00000E+00         0.00000E+00        -0.49054E+08
 
   -0.48825E+08         0.76467E+06         0.00000E+00
    0.76467E+06        -0.49795E+08         0.00000E+00
    0.00000E+00         0.00000E+00        -0.49054E+08
 
   -0.48846E+08         0.77952E+06         0.00000E+00
    0.77952E+06        -0.49785E+08         0.00000E+00
    0.00000E+00         0.00000E+00        -0.49055E+08
 
   -0.48868E+08         0.79410E+06         0.00000E+00
    0.79410E+06        -0.49775E+08         0.00000E+00
    0.00000E+00         0.00000E+00        -0.49055E+08
 
   -0.48889E+08         0.80841E+06         0.00000E+00
    0.80841E+06        -0.49765E+08         0.00000E+00
    0.00000E+00         0.00000E+00        -0.49056E+08
 
   -0.48911E+08         0.82245E+06         0.00000E+00
    0.82245E+06        -0.49755E+08         0.00000E+00
    0.00000E+00         0.00000E+00        -0.49056E+08
 
   -0.48933E+08         0.83622E+06         0.00000E+00
    0.83622E+06        -0.49744E+08         0.00000E+00
    0.00000E+00         0.00000E+00        -0.49056E+08
 
   -0.48956E+08         0.84970E+06         0.00000E+00
    0.84970E+06        -0.49733E+08         0.00000E+00
    0.00000E+00         0.00000E+00        -0.49057E+08
 
   -0.48978E+08         0.86291E+06         0.00000E+00
    0.86291E+06        -0.49723E+08         0.00000E+00
    0.00000E+00         0.00000E+00        -0.49057E+08
 
   -0.49000E+08         0.87585E+06         0.00000E+00
    0.87585E+06        -0.49712E+08         0.00000E+00
    0.00000E+00         0.00000E+00        -0.49057E+08
 
   -0.49023E+08         0.88850E+06         0.00000E+00
    0.88850E+06        -0.49700E+08         0.00000E+00
    0.00000E+00         0.00000E+00        -0.49057E+08
 
   -0.49046E+08         0.90086E+06         0.00000E+00
    0.90086E+06        -0.49689E+08         0.00000E+00
    0.00000E+00         0.00000E+00        -0.49057E+08
 
   -0.48121E+08         0.12139E+05         0.00000E+00
    0.12139E+05        -0.50000E+08         0.00000E+00
    0.00000E+00         0.00000E+00        -0.48966E+08
 
   -0.48129E+08         0.36138E+05         0.00000E+00
    0.36138E+05        -0.50000E+08         0.00000E+00
    0.00000E+00         0.00000E+00        -0.48966E+08
 
   -0.48138E+08         0.60027E+05         0.00000E+00
    0.60027E+05        -0.49999E+08         0.00000E+00
    0.00000E+00         0.00000E+00        -0.48966E+08
 
   -0.48146E+08         0.83798E+05         0.00000E+00
    0.83798E+05        -0.49998E+08         0.00000E+00
    0.00000E+00         0.00000E+00        -0.48966E+08
 
   -0.48156E+08         0.10745E+06         0.00000E+00
    0.10745E+06        -0.49997E+08         0.00000E+00
    0.00000E+00         0.00000E+00        -0.48966E+08
 
   -0.48166E+08         0.13096E+06         0.00000E+00
    0.13096E+06        -0.49995E+08         0.00000E+00
    0.00000E+00         0.00000E+00        -0.48966E+08
 
   -0.48176E+08         0.15435E+06         0.00000E+00
    0.15435E+06        -0.49993E+08         0.00000E+00
    0.00000E+00         0.00000E+00        -0.48967E+08
 
   -0.48187E+08         0.17758E+06         0.00000E+00
    0.17758E+06        -0.49991E+08         0.00000E+00
    0.00000E+00         0.00000E+00        -0.48967E+08
 
   -0.48199E+08         0.20067E+06         0.00000E+00
    0.20067E+06        -0.49989E+08         0.00000E+00
    0.00000E+00         0.00000E+00        -0.48968E+08
 
   -0.48211E+08         0.22361E+06         0.00000E+00
    0.22361E+06        -0.49986E+08         0.00000E+00
    0.00000E+00         0.00000E+00        -0.48968E+08
 
   -0.48223E+08         0.24638E+06         0.00000E+00
    0.24638E+06        -0.49983E+08         0.00000E+00
    0.00000E+00         0.00000E+00        -0.48969E+08
 
   -0.48236E+08         0.26898E+06         0.00000E+00
    0.26898E+06        -0.49980E+08         0.00000E+00
    0.00000E+00         0.00000E+00        -0.48969E+08
 
   -0.48249E+08         0.29142E+06         0.00000E+00
    0.29142E+06        -0.49976E+08         0.00000E+00
    0.00000E+00         0.00000E+00        -0.48970E+08
 
   -0.48263E+08         0.31367E+06         0.00000E+00
    0.31367E+06        -0.49972E+08         0.00000E+00
    0.00000E+00         0.00000E+00        -0.48971E+08
 
   -0.48277E+08         0.33574E+06         0.00000E+00
    0.33574E+06        -0.49968E+08         0.00000E+00
    0.00000E+00         0.00000E+00        -0.48971E+08
 
   -0.48291E+08         0.35763E+06         0.00000E+00
    0.35763E+06        -0.49964E+08         0.00000E+00
    0.00000E+00         0.00000E+00        -0.48972E+08
 
   -0.48306E+08         0.37932E+06         0.00000E+00
    0.37932E+06        -0.49959E+08         0.00000E+00
    0.00000E+00         0.00000E+00        -0.48973E+08
 
   -0.48322E+08         0.40081E+06         0.00000E+00
    0.40081E+06        -0.49954E+08         0.00000E+00
    0.00000E+00         0.00000E+00        -0.48974E+08
 
   -0.48337E+08         0.42209E+06         0.00000E+00
    0.42209E+06        -0.49949E+08         0.00000E+00
    0.00000E+00         0.00000E+00        -0.48974E+08
 
   -0.48354E+08         0.44317E+06         0.00000E+00
    0.44317E+06        -0.49943E+08         0.00000E+00
    0.00000E+00         0.00000E+00        -0.48975E+08
 
   -0.48370E+08         0.46403E+06         0.00000E+00
    0.46403E+06        -0.49937E+08         0.00000E+00
    0.00000E+00         0.00000E+00        -0.48976E+08
 
   -0.48387E+08         0.48468E+06         0.00000E+00
    0.48468E+06        -0.49931E+08         0.00000E+00
    0.00000E+00         0.00000E+00        -0.48977E+08
 
   -0.48404E+08         0.50511E+06         0.00000E+00
    0.50511E+06        -0.49925E+08         0.00000E+00
    0.00000E+00         0.00000E+00        -0.48978E+08
 
   -0.48422E+08         0.52531E+06         0.00000E+00
    0.52531E+06        -0.49919E+08         0.00000E+00
    0.00000E+00         0.00000E+00        -0.48979E+08
 
   -0.48440E+08         0.54527E+06         0.00000E+00
    0.54527E+06        -0.49912E+08         0.00000E+00
    0.00000E+00         0.00000E+00        -0.48980E+08
 
   -0.48458E+08         0.56501E+06         0.00000E+00
    0.56501E+06        -0.49905E+08         0.00000E+00
    0.00000E+00         0.00000E+00        -0.48980E+08
 
   -0.48477E+08         0.58450E+06         0.00000E+00
    0.58450E+06        -0.49897E+08         0.00000E+00
    0.00000E+00         0.00000E+00        -0.48981E+08
 
   -0.48496E+08         0.60375E+06         0.00000E+00
    0.60375E+06        -0.49890E+08         0.00000E+00
    0.00000E+00         0.00000E+00        -0.48982E+08
 
   -0.48516E+08         0.62276E+06         0.00000E+00
    0.62276E+06        -0.49882E+08         0.00000E+00
    0.00000E+00         0.00000E+00        -0.48983E+08
 
   -0.48535E+08         0.64152E+06         0.00000E+00
    0.64152E+06        -0.49874E+08         0.00000E+00
    0.00000E+00         0.00000E+00        -0.48984E+08
 
   -0.48555E+08         0.66002E+06         0.00000E+00
    0.66002E+06        -0.49866E+08         0.00000E+00
    0.00000E+00         0.00000E+00        -0.48985E+08
 
   -0.48576E+08         0.67827E+06         0.00000E+00
    0.67827E+06        -0.49857E+08         0.00000E+00
    0.00000E+00         0.00000E+00        -0.48986E+08
 
   -0.48596E+08         0.69626E+06         0.00000E+00
    0.69626E+06        -0.49849E+08         0.00000E+00
    0.00000E+00         0.00000E+00        -0.48987E+08
 
   -0.48617E+08         0.71399E+06         0.00000E+00
    0.71399E+06        -0.49840E+08         0.00000E+00
    0.00000E+00         0.00000E+00        -0.48987E+08
 
   -0.48638E+08         0.73145E+06         0.00000E+00
    0.73145E+06        -0.49830E+08         0.00000E+00
    0.00000E+00         0.00000E+00        -0.48988E+08
 
   -0.48660E+08         0.74864E+06         0.00000E+00
    0.74864E+06        -0.49821E+08         0.00000E+00
    0.00000E+00         0.00000E+00        -0.48989E+08
 
   -0.48681E+08         0.76556E+06         0.00000E+00
    0.76556E+06        -0.49811E+08         0.00000E+00
    0.00000E+00         0.00000E+00        -0.48990E+08
 
   -0.48703E+08         0.78221E+06         0.00000E+00
    0.78221E+06        -0.49802E+08         0.00000E+00
    0.00000E+00         0.00000E+00        -0.48990E+08
 
   -0.48725E+08         0.79858E+06         0.00000E+00
    0.79858E+06        -0.49792E+08         0.00000E+00
    0.00000E+00         0.00000E+00        -0.48991E+08
 
   -0.48748E+08         0.81467E+06         0.00000E+00
    0.81467E+06        -0.49781E+08         0.00000E+00
    0.00000E+00         0.00000E+00        -0.48992E+08
 
   -0.48770E+08         0.83048E+06         0.00000E+00
    0.83048E+06        -0.49771E+08         0.00000E+00
    0.00000E+00         0.00000E+00        -0.48992E+08
 
   -0.48793E+08         0.84601E+06         0.00000E+00
    0.84601E+06        -0.49760E+08         0.00000E+00
    0.00000E+00         0.00000E+00        -0.48993E+08
 
   -0.48816E+08         0.86125E+06         0.00000E+00
    0.86125E+06        -0.49750E+08         0.00000E+00
    0.00000E+00         0.00000E+00        -0.48993E+08
 
   -0.48840E+08         0.87620E+06         0.00000E+00
    0.87620E+06        -0.49739E+08         0.00000E+00
    0.00000E+00         0.00000E+00        -0.48994E+08
 
   -0.48863E+08         0.89086E+06         0.00000E+00
    0.89086E+06        -0.49727E+08         0.00000E+00
    0.00000E+00         0.00000E+00        -0.48994E+08
 
   -0.48887E+08         0.90523E+06         0.00000E+00
    0.90523E+06        -0.49716E+08         0.00000E+00
    0.00000E+00         0.00000E+00        -0.48994E+08
 
   -0.48910E+08         0.91930E+06         0.00000E+00
    0.91930E+06        -0.49705E+08         0.00000E+00
    0.00000E+00         0.00000E+00        -0.48995E+08
 
   -0.48934E+08         0.93308E+06         0.00000E+00
    0.93308E+06        -0.49693E+08         0.00000E+00
    0.00000E+00         0.00000E+00        -0.48995E+08
 
   -0.48959E+08         0.94655E+06         0.00000E+00
    0.94655E+06        -0.49681E+08         0.00000E+00
    0.00000E+00         0.00000E+00        -0.48995E+08
 
   -0.48983E+08         0.95973E+06         0.00000E+00
    0.95973E+06        -0.49669E+08         0.00000E+00
    0.00000E+00         0.00000E+00        -0.48995E+08
 
   -0.47997E+08         0.12952E+05         0.00000E+00
    0.12952E+05        -0.50000E+08         0.00000E+00
    0.00000E+00         0.00000E+00        -0.48897E+08
 
   -0.48005E+08         0.38553E+05         0.00000E+00
    0.38553E+05        -0.50000E+08         0.00000E+00
    0.00000E+00         0.00000E+00        -0.48897E+08
 
   -0.48014E+08         0.64034E+05         0.00000E+00
    0.64034E+05        -0.49999E+08         0.00000E+00
    0.00000E+00         0.00000E+00        -0.48897E+08
 
   -0.48024E+08         0.89388E+05         0.00000E+00
    0.89388E+05        -0.49998E+08         0.00000E+00
    0.00000E+00         0.00000E+00        -0.48898E+08
 
   -0.48034E+08         0.11461E+06         0.00000E+00
    0.11461E+06        -0.49997E+08         0.00000E+00
    0.00000E+00         0.00000E+00        -0.48898E+08
 
   -0.48045E+08         0.13969E+06         0.00000E+00
    0.13969E+06        -0.49995E+08         0.00000E+00
    0.00000E+00         0.00000E+00        -0.48898E+08
 
   -0.48056E+08         0.16462E+06         0.00000E+00
    0.16462E+06        -0.49993E+08         0.00000E+00
    0.00000E+00         0.00000E+00        -0.48898E+08
 
   -0.48068E+08         0.18939E+06         0.00000E+00
    0.18939E+06        -0.49991E+08         0.00000E+00
    0.00000E+00         0.00000E+00        -0.48899E+08
 
   -0.48080E+08         0.21401E+06         0.00000E+00
    0.21401E+06        -0.49988E+08         0.00000E+00
    0.00000E+00         0.00000E+00        -0.48899E+08
 
   -0.48093E+08         0.23845E+06         0.00000E+00
    0.23845E+06        -0.49985E+08         0.00000E+00
    0.00000E+00         0.00000E+00        -0.48900E+08
 
   -0.48106E+08         0.26273E+06         0.00000E+00
    0.26273E+06        -0.49982E+08         0.00000E+00
    0.00000E+00         0.00000E+00        -0.48901E+08
 
   -0.48119E+08         0.28682E+06         0.00000E+00
    0.28682E+06        -0.49978E+08         0.00000E+00
    0.00000E+00         0.00000E+00        -0.48901E+08
 
   -0.48134E+08         0.31072E+06         0.00000E+00
    0.31072E+06        -0.49975E+08         0.00000E+00
    0.00000E+00         0.00000E+00        -0.48902E+08
 
   -0.48148E+08         0.33444E+06         0.00000E+00
    0.33444E+06        -0.49970E+08         0.00000E+00
    0.00000E+00         0.00000E+00        -0.48903E+08
 
   -0.48163E+08         0.35795E+06         0.00000E+00
    0.35795E+06        -0.49966E+08         0.00000E+00
    0.00000E+00         0.00000E+00        -0.48903E+08
 
   -0.48179E+08         0.38127E+06         0.00000E+00
    0.38127E+06        -0.49961E+08         0.00000E+00
    0.00000E+00         0.00000E+00        -0.48904E+08
 
   -0.48195E+08         0.40437E+06         0.00000E+00
    0.40437E+06        -0.49956E+08         0.00000E+00
    0.00000E+00         0.00000E+00        -0.48905E+08
 
   -0.48211E+08         0.42726E+06         0.00000E+00
    0.42726E+06        -0.49951E+08         0.00000E+00
    0.00000E+00         0.00000E+00        -0.48906E+08
 
   -0.48228E+08         0.44994E+06         0.00000E+00
    0.44994E+06        -0.49945E+08         0.00000E+00
    0.00000E+00         0.00000E+00        -0.48907E+08
 
   -0.48245E+08         0.47238E+06         0.00000E+00
    0.47238E+06        -0.49939E+08         0.00000E+00
    0.00000E+00         0.00000E+00        -0.48907E+08
 
   -0.48263E+08         0.49460E+06         0.00000E+00
    0.49460E+06        -0.49933E+08         0.00000E+00
    0.00000E+00         0.00000E+00        -0.48908E+08
 
   -0.48281E+08         0.51659E+06         0.00000E+00
    0.51659E+06        -0.49927E+08         0.00000E+00
    0.00000E+00         0.00000E+00        -0.48909E+08
 
   -0.48300E+08         0.53834E+06         0.00000E+00
    0.53834E+06        -0.49920E+08         0.00000E+00
    0.00000E+00         0.00000E+00        -0.48910E+08
 
   -0.48318E+08         0.55984E+06         0.00000E+00
    0.55984E+06        -0.49913E+08         0.00000E+00
    0.00000E+00         0.00000E+00        -0.48911E+08
 
   -0.48338E+08         0.58110E+06         0.00000E+00
    0.58110E+06        -0.49906E+08         0.00000E+00
    0.00000E+00         0.00000E+00        -0.48912E+08
 
   -0.48357E+08         0.60211E+06         0.00000E+00
    0.60211E+06        -0.49898E+08         0.00000E+00
    0.00000E+00         0.00000E+00        -0.48913E+08
 
   -0.48377E+08         0.62286E+06         0.00000E+00
    0.62286E+06        -0.49891E+08         0.00000E+00
    0.00000E+00         0.00000E+00        -0.48914E+08
 
   -0.48397E+08         0.64336E+06         0.00000E+00
    0.64336E+06        -0.49883E+08         0.00000E+00
    0.00000E+00         0.00000E+00        -0.48915E+08
 
   -0.48418E+08         0.66359E+06         0.00000E+00
    0.66359E+06        -0.49874E+08         0.00000E+00
    0.00000E+00         0.00000E+00        -0.48916E+08
 
   -0.48439E+08         0.68356E+06         0.00000E+00
    0.68356E+06        -0.49866E+08         0.00000E+00
    0.00000E+00         0.00000E+00        -0.48917E+08
 
   -0.48460E+08         0.70326E+06         0.00000E+00
    0.70326E+06        -0.49857E+08         0.00000E+00
    0.00000E+00         0.00000E+00        -0.48918E+08
 
   -0.48482E+08         0.72268E+06         0.00000E+00
    0.72268E+06        -0.49848E+08         0.00000E+00
    0.00000E+00         0.00000E+00        -0.48919E+08
 
   -0.48504E+08         0.74183E+06         0.00000E+00
    0.74183E+06        -0.49839E+08         0.00000E+00
    0.00000E+00         0.00000E+00        -0.48920E+08
 
   -0.48526E+08         0.76069E+06         0.00000E+00
    0.76069E+06        -0.49829E+08         0.00000E+00
    0.00000E+00         0.00000E+00        -0.48920E+08
 
   -0.48549E+08         0.77928E+06         0.00000E+00
    0.77928E+06        -0.49819E+08         0.00000E+00
    0.00000E+00         0.00000E+00        -0.48921E+08
 
   -0.48572E+08         0.79758E+06         0.00000E+00
    0.79758E+06        -0.49809E+08         0.00000E+00
    0.00000E+00         0.00000E+00        -0.48922E+08
 
   -0.48595E+08         0.81559E+06         0.00000E+00
    0.81559E+06        -0.49799E+08         0.00000E+00
    0.00000E+00         0.00000E+00        -0.48923E+08
 
   -0.48618E+08         0.83331E+06         0.00000E+00
    0.83331E+06        -0.49789E+08         0.00000E+00
    0.00000E+00         0.00000E+00        -0.48924E+08
 
   -0.48642E+08         0.85074E+06         0.00000E+00
    0.85074E+06        -0.49778E+08         0.00000E+00
    0.00000E+00         0.00000E+00        -0.48924E+08
 
   -0.48665E+08         0.86787E+06         0.00000E+00
    0.86787E+06        -0.49767E+08         0.00000E+00
    0.00000E+00         0.00000E+00        -0.48925E+08
 
   -0.48690E+08         0.88470E+06         0.00000E+00
    0.88470E+06        -0.49756E+08         0.00000E+00
    0.00000E+00         0.00000E+00        -0.48925E+08
 
   -0.48714E+08         0.90123E+06         0.00000E+00
    0.90123E+06        -0.49745E+08         0.00000E+00
    0.00000E+00         0.00000E+00        -0.48926E+08
 
   -0.48738E+08         0.91745E+06         0.00000E+00
    0.91745E+06        -0.49733E+08         0.00000E+00
    0.00000E+00         0.00000E+00        -0.48927E+08
 
   -0.48763E+08         0.93337E+06         0.00000E+00
    0.93337E+06        -0.49722E+08         0.00000E+00
    0.00000E+00         0.00000E+00        -0.48927E+08
 
   -0.48788E+08         0.94898E+06         0.00000E+00
    0.94898E+06        -0.49710E+08         0.00000E+00
    0.00000E+00         0.00000E+00        -0.48927E+08
 
   -0.48813E+08         0.96429E+06         0.00000E+00
    0.96429E+06        -0.49698E+08         0.00000E+00
    0.00000E+00         0.00000E+00        -0.48928E+08
 
   -0.48839E+08         0.97928E+06         0.00000E+00
    0.97928E+06        -0.49685E+08         0.00000E+00
    0.00000E+00         0.00000E+00        -0.48928E+08
 
   -0.48864E+08         0.99395E+06         0.00000E+00
    0.99395E+06        -0.49673E+08         0.00000E+00
    0.00000E+00         0.00000E+00        -0.48928E+08
 
   -0.48890E+08         0.10083E+07         0.00000E+00
    0.10083E+07        -0.49660E+08         0.00000E+00
    0.00000E+00         0.00000E+00        -0.48928E+08
 
   -0.48916E+08         0.10224E+07         0.00000E+00
    0.10224E+07        -0.49647E+08         0.00000E+00
    0.00000E+00         0.00000E+00        -0.48929E+08
 
   -0.47864E+08         0.13822E+05         0.00000E+00
    0.13822E+05        -0.50000E+08         0.00000E+00
    0.00000E+00         0.00000E+00        -0.48824E+08
 
   -0.47873E+08         0.41135E+05         0.00000E+00
    0.41135E+05        -0.50000E+08         0.00000E+00
    0.00000E+00         0.00000E+00        -0.48824E+08
 
   -0.47883E+08         0.68318E+05         0.00000E+00
    0.68318E+05        -0.49999E+08         0.00000E+00
    0.00000E+00         0.00000E+00        -0.48824E+08
 
   -0.47893E+08         0.95362E+05         0.00000E+00
    0.95362E+05        -0.49998E+08         0.00000E+00
    0.00000E+00         0.00000E+00        -0.48825E+08
 
   -0.47904E+08         0.12226E+06         0.00000E+00
    0.12226E+06        -0.49996E+08         0.00000E+00
    0.00000E+00         0.00000E+00        -0.48825E+08
 
   -0.47916E+08         0.14900E+06         0.00000E+00
    0.14900E+06        -0.49995E+08         0.00000E+00
    0.00000E+00         0.00000E+00        -0.48825E+08
 
   -0.47928E+08         0.17559E+06         0.00000E+00
    0.17559E+06        -0.49993E+08         0.00000E+00
    0.00000E+00         0.00000E+00        -0.48826E+08
 
   -0.47940E+08         0.20200E+06         0.00000E+00
    0.20200E+06        -0.49990E+08         0.00000E+00
    0.00000E+00         0.00000E+00        -0.48826E+08
 
   -0.47953E+08         0.22824E+06         0.00000E+00
    0.22824E+06        -0.49987E+08         0.00000E+00
    0.00000E+00         0.00000E+00        -0.48827E+08
 
   -0.47967E+08         0.25430E+06         0.00000E+00
    0.25430E+06        -0.49984E+08         0.00000E+00
    0.00000E+00         0.00000E+00        -0.48827E+08
 
   -0.47981E+08         0.28017E+06         0.00000E+00
    0.28017E+06        -0.49981E+08         0.00000E+00
    0.00000E+00         0.00000E+00        -0.48828E+08
 
   -0.47996E+08         0.30585E+06         0.00000E+00
    0.30585E+06        -0.49977E+08         0.00000E+00
    0.00000E+00         0.00000E+00        -0.48828E+08
 
   -0.48011E+08         0.33132E+06         0.00000E+00
    0.33132E+06        -0.49973E+08         0.00000E+00
    0.00000E+00         0.00000E+00        -0.48829E+08
 
   -0.48026E+08         0.35659E+06         0.00000E+00
    0.35659E+06        -0.49968E+08         0.00000E+00
    0.00000E+00         0.00000E+00        -0.48830E+08
 
   -0.48042E+08         0.38164E+06         0.00000E+00
    0.38164E+06        -0.49964E+08         0.00000E+00
    0.00000E+00         0.00000E+00        -0.48831E+08
 
   -0.48059E+08         0.40648E+06         0.00000E+00
    0.40648E+06        -0.49959E+08         0.00000E+00
    0.00000E+00         0.00000E+00        -0.48832E+08
 
   -0.48076E+08         0.43109E+06         0.00000E+00
    0.43109E+06        -0.49953E+08         0.00000E+00
    0.00000E+00         0.00000E+00        -0.48832E+08
 
   -0.48094E+08         0.45547E+06         0.00000E+00
    0.45547E+06        -0.49948E+08         0.00000E+00
    0.00000E+00         0.00000E+00        -0.48833E+08
 
   -0.48112E+08         0.47961E+06         0.00000E+00
    0.47961E+06        -0.49942E+08         0.00000E+00
    0.00000E+00         0.00000E+00        -0.48834E+08
 
   -0.48130E+08         0.50351E+06         0.00000E+00
    0.50351E+06        -0.49935E+08         0.00000E+00
    0.00000E+00         0.00000E+00        -0.48835E+08
 
   -0.48149E+08         0.52717E+06         0.00000E+00
    0.52717E+06        -0.49929E+08         0.00000E+00
    0.00000E+00         0.00000E+00        -0.48836E+08
 
   -0.48168E+08         0.55058E+06         0.00000E+00
    0.55058E+06        -0.49922E+08         0.00000E+00
    0.00000E+00         0.00000E+00        -0.48837E+08
 
   -0.48188E+08         0.57373E+06         0.00000E+00
    0.57373E+06        -0.49915E+08         0.00000E+00
    0.00000E+00         0.00000E+00        -0.48838E+08
 
   -0.48208E+08         0.59663E+06         0.00000E+00
    0.59663E+06        -0.49907E+08         0.00000E+00
    0.00000E+00         0.00000E+00        -0.48839E+08
 
   -0.48229E+08         0.61925E+06         0.00000E+00
    0.61925E+06        -0.49900E+08         0.00000E+00
    0.00000E+00         0.00000E+00        -0.48840E+08
 
   -0.48249E+08         0.64162E+06         0.00000E+00
    0.64162E+06        -0.49892E+08         0.00000E+00
    0.00000E+00         0.00000E+00        -0.48841E+08
 
   -0.48271E+08         0.66370E+06         0.00000E+00
    0.66370E+06        -0.49883E+08         0.00000E+00
    0.00000E+00         0.00000E+00        -0.48842E+08
 
   -0.48292E+08         0.68552E+06         0.00000E+00
    0.68552E+06        -0.49875E+08         0.00000E+00
    0.00000E+00         0.00000E+00        -0.48843E+08
 
   -0.48314E+08         0.70705E+06         0.00000E+00
    0.70705E+06        -0.49866E+08         0.00000E+00
    0.00000E+00         0.00000E+00        -0.48844E+08
 
   -0.48337E+08         0.72830E+06         0.00000E+00
    0.72830E+06        -0.49857E+08         0.00000E+00
    0.00000E+00         0.00000E+00        -0.48845E+08
 
   -0.48360E+08         0.74926E+06         0.00000E+00
    0.74926E+06        -0.49848E+08         0.00000E+00
    0.00000E+00         0.00000E+00        -0.48846E+08
 
   -0.48383E+08         0.76993E+06         0.00000E+00
    0.76993E+06        -0.49838E+08         0.00000E+00
    0.00000E+00         0.00000E+00        -0.48847E+08
 
   -0.48406E+08         0.79030E+06         0.00000E+00
    0.79030E+06        -0.49828E+08         0.00000E+00
    0.00000E+00         0.00000E+00        -0.48848E+08
 
   -0.48430E+08         0.81038E+06         0.00000E+00
    0.81038E+06        -0.49818E+08         0.00000E+00
    0.00000E+00         0.00000E+00        -0.48849E+08
 
   -0.48454E+08         0.83016E+06         0.00000E+00
    0.83016E+06        -0.49808E+08         0.00000E+00
    0.00000E+00         0.00000E+00        -0.48850E+08
 
   -0.48478E+08         0.84963E+06         0.00000E+00
    0.84963E+06        -0.49797E+08         0.00000E+00
    0.00000E+00         0.00000E+00        -0.48851E+08
 
   -0.48502E+08         0.86880E+06         0.00000E+00
    0.86880E+06        -0.49786E+08         0.00000E+00
    0.00000E+00         0.00000E+00        -0.48852E+08
 
   -0.48527E+08         0.88766E+06         0.00000E+00
    0.88766E+06        -0.49775E+08         0.00000E+00
    0.00000E+00         0.00000E+00        -0.48852E+08
 
   -0.48552E+08         0.90620E+06         0.00000E+00
    0.90620E+06        -0.49764E+08         0.00000E+00
    0.00000E+00         0.00000E+00        -0.48853E+08
 
   -0.48578E+08         0.92444E+06         0.00000E+00
    0.92444E+06        -0.49752E+08         0.00000E+00
    0.00000E+00         0.00000E+00        -0.48854E+08
 
   -0.48603E+08         0.94235E+06         0.00000E+00
    0.94235E+06        -0.49740E+08         0.00000E+00
    0.00000E+00         0.00000E+00        -0.48854E+08
 
   -0.48629E+08         0.95995E+06         0.00000E+00
    0.95995E+06        -0.49728E+08         0.00000E+00
    0.00000E+00         0.00000E+00        -0.48855E+08
 
   -0.48655E+08         0.97722E+06         0.00000E+00
    0.97722E+06        -0.49716E+08         0.00000E+00
    0.00000E+00         0.00000E+00        -0.48856E+08
 
   -0.48682E+08         0.99417E+06         0.00000E+00
    0.99417E+06        -0.49704E+08         0.00000E+00
    0.00000E+00         0.00000E+00        -0.48856E+08
 
   -0.48708E+08         0.10108E+07         0.00000E+00
    0.10108E+07        -0.49691E+08         0.00000E+00
    0.00000E+00         0.00000E+00        -0.48857E+08
 
   -0.48735E+08         0.10271E+07         0.00000E+00
    0.10271E+07        -0.49678E+08         0.00000E+00
    0.00000E+00         0.00000E+00        -0.48857E+08
 
   -0.48762E+08         0.10431E+07         0.00000E+00
    0.10431E+07        -0.49665E+08         0.00000E+00
    0.00000E+00         0.00000E+00        -0.48857E+08
 
   -0.48789E+08         0.10587E+07         0.00000E+00
    0.10587E+07        -0.49652E+08         0.00000E+00
    0.00000E+00         0.00000E+00        -0.48857E+08
 
   -0.48816E+08         0.10740E+07         0.00000E+00
    0.10740E+07        -0.49638E+08         0.00000E+00
    0.00000E+00         0.00000E+00        -0.48858E+08
 
   -0.48844E+08         0.10890E+07         0.00000E+00
    0.10890E+07        -0.49625E+08         0.00000E+00
    0.00000E+00         0.00000E+00        -0.48858E+08
 
   -0.47723E+08         0.14754E+05         0.00000E+00
    0.14754E+05        -0.50000E+08         0.00000E+00
    0.00000E+00         0.00000E+00        -0.48746E+08
 
   -0.47733E+08         0.43898E+05         0.00000E+00
    0.43898E+05        -0.50000E+08         0.00000E+00
    0.00000E+00         0.00000E+00        -0.48746E+08
 
   -0.47743E+08         0.72899E+05         0.00000E+00
    0.72899E+05        -0.49999E+08         0.00000E+00
    0.00000E+00         0.00000E+00        -0.48747E+08
 
   -0.47754E+08         0.10175E+06         0.00000E+00
    0.10175E+06        -0.49998E+08         0.00000E+00
    0.00000E+00         0.00000E+00        -0.48747E+08
 
   -0.47766E+08         0.13044E+06         0.00000E+00
    0.13044E+06        -0.49996E+08         0.00000E+00
    0.00000E+00         0.00000E+00        -0.48747E+08
 
   -0.47778E+08         0.15896E+06         0.00000E+00
    0.15896E+06        -0.49994E+08         0.00000E+00
    0.00000E+00         0.00000E+00        -0.48747E+08
 
   -0.47791E+08         0.18731E+06         0.00000E+00
    0.18731E+06        -0.49992E+08         0.00000E+00
    0.00000E+00         0.00000E+00        -0.48748E+08
 
   -0.47804E+08         0.21547E+06         0.00000E+00
    0.21547E+06        -0.49989E+08         0.00000E+00
    0.00000E+00         0.00000E+00        -0.48748E+08
 
   -0.47818E+08         0.24344E+06         0.00000E+00
    0.24344E+06        -0.49986E+08         0.00000E+00
    0.00000E+00         0.00000E+00        -0.48749E+08
 
   -0.47833E+08         0.27122E+06         0.00000E+00
    0.27122E+06        -0.49983E+08         0.00000E+00
    0.00000E+00         0.00000E+00        -0.48750E+08
 
   -0.47848E+08         0.29879E+06         0.00000E+00
    0.29879E+06        -0.49979E+08         0.00000E+00
    0.00000E+00         0.00000E+00        -0.48750E+08
 
   -0.47864E+08         0.32615E+06         0.00000E+00
    0.32615E+06        -0.49975E+08         0.00000E+00
    0.00000E+00         0.00000E+00        -0.48751E+08
 
   -0.47880E+08         0.35329E+06         0.00000E+00
    0.35329E+06        -0.49971E+08         0.00000E+00
    0.00000E+00         0.00000E+00        -0.48752E+08
 
   -0.47896E+08         0.38021E+06         0.00000E+00
    0.38021E+06        -0.49966E+08         0.00000E+00
    0.00000E+00         0.00000E+00        -0.48753E+08
 
   -0.47914E+08         0.40690E+06         0.00000E+00
    0.40690E+06        -0.49961E+08         0.00000E+00
    0.00000E+00         0.00000E+00        -0.48753E+08
 
   -0.47931E+08         0.43335E+06         0.00000E+00
    0.43335E+06        -0.49956E+08         0.00000E+00
    0.00000E+00         0.00000E+00        -0.48754E+08
 
   -0.47950E+08         0.45956E+06         0.00000E+00
    0.45956E+06        -0.49950E+08         0.00000E+00
    0.00000E+00         0.00000E+00        -0.48755E+08
 
   -0.47968E+08         0.48552E+06         0.00000E+00
    0.48552E+06        -0.49944E+08         0.00000E+00
    0.00000E+00         0.00000E+00        -0.48756E+08
 
   -0.47988E+08         0.51123E+06         0.00000E+00
    0.51123E+06        -0.49938E+08         0.00000E+00
    0.00000E+00         0.00000E+00        -0.48757E+08
 
   -0.48007E+08         0.53668E+06         0.00000E+00
    0.53668E+06        -0.49931E+08         0.00000E+00
    0.00000E+00         0.00000E+00        -0.48758E+08
 
   -0.48027E+08         0.56186E+06         0.00000E+00
    0.56186E+06        -0.49924E+08         0.00000E+00
    0.00000E+00         0.00000E+00        -0.48759E+08
 
   -0.48048E+08         0.58678E+06         0.00000E+00
    0.58678E+06        -0.49917E+08         0.00000E+00
    0.00000E+00         0.00000E+00        -0.48760E+08
 
   -0.48069E+08         0.61142E+06         0.00000E+00
    0.61142E+06        -0.49909E+08         0.00000E+00
    0.00000E+00         0.00000E+00        -0.48761E+08
 
   -0.48091E+08         0.63578E+06         0.00000E+00
    0.63578E+06        -0.49901E+08         0.00000E+00
    0.00000E+00         0.00000E+00        -0.48762E+08
 
   -0.48113E+08         0.65987E+06         0.00000E+00
    0.65987E+06        -0.49893E+08         0.00000E+00
    0.00000E+00         0.00000E+00        -0.48763E+08
 
   -0.48135E+08         0.68366E+06         0.00000E+00
    0.68366E+06        -0.49885E+08         0.00000E+00
    0.00000E+00         0.00000E+00        -0.48765E+08
 
   -0.48158E+08         0.70716E+06         0.00000E+00
    0.70716E+06        -0.49876E+08         0.00000E+00
    0.00000E+00         0.00000E+00        -0.48766E+08
 
   -0.48181E+08         0.73037E+06         0.00000E+00
    0.73037E+06        -0.49867E+08         0.00000E+00
    0.00000E+00         0.00000E+00        -0.48767E+08
 
   -0.48204E+08         0.75328E+06         0.00000E+00
    0.75328E+06        -0.49857E+08         0.00000E+00
    0.00000E+00         0.00000E+00        -0.48768E+08
 
   -0.48228E+08         0.77589E+06         0.00000E+00
    0.77589E+06        -0.49848E+08         0.00000E+00
    0.00000E+00         0.00000E+00        -0.48769E+08
 
   -0.48252E+08         0.79819E+06         0.00000E+00
    0.79819E+06        -0.49838E+08         0.00000E+00
    0.00000E+00         0.00000E+00        -0.48770E+08
 
   -0.48277E+08         0.82018E+06         0.00000E+00
    0.82018E+06        -0.49827E+08         0.00000E+00
    0.00000E+00         0.00000E+00        -0.48771E+08
 
   -0.48302E+08         0.84185E+06         0.00000E+00
    0.84185E+06        -0.49817E+08         0.00000E+00
    0.00000E+00         0.00000E+00        -0.48772E+08
 
   -0.48327E+08         0.86321E+06         0.00000E+00
    0.86321E+06        -0.49806E+08         0.00000E+00
    0.00000E+00         0.00000E+00        -0.48773E+08
 
   -0.48352E+08         0.88426E+06         0.00000E+00
    0.88426E+06        -0.49795E+08         0.00000E+00
    0.00000E+00         0.00000E+00        -0.48774E+08
 
   -0.48378E+08         0.90497E+06         0.00000E+00
    0.90497E+06        -0.49784E+08         0.00000E+00
    0.00000E+00         0.00000E+00        -0.48775E+08
 
   -0.48404E+08         0.92537E+06         0.00000E+00
    0.92537E+06        -0.49772E+08         0.00000E+00
    0.00000E+00         0.00000E+00        -0.48776E+08
 
   -0.48431E+08         0.94543E+06         0.00000E+00
    0.94543E+06        -0.49760E+08         0.00000E+00
    0.00000E+00         0.00000E+00        -0.48776E+08
 
   -0.48458E+08         0.96517E+06         0.00000E+00
    0.96517E+06        -0.49748E+08         0.00000E+00
    0.00000E+00         0.00000E+00        -0.48777E+08
 
   -0.48485E+08         0.98457E+06         0.00000E+00
    0.98457E+06        -0.49736E+08         0.00000E+00
    0.00000E+00         0.00000E+00        -0.48778E+08
 
   -0.48512E+08         0.10036E+07         0.00000E+00
    0.10036E+07        -0.49724E+08         0.00000E+00
    0.00000E+00         0.00000E+00        -0.48779E+08
 
   -0.48539E+08         0.10224E+07         0.00000E+00
    0.10224E+07        -0.49711E+08         0.00000E+00
    0.00000E+00         0.00000E+00        -0.48779E+08
 
   -0.48567E+08         0.10407E+07         0.00000E+00
    0.10407E+07        -0.49698E+08         0.00000E+00
    0.00000E+00         0.00000E+00        -0.48780E+08
 
   -0.48595E+08         0.10588E+07         0.00000E+00
    0.10588E+07        -0.49685E+08         0.00000E+00
    0.00000E+00         0.00000E+00        -0.48780E+08
 
   -0.48623E+08         0.10765E+07         0.00000E+00
    0.10765E+07        -0.49671E+08         0.00000E+00
    0.00000E+00         0.00000E+00        -0.48781E+08
 
   -0.48652E+08         0.10938E+07         0.00000E+00
    0.10938E+07        -0.49658E+08         0.00000E+00
    0.00000E+00         0.00000E+00        -0.48781E+08
 
   -0.48680E+08         0.11108E+07         0.00000E+00
    0.11108E+07        -0.49644E+08         0.00000E+00
    0.00000E+00         0.00000E+00        -0.48782E+08
 
   -0.48709E+08         0.11275E+07         0.00000E+00
    0.11275E+07        -0.49630E+08         0.00000E+00
    0.00000E+00         0.00000E+00        -0.48782E+08
 
   -0.48738E+08         0.11438E+07         0.00000E+00
    0.11438E+07        -0.49615E+08         0.00000E+00
    0.00000E+00         0.00000E+00        -0.48782E+08
 
   -0.48767E+08         0.11597E+07         0.00000E+00
    0.11597E+07        -0.49601E+08         0.00000E+00
    0.00000E+00         0.00000E+00        -0.48782E+08
 
   -0.47572E+08         0.15751E+05         0.00000E+00
    0.15751E+05        -0.50000E+08         0.00000E+00
    0.00000E+00         0.00000E+00        -0.48663E+08
 
   -0.47582E+08         0.46853E+05         0.00000E+00
    0.46853E+05        -0.49999E+08         0.00000E+00
    0.00000E+00         0.00000E+00        -0.48663E+08
 
   -0.47594E+08         0.77797E+05         0.00000E+00
    0.77797E+05        -0.49999E+08         0.00000E+00
    0.00000E+00         0.00000E+00        -0.48664E+08
 
   -0.47605E+08         0.10857E+06         0.00000E+00
    0.10857E+06        -0.49997E+08         0.00000E+00
    0.00000E+00         0.00000E+00        -0.48664E+08
 
   -0.47618E+08         0.13918E+06         0.00000E+00
    0.13918E+06        -0.49996E+08         0.00000E+00
    0.00000E+00         0.00000E+00        -0.48664E+08
 
   -0.47631E+08         0.16960E+06         0.00000E+00
    0.16960E+06        -0.49994E+08         0.00000E+00
    0.00000E+00         0.00000E+00        -0.48665E+08
 
   -0.47645E+08         0.19982E+06         0.00000E+00
    0.19982E+06        -0.49991E+08         0.00000E+00
    0.00000E+00         0.00000E+00        -0.48665E+08
 
   -0.47659E+08         0.22985E+06         0.00000E+00
    0.22985E+06        -0.49989E+08         0.00000E+00
    0.00000E+00         0.00000E+00        -0.48666E+08
 
   -0.47674E+08         0.25967E+06         0.00000E+00
    0.25967E+06        -0.49986E+08         0.00000E+00
    0.00000E+00         0.00000E+00        -0.48666E+08
 
   -0.47690E+08         0.28927E+06         0.00000E+00
    0.28927E+06        -0.49982E+08         0.00000E+00
    0.00000E+00         0.00000E+00        -0.48667E+08
 
   -0.47706E+08         0.31865E+06         0.00000E+00
    0.31865E+06        -0.49978E+08         0.00000E+00
    0.00000E+00         0.00000E+00        -0.48668E+08
 
   -0.47723E+08         0.34781E+06         0.00000E+00
    0.34781E+06        -0.49974E+08         0.00000E+00
    0.00000E+00         0.00000E+00        -0.48668E+08
 
   -0.47740E+08         0.37672E+06         0.00000E+00
    0.37672E+06        -0.49969E+08         0.00000E+00
    0.00000E+00         0.00000E+00        -0.48669E+08
 
   -0.47758E+08         0.40540E+06         0.00000E+00
    0.40540E+06        -0.49964E+08         0.00000E+00
    0.00000E+00         0.00000E+00        -0.48670E+08
 
   -0.47777E+08         0.43382E+06         0.00000E+00
    0.43382E+06        -0.49959E+08         0.00000E+00
    0.00000E+00         0.00000E+00        -0.48671E+08
 
   -0.47796E+08         0.46199E+06         0.00000E+00
    0.46199E+06        -0.49953E+08         0.00000E+00
    0.00000E+00         0.00000E+00        -0.48672E+08
 
   -0.47815E+08         0.48989E+06         0.00000E+00
    0.48989E+06        -0.49947E+08         0.00000E+00
    0.00000E+00         0.00000E+00        -0.48673E+08
 
   -0.47835E+08         0.51753E+06         0.00000E+00
    0.51753E+06        -0.49940E+08         0.00000E+00
    0.00000E+00         0.00000E+00        -0.48674E+08
 
   -0.47856E+08         0.54490E+06         0.00000E+00
    0.54490E+06        -0.49934E+08         0.00000E+00
    0.00000E+00         0.00000E+00        -0.48675E+08
 
   -0.47877E+08         0.57199E+06         0.00000E+00
    0.57199E+06        -0.49927E+08         0.00000E+00
    0.00000E+00         0.00000E+00        -0.48676E+08
 
   -0.47898E+08         0.59879E+06         0.00000E+00
    0.59879E+06        -0.49919E+08         0.00000E+00
    0.00000E+00         0.00000E+00        -0.48677E+08
 
   -0.47920E+08         0.62531E+06         0.00000E+00
    0.62531E+06        -0.49911E+08         0.00000E+00
    0.00000E+00         0.00000E+00        -0.48678E+08
 
   -0.47943E+08         0.65153E+06         0.00000E+00
    0.65153E+06        -0.49903E+08         0.00000E+00
    0.00000E+00         0.00000E+00        -0.48679E+08
 
   -0.47966E+08         0.67745E+06         0.00000E+00
    0.67745E+06        -0.49895E+08         0.00000E+00
    0.00000E+00         0.00000E+00        -0.48681E+08
 
   -0.47989E+08         0.70307E+06         0.00000E+00
    0.70307E+06        -0.49886E+08         0.00000E+00
    0.00000E+00         0.00000E+00        -0.48682E+08
 
   -0.48013E+08         0.72838E+06         0.00000E+00
    0.72838E+06        -0.49877E+08         0.00000E+00
    0.00000E+00         0.00000E+00        -0.48683E+08
 
   -0.48037E+08         0.75339E+06         0.00000E+00
    0.75339E+06        -0.49868E+08         0.00000E+00
    0.00000E+00         0.00000E+00        -0.48684E+08
 
   -0.48062E+08         0.77807E+06         0.00000E+00
    0.77807E+06        -0.49858E+08         0.00000E+00
    0.00000E+00         0.00000E+00        -0.48685E+08
 
   -0.48087E+08         0.80244E+06         0.00000E+00
    0.80244E+06        -0.49848E+08         0.00000E+00
    0.00000E+00         0.00000E+00        -0.48686E+08
 
   -0.48112E+08         0.82648E+06         0.00000E+00
    0.82648E+06        -0.49838E+08         0.00000E+00
    0.00000E+00         0.00000E+00        -0.48687E+08
 
   -0.48138E+08         0.85020E+06         0.00000E+00
    0.85020E+06        -0.49827E+08         0.00000E+00
    0.00000E+00         0.00000E+00        -0.48689E+08
 
   -0.48164E+08         0.87359E+06         0.00000E+00
    0.87359E+06        -0.49816E+08         0.00000E+00
    0.00000E+00         0.00000E+00        -0.48690E+08
 
   -0.48191E+08         0.89664E+06         0.00000E+00
    0.89664E+06        -0.49805E+08         0.00000E+00
    0.00000E+00         0.00000E+00        -0.48691E+08
 
   -0.48217E+08         0.91936E+06         0.00000E+00
    0.91936E+06        -0.49794E+08         0.00000E+00
    0.00000E+00         0.00000E+00        -0.48692E+08
 
   -0.48245E+08         0.94174E+06         0.00000E+00
    0.94174E+06        -0.49782E+08         0.00000E+00
    0.00000E+00         0.00000E+00        -0.48693E+08
 
   -0.48272E+08         0.96378E+06         0.00000E+00
    0.96378E+06        -0.49770E+08         0.00000E+00
    0.00000E+00         0.00000E+00        -0.48694E+08
 
   -0.48300E+08         0.98547E+06         0.00000E+00
    0.98547E+06        -0.49758E+08         0.00000E+00
    0.00000E+00         0.00000E+00        -0.48695E+08
 
   -0.48328E+08         0.10068E+07         0.00000E+00
    0.10068E+07        -0.49745E+08         0.00000E+00
    0.00000E+00         0.00000E+00        -0.48696E+08
 
   -0.48357E+08         0.10278E+07         0.00000E+00
    0.10278E+07        -0.49732E+08         0.00000E+00
    0.00000E+00         0.00000E+00        -0.48696E+08
 
   -0.48385E+08         0.10484E+07         0.00000E+00
    0.10484E+07        -0.49719E+08         0.00000E+00
    0.00000E+00         0.00000E+00        -0.48697E+08
 
   -0.48414E+08         0.10687E+07         0.00000E+00
    0.10687E+07        -0.49706E+08         0.00000E+00
    0.00000E+00         0.00000E+00        -0.48698E+08
 
   -0.48444E+08         0.10887E+07         0.00000E+00
    0.10887E+07        -0.49693E+08         0.00000E+00
    0.00000E+00         0.00000E+00        -0.48699E+08
 
   -0.48473E+08         0.11082E+07         0.00000E+00
    0.11082E+07        -0.49679E+08         0.00000E+00
    0.00000E+00         0.00000E+00        -0.48699E+08
 
   -0.48503E+08         0.11274E+07         0.00000E+00
    0.11274E+07        -0.49665E+08         0.00000E+00
    0.00000E+00         0.00000E+00        -0.48700E+08
 
   -0.48533E+08         0.11463E+07         0.00000E+00
    0.11463E+07        -0.49650E+08         0.00000E+00
    0.00000E+00         0.00000E+00        -0.48700E+08
 
   -0.48563E+08         0.11648E+07         0.00000E+00
    0.11648E+07        -0.49636E+08         0.00000E+00
    0.00000E+00         0.00000E+00        -0.48701E+08
 
   -0.48594E+08         0.11829E+07         0.00000E+00
    0.11829E+07        -0.49621E+08         0.00000E+00
    0.00000E+00         0.00000E+00        -0.48701E+08
 
   -0.48624E+08         0.12006E+07         0.00000E+00
    0.12006E+07        -0.49606E+08         0.00000E+00
    0.00000E+00         0.00000E+00        -0.48701E+08
 
   -0.48655E+08         0.12180E+07         0.00000E+00
    0.12180E+07        -0.49591E+08         0.00000E+00
    0.00000E+00         0.00000E+00        -0.48701E+08
 
   -0.48686E+08         0.12350E+07         0.00000E+00
    0.12350E+07        -0.49576E+08         0.00000E+00
    0.00000E+00         0.00000E+00        -0.48702E+08
 
   -0.47411E+08         0.16819E+05         0.00000E+00
    0.16819E+05        -0.50000E+08         0.00000E+00
    0.00000E+00         0.00000E+00        -0.48575E+08
 
   -0.47422E+08         0.50014E+05         0.00000E+00
    0.50014E+05        -0.49999E+08         0.00000E+00
    0.00000E+00         0.00000E+00        -0.48575E+08
 
   -0.47434E+08         0.83034E+05         0.00000E+00
    0.83034E+05        -0.49999E+08         0.00000E+00
    0.00000E+00         0.00000E+00        -0.48575E+08
 
   -0.47447E+08         0.11587E+06         0.00000E+00
    0.11587E+06        -0.49997E+08         0.00000E+00
    0.00000E+00         0.00000E+00        -0.48575E+08
 
   -0.47460E+08         0.14851E+06         0.00000E+00
    0.14851E+06        -0.49996E+08         0.00000E+00
    0.00000E+00         0.00000E+00        -0.48576E+08
 
   -0.47474E+08         0.18095E+06         0.00000E+00
    0.18095E+06        -0.49993E+08         0.00000E+00
    0.00000E+00         0.00000E+00        -0.48576E+08
 
   -0.47489E+08         0.21319E+06         0.00000E+00
    0.21319E+06        -0.49991E+08         0.00000E+00
    0.00000E+00         0.00000E+00        -0.48577E+08
 
   -0.47505E+08         0.24520E+06         0.00000E+00
    0.24520E+06        -0.49988E+08         0.00000E+00
    0.00000E+00         0.00000E+00        -0.48577E+08
 
   -0.47521E+08         0.27698E+06         0.00000E+00
    0.27698E+06        -0.49985E+08         0.00000E+00
    0.00000E+00         0.00000E+00        -0.48578E+08
 
   -0.47538E+08         0.30853E+06         0.00000E+00
    0.30853E+06        -0.49981E+08         0.00000E+00
    0.00000E+00         0.00000E+00        -0.48579E+08
 
   -0.47555E+08         0.33984E+06         0.00000E+00
    0.33984E+06        -0.49977E+08         0.00000E+00
    0.00000E+00         0.00000E+00        -0.48579E+08
 
   -0.47573E+08         0.37090E+06         0.00000E+00
    0.37090E+06        -0.49972E+08         0.00000E+00
    0.00000E+00         0.00000E+00        -0.48580E+08
 
   -0.47592E+08         0.40170E+06         0.00000E+00
    0.40170E+06        -0.49967E+08         0.00000E+00
    0.00000E+00         0.00000E+00        -0.48581E+08
 
   -0.47611E+08         0.43224E+06         0.00000E+00
    0.43224E+06        -0.49962E+08         0.00000E+00
    0.00000E+00         0.00000E+00        -0.48582E+08
 
   -0.47631E+08         0.46250E+06         0.00000E+00
    0.46250E+06        -0.49956E+08         0.00000E+00
    0.00000E+00         0.00000E+00        -0.48583E+08
 
   -0.47651E+08         0.49249E+06         0.00000E+00
    0.49249E+06        -0.49950E+08         0.00000E+00
    0.00000E+00         0.00000E+00        -0.48584E+08
 
   -0.47672E+08         0.52220E+06         0.00000E+00
    0.52220E+06        -0.49943E+08         0.00000E+00
    0.00000E+00         0.00000E+00        -0.48585E+08
 
   -0.47693E+08         0.55162E+06         0.00000E+00
    0.55162E+06        -0.49937E+08         0.00000E+00
    0.00000E+00         0.00000E+00        -0.48586E+08
 
   -0.47715E+08         0.58074E+06         0.00000E+00
    0.58074E+06        -0.49929E+08         0.00000E+00
    0.00000E+00         0.00000E+00        -0.48587E+08
 
   -0.47738E+08         0.60957E+06         0.00000E+00
    0.60957E+06        -0.49922E+08         0.00000E+00
    0.00000E+00         0.00000E+00        -0.48588E+08
 
   -0.47761E+08         0.63808E+06         0.00000E+00
    0.63808E+06        -0.49914E+08         0.00000E+00
    0.00000E+00         0.00000E+00        -0.48590E+08
 
   -0.47784E+08         0.66629E+06         0.00000E+00
    0.66629E+06        -0.49906E+08         0.00000E+00
    0.00000E+00         0.00000E+00        -0.48591E+08
 
   -0.47808E+08         0.69419E+06         0.00000E+00
    0.69419E+06        -0.49897E+08         0.00000E+00
    0.00000E+00         0.00000E+00        -0.48592E+08
 
   -0.47833E+08         0.72176E+06         0.00000E+00
    0.72176E+06        -0.49888E+08         0.00000E+00
    0.00000E+00         0.00000E+00        -0.48593E+08
 
   -0.47858E+08         0.74901E+06         0.00000E+00
    0.74901E+06        -0.49879E+08         0.00000E+00
    0.00000E+00         0.00000E+00        -0.48595E+08
 
   -0.47883E+08         0.77593E+06         0.00000E+00
    0.77593E+06        -0.49869E+08         0.00000E+00
    0.00000E+00         0.00000E+00        -0.48596E+08
 
   -0.47909E+08         0.80251E+06         0.00000E+00
    0.80251E+06        -0.49859E+08         0.00000E+00
    0.00000E+00         0.00000E+00        -0.48597E+08
 
   -0.47935E+08         0.82876E+06         0.00000E+00
    0.82876E+06        -0.49849E+08         0.00000E+00
    0.00000E+00         0.00000E+00        -0.48598E+08
 
   -0.47962E+08         0.85467E+06         0.00000E+00
    0.85467E+06        -0.49838E+08         0.00000E+00
    0.00000E+00         0.00000E+00        -0.48599E+08
 
   -0.47989E+08         0.88024E+06         0.00000E+00
    0.88024E+06        -0.49827E+08         0.00000E+00
    0.00000E+00         0.00000E+00        -0.48601E+08
 
   -0.48016E+08         0.90546E+06         0.00000E+00
    0.90546E+06        -0.49816E+08         0.00000E+00
    0.00000E+00         0.00000E+00        -0.48602E+08
 
   -0.48044E+08         0.93033E+06         0.00000E+00
    0.93033E+06        -0.49804E+08         0.00000E+00
    0.00000E+00         0.00000E+00        -0.48603E+08
 
   -0.48073E+08         0.95484E+06         0.00000E+00
    0.95484E+06        -0.49793E+08         0.00000E+00
    0.00000E+00         0.00000E+00        -0.48604E+08
 
   -0.48101E+08         0.97899E+06         0.00000E+00
    0.97899E+06        -0.49781E+08         0.00000E+00
    0.00000E+00         0.00000E+00        -0.48605E+08
 
   -0.48130E+08         0.10028E+07         0.00000E+00
    0.10028E+07        -0.49768E+08         0.00000E+00
    0.00000E+00         0.00000E+00        -0.48606E+08
 
   -0.48159E+08         0.10262E+07         0.00000E+00
    0.10262E+07        -0.49755E+08         0.00000E+00
    0.00000E+00         0.00000E+00        -0.48607E+08
 
   -0.48189E+08         0.10493E+07         0.00000E+00
    0.10493E+07        -0.49742E+08         0.00000E+00
    0.00000E+00         0.00000E+00        -0.48608E+08
 
   -0.48219E+08         0.10720E+07         0.00000E+00
    0.10720E+07        -0.49729E+08         0.00000E+00
    0.00000E+00         0.00000E+00        -0.48609E+08
 
   -0.48249E+08         0.10943E+07         0.00000E+00
    0.10943E+07        -0.49716E+08         0.00000E+00
    0.00000E+00         0.00000E+00        -0.48610E+08
 
   -0.48280E+08         0.11163E+07         0.00000E+00
    0.11163E+07        -0.49702E+08         0.00000E+00
    0.00000E+00         0.00000E+00        -0.48611E+08
 
   -0.48311E+08         0.11379E+07         0.00000E+00
    0.11379E+07        -0.49688E+08         0.00000E+00
    0.00000E+00         0.00000E+00        -0.48612E+08
 
   -0.48342E+08         0.11591E+07         0.00000E+00
    0.11591E+07        -0.49673E+08         0.00000E+00
    0.00000E+00         0.00000E+00        -0.48613E+08
 
   -0.48373E+08         0.11799E+07         0.00000E+00
    0.11799E+07        -0.49659E+08         0.00000E+00
    0.00000E+00         0.00000E+00        -0.48613E+08
 
   -0.48405E+08         0.12003E+07         0.00000E+00
    0.12003E+07        -0.49644E+08         0.00000E+00
    0.00000E+00         0.00000E+00        -0.48614E+08
 
   -0.48437E+08         0.12204E+07         0.00000E+00
    0.12204E+07        -0.49629E+08         0.00000E+00
    0.00000E+00         0.00000E+00        -0.48614E+08
 
   -0.48469E+08         0.12400E+07         0.00000E+00
    0.12400E+07        -0.49613E+08         0.00000E+00
    0.00000E+00         0.00000E+00        -0.48615E+08
 
   -0.48501E+08         0.12593E+07         0.00000E+00
    0.12593E+07        -0.49598E+08         0.00000E+00
    0.00000E+00         0.00000E+00        -0.48615E+08
 
   -0.48534E+08         0.12782E+07         0.00000E+00
    0.12782E+07        -0.49582E+08         0.00000E+00
    0.00000E+00         0.00000E+00        -0.48615E+08
 
   -0.48566E+08         0.12967E+07         0.00000E+00
    0.12967E+07        -0.49566E+08         0.00000E+00
    0.00000E+00         0.00000E+00        -0.48616E+08
 
   -0.48599E+08         0.13148E+07         0.00000E+00
    0.13148E+07        -0.49549E+08         0.00000E+00
    0.00000E+00         0.00000E+00        -0.48616E+08
 
   -0.47239E+08         0.17963E+05         0.00000E+00
    0.17963E+05        -0.50000E+08         0.00000E+00
    0.00000E+00         0.00000E+00        -0.48480E+08
 
   -0.47251E+08         0.53395E+05         0.00000E+00
    0.53395E+05        -0.49999E+08         0.00000E+00
    0.00000E+00         0.00000E+00        -0.48481E+08
 
   -0.47264E+08         0.88632E+05         0.00000E+00
    0.88632E+05        -0.49998E+08         0.00000E+00
    0.00000E+00         0.00000E+00        -0.48481E+08
 
   -0.47278E+08         0.12367E+06         0.00000E+00
    0.12367E+06        -0.49997E+08         0.00000E+00
    0.00000E+00         0.00000E+00        -0.48481E+08
 
   -0.47292E+08         0.15849E+06         0.00000E+00
    0.15849E+06        -0.49995E+08         0.00000E+00
    0.00000E+00         0.00000E+00        -0.48481E+08
 
   -0.47307E+08         0.19308E+06         0.00000E+00
    0.19308E+06        -0.49993E+08         0.00000E+00
    0.00000E+00         0.00000E+00        -0.48482E+08
 
   -0.47323E+08         0.22745E+06         0.00000E+00
    0.22745E+06        -0.49990E+08         0.00000E+00
    0.00000E+00         0.00000E+00        -0.48482E+08
 
   -0.47340E+08         0.26158E+06         0.00000E+00
    0.26158E+06        -0.49987E+08         0.00000E+00
    0.00000E+00         0.00000E+00        -0.48483E+08
 
   -0.47357E+08         0.29545E+06         0.00000E+00
    0.29545E+06        -0.49984E+08         0.00000E+00
    0.00000E+00         0.00000E+00        -0.48484E+08
 
   -0.47375E+08         0.32907E+06         0.00000E+00
    0.32907E+06        -0.49979E+08         0.00000E+00
    0.00000E+00         0.00000E+00        -0.48485E+08
 
   -0.47394E+08         0.36243E+06         0.00000E+00
    0.36243E+06        -0.49975E+08         0.00000E+00
    0.00000E+00         0.00000E+00        -0.48485E+08
 
   -0.47413E+08         0.39551E+06         0.00000E+00
    0.39551E+06        -0.49970E+08         0.00000E+00
    0.00000E+00         0.00000E+00        -0.48486E+08
 
   -0.47433E+08         0.42831E+06         0.00000E+00
    0.42831E+06        -0.49965E+08         0.00000E+00
    0.00000E+00         0.00000E+00        -0.48487E+08
 
   -0.47454E+08         0.46082E+06         0.00000E+00
    0.46082E+06        -0.49959E+08         0.00000E+00
    0.00000E+00         0.00000E+00        -0.48488E+08
 
   -0.47475E+08         0.49305E+06         0.00000E+00
    0.49305E+06        -0.49953E+08         0.00000E+00
    0.00000E+00         0.00000E+00        -0.48489E+08
 
   -0.47497E+08         0.52497E+06         0.00000E+00
    0.52497E+06        -0.49947E+08         0.00000E+00
    0.00000E+00         0.00000E+00        -0.48490E+08
 
   -0.47519E+08         0.55658E+06         0.00000E+00
    0.55658E+06        -0.49940E+08         0.00000E+00
    0.00000E+00         0.00000E+00        -0.48491E+08
 
   -0.47542E+08         0.58788E+06         0.00000E+00
    0.58788E+06        -0.49932E+08         0.00000E+00
    0.00000E+00         0.00000E+00        -0.48493E+08
 
   -0.47566E+08         0.61887E+06         0.00000E+00
    0.61887E+06        -0.49925E+08         0.00000E+00
    0.00000E+00         0.00000E+00        -0.48494E+08
 
   -0.47590E+08         0.64953E+06         0.00000E+00
    0.64953E+06        -0.49917E+08         0.00000E+00
    0.00000E+00         0.00000E+00        -0.48495E+08
 
   -0.47614E+08         0.67986E+06         0.00000E+00
    0.67986E+06        -0.49908E+08         0.00000E+00
    0.00000E+00         0.00000E+00        -0.48496E+08
 
   -0.47640E+08         0.70986E+06         0.00000E+00
    0.70986E+06        -0.49899E+08         0.00000E+00
    0.00000E+00         0.00000E+00        -0.48498E+08
 
   -0.47665E+08         0.73952E+06         0.00000E+00
    0.73952E+06        -0.49890E+08         0.00000E+00
    0.00000E+00         0.00000E+00        -0.48499E+08
 
   -0.47691E+08         0.76884E+06         0.00000E+00
    0.76884E+06        -0.49881E+08         0.00000E+00
    0.00000E+00         0.00000E+00        -0.48500E+08
 
   -0.47718E+08         0.79781E+06         0.00000E+00
    0.79781E+06        -0.49871E+08         0.00000E+00
    0.00000E+00         0.00000E+00        -0.48502E+08
 
   -0.47745E+08         0.82643E+06         0.00000E+00
    0.82643E+06        -0.49861E+08         0.00000E+00
    0.00000E+00         0.00000E+00        -0.48503E+08
 
   -0.47773E+08         0.85469E+06         0.00000E+00
    0.85469E+06        -0.49850E+08         0.00000E+00
    0.00000E+00         0.00000E+00        -0.48504E+08
 
   -0.47801E+08         0.88259E+06         0.00000E+00
    0.88259E+06        -0.49839E+08         0.00000E+00
    0.00000E+00         0.00000E+00        -0.48506E+08
 
   -0.47829E+08         0.91013E+06         0.00000E+00
    0.91013E+06        -0.49828E+08         0.00000E+00
    0.00000E+00         0.00000E+00        -0.48507E+08
 
   -0.47858E+08         0.93731E+06         0.00000E+00
    0.93731E+06        -0.49816E+08         0.00000E+00
    0.00000E+00         0.00000E+00        -0.48508E+08
 
   -0.47887E+08         0.96411E+06         0.00000E+00
    0.96411E+06        -0.49804E+08         0.00000E+00
    0.00000E+00         0.00000E+00        -0.48509E+08
 
   -0.47917E+08         0.99054E+06         0.00000E+00
    0.99054E+06        -0.49792E+08         0.00000E+00
    0.00000E+00         0.00000E+00        -0.48511E+08
 
   -0.47947E+08         0.10166E+07         0.00000E+00
    0.10166E+07        -0.49780E+08         0.00000E+00
    0.00000E+00         0.00000E+00        -0.48512E+08
 
   -0.47978E+08         0.10423E+07         0.00000E+00
    0.10423E+07        -0.49767E+08         0.00000E+00
    0.00000E+00         0.00000E+00        -0.48513E+08
 
   -0.48008E+08         0.10676E+07         0.00000E+00
    0.10676E+07        -0.49754E+08         0.00000E+00
    0.00000E+00         0.00000E+00        -0.48514E+08
 
   -0.48039E+08         0.10925E+07         0.00000E+00
    0.10925E+07        -0.49740E+08         0.00000E+00
    0.00000E+00         0.00000E+00        -0.48515E+08
 
   -0.48071E+08         0.11170E+07         0.00000E+00
    0.11170E+07        -0.49726E+08         0.00000E+00
    0.00000E+00         0.00000E+00        -0.48516E+08
 
   -0.48103E+08         0.11411E+07         0.00000E+00
    0.11411E+07        -0.49712E+08         0.00000E+00
    0.00000E+00         0.00000E+00        -0.48517E+08
 
   -0.48135E+08         0.11649E+07         0.00000E+00
    0.11649E+07        -0.49698E+08         0.00000E+00
    0.00000E+00         0.00000E+00        -0.48518E+08
 
   -0.48167E+08         0.11882E+07         0.00000E+00
    0.11882E+07        -0.49683E+08         0.00000E+00
    0.00000E+00         0.00000E+00        -0.48519E+08
 
   -0.48200E+08         0.12112E+07         0.00000E+00
    0.12112E+07        -0.49668E+08         0.00000E+00
    0.00000E+00         0.00000E+00        -0.48520E+08
 
   -0.48233E+08         0.12337E+07         0.00000E+00
    0.12337E+07        -0.49653E+08         0.00000E+00
    0.00000E+00         0.00000E+00        -0.48521E+08
 
   -0.48267E+08         0.12559E+07         0.00000E+00
    0.12559E+07        -0.49637E+08         0.00000E+00
    0.00000E+00         0.00000E+00        -0.48522E+08
 
   -0.48300E+08         0.12776E+07         0.00000E+00
    0.12776E+07        -0.49622E+08         0.00000E+00
    0.00000E+00         0.00000E+00        -0.48522E+08
 
   -0.48334E+08         0.12990E+07         0.00000E+00
    0.12990E+07        -0.49606E+08         0.00000E+00
    0.00000E+00         0.00000E+00        -0.48523E+08
 
   -0.48368E+08         0.13199E+07         0.00000E+00
    0.13199E+07        -0.49589E+08         0.00000E+00
    0.00000E+00         0.00000E+00        -0.48523E+08
 
   -0.48402E+08         0.13405E+07         0.00000E+00
    0.13405E+07        -0.49573E+08         0.00000E+00
    0.00000E+00         0.00000E+00        -0.48524E+08
 
   -0.48437E+08         0.13606E+07         0.00000E+00
    0.13606E+07        -0.49556E+08         0.00000E+00
    0.00000E+00         0.00000E+00        -0.48524E+08
 
   -0.48472E+08         0.13803E+07         0.00000E+00
    0.13803E+07        -0.49539E+08         0.00000E+00
    0.00000E+00         0.00000E+00        -0.48524E+08
 
   -0.48507E+08         0.13996E+07         0.00000E+00
    0.13996E+07        -0.49521E+08         0.00000E+00
    0.00000E+00         0.00000E+00        -0.48524E+08
 
   -0.47055E+08         0.19188E+05         0.00000E+00
    0.19188E+05        -0.50000E+08         0.00000E+00
    0.00000E+00         0.00000E+00        -0.48380E+08
 
   -0.47068E+08         0.57010E+05         0.00000E+00
    0.57010E+05        -0.49999E+08         0.00000E+00
    0.00000E+00         0.00000E+00        -0.48380E+08
 
   -0.47083E+08         0.94615E+05         0.00000E+00
    0.94615E+05        -0.49998E+08         0.00000E+00
    0.00000E+00         0.00000E+00        -0.48380E+08
 
   -0.47097E+08         0.13199E+06         0.00000E+00
    0.13199E+06        -0.49997E+08         0.00000E+00
    0.00000E+00         0.00000E+00        -0.48380E+08
 
   -0.47113E+08         0.16914E+06         0.00000E+00
    0.16914E+06        -0.49995E+08         0.00000E+00
    0.00000E+00         0.00000E+00        -0.48381E+08
 
   -0.47129E+08         0.20603E+06         0.00000E+00
    0.20603E+06        -0.49993E+08         0.00000E+00
    0.00000E+00         0.00000E+00        -0.48381E+08
 
   -0.47147E+08         0.24267E+06         0.00000E+00
    0.24267E+06        -0.49990E+08         0.00000E+00
    0.00000E+00         0.00000E+00        -0.48382E+08
 
   -0.47164E+08         0.27904E+06         0.00000E+00
    0.27904E+06        -0.49986E+08         0.00000E+00
    0.00000E+00         0.00000E+00        -0.48383E+08
 
   -0.47183E+08         0.31514E+06         0.00000E+00
    0.31514E+06        -0.49982E+08         0.00000E+00
    0.00000E+00         0.00000E+00        -0.48383E+08
 
   -0.47202E+08         0.35096E+06         0.00000E+00
    0.35096E+06        -0.49978E+08         0.00000E+00
    0.00000E+00         0.00000E+00        -0.48384E+08
 
   -0.47223E+08         0.38649E+06         0.00000E+00
    0.38649E+06        -0.49973E+08         0.00000E+00
    0.00000E+00         0.00000E+00        -0.48385E+08
 
   -0.47243E+08         0.42171E+06         0.00000E+00
    0.42171E+06        -0.49968E+08         0.00000E+00
    0.00000E+00         0.00000E+00        -0.48386E+08
 
   -0.47265E+08         0.45664E+06         0.00000E+00
    0.45664E+06        -0.49963E+08         0.00000E+00
    0.00000E+00         0.00000E+00        -0.48387E+08
 
   -0.47287E+08         0.49125E+06         0.00000E+00
    0.49125E+06        -0.49956E+08         0.00000E+00
    0.00000E+00         0.00000E+00        -0.48388E+08
 
   -0.47310E+08         0.52554E+06         0.00000E+00
    0.52554E+06        -0.49950E+08         0.00000E+00
    0.00000E+00         0.00000E+00        -0.48389E+08
 
   -0.47333E+08         0.55951E+06         0.00000E+00
    0.55951E+06        -0.49943E+08         0.00000E+00
    0.00000E+00         0.00000E+00        -0.48390E+08
 
   -0.47357E+08         0.59314E+06         0.00000E+00
    0.59314E+06        -0.49936E+08         0.00000E+00
    0.00000E+00         0.00000E+00        -0.48392E+08
 
   -0.47382E+08         0.62644E+06         0.00000E+00
    0.62644E+06        -0.49928E+08         0.00000E+00
    0.00000E+00         0.00000E+00        -0.48393E+08
 
   -0.47407E+08         0.65939E+06         0.00000E+00
    0.65939E+06        -0.49920E+08         0.00000E+00
    0.00000E+00         0.00000E+00        -0.48394E+08
 
   -0.47432E+08         0.69199E+06         0.00000E+00
    0.69199E+06        -0.49911E+08         0.00000E+00
    0.00000E+00         0.00000E+00        -0.48396E+08
 
   -0.47459E+08         0.72424E+06         0.00000E+00
    0.72424E+06        -0.49902E+08         0.00000E+00
    0.00000E+00         0.00000E+00        -0.48397E+08
 
   -0.47486E+08         0.75613E+06         0.00000E+00
    0.75613E+06        -0.49893E+08         0.00000E+00
    0.00000E+00         0.00000E+00        -0.48398E+08
 
   -0.47513E+08         0.78766E+06         0.00000E+00
    0.78766E+06        -0.49883E+08         0.00000E+00
    0.00000E+00         0.00000E+00        -0.48400E+08
 
   -0.47541E+08         0.81882E+06         0.00000E+00
    0.81882E+06        -0.49873E+08         0.00000E+00
    0.00000E+00         0.00000E+00        -0.48401E+08
 
   -0.47570E+08         0.84961E+06         0.00000E+00
    0.84961E+06        -0.49863E+08         0.00000E+00
    0.00000E+00         0.00000E+00        -0.48402E+08
 
   -0.47598E+08         0.88002E+06         0.00000E+00
    0.88002E+06        -0.49852E+08         0.00000E+00
    0.00000E+00         0.00000E+00        -0.48404E+08
 
   -0.47628E+08         0.91005E+06         0.00000E+00
    0.91005E+06        -0.49841E+08         0.00000E+00
    0.00000E+00         0.00000E+00        -0.48405E+08
 
   -0.47658E+08         0.93970E+06         0.00000E+00
    0.93970E+06        -0.49829E+08         0.00000E+00
    0.00000E+00         0.00000E+00        -0.48407E+08
 
   -0.47688E+08         0.96896E+06         0.00000E+00
    0.96896E+06        -0.49817E+08         0.00000E+00
    0.00000E+00         0.00000E+00        -0.48408E+08
 
   -0.47719E+08         0.99783E+06         0.00000E+00
    0.99783E+06        -0.49805E+08         0.00000E+00
    0.00000E+00         0.00000E+00        -0.48409E+08
 
   -0.47750E+08         0.10263E+07         0.00000E+00
    0.10263E+07        -0.49792E+08         0.00000E+00
    0.00000E+00         0.00000E+00        -0.48411E+08
 
   -0.47782E+08         0.10544E+07         0.00000E+00
    0.10544E+07        -0.49779E+08         0.00000E+00
    0.00000E+00         0.00000E+00        -0.48412E+08
 
   -0.47814E+08         0.10821E+07         0.00000E+00
    0.10821E+07        -0.49766E+08         0.00000E+00
    0.00000E+00         0.00000E+00        -0.48413E+08
 
   -0.47846E+08         0.11094E+07         0.00000E+00
    0.11094E+07        -0.49752E+08         0.00000E+00
    0.00000E+00         0.00000E+00        -0.48415E+08
 
   -0.47879E+08         0.11362E+07         0.00000E+00
    0.11362E+07        -0.49738E+08         0.00000E+00
    0.00000E+00         0.00000E+00        -0.48416E+08
 
   -0.47912E+08         0.11627E+07         0.00000E+00
    0.11627E+07        -0.49724E+08         0.00000E+00
    0.00000E+00         0.00000E+00        -0.48417E+08
 
   -0.47946E+08         0.11888E+07         0.00000E+00
    0.11888E+07        -0.49709E+08         0.00000E+00
    0.00000E+00         0.00000E+00        -0.48418E+08
 
   -0.47979E+08         0.12144E+07         0.00000E+00
    0.12144E+07        -0.49695E+08         0.00000E+00
    0.00000E+00         0.00000E+00        -0.48419E+08
 
   -0.48014E+08         0.12397E+07         0.00000E+00
    0.12397E+07        -0.49679E+08         0.00000E+00
    0.00000E+00         0.00000E+00        -0.48420E+08
 
   -0.48048E+08         0.12645E+07         0.00000E+00
    0.12645E+07        -0.49664E+08         0.00000E+00
    0.00000E+00         0.00000E+00        -0.48421E+08
 
   -0.48083E+08         0.12889E+07         0.00000E+00
    0.12889E+07        -0.49648E+08         0.00000E+00
    0.00000E+00         0.00000E+00        -0.48422E+08
 
   -0.48118E+08         0.13129E+07         0.00000E+00
    0.13129E+07        -0.49632E+08         0.00000E+00
    0.00000E+00         0.00000E+00        -0.48423E+08
 
   -0.48153E+08         0.13364E+07         0.00000E+00
    0.13364E+07        -0.49615E+08         0.00000E+00
    0.00000E+00         0.00000E+00        -0.48424E+08
 
   -0.48189E+08         0.13596E+07         0.00000E+00
    0.13596E+07        -0.49599E+08         0.00000E+00
    0.00000E+00         0.00000E+00        -0.48424E+08
 
   -0.48225E+08         0.13823E+07         0.00000E+00
    0.13823E+07        -0.49582E+08         0.00000E+00
    0.00000E+00         0.00000E+00        -0.48425E+08
 
   -0.48261E+08         0.14046E+07         0.00000E+00
    0.14046E+07        -0.49564E+08         0.00000E+00
    0.00000E+00         0.00000E+00        -0.48426E+08
 
   -0.48297E+08         0.14265E+07         0.00000E+00
    0.14265E+07        -0.49547E+08         0.00000E+00
    0.00000E+00         0.00000E+00        -0.48426E+08
 
   -0.48334E+08         0.14479E+07         0.00000E+00
    0.14479E+07        -0.49529E+08         0.00000E+00
    0.00000E+00         0.00000E+00        -0.48426E+08
 
   -0.48371E+08         0.14690E+07         0.00000E+00
    0.14690E+07        -0.49511E+08         0.00000E+00
    0.00000E+00         0.00000E+00        -0.48427E+08
 
   -0.48408E+08         0.14895E+07         0.00000E+00
    0.14895E+07        -0.49492E+08         0.00000E+00
    0.00000E+00         0.00000E+00        -0.48427E+08
 
   -0.46859E+08         0.20500E+05         0.00000E+00
    0.20500E+05        -0.50000E+08         0.00000E+00
    0.00000E+00         0.00000E+00        -0.48272E+08
 
   -0.46874E+08         0.60874E+05         0.00000E+00
    0.60874E+05        -0.49999E+08         0.00000E+00
    0.00000E+00         0.00000E+00        -0.48272E+08
 
   -0.46889E+08         0.10100E+06         0.00000E+00
    0.10100E+06        -0.49998E+08         0.00000E+00
    0.00000E+00         0.00000E+00        -0.48273E+08
 
   -0.46905E+08         0.14088E+06         0.00000E+00
    0.14088E+06        -0.49997E+08         0.00000E+00
    0.00000E+00         0.00000E+00        -0.48273E+08
 
   -0.46922E+08         0.18050E+06         0.00000E+00
    0.18050E+06        -0.49995E+08         0.00000E+00
    0.00000E+00         0.00000E+00        -0.48273E+08
 
   -0.46940E+08         0.21984E+06         0.00000E+00
    0.21984E+06        -0.49992E+08         0.00000E+00
    0.00000E+00         0.00000E+00        -0.48274E+08
 
   -0.46958E+08         0.25889E+06         0.00000E+00
    0.25889E+06        -0.49989E+08         0.00000E+00
    0.00000E+00         0.00000E+00        -0.48275E+08
 
   -0.46977E+08         0.29765E+06         0.00000E+00
    0.29765E+06        -0.49985E+08         0.00000E+00
    0.00000E+00         0.00000E+00        -0.48275E+08
 
   -0.46997E+08         0.33611E+06         0.00000E+00
    0.33611E+06        -0.49981E+08         0.00000E+00
    0.00000E+00         0.00000E+00        -0.48276E+08
 
   -0.47018E+08         0.37426E+06         0.00000E+00
    0.37426E+06        -0.49977E+08         0.00000E+00
    0.00000E+00         0.00000E+00        -0.48277E+08
 
   -0.47040E+08         0.41209E+06         0.00000E+00
    0.41209E+06        -0.49972E+08         0.00000E+00
    0.00000E+00         0.00000E+00        -0.48278E+08
 
   -0.47062E+08         0.44960E+06         0.00000E+00
    0.44960E+06        -0.49966E+08         0.00000E+00
    0.00000E+00         0.00000E+00        -0.48279E+08
 
   -0.47085E+08         0.48677E+06         0.00000E+00
    0.48677E+06        -0.49960E+08         0.00000E+00
    0.00000E+00         0.00000E+00        -0.48280E+08
 
   -0.47109E+08         0.52359E+06         0.00000E+00
    0.52359E+06        -0.49954E+08         0.00000E+00
    0.00000E+00         0.00000E+00        -0.48281E+08
 
   -0.47133E+08         0.56008E+06         0.00000E+00
    0.56008E+06        -0.49947E+08         0.00000E+00
    0.00000E+00         0.00000E+00        -0.48283E+08
 
   -0.47159E+08         0.59620E+06         0.00000E+00
    0.59620E+06        -0.49939E+08         0.00000E+00
    0.00000E+00         0.00000E+00        -0.48284E+08
 
   -0.47184E+08         0.63197E+06         0.00000E+00
    0.63197E+06        -0.49932E+08         0.00000E+00
    0.00000E+00         0.00000E+00        -0.48285E+08
 
   -0.47211E+08         0.66737E+06         0.00000E+00
    0.66737E+06        -0.49923E+08         0.00000E+00
    0.00000E+00         0.00000E+00        -0.48286E+08
 
   -0.47238E+08         0.70240E+06         0.00000E+00
    0.70240E+06        -0.49915E+08         0.00000E+00
    0.00000E+00         0.00000E+00        -0.48288E+08
 
   -0.47265E+08         0.73706E+06         0.00000E+00
    0.73706E+06        -0.49906E+08         0.00000E+00
    0.00000E+00         0.00000E+00        -0.48289E+08
 
   -0.47293E+08         0.77133E+06         0.00000E+00
    0.77133E+06        -0.49896E+08         0.00000E+00
    0.00000E+00         0.00000E+00        -0.48291E+08
 
   -0.47322E+08         0.80522E+06         0.00000E+00
    0.80522E+06        -0.49886E+08         0.00000E+00
    0.00000E+00         0.00000E+00        -0.48292E+08
 
   -0.47352E+08         0.83871E+06         0.00000E+00
    0.83871E+06        -0.49876E+08         0.00000E+00
    0.00000E+00         0.00000E+00        -0.48294E+08
 
   -0.47381E+08         0.87181E+06         0.00000E+00
    0.87181E+06        -0.49865E+08         0.00000E+00
    0.00000E+00         0.00000E+00        -0.48295E+08
 
   -0.47412E+08         0.90452E+06         0.00000E+00
    0.90452E+06        -0.49854E+08         0.00000E+00
    0.00000E+00         0.00000E+00        -0.48297E+08
 
   -0.47443E+08         0.93682E+06         0.00000E+00
    0.93682E+06        -0.49843E+08         0.00000E+00
    0.00000E+00         0.00000E+00        -0.48298E+08
 
   -0.47474E+08         0.96872E+06         0.00000E+00
    0.96872E+06        -0.49831E+08         0.00000E+00
    0.00000E+00         0.00000E+00        -0.48300E+08
 
   -0.47506E+08         0.10002E+07         0.00000E+00
    0.10002E+07        -0.49819E+08         0.00000E+00
    0.00000E+00         0.00000E+00        -0.48301E+08
 
   -0.47538E+08         0.10313E+07         0.00000E+00
    0.10313E+07        -0.49806E+08         0.00000E+00
    0.00000E+00         0.00000E+00        -0.48303E+08
 
   -0.47571E+08         0.10619E+07         0.00000E+00
    0.10619E+07        -0.49793E+08         0.00000E+00
    0.00000E+00         0.00000E+00        -0.48304E+08
 
   -0.47604E+08         0.10922E+07         0.00000E+00
    0.10922E+07        -0.49780E+08         0.00000E+00
    0.00000E+00         0.00000E+00        -0.48306E+08
 
   -0.47638E+08         0.11220E+07         0.00000E+00
    0.11220E+07        -0.49766E+08         0.00000E+00
    0.00000E+00         0.00000E+00        -0.48307E+08
 
   -0.47672E+08         0.11514E+07         0.00000E+00
    0.11514E+07        -0.49752E+08         0.00000E+00
    0.00000E+00         0.00000E+00        -0.48308E+08
 
   -0.47707E+08         0.11804E+07         0.00000E+00
    0.11804E+07        -0.49737E+08         0.00000E+00
    0.00000E+00         0.00000E+00        -0.48310E+08
 
   -0.47741E+08         0.12089E+07         0.00000E+00
    0.12089E+07        -0.49723E+08         0.00000E+00
    0.00000E+00         0.00000E+00        -0.48311E+08
 
   -0.47777E+08         0.12371E+07         0.00000E+00
    0.12371E+07        -0.49707E+08         0.00000E+00
    0.00000E+00         0.00000E+00        -0.48312E+08
 
   -0.47812E+08         0.12648E+07         0.00000E+00
    0.12648E+07        -0.49692E+08         0.00000E+00
    0.00000E+00         0.00000E+00        -0.48314E+08
 
   -0.47848E+08         0.12920E+07         0.00000E+00
    0.12920E+07        -0.49676E+08         0.00000E+00
    0.00000E+00         0.00000E+00        -0.48315E+08
 
   -0.47884E+08         0.13188E+07         0.00000E+00
    0.13188E+07        -0.49660E+08         0.00000E+00
    0.00000E+00         0.00000E+00        -0.48316E+08
 
   -0.47921E+08         0.13452E+07         0.00000E+00
    0.13452E+07        -0.49644E+08         0.00000E+00
    0.00000E+00         0.00000E+00        -0.48317E+08
 
   -0.47958E+08         0.13712E+07         0.00000E+00
    0.13712E+07        -0.49627E+08         0.00000E+00
    0.00000E+00         0.00000E+00        -0.48318E+08
 
   -0.47995E+08         0.13967E+07         0.00000E+00
    0.13967E+07        -0.49610E+08         0.00000E+00
    0.00000E+00         0.00000E+00        -0.48319E+08
 
   -0.48033E+08         0.14218E+07         0.00000E+00
    0.14218E+07        -0.49592E+08         0.00000E+00
    0.00000E+00         0.00000E+00        -0.48320E+08
 
   -0.48071E+08         0.14464E+07         0.00000E+00
    0.14464E+07        -0.49575E+08         0.00000E+00
    0.00000E+00         0.00000E+00        -0.48320E+08
 
   -0.48109E+08         0.14706E+07         0.00000E+00
    0.14706E+07        -0.49557E+08         0.00000E+00
    0.00000E+00         0.00000E+00        -0.48321E+08
 
   -0.48147E+08         0.14943E+07         0.00000E+00
    0.14943E+07        -0.49538E+08         0.00000E+00
    0.00000E+00         0.00000E+00        -0.48321E+08
 
   -0.48186E+08         0.15176E+07         0.00000E+00
    0.15176E+07        -0.49520E+08         0.00000E+00
    0.00000E+00         0.00000E+00        -0.48322E+08
 
   -0.48225E+08         0.15405E+07         0.00000E+00
    0.15405E+07        -0.49501E+08         0.00000E+00
    0.00000E+00         0.00000E+00        -0.48322E+08
 
   -0.48264E+08         0.15629E+07         0.00000E+00
    0.15629E+07        -0.49482E+08         0.00000E+00
    0.00000E+00         0.00000E+00        -0.48322E+08
 
   -0.48303E+08         0.15848E+07         0.00000E+00
    0.15848E+07        -0.49462E+08         0.00000E+00
    0.00000E+00         0.00000E+00        -0.48323E+08
 
   -0.46650E+08         0.21903E+05         0.00000E+00
    0.21903E+05        -0.50000E+08         0.00000E+00
    0.00000E+00         0.00000E+00        -0.48158E+08
 
   -0.46666E+08         0.65000E+05         0.00000E+00
    0.65000E+05        -0.49999E+08         0.00000E+00
    0.00000E+00         0.00000E+00        -0.48158E+08
 
   -0.46682E+08         0.10782E+06         0.00000E+00
    0.10782E+06        -0.49998E+08         0.00000E+00
    0.00000E+00         0.00000E+00        -0.48158E+08
 
   -0.46700E+08         0.15036E+06         0.00000E+00
    0.15036E+06        -0.49996E+08         0.00000E+00
    0.00000E+00         0.00000E+00        -0.48158E+08
 
   -0.46718E+08         0.19261E+06         0.00000E+00
    0.19261E+06        -0.49994E+08         0.00000E+00
    0.00000E+00         0.00000E+00        -0.48159E+08
 
   -0.46737E+08         0.23454E+06         0.00000E+00
    0.23454E+06        -0.49991E+08         0.00000E+00
    0.00000E+00         0.00000E+00        -0.48159E+08
 
   -0.46757E+08         0.27616E+06         0.00000E+00
    0.27616E+06        -0.49988E+08         0.00000E+00
    0.00000E+00         0.00000E+00        -0.48160E+08
 
   -0.46778E+08         0.31746E+06         0.00000E+00
    0.31746E+06        -0.49984E+08         0.00000E+00
    0.00000E+00         0.00000E+00        -0.48161E+08
 
   -0.46800E+08         0.35842E+06         0.00000E+00
    0.35842E+06        -0.49980E+08         0.00000E+00
    0.00000E+00         0.00000E+00        -0.48162E+08
 
   -0.46822E+08         0.39904E+06         0.00000E+00
    0.39904E+06        -0.49975E+08         0.00000E+00
    0.00000E+00         0.00000E+00        -0.48163E+08
 
   -0.46846E+08         0.43931E+06         0.00000E+00
    0.43931E+06        -0.49970E+08         0.00000E+00
    0.00000E+00         0.00000E+00        -0.48164E+08
 
   -0.46870E+08         0.47922E+06         0.00000E+00
    0.47922E+06        -0.49964E+08         0.00000E+00
    0.00000E+00         0.00000E+00        -0.48165E+08
 
   -0.46894E+08         0.51877E+06         0.00000E+00
    0.51877E+06        -0.49958E+08         0.00000E+00
    0.00000E+00         0.00000E+00        -0.48166E+08
 
   -0.46920E+08         0.55794E+06         0.00000E+00
    0.55794E+06        -0.49951E+08         0.00000E+00
    0.00000E+00         0.00000E+00        -0.48167E+08
 
   -0.46946E+08         0.59673E+06         0.00000E+00
    0.59673E+06        -0.49943E+08         0.00000E+00
    0.00000E+00         0.00000E+00        -0.48169E+08
 
   -0.46973E+08         0.63514E+06         0.00000E+00
    0.63514E+06        -0.49936E+08         0.00000E+00
    0.00000E+00         0.00000E+00        -0.48170E+08
 
   -0.47001E+08         0.67316E+06         0.00000E+00
    0.67316E+06        -0.49927E+08         0.00000E+00
    0.00000E+00         0.00000E+00        -0.48171E+08
 
   -0.47029E+08         0.71078E+06         0.00000E+00
    0.71078E+06        -0.49919E+08         0.00000E+00
    0.00000E+00         0.00000E+00        -0.48173E+08
 
   -0.47058E+08         0.74800E+06         0.00000E+00
    0.74800E+06        -0.49910E+08         0.00000E+00
    0.00000E+00         0.00000E+00        -0.48174E+08
 
   -0.47088E+08         0.78481E+06         0.00000E+00
    0.78481E+06        -0.49900E+08         0.00000E+00
    0.00000E+00         0.00000E+00        -0.48176E+08
 
   -0.47118E+08         0.82122E+06         0.00000E+00
    0.82122E+06        -0.49890E+08         0.00000E+00
    0.00000E+00         0.00000E+00        -0.48177E+08
 
   -0.47149E+08         0.85721E+06         0.00000E+00
    0.85721E+06        -0.49879E+08         0.00000E+00
    0.00000E+00         0.00000E+00        -0.48179E+08
 
   -0.47180E+08         0.89278E+06         0.00000E+00
    0.89278E+06        -0.49869E+08         0.00000E+00
    0.00000E+00         0.00000E+00        -0.48181E+08
 
   -0.47212E+08         0.92792E+06         0.00000E+00
    0.92792E+06        -0.49857E+08         0.00000E+00
    0.00000E+00         0.00000E+00        -0.48182E+08
 
   -0.47244E+08         0.96264E+06         0.00000E+00
    0.96264E+06        -0.49845E+08         0.00000E+00
    0.00000E+00         0.00000E+00        -0.48184E+08
 
   -0.47277E+08         0.99694E+06         0.00000E+00
    0.99694E+06        -0.49833E+08         0.00000E+00
    0.00000E+00         0.00000E+00        -0.48185E+08
 
   -0.47311E+08         0.10308E+07         0.00000E+00
    0.10308E+07        -0.49821E+08         0.00000E+00
    0.00000E+00         0.00000E+00        -0.48187E+08
 
   -0.47345E+08         0.10642E+07         0.00000E+00
    0.10642E+07        -0.49808E+08         0.00000E+00
    0.00000E+00         0.00000E+00        -0.48189E+08
 
   -0.47379E+08         0.10972E+07         0.00000E+00
    0.10972E+07        -0.49794E+08         0.00000E+00
    0.00000E+00         0.00000E+00        -0.48190E+08
 
   -0.47414E+08         0.11298E+07         0.00000E+00
    0.11298E+07        -0.49781E+08         0.00000E+00
    0.00000E+00         0.00000E+00        -0.48192E+08
 
   -0.47450E+08         0.11619E+07         0.00000E+00
    0.11619E+07        -0.49767E+08         0.00000E+00
    0.00000E+00         0.00000E+00        -0.48193E+08
 
   -0.47485E+08         0.11935E+07         0.00000E+00
    0.11935E+07        -0.49752E+08         0.00000E+00
    0.00000E+00         0.00000E+00        -0.48195E+08
 
   -0.47522E+08         0.12247E+07         0.00000E+00
    0.12247E+07        -0.49737E+08         0.00000E+00
    0.00000E+00         0.00000E+00        -0.48196E+08
 
   -0.47558E+08         0.12555E+07         0.00000E+00
    0.12555E+07        -0.49722E+08         0.00000E+00
    0.00000E+00         0.00000E+00        -0.48198E+08
 
   -0.47595E+08         0.12858E+07         0.00000E+00
    0.12858E+07        -0.49706E+08         0.00000E+00
    0.00000E+00         0.00000E+00        -0.48199E+08
 
   -0.47633E+08         0.13157E+07         0.00000E+00
    0.13157E+07        -0.49690E+08         0.00000E+00
    0.00000E+00         0.00000E+00        -0.48201E+08
 
   -0.47671E+08         0.13451E+07         0.00000E+00
    0.13451E+07        -0.49674E+08         0.00000E+00
    0.00000E+00         0.00000E+00        -0.48202E+08
 
   -0.47709E+08         0.13741E+07         0.00000E+00
    0.13741E+07        -0.49657E+08         0.00000E+00
    0.00000E+00         0.00000E+00        -0.48203E+08
 
   -0.47747E+08         0.14026E+07         0.00000E+00
    0.14026E+07        -0.49640E+08         0.00000E+00
    0.00000E+00         0.00000E+00        -0.48204E+08
 
   -0.47786E+08         0.14306E+07         0.00000E+00
    0.14306E+07        -0.49623E+08         0.00000E+00
    0.00000E+00         0.00000E+00        -0.48205E+08
 
   -0.47825E+08         0.14582E+07         0.00000E+00
    0.14582E+07        -0.49605E+08         0.00000E+00
    0.00000E+00         0.00000E+00        -0.48206E+08
 
   -0.47865E+08         0.14853E+07         0.00000E+00
    0.14853E+07        -0.49587E+08         0.00000E+00
    0.00000E+00         0.00000E+00        -0.48207E+08
 
   -0.47905E+08         0.15120E+07         0.00000E+00
    0.15120E+07        -0.49569E+08         0.00000E+00
    0.00000E+00         0.00000E+00        -0.48208E+08
 
   -0.47945E+08         0.15382E+07         0.00000E+00
    0.15382E+07        -0.49550E+08         0.00000E+00
    0.00000E+00         0.00000E+00        -0.48209E+08
 
   -0.47985E+08         0.15639E+07         0.00000E+00
    0.15639E+07        -0.49531E+08         0.00000E+00
    0.00000E+00         0.00000E+00        -0.48210E+08
 
   -0.48026E+08         0.15892E+07         0.00000E+00
    0.15892E+07        -0.49512E+08         0.00000E+00
    0.00000E+00         0.00000E+00        -0.48210E+08
 
   -0.48067E+08         0.16140E+07         0.00000E+00
    0.16140E+07        -0.49492E+08         0.00000E+00
    0.00000E+00         0.00000E+00        -0.48211E+08
 
   -0.48108E+08         0.16384E+07         0.00000E+00
    0.16384E+07        -0.49472E+08         0.00000E+00
    0.00000E+00         0.00000E+00        -0.48211E+08
 
   -0.48149E+08         0.16623E+07         0.00000E+00
    0.16623E+07        -0.49452E+08         0.00000E+00
    0.00000E+00         0.00000E+00        -0.48211E+08
 
   -0.48191E+08         0.16857E+07         0.00000E+00
    0.16857E+07        -0.49431E+08         0.00000E+00
    0.00000E+00         0.00000E+00        -0.48211E+08
 
   -0.46427E+08         0.23402E+05         0.00000E+00
    0.23402E+05        -0.50000E+08         0.00000E+00
    0.00000E+00         0.00000E+00        -0.48035E+08
 
   -0.46444E+08         0.69401E+05         0.00000E+00
    0.69401E+05        -0.49999E+08         0.00000E+00
    0.00000E+00         0.00000E+00        -0.48035E+08
 
   -0.46462E+08         0.11509E+06         0.00000E+00
    0.11509E+06        -0.49998E+08         0.00000E+00
    0.00000E+00         0.00000E+00        -0.48036E+08
 
   -0.46481E+08         0.16046E+06         0.00000E+00
    0.16046E+06        -0.49996E+08         0.00000E+00
    0.00000E+00         0.00000E+00        -0.48036E+08
 
   -0.46501E+08         0.20550E+06         0.00000E+00
    0.20550E+06        -0.49994E+08         0.00000E+00
    0.00000E+00         0.00000E+00        -0.48037E+08
 
   -0.46521E+08         0.25019E+06         0.00000E+00
    0.25019E+06        -0.49991E+08         0.00000E+00
    0.00000E+00         0.00000E+00        -0.48037E+08
 
   -0.46543E+08         0.29453E+06         0.00000E+00
    0.29453E+06        -0.49987E+08         0.00000E+00
    0.00000E+00         0.00000E+00        -0.48038E+08
 
   -0.46566E+08         0.33851E+06         0.00000E+00
    0.33851E+06        -0.49983E+08         0.00000E+00
    0.00000E+00         0.00000E+00        -0.48039E+08
 
   -0.46589E+08         0.38213E+06         0.00000E+00
    0.38213E+06        -0.49979E+08         0.00000E+00
    0.00000E+00         0.00000E+00        -0.48040E+08
 
   -0.46614E+08         0.42536E+06         0.00000E+00
    0.42536E+06        -0.49974E+08         0.00000E+00
    0.00000E+00         0.00000E+00        -0.48041E+08
 
   -0.46639E+08         0.46820E+06         0.00000E+00
    0.46820E+06        -0.49968E+08         0.00000E+00
    0.00000E+00         0.00000E+00        -0.48042E+08
 
   -0.46665E+08         0.51065E+06         0.00000E+00
    0.51065E+06        -0.49962E+08         0.00000E+00
    0.00000E+00         0.00000E+00        -0.48043E+08
 
   -0.46691E+08         0.55270E+06         0.00000E+00
    0.55270E+06        -0.49955E+08         0.00000E+00
    0.00000E+00         0.00000E+00        -0.48044E+08
 
   -0.46719E+08         0.59435E+06         0.00000E+00
    0.59435E+06        -0.49948E+08         0.00000E+00
    0.00000E+00         0.00000E+00        -0.48046E+08
 
   -0.46747E+08         0.63558E+06         0.00000E+00
    0.63558E+06        -0.49940E+08         0.00000E+00
    0.00000E+00         0.00000E+00        -0.48047E+08
 
   -0.46776E+08         0.67639E+06         0.00000E+00
    0.67639E+06        -0.49932E+08         0.00000E+00
    0.00000E+00         0.00000E+00        -0.48049E+08
 
   -0.46806E+08         0.71678E+06         0.00000E+00
    0.71678E+06        -0.49923E+08         0.00000E+00
    0.00000E+00         0.00000E+00        -0.48050E+08
 
   -0.46836E+08         0.75673E+06         0.00000E+00
    0.75673E+06        -0.49914E+08         0.00000E+00
    0.00000E+00         0.00000E+00        -0.48052E+08
 
   -0.46867E+08         0.79626E+06         0.00000E+00
    0.79626E+06        -0.49904E+08         0.00000E+00
    0.00000E+00         0.00000E+00        -0.48053E+08
 
   -0.46899E+08         0.83534E+06         0.00000E+00
    0.83534E+06        -0.49894E+08         0.00000E+00
    0.00000E+00         0.00000E+00        -0.48055E+08
 
   -0.46931E+08         0.87398E+06         0.00000E+00
    0.87398E+06        -0.49883E+08         0.00000E+00
    0.00000E+00         0.00000E+00        -0.48057E+08
 
   -0.46964E+08         0.91218E+06         0.00000E+00
    0.91218E+06        -0.49872E+08         0.00000E+00
    0.00000E+00         0.00000E+00        -0.48058E+08
 
   -0.46998E+08         0.94993E+06         0.00000E+00
    0.94993E+06        -0.49861E+08         0.00000E+00
    0.00000E+00         0.00000E+00        -0.48060E+08
 
   -0.47032E+08         0.98723E+06         0.00000E+00
    0.98723E+06        -0.49849E+08         0.00000E+00
    0.00000E+00         0.00000E+00        -0.48062E+08
 
   -0.47066E+08         0.10241E+07         0.00000E+00
    0.10241E+07        -0.49836E+08         0.00000E+00
    0.00000E+00         0.00000E+00        -0.48063E+08
 
   -0.47102E+08         0.10604E+07         0.00000E+00
    0.10604E+07        -0.49824E+08         0.00000E+00
    0.00000E+00         0.00000E+00        -0.48065E+08
 
   -0.47137E+08         0.10964E+07         0.00000E+00
    0.10964E+07        -0.49810E+08         0.00000E+00
    0.00000E+00         0.00000E+00        -0.48067E+08
 
   -0.47174E+08         0.11318E+07         0.00000E+00
    0.11318E+07        -0.49797E+08         0.00000E+00
    0.00000E+00         0.00000E+00        -0.48069E+08
 
   -0.47210E+08         0.11668E+07         0.00000E+00
    0.11668E+07        -0.49783E+08         0.00000E+00
    0.00000E+00         0.00000E+00        -0.48070E+08
 
   -0.47248E+08         0.12014E+07         0.00000E+00
    0.12014E+07        -0.49768E+08         0.00000E+00
    0.00000E+00         0.00000E+00        -0.48072E+08
 
   -0.47285E+08         0.12354E+07         0.00000E+00
    0.12354E+07        -0.49753E+08         0.00000E+00
    0.00000E+00         0.00000E+00        -0.48074E+08
 
   -0.47323E+08         0.12690E+07         0.00000E+00
    0.12690E+07        -0.49738E+08         0.00000E+00
    0.00000E+00         0.00000E+00        -0.48075E+08
 
   -0.47362E+08         0.13021E+07         0.00000E+00
    0.13021E+07        -0.49722E+08         0.00000E+00
    0.00000E+00         0.00000E+00        -0.48077E+08
 
   -0.47401E+08         0.13348E+07         0.00000E+00
    0.13348E+07        -0.49706E+08         0.00000E+00
    0.00000E+00         0.00000E+00        -0.48078E+08
 
   -0.47440E+08         0.13670E+07         0.00000E+00
    0.13670E+07        -0.49690E+08         0.00000E+00
    0.00000E+00         0.00000E+00        -0.48080E+08
 
   -0.47480E+08         0.13987E+07         0.00000E+00
    0.13987E+07        -0.49673E+08         0.00000E+00
    0.00000E+00         0.00000E+00        -0.48081E+08
 
   -0.47520E+08         0.14299E+07         0.00000E+00
    0.14299E+07        -0.49656E+08         0.00000E+00
    0.00000E+00         0.00000E+00        -0.48083E+08
 
   -0.47561E+08         0.14607E+07         0.00000E+00
    0.14607E+07        -0.49638E+08         0.00000E+00
    0.00000E+00         0.00000E+00        -0.48084E+08
 
   -0.47602E+08         0.14909E+07         0.00000E+00
    0.14909E+07        -0.49620E+08         0.00000E+00
    0.00000E+00         0.00000E+00        -0.48085E+08
 
   -0.47643E+08         0.15208E+07         0.00000E+00
    0.15208E+07        -0.49602E+08         0.00000E+00
    0.00000E+00         0.00000E+00        -0.48086E+08
 
   -0.47684E+08         0.15501E+07         0.00000E+00
    0.15501E+07        -0.49583E+08         0.00000E+00
    0.00000E+00         0.00000E+00        -0.48088E+08
 
   -0.47726E+08         0.15789E+07         0.00000E+00
    0.15789E+07        -0.49564E+08         0.00000E+00
    0.00000E+00         0.00000E+00        -0.48088E+08
 
   -0.47768E+08         0.16073E+07         0.00000E+00
    0.16073E+07        -0.49544E+08         0.00000E+00
    0.00000E+00         0.00000E+00        -0.48089E+08
 
   -0.47811E+08         0.16352E+07         0.00000E+00
    0.16352E+07        -0.49525E+08         0.00000E+00
    0.00000E+00         0.00000E+00        -0.48090E+08
 
   -0.47853E+08         0.16626E+07         0.00000E+00
    0.16626E+07        -0.49505E+08         0.00000E+00
    0.00000E+00         0.00000E+00        -0.48091E+08
 
   -0.47896E+08         0.16895E+07         0.00000E+00
    0.16895E+07        -0.49484E+08         0.00000E+00
    0.00000E+00         0.00000E+00        -0.48092E+08
 
   -0.47940E+08         0.17159E+07         0.00000E+00
    0.17159E+07        -0.49463E+08         0.00000E+00
    0.00000E+00         0.00000E+00        -0.48092E+08
 
   -0.47983E+08         0.17419E+07         0.00000E+00
    0.17419E+07        -0.49442E+08         0.00000E+00
    0.00000E+00         0.00000E+00        -0.48092E+08
 
   -0.48027E+08         0.17674E+07         0.00000E+00
    0.17674E+07        -0.49421E+08         0.00000E+00
    0.00000E+00         0.00000E+00        -0.48093E+08
 
   -0.48071E+08         0.17924E+07         0.00000E+00
    0.17924E+07        -0.49399E+08         0.00000E+00
    0.00000E+00         0.00000E+00        -0.48093E+08
 
   -0.46188E+08         0.25003E+05         0.00000E+00
    0.25003E+05        -0.50000E+08         0.00000E+00
    0.00000E+00         0.00000E+00        -0.47904E+08
 
   -0.46207E+08         0.74090E+05         0.00000E+00
    0.74090E+05        -0.49999E+08         0.00000E+00
    0.00000E+00         0.00000E+00        -0.47905E+08
 
   -0.46226E+08         0.12283E+06         0.00000E+00
    0.12283E+06        -0.49998E+08         0.00000E+00
    0.00000E+00         0.00000E+00        -0.47905E+08
 
   -0.46247E+08         0.17120E+06         0.00000E+00
    0.17120E+06        -0.49996E+08         0.00000E+00
    0.00000E+00         0.00000E+00        -0.47905E+08
 
   -0.46269E+08         0.21920E+06         0.00000E+00
    0.21920E+06        -0.49993E+08         0.00000E+00
    0.00000E+00         0.00000E+00        -0.47906E+08
 
   -0.46292E+08         0.26681E+06         0.00000E+00
    0.26681E+06        -0.49990E+08         0.00000E+00
    0.00000E+00         0.00000E+00        -0.47907E+08
 
   -0.46315E+08         0.31403E+06         0.00000E+00
    0.31403E+06        -0.49987E+08         0.00000E+00
    0.00000E+00         0.00000E+00        -0.47907E+08
 
   -0.46340E+08         0.36085E+06         0.00000E+00
    0.36085E+06        -0.49982E+08         0.00000E+00
    0.00000E+00         0.00000E+00        -0.47908E+08
 
   -0.46365E+08         0.40726E+06         0.00000E+00
    0.40726E+06        -0.49977E+08         0.00000E+00
    0.00000E+00         0.00000E+00        -0.47909E+08
 
   -0.46392E+08         0.45325E+06         0.00000E+00
    0.45325E+06        -0.49972E+08         0.00000E+00
    0.00000E+00         0.00000E+00        -0.47910E+08
 
   -0.46419E+08         0.49881E+06         0.00000E+00
    0.49881E+06        -0.49966E+08         0.00000E+00
    0.00000E+00         0.00000E+00        -0.47912E+08
 
   -0.46447E+08         0.54394E+06         0.00000E+00
    0.54394E+06        -0.49959E+08         0.00000E+00
    0.00000E+00         0.00000E+00        -0.47913E+08
 
   -0.46476E+08         0.58862E+06         0.00000E+00
    0.58862E+06        -0.49952E+08         0.00000E+00
    0.00000E+00         0.00000E+00        -0.47914E+08
 
   -0.46505E+08         0.63287E+06         0.00000E+00
    0.63287E+06        -0.49945E+08         0.00000E+00
    0.00000E+00         0.00000E+00        -0.47916E+08
 
   -0.46536E+08         0.67666E+06         0.00000E+00
    0.67666E+06        -0.49936E+08         0.00000E+00
    0.00000E+00         0.00000E+00        -0.47917E+08
 
   -0.46567E+08         0.71999E+06         0.00000E+00
    0.71999E+06        -0.49928E+08         0.00000E+00
    0.00000E+00         0.00000E+00        -0.47919E+08
 
   -0.46599E+08         0.76287E+06         0.00000E+00
    0.76287E+06        -0.49919E+08         0.00000E+00
    0.00000E+00         0.00000E+00        -0.47920E+08
 
   -0.46631E+08         0.80528E+06         0.00000E+00
    0.80528E+06        -0.49909E+08         0.00000E+00
    0.00000E+00         0.00000E+00        -0.47922E+08
 
   -0.46665E+08         0.84722E+06         0.00000E+00
    0.84722E+06        -0.49899E+08         0.00000E+00
    0.00000E+00         0.00000E+00        -0.47924E+08
 
   -0.46699E+08         0.88868E+06         0.00000E+00
    0.88868E+06        -0.49888E+08         0.00000E+00
    0.00000E+00         0.00000E+00        -0.47926E+08
 
   -0.46733E+08         0.92968E+06         0.00000E+00
    0.92968E+06        -0.49877E+08         0.00000E+00
    0.00000E+00         0.00000E+00        -0.47927E+08
 
   -0.46769E+08         0.97019E+06         0.00000E+00
    0.97019E+06        -0.49865E+08         0.00000E+00
    0.00000E+00         0.00000E+00        -0.47929E+08
 
   -0.46804E+08         0.10102E+07         0.00000E+00
    0.10102E+07        -0.49853E+08         0.00000E+00
    0.00000E+00         0.00000E+00        -0.47931E+08
 
   -0.46841E+08         0.10498E+07         0.00000E+00
    0.10498E+07        -0.49840E+08         0.00000E+00
    0.00000E+00         0.00000E+00        -0.47933E+08
 
   -0.46878E+08         0.10888E+07         0.00000E+00
    0.10888E+07        -0.49827E+08         0.00000E+00
    0.00000E+00         0.00000E+00        -0.47935E+08
 
   -0.46915E+08         0.11274E+07         0.00000E+00
    0.11274E+07        -0.49814E+08         0.00000E+00
    0.00000E+00         0.00000E+00        -0.47937E+08
 
   -0.46954E+08         0.11655E+07         0.00000E+00
    0.11655E+07        -0.49800E+08         0.00000E+00
    0.00000E+00         0.00000E+00        -0.47938E+08
 
   -0.46992E+08         0.12031E+07         0.00000E+00
    0.12031E+07        -0.49785E+08         0.00000E+00
    0.00000E+00         0.00000E+00        -0.47940E+08
 
   -0.47031E+08         0.12402E+07         0.00000E+00
    0.12402E+07        -0.49771E+08         0.00000E+00
    0.00000E+00         0.00000E+00        -0.47942E+08
 
   -0.47071E+08         0.12768E+07         0.00000E+00
    0.12768E+07        -0.49755E+08         0.00000E+00
    0.00000E+00         0.00000E+00        -0.47944E+08
 
   -0.47111E+08         0.13129E+07         0.00000E+00
    0.13129E+07        -0.49740E+08         0.00000E+00
    0.00000E+00         0.00000E+00        -0.47946E+08
 
   -0.47152E+08         0.13486E+07         0.00000E+00
    0.13486E+07        -0.49723E+08         0.00000E+00
    0.00000E+00         0.00000E+00        -0.47947E+08
 
   -0.47192E+08         0.13837E+07         0.00000E+00
    0.13837E+07        -0.49707E+08         0.00000E+00
    0.00000E+00         0.00000E+00        -0.47949E+08
 
   -0.47234E+08         0.14184E+07         0.00000E+00
    0.14184E+07        -0.49690E+08         0.00000E+00
    0.00000E+00         0.00000E+00        -0.47951E+08
 
   -0.47276E+08         0.14525E+07         0.00000E+00
    0.14525E+07        -0.49673E+08         0.00000E+00
    0.00000E+00         0.00000E+00        -0.47952E+08
 
   -0.47318E+08         0.14861E+07         0.00000E+00
    0.14861E+07        -0.49655E+08         0.00000E+00
    0.00000E+00         0.00000E+00        -0.47954E+08
 
   -0.47360E+08         0.15193E+07         0.00000E+00
    0.15193E+07        -0.49637E+08         0.00000E+00
    0.00000E+00         0.00000E+00        -0.47955E+08
 
   -0.47403E+08         0.15520E+07         0.00000E+00
    0.15520E+07        -0.49618E+08         0.00000E+00
    0.00000E+00         0.00000E+00        -0.47957E+08
 
   -0.47447E+08         0.15841E+07         0.00000E+00
    0.15841E+07        -0.49599E+08         0.00000E+00
    0.00000E+00         0.00000E+00        -0.47958E+08
 
   -0.47490E+08         0.16158E+07         0.00000E+00
    0.16158E+07        -0.49580E+08         0.00000E+00
    0.00000E+00         0.00000E+00        -0.47959E+08
 
   -0.47534E+08         0.16469E+07         0.00000E+00
    0.16469E+07        -0.49560E+08         0.00000E+00
    0.00000E+00         0.00000E+00        -0.47960E+08
 
   -0.47579E+08         0.16776E+07         0.00000E+00
    0.16776E+07        -0.49540E+08         0.00000E+00
    0.00000E+00         0.00000E+00        -0.47962E+08
 
   -0.47623E+08         0.17078E+07         0.00000E+00
    0.17078E+07        -0.49520E+08         0.00000E+00
    0.00000E+00         0.00000E+00        -0.47962E+08
 
   -0.47668E+08         0.17375E+07         0.00000E+00
    0.17375E+07        -0.49499E+08         0.00000E+00
    0.00000E+00         0.00000E+00        -0.47963E+08
 
   -0.47713E+08         0.17666E+07         0.00000E+00
    0.17666E+07        -0.49478E+08         0.00000E+00
    0.00000E+00         0.00000E+00        -0.47964E+08
 
   -0.47759E+08         0.17953E+07         0.00000E+00
    0.17953E+07        -0.49456E+08         0.00000E+00
    0.00000E+00         0.00000E+00        -0.47965E+08
 
   -0.47804E+08         0.18235E+07         0.00000E+00
    0.18235E+07        -0.49434E+08         0.00000E+00
    0.00000E+00         0.00000E+00        -0.47965E+08
 
   -0.47850E+08         0.18512E+07         0.00000E+00
    0.18512E+07        -0.49412E+08         0.00000E+00
    0.00000E+00         0.00000E+00        -0.47966E+08
 
   -0.47896E+08         0.18784E+07         0.00000E+00
    0.18784E+07        -0.49389E+08         0.00000E+00
    0.00000E+00         0.00000E+00        -0.47966E+08
 
   -0.47943E+08         0.19051E+07         0.00000E+00
    0.19051E+07        -0.49367E+08         0.00000E+00
    0.00000E+00         0.00000E+00        -0.47966E+08
 
   -0.45934E+08         0.26710E+05         0.00000E+00
    0.26710E+05        -0.50000E+08         0.00000E+00
    0.00000E+00         0.00000E+00        -0.47765E+08
 
   -0.45954E+08         0.79075E+05         0.00000E+00
    0.79075E+05        -0.49999E+08         0.00000E+00
    0.00000E+00         0.00000E+00        -0.47765E+08
 
   -0.45976E+08         0.13104E+06         0.00000E+00
    0.13104E+06        -0.49998E+08         0.00000E+00
    0.00000E+00         0.00000E+00        -0.47765E+08
 
   -0.45998E+08         0.18259E+06         0.00000E+00
    0.18259E+06        -0.49996E+08         0.00000E+00
    0.00000E+00         0.00000E+00        -0.47766E+08
 
   -0.46022E+08         0.23373E+06         0.00000E+00
    0.23373E+06        -0.49993E+08         0.00000E+00
    0.00000E+00         0.00000E+00        -0.47766E+08
 
   -0.46047E+08         0.28443E+06         0.00000E+00
    0.28443E+06        -0.49990E+08         0.00000E+00
    0.00000E+00         0.00000E+00        -0.47767E+08
 
   -0.46073E+08         0.33468E+06         0.00000E+00
    0.33468E+06        -0.49986E+08         0.00000E+00
    0.00000E+00         0.00000E+00        -0.47768E+08
 
   -0.46099E+08         0.38449E+06         0.00000E+00
    0.38449E+06        -0.49981E+08         0.00000E+00
    0.00000E+00         0.00000E+00        -0.47769E+08
 
   -0.46127E+08         0.43385E+06         0.00000E+00
    0.43385E+06        -0.49976E+08         0.00000E+00
    0.00000E+00         0.00000E+00        -0.47770E+08
 
   -0.46156E+08         0.48273E+06         0.00000E+00
    0.48273E+06        -0.49970E+08         0.00000E+00
    0.00000E+00         0.00000E+00        -0.47771E+08
 
   -0.46185E+08         0.53115E+06         0.00000E+00
    0.53115E+06        -0.49964E+08         0.00000E+00
    0.00000E+00         0.00000E+00        -0.47772E+08
 
   -0.46215E+08         0.57909E+06         0.00000E+00
    0.57909E+06        -0.49957E+08         0.00000E+00
    0.00000E+00         0.00000E+00        -0.47774E+08
 
   -0.46247E+08         0.62655E+06         0.00000E+00
    0.62655E+06        -0.49950E+08         0.00000E+00
    0.00000E+00         0.00000E+00        -0.47775E+08
 
   -0.46279E+08         0.67351E+06         0.00000E+00
    0.67351E+06        -0.49942E+08         0.00000E+00
    0.00000E+00         0.00000E+00        -0.47777E+08
 
   -0.46311E+08         0.71999E+06         0.00000E+00
    0.71999E+06        -0.49933E+08         0.00000E+00
    0.00000E+00         0.00000E+00        -0.47778E+08
 
   -0.46345E+08         0.76597E+06         0.00000E+00
    0.76597E+06        -0.49924E+08         0.00000E+00
    0.00000E+00         0.00000E+00        -0.47780E+08
 
   -0.46379E+08         0.81145E+06         0.00000E+00
    0.81145E+06        -0.49914E+08         0.00000E+00
    0.00000E+00         0.00000E+00        -0.47782E+08
 
   -0.46414E+08         0.85643E+06         0.00000E+00
    0.85643E+06        -0.49904E+08         0.00000E+00
    0.00000E+00         0.00000E+00        -0.47784E+08
 
   -0.46450E+08         0.90090E+06         0.00000E+00
    0.90090E+06        -0.49893E+08         0.00000E+00
    0.00000E+00         0.00000E+00        -0.47786E+08
 
   -0.46486E+08         0.94486E+06         0.00000E+00
    0.94486E+06        -0.49882E+08         0.00000E+00
    0.00000E+00         0.00000E+00        -0.47787E+08
 
   -0.46524E+08         0.98831E+06         0.00000E+00
    0.98831E+06        -0.49870E+08         0.00000E+00
    0.00000E+00         0.00000E+00        -0.47789E+08
 
   -0.46561E+08         0.10312E+07         0.00000E+00
    0.10312E+07        -0.49858E+08         0.00000E+00
    0.00000E+00         0.00000E+00        -0.47791E+08
 
   -0.46600E+08         0.10737E+07         0.00000E+00
    0.10737E+07        -0.49845E+08         0.00000E+00
    0.00000E+00         0.00000E+00        -0.47793E+08
 
   -0.46639E+08         0.11156E+07         0.00000E+00
    0.11156E+07        -0.49832E+08         0.00000E+00
    0.00000E+00         0.00000E+00        -0.47795E+08
 
   -0.46678E+08         0.11570E+07         0.00000E+00
    0.11570E+07        -0.49818E+08         0.00000E+00
    0.00000E+00         0.00000E+00        -0.47797E+08
 
   -0.46718E+08         0.11978E+07         0.00000E+00
    0.11978E+07        -0.49804E+08         0.00000E+00
    0.00000E+00         0.00000E+00        -0.47799E+08
 
   -0.46759E+08         0.12382E+07         0.00000E+00
    0.12382E+07        -0.49789E+08         0.00000E+00
    0.00000E+00         0.00000E+00        -0.47801E+08
 
   -0.46800E+08         0.12780E+07         0.00000E+00
    0.12780E+07        -0.49774E+08         0.00000E+00
    0.00000E+00         0.00000E+00        -0.47803E+08
 
   -0.46842E+08         0.13174E+07         0.00000E+00
    0.13174E+07        -0.49759E+08         0.00000E+00
    0.00000E+00         0.00000E+00        -0.47805E+08
 
   -0.46884E+08         0.13562E+07         0.00000E+00
    0.13562E+07        -0.49742E+08         0.00000E+00
    0.00000E+00         0.00000E+00        -0.47807E+08
 
   -0.46926E+08         0.13944E+07         0.00000E+00
    0.13944E+07        -0.49726E+08         0.00000E+00
    0.00000E+00         0.00000E+00        -0.47809E+08
 
   -0.46969E+08         0.14322E+07         0.00000E+00
    0.14322E+07        -0.49709E+08         0.00000E+00
    0.00000E+00         0.00000E+00        -0.47811E+08
 
   -0.47013E+08         0.14695E+07         0.00000E+00
    0.14695E+07        -0.49692E+08         0.00000E+00
    0.00000E+00         0.00000E+00        -0.47813E+08
 
   -0.47057E+08         0.15062E+07         0.00000E+00
    0.15062E+07        -0.49674E+08         0.00000E+00
    0.00000E+00         0.00000E+00        -0.47814E+08
 
   -0.47101E+08         0.15424E+07         0.00000E+00
    0.15424E+07        -0.49656E+08         0.00000E+00
    0.00000E+00         0.00000E+00        -0.47816E+08
 
   -0.47146E+08         0.15781E+07         0.00000E+00
    0.15781E+07        -0.49637E+08         0.00000E+00
    0.00000E+00         0.00000E+00        -0.47818E+08
 
   -0.47191E+08         0.16133E+07         0.00000E+00
    0.16133E+07        -0.49618E+08         0.00000E+00
    0.00000E+00         0.00000E+00        -0.47819E+08
 
   -0.47236E+08         0.16480E+07         0.00000E+00
    0.16480E+07        -0.49599E+08         0.00000E+00
    0.00000E+00         0.00000E+00        -0.47821E+08
 
   -0.47282E+08         0.16821E+07         0.00000E+00
    0.16821E+07        -0.49579E+08         0.00000E+00
    0.00000E+00         0.00000E+00        -0.47822E+08
 
   -0.47328E+08         0.17158E+07         0.00000E+00
    0.17158E+07        -0.49558E+08         0.00000E+00
    0.00000E+00         0.00000E+00        -0.47823E+08
 
   -0.47375E+08         0.17489E+07         0.00000E+00
    0.17489E+07        -0.49538E+08         0.00000E+00
    0.00000E+00         0.00000E+00        -0.47825E+08
 
   -0.47422E+08         0.17815E+07         0.00000E+00
    0.17815E+07        -0.49517E+08         0.00000E+00
    0.00000E+00         0.00000E+00        -0.47826E+08
 
   -0.47469E+08         0.18136E+07         0.00000E+00
    0.18136E+07        -0.49495E+08         0.00000E+00
    0.00000E+00         0.00000E+00        -0.47827E+08
 
   -0.47516E+08         0.18452E+07         0.00000E+00
    0.18452E+07        -0.49473E+08         0.00000E+00
    0.00000E+00         0.00000E+00        -0.47828E+08
 
   -0.47564E+08         0.18762E+07         0.00000E+00
    0.18762E+07        -0.49451E+08         0.00000E+00
    0.00000E+00         0.00000E+00        -0.47829E+08
 
   -0.47612E+08         0.19068E+07         0.00000E+00
    0.19068E+07        -0.49428E+08         0.00000E+00
    0.00000E+00         0.00000E+00        -0.47829E+08
 
   -0.47660E+08         0.19369E+07         0.00000E+00
    0.19369E+07        -0.49405E+08         0.00000E+00
    0.00000E+00         0.00000E+00        -0.47830E+08
 
   -0.47708E+08         0.19664E+07         0.00000E+00
    0.19664E+07        -0.49382E+08         0.00000E+00
    0.00000E+00         0.00000E+00        -0.47830E+08
 
   -0.47757E+08         0.19954E+07         0.00000E+00
    0.19954E+07        -0.49358E+08         0.00000E+00
    0.00000E+00         0.00000E+00        -0.47830E+08
 
   -0.47806E+08         0.20239E+07         0.00000E+00
    0.20239E+07        -0.49334E+08         0.00000E+00
    0.00000E+00         0.00000E+00        -0.47831E+08
 
   -0.45662E+08         0.28525E+05         0.00000E+00
    0.28525E+05        -0.50000E+08         0.00000E+00
    0.00000E+00         0.00000E+00        -0.47615E+08
 
   -0.45685E+08         0.84362E+05         0.00000E+00
    0.84362E+05        -0.49999E+08         0.00000E+00
    0.00000E+00         0.00000E+00        -0.47615E+08
 
   -0.45709E+08         0.13974E+06         0.00000E+00
    0.13974E+06        -0.49998E+08         0.00000E+00
    0.00000E+00         0.00000E+00        -0.47616E+08
 
   -0.45733E+08         0.19466E+06         0.00000E+00
    0.19466E+06        -0.49996E+08         0.00000E+00
    0.00000E+00         0.00000E+00        -0.47616E+08
 
   -0.45759E+08         0.24909E+06         0.00000E+00
    0.24909E+06        -0.49993E+08         0.00000E+00
    0.00000E+00         0.00000E+00        -0.47617E+08
 
   -0.45786E+08         0.30304E+06         0.00000E+00
    0.30304E+06        -0.49989E+08         0.00000E+00
    0.00000E+00         0.00000E+00        -0.47618E+08
 
   -0.45815E+08         0.35650E+06         0.00000E+00
    0.35650E+06        -0.49985E+08         0.00000E+00
    0.00000E+00         0.00000E+00        -0.47619E+08
 
   -0.45844E+08         0.40945E+06         0.00000E+00
    0.40945E+06        -0.49980E+08         0.00000E+00
    0.00000E+00         0.00000E+00        -0.47620E+08
 
   -0.45874E+08         0.46189E+06         0.00000E+00
    0.46189E+06        -0.49975E+08         0.00000E+00
    0.00000E+00         0.00000E+00        -0.47621E+08
 
   -0.45905E+08         0.51382E+06         0.00000E+00
    0.51382E+06        -0.49969E+08         0.00000E+00
    0.00000E+00         0.00000E+00        -0.47622E+08
 
   -0.45937E+08         0.56523E+06         0.00000E+00
    0.56523E+06        -0.49962E+08         0.00000E+00
    0.00000E+00         0.00000E+00        -0.47624E+08
 
   -0.45970E+08         0.61611E+06         0.00000E+00
    0.61611E+06        -0.49955E+08         0.00000E+00
    0.00000E+00         0.00000E+00        -0.47625E+08
 
   -0.46003E+08         0.66646E+06         0.00000E+00
    0.66646E+06        -0.49947E+08         0.00000E+00
    0.00000E+00         0.00000E+00        -0.47627E+08
 
   -0.46038E+08         0.71628E+06         0.00000E+00
    0.71628E+06        -0.49938E+08         0.00000E+00
    0.00000E+00         0.00000E+00        -0.47628E+08
 
   -0.46073E+08         0.76556E+06         0.00000E+00
    0.76556E+06        -0.49929E+08         0.00000E+00
    0.00000E+00         0.00000E+00        -0.47630E+08
 
   -0.46109E+08         0.81430E+06         0.00000E+00
    0.81430E+06        -0.49920E+08         0.00000E+00
    0.00000E+00         0.00000E+00        -0.47632E+08
 
   -0.46146E+08         0.86250E+06         0.00000E+00
    0.86250E+06        -0.49910E+08         0.00000E+00
    0.00000E+00         0.00000E+00        -0.47634E+08
 
   -0.46184E+08         0.91016E+06         0.00000E+00
    0.91016E+06        -0.49899E+08         0.00000E+00
    0.00000E+00         0.00000E+00        -0.47636E+08
 
   -0.46222E+08         0.95727E+06         0.00000E+00
    0.95727E+06        -0.49888E+08         0.00000E+00
    0.00000E+00         0.00000E+00        -0.47638E+08
 
   -0.46261E+08         0.10038E+07         0.00000E+00
    0.10038E+07        -0.49876E+08         0.00000E+00
    0.00000E+00         0.00000E+00        -0.47640E+08
 
   -0.46301E+08         0.10498E+07         0.00000E+00
    0.10498E+07        -0.49863E+08         0.00000E+00
    0.00000E+00         0.00000E+00        -0.47642E+08
 
   -0.46342E+08         0.10953E+07         0.00000E+00
    0.10953E+07        -0.49851E+08         0.00000E+00
    0.00000E+00         0.00000E+00        -0.47644E+08
 
   -0.46383E+08         0.11402E+07         0.00000E+00
    0.11402E+07        -0.49837E+08         0.00000E+00
    0.00000E+00         0.00000E+00        -0.47646E+08
 
   -0.46424E+08         0.11846E+07         0.00000E+00
    0.11846E+07        -0.49823E+08         0.00000E+00
    0.00000E+00         0.00000E+00        -0.47648E+08
 
   -0.46466E+08         0.12284E+07         0.00000E+00
    0.12284E+07        -0.49809E+08         0.00000E+00
    0.00000E+00         0.00000E+00        -0.47650E+08
 
   -0.46509E+08         0.12717E+07         0.00000E+00
    0.12717E+07        -0.49794E+08         0.00000E+00
    0.00000E+00         0.00000E+00        -0.47652E+08
 
   -0.46552E+08         0.13144E+07         0.00000E+00
    0.13144E+07        -0.49779E+08         0.00000E+00
    0.00000E+00         0.00000E+00        -0.47654E+08
 
   -0.46596E+08         0.13566E+07         0.00000E+00
    0.13566E+07        -0.49763E+08         0.00000E+00
    0.00000E+00         0.00000E+00        -0.47656E+08
 
   -0.46640E+08         0.13982E+07         0.00000E+00
    0.13982E+07        -0.49747E+08         0.00000E+00
    0.00000E+00         0.00000E+00        -0.47659E+08
 
   -0.46685E+08         0.14393E+07         0.00000E+00
    0.14393E+07        -0.49730E+08         0.00000E+00
    0.00000E+00         0.00000E+00        -0.47661E+08
 
   -0.46730E+08         0.14799E+07         0.00000E+00
    0.14799E+07        -0.49713E+08         0.00000E+00
    0.00000E+00         0.00000E+00        -0.47663E+08
 
   -0.46776E+08         0.15199E+07         0.00000E+00
    0.15199E+07        -0.49695E+08         0.00000E+00
    0.00000E+00         0.00000E+00        -0.47665E+08
 
   -0.46822E+08         0.15594E+07         0.00000E+00
    0.15594E+07        -0.49677E+08         0.00000E+00
    0.00000E+00         0.00000E+00        -0.47667E+08
 
   -0.46869E+08         0.15983E+07         0.00000E+00
    0.15983E+07        -0.49658E+08         0.00000E+00
    0.00000E+00         0.00000E+00        -0.47668E+08
 
   -0.46916E+08         0.16367E+07         0.00000E+00
    0.16367E+07        -0.49639E+08         0.00000E+00
    0.00000E+00         0.00000E+00        -0.47670E+08
 
   -0.46963E+08         0.16746E+07         0.00000E+00
    0.16746E+07        -0.49620E+08         0.00000E+00
    0.00000E+00         0.00000E+00        -0.47672E+08
 
   -0.47011E+08         0.17119E+07         0.00000E+00
    0.17119E+07        -0.49600E+08         0.00000E+00
    0.00000E+00         0.00000E+00        -0.47674E+08
 
   -0.47059E+08         0.17487E+07         0.00000E+00
    0.17487E+07        -0.49579E+08         0.00000E+00
    0.00000E+00         0.00000E+00        -0.47675E+08
 
   -0.47107E+08         0.17850E+07         0.00000E+00
    0.17850E+07        -0.49558E+08         0.00000E+00
    0.00000E+00         0.00000E+00        -0.47677E+08
 
   -0.47156E+08         0.18207E+07         0.00000E+00
    0.18207E+07        -0.49537E+08         0.00000E+00
    0.00000E+00         0.00000E+00        -0.47678E+08
 
   -0.47205E+08         0.18559E+07         0.00000E+00
    0.18559E+07        -0.49515E+08         0.00000E+00
    0.00000E+00         0.00000E+00        -0.47679E+08
 
   -0.47255E+08         0.18906E+07         0.00000E+00
    0.18906E+07        -0.49493E+08         0.00000E+00
    0.00000E+00         0.00000E+00        -0.47681E+08
 
   -0.47304E+08         0.19247E+07         0.00000E+00
    0.19247E+07        -0.49471E+08         0.00000E+00
    0.00000E+00         0.00000E+00        -0.47682E+08
 
   -0.47354E+08         0.19584E+07         0.00000E+00
    0.19584E+07        -0.49448E+08         0.00000E+00
    0.00000E+00         0.00000E+00        -0.47683E+08
 
   -0.47405E+08         0.19915E+07         0.00000E+00
    0.19915E+07        -0.49424E+08         0.00000E+00
    0.00000E+00         0.00000E+00        -0.47683E+08
 
   -0.47455E+08         0.20240E+07         0.00000E+00
    0.20240E+07        -0.49401E+08         0.00000E+00
    0.00000E+00         0.00000E+00        -0.47684E+08
 
   -0.47506E+08         0.20561E+07         0.00000E+00
    0.20561E+07        -0.49376E+08         0.00000E+00
    0.00000E+00         0.00000E+00        -0.47685E+08
 
   -0.47557E+08         0.20876E+07         0.00000E+00
    0.20876E+07        -0.49352E+08         0.00000E+00
    0.00000E+00         0.00000E+00        -0.47685E+08
 
   -0.47608E+08         0.21187E+07         0.00000E+00
    0.21187E+07        -0.49327E+08         0.00000E+00
    0.00000E+00         0.00000E+00        -0.47686E+08
 
   -0.47660E+08         0.21492E+07         0.00000E+00
    0.21492E+07        -0.49301E+08         0.00000E+00
    0.00000E+00         0.00000E+00        -0.47686E+08
 
   -0.45373E+08         0.30449E+05         0.00000E+00
    0.30449E+05        -0.50000E+08         0.00000E+00
    0.00000E+00         0.00000E+00        -0.47455E+08
 
   -0.45398E+08         0.89952E+05         0.00000E+00
    0.89952E+05        -0.49999E+08         0.00000E+00
    0.00000E+00         0.00000E+00        -0.47456E+08
 
   -0.45424E+08         0.14893E+06         0.00000E+00
    0.14893E+06        -0.49998E+08         0.00000E+00
    0.00000E+00         0.00000E+00        -0.47456E+08
 
   -0.45451E+08         0.20738E+06         0.00000E+00
    0.20738E+06        -0.49995E+08         0.00000E+00
    0.00000E+00         0.00000E+00        -0.47456E+08
 
   -0.45480E+08         0.26529E+06         0.00000E+00
    0.26529E+06        -0.49992E+08         0.00000E+00
    0.00000E+00         0.00000E+00        -0.47457E+08
 
   -0.45509E+08         0.32265E+06         0.00000E+00
    0.32265E+06        -0.49989E+08         0.00000E+00
    0.00000E+00         0.00000E+00        -0.47458E+08
 
   -0.45540E+08         0.37946E+06         0.00000E+00
    0.37946E+06        -0.49984E+08         0.00000E+00
    0.00000E+00         0.00000E+00        -0.47459E+08
 
   -0.45572E+08         0.43570E+06         0.00000E+00
    0.43570E+06        -0.49979E+08         0.00000E+00
    0.00000E+00         0.00000E+00        -0.47460E+08
 
   -0.45605E+08         0.49138E+06         0.00000E+00
    0.49138E+06        -0.49974E+08         0.00000E+00
    0.00000E+00         0.00000E+00        -0.47461E+08
 
   -0.45639E+08         0.54648E+06         0.00000E+00
    0.54648E+06        -0.49967E+08         0.00000E+00
    0.00000E+00         0.00000E+00        -0.47463E+08
 
   -0.45673E+08         0.60101E+06         0.00000E+00
    0.60101E+06        -0.49960E+08         0.00000E+00
    0.00000E+00         0.00000E+00        -0.47464E+08
 
   -0.45709E+08         0.65496E+06         0.00000E+00
    0.65496E+06        -0.49953E+08         0.00000E+00
    0.00000E+00         0.00000E+00        -0.47466E+08
 
   -0.45745E+08         0.70833E+06         0.00000E+00
    0.70833E+06        -0.49944E+08         0.00000E+00
    0.00000E+00         0.00000E+00        -0.47468E+08
 
   -0.45783E+08         0.76112E+06         0.00000E+00
    0.76112E+06        -0.49935E+08         0.00000E+00
    0.00000E+00         0.00000E+00        -0.47469E+08
 
   -0.45821E+08         0.81332E+06         0.00000E+00
    0.81332E+06        -0.49926E+08         0.00000E+00
    0.00000E+00         0.00000E+00        -0.47471E+08
 
   -0.45860E+08         0.86493E+06         0.00000E+00
    0.86493E+06        -0.49916E+08         0.00000E+00
    0.00000E+00         0.00000E+00        -0.47473E+08
 
   -0.45900E+08         0.91596E+06         0.00000E+00
    0.91596E+06        -0.49905E+08         0.00000E+00
    0.00000E+00         0.00000E+00        -0.47475E+08
 
   -0.45940E+08         0.96640E+06         0.00000E+00
    0.96640E+06        -0.49894E+08         0.00000E+00
    0.00000E+00         0.00000E+00        -0.47477E+08
 
   -0.45981E+08         0.10162E+07         0.00000E+00
    0.10162E+07        -0.49882E+08         0.00000E+00
    0.00000E+00         0.00000E+00        -0.47479E+08
 
   -0.46023E+08         0.10655E+07         0.00000E+00
    0.10655E+07        -0.49870E+08         0.00000E+00
    0.00000E+00         0.00000E+00        -0.47482E+08
 
   -0.46066E+08         0.11142E+07         0.00000E+00
    0.11142E+07        -0.49857E+08         0.00000E+00
    0.00000E+00         0.00000E+00        -0.47484E+08
 
   -0.46109E+08         0.11623E+07         0.00000E+00
    0.11623E+07        -0.49844E+08         0.00000E+00
    0.00000E+00         0.00000E+00        -0.47486E+08
 
   -0.46153E+08         0.12098E+07         0.00000E+00
    0.12098E+07        -0.49830E+08         0.00000E+00
    0.00000E+00         0.00000E+00        -0.47488E+08
 
   -0.46197E+08         0.12567E+07         0.00000E+00
    0.12567E+07        -0.49815E+08         0.00000E+00
    0.00000E+00         0.00000E+00        -0.47490E+08
 
   -0.46242E+08         0.13031E+07         0.00000E+00
    0.13031E+07        -0.49800E+08         0.00000E+00
    0.00000E+00         0.00000E+00        -0.47493E+08
 
   -0.46288E+08         0.13489E+07         0.00000E+00
    0.13489E+07        -0.49785E+08         0.00000E+00
    0.00000E+00         0.00000E+00        -0.47495E+08
 
   -0.46334E+08         0.13941E+07         0.00000E+00
    0.13941E+07        -0.49769E+08         0.00000E+00
    0.00000E+00         0.00000E+00        -0.47497E+08
 
   -0.46380E+08         0.14387E+07         0.00000E+00
    0.14387E+07        -0.49752E+08         0.00000E+00
    0.00000E+00         0.00000E+00        -0.47500E+08
 
   -0.46428E+08         0.14828E+07         0.00000E+00
    0.14828E+07        -0.49735E+08         0.00000E+00
    0.00000E+00         0.00000E+00        -0.47502E+08
 
   -0.46475E+08         0.15262E+07         0.00000E+00
    0.15262E+07        -0.49718E+08         0.00000E+00
    0.00000E+00         0.00000E+00        -0.47504E+08
 
   -0.46523E+08         0.15692E+07         0.00000E+00
    0.15692E+07        -0.49700E+08         0.00000E+00
    0.00000E+00         0.00000E+00        -0.47506E+08
 
   -0.46572E+08         0.16115E+07         0.00000E+00
    0.16115E+07        -0.49681E+08         0.00000E+00
    0.00000E+00         0.00000E+00        -0.47508E+08
 
   -0.46620E+08         0.16533E+07         0.00000E+00
    0.16533E+07        -0.49662E+08         0.00000E+00
    0.00000E+00         0.00000E+00        -0.47510E+08
 
   -0.46670E+08         0.16946E+07         0.00000E+00
    0.16946E+07        -0.49643E+08         0.00000E+00
    0.00000E+00         0.00000E+00        -0.47512E+08
 
   -0.46719E+08         0.17353E+07         0.00000E+00
    0.17353E+07        -0.49623E+08         0.00000E+00
    0.00000E+00         0.00000E+00        -0.47514E+08
 
   -0.46770E+08         0.17754E+07         0.00000E+00
    0.17754E+07        -0.49603E+08         0.00000E+00
    0.00000E+00         0.00000E+00        -0.47516E+08
 
   -0.46820E+08         0.18150E+07         0.00000E+00
    0.18150E+07        -0.49582E+08         0.00000E+00
    0.00000E+00         0.00000E+00        -0.47518E+08
 
   -0.46871E+08         0.18541E+07         0.00000E+00
    0.18541E+07        -0.49561E+08         0.00000E+00
    0.00000E+00         0.00000E+00        -0.47519E+08
 
   -0.46922E+08         0.18926E+07         0.00000E+00
    0.18926E+07        -0.49539E+08         0.00000E+00
    0.00000E+00         0.00000E+00        -0.47521E+08
 
   -0.46973E+08         0.19305E+07         0.00000E+00
    0.19305E+07        -0.49517E+08         0.00000E+00
    0.00000E+00         0.00000E+00        -0.47522E+08
 
   -0.47025E+08         0.19680E+07         0.00000E+00
    0.19680E+07        -0.49494E+08         0.00000E+00
    0.00000E+00         0.00000E+00        -0.47524E+08
 
   -0.47077E+08         0.20049E+07         0.00000E+00
    0.20049E+07        -0.49471E+08         0.00000E+00
    0.00000E+00         0.00000E+00        -0.47525E+08
 
   -0.47129E+08         0.20412E+07         0.00000E+00
    0.20412E+07        -0.49447E+08         0.00000E+00
    0.00000E+00         0.00000E+00        -0.47526E+08
 
   -0.47182E+08         0.20770E+07         0.00000E+00
    0.20770E+07        -0.49423E+08         0.00000E+00
    0.00000E+00         0.00000E+00        -0.47527E+08
 
   -0.47235E+08         0.21123E+07         0.00000E+00
    0.21123E+07        -0.49399E+08         0.00000E+00
    0.00000E+00         0.00000E+00        -0.47528E+08
 
   -0.47288E+08         0.21471E+07         0.00000E+00
    0.21471E+07        -0.49374E+08         0.00000E+00
    0.00000E+00         0.00000E+00        -0.47529E+08
 
   -0.47342E+08         0.21813E+07         0.00000E+00
    0.21813E+07        -0.49348E+08         0.00000E+00
    0.00000E+00         0.00000E+00        -0.47530E+08
 
   -0.47395E+08         0.22150E+07         0.00000E+00
    0.22150E+07        -0.49322E+08         0.00000E+00
    0.00000E+00         0.00000E+00        -0.47530E+08
 
   -0.47449E+08         0.22482E+07         0.00000E+00
    0.22482E+07        -0.49296E+08         0.00000E+00
    0.00000E+00         0.00000E+00        -0.47530E+08
 
   -0.47503E+08         0.22808E+07         0.00000E+00
    0.22808E+07        -0.49269E+08         0.00000E+00
    0.00000E+00         0.00000E+00        -0.47530E+08
 
   -0.45064E+08         0.32482E+05         0.00000E+00
    0.32482E+05        -0.50000E+08         0.00000E+00
    0.00000E+00         0.00000E+00        -0.47284E+08
 
   -0.45092E+08         0.95839E+05         0.00000E+00
    0.95839E+05        -0.49999E+08         0.00000E+00
    0.00000E+00         0.00000E+00        -0.47284E+08
 
   -0.45121E+08         0.15860E+06         0.00000E+00
    0.15860E+06        -0.49997E+08         0.00000E+00
    0.00000E+00         0.00000E+00        -0.47285E+08
 
   -0.45151E+08         0.22075E+06         0.00000E+00
    0.22075E+06        -0.49995E+08         0.00000E+00
    0.00000E+00         0.00000E+00        -0.47285E+08
 
   -0.45183E+08         0.28229E+06         0.00000E+00
    0.28229E+06        -0.49992E+08         0.00000E+00
    0.00000E+00         0.00000E+00        -0.47286E+08
 
   -0.45215E+08         0.34322E+06         0.00000E+00
    0.34322E+06        -0.49988E+08         0.00000E+00
    0.00000E+00         0.00000E+00        -0.47287E+08
 
   -0.45249E+08         0.40352E+06         0.00000E+00
    0.40352E+06        -0.49984E+08         0.00000E+00
    0.00000E+00         0.00000E+00        -0.47288E+08
 
   -0.45284E+08         0.46319E+06         0.00000E+00
    0.46319E+06        -0.49978E+08         0.00000E+00
    0.00000E+00         0.00000E+00        -0.47289E+08
 
   -0.45320E+08         0.52223E+06         0.00000E+00
    0.52223E+06        -0.49972E+08         0.00000E+00
    0.00000E+00         0.00000E+00        -0.47291E+08
 
   -0.45356E+08         0.58064E+06         0.00000E+00
    0.58064E+06        -0.49966E+08         0.00000E+00
    0.00000E+00         0.00000E+00        -0.47292E+08
 
   -0.45394E+08         0.63841E+06         0.00000E+00
    0.63841E+06        -0.49958E+08         0.00000E+00
    0.00000E+00         0.00000E+00        -0.47294E+08
 
   -0.45433E+08         0.69554E+06         0.00000E+00
    0.69554E+06        -0.49950E+08         0.00000E+00
    0.00000E+00         0.00000E+00        -0.47295E+08
 
   -0.45472E+08         0.75204E+06         0.00000E+00
    0.75204E+06        -0.49942E+08         0.00000E+00
    0.00000E+00         0.00000E+00        -0.47297E+08
 
   -0.45513E+08         0.80790E+06         0.00000E+00
    0.80790E+06        -0.49933E+08         0.00000E+00
    0.00000E+00         0.00000E+00        -0.47299E+08
 
   -0.45554E+08         0.86313E+06         0.00000E+00
    0.86313E+06        -0.49923E+08         0.00000E+00
    0.00000E+00         0.00000E+00        -0.47301E+08
 
   -0.45596E+08         0.91771E+06         0.00000E+00
    0.91771E+06        -0.49912E+08         0.00000E+00
    0.00000E+00         0.00000E+00        -0.47303E+08
 
   -0.45639E+08         0.97167E+06         0.00000E+00
    0.97167E+06        -0.49901E+08         0.00000E+00
    0.00000E+00         0.00000E+00        -0.47305E+08
 
   -0.45682E+08         0.10250E+07         0.00000E+00
    0.10250E+07        -0.49890E+08         0.00000E+00
    0.00000E+00         0.00000E+00        -0.47308E+08
 
   -0.45727E+08         0.10777E+07         0.00000E+00
    0.10777E+07        -0.49877E+08         0.00000E+00
    0.00000E+00         0.00000E+00        -0.47310E+08
 
   -0.45771E+08         0.11297E+07         0.00000E+00
    0.11297E+07        -0.49865E+08         0.00000E+00
    0.00000E+00         0.00000E+00        -0.47312E+08
 
   -0.45817E+08         0.11812E+07         0.00000E+00
    0.11812E+07        -0.49851E+08         0.00000E+00
    0.00000E+00         0.00000E+00        -0.47315E+08
 
   -0.45863E+08         0.12320E+07         0.00000E+00
    0.12320E+07        -0.49837E+08         0.00000E+00
    0.00000E+00         0.00000E+00        -0.47317E+08
 
   -0.45910E+08         0.12822E+07         0.00000E+00
    0.12822E+07        -0.49823E+08         0.00000E+00
    0.00000E+00         0.00000E+00        -0.47319E+08
 
   -0.45957E+08         0.13318E+07         0.00000E+00
    0.13318E+07        -0.49808E+08         0.00000E+00
    0.00000E+00         0.00000E+00        -0.47322E+08
 
   -0.46005E+08         0.13808E+07         0.00000E+00
    0.13808E+07        -0.49792E+08         0.00000E+00
    0.00000E+00         0.00000E+00        -0.47324E+08
 
   -0.46054E+08         0.14292E+07         0.00000E+00
    0.14292E+07        -0.49776E+08         0.00000E+00
    0.00000E+00         0.00000E+00        -0.47327E+08
 
   -0.46103E+08         0.14769E+07         0.00000E+00
    0.14769E+07        -0.49759E+08         0.00000E+00
    0.00000E+00         0.00000E+00        -0.47329E+08
 
   -0.46152E+08         0.15241E+07         0.00000E+00
    0.15241E+07        -0.49742E+08         0.00000E+00
    0.00000E+00         0.00000E+00        -0.47331E+08
 
   -0.46202E+08         0.15707E+07         0.00000E+00
    0.15707E+07        -0.49725E+08         0.00000E+00
    0.00000E+00         0.00000E+00        -0.47334E+08
 
   -0.46253E+08         0.16167E+07         0.00000E+00
    0.16167E+07        -0.49707E+08         0.00000E+00
    0.00000E+00         0.00000E+00        -0.47336E+08
 
   -0.46304E+08         0.16621E+07         0.00000E+00
    0.16621E+07        -0.49688E+08         0.00000E+00
    0.00000E+00         0.00000E+00        -0.47338E+08
 
   -0.46355E+08         0.17069E+07         0.00000E+00
    0.17069E+07        -0.49669E+08         0.00000E+00
    0.00000E+00         0.00000E+00        -0.47340E+08
 
   -0.46407E+08         0.17512E+07         0.00000E+00
    0.17512E+07        -0.49649E+08         0.00000E+00
    0.00000E+00         0.00000E+00        -0.47343E+08
 
   -0.46459E+08         0.17949E+07         0.00000E+00
    0.17949E+07        -0.49629E+08         0.00000E+00
    0.00000E+00         0.00000E+00        -0.47345E+08
 
   -0.46511E+08         0.18380E+07         0.00000E+00
    0.18380E+07        -0.49608E+08         0.00000E+00
    0.00000E+00         0.00000E+00        -0.47347E+08
 
   -0.46564E+08         0.18805E+07         0.00000E+00
    0.18805E+07        -0.49587E+08         0.00000E+00
    0.00000E+00         0.00000E+00        -0.47349E+08
 
   -0.46617E+08         0.19225E+07         0.00000E+00
    0.19225E+07        -0.49565E+08         0.00000E+00
    0.00000E+00         0.00000E+00        -0.47351E+08
 
   -0.46671E+08         0.19640E+07         0.00000E+00
    0.19640E+07        -0.49543E+08         0.00000E+00
    0.00000E+00         0.00000E+00        -0.47352E+08
 
   -0.46725E+08         0.20049E+07         0.00000E+00
    0.20049E+07        -0.49520E+08         0.00000E+00
    0.00000E+00         0.00000E+00        -0.47354E+08
 
   -0.46779E+08         0.20452E+07         0.00000E+00
    0.20452E+07        -0.49497E+08         0.00000E+00
    0.00000E+00         0.00000E+00        -0.47356E+08
 
   -0.46833E+08         0.20850E+07         0.00000E+00
    0.20850E+07        -0.49474E+08         0.00000E+00
    0.00000E+00         0.00000E+00        -0.47357E+08
 
   -0.46888E+08         0.21242E+07         0.00000E+00
    0.21242E+07        -0.49449E+08         0.00000E+00
    0.00000E+00         0.00000E+00        -0.47358E+08
 
   -0.46943E+08         0.21629E+07         0.00000E+00
    0.21629E+07        -0.49425E+08         0.00000E+00
    0.00000E+00         0.00000E+00        -0.47360E+08
 
   -0.46998E+08         0.22011E+07         0.00000E+00
    0.22011E+07        -0.49400E+08         0.00000E+00
    0.00000E+00         0.00000E+00        -0.47361E+08
 
   -0.47054E+08         0.22387E+07         0.00000E+00
    0.22387E+07        -0.49374E+08         0.00000E+00
    0.00000E+00         0.00000E+00        -0.47362E+08
 
   -0.47110E+08         0.22758E+07         0.00000E+00
    0.22758E+07        -0.49348E+08         0.00000E+00
    0.00000E+00         0.00000E+00        -0.47362E+08
 
   -0.47166E+08         0.23124E+07         0.00000E+00
    0.23124E+07        -0.49321E+08         0.00000E+00
    0.00000E+00         0.00000E+00        -0.47363E+08
 
   -0.47222E+08         0.23484E+07         0.00000E+00
    0.23484E+07        -0.49294E+08         0.00000E+00
    0.00000E+00         0.00000E+00        -0.47364E+08
 
   -0.47279E+08         0.23839E+07         0.00000E+00
    0.23839E+07        -0.49267E+08         0.00000E+00
    0.00000E+00         0.00000E+00        -0.47364E+08
 
   -0.47336E+08         0.24189E+07         0.00000E+00
    0.24189E+07        -0.49239E+08         0.00000E+00
    0.00000E+00         0.00000E+00        -0.47364E+08
 
   -0.44736E+08         0.34621E+05         0.00000E+00
    0.34621E+05        -0.50000E+08         0.00000E+00
    0.00000E+00         0.00000E+00        -0.47101E+08
 
   -0.44767E+08         0.10201E+06         0.00000E+00
    0.10201E+06        -0.49999E+08         0.00000E+00
    0.00000E+00         0.00000E+00        -0.47101E+08
 
   -0.44799E+08         0.16871E+06         0.00000E+00
    0.16871E+06        -0.49997E+08         0.00000E+00
    0.00000E+00         0.00000E+00        -0.47101E+08
 
   -0.44832E+08         0.23473E+06         0.00000E+00
    0.23473E+06        -0.49995E+08         0.00000E+00
    0.00000E+00         0.00000E+00        -0.47102E+08
 
   -0.44867E+08         0.30005E+06         0.00000E+00
    0.30005E+06        -0.49992E+08         0.00000E+00
    0.00000E+00         0.00000E+00        -0.47103E+08
 
   -0.44903E+08         0.36468E+06         0.00000E+00
    0.36468E+06        -0.49988E+08         0.00000E+00
    0.00000E+00         0.00000E+00        -0.47104E+08
 
   -0.44940E+08         0.42860E+06         0.00000E+00
    0.42860E+06        -0.49983E+08         0.00000E+00
    0.00000E+00         0.00000E+00        -0.47105E+08
 
   -0.44978E+08         0.49183E+06         0.00000E+00
    0.49183E+06        -0.49977E+08         0.00000E+00
    0.00000E+00         0.00000E+00        -0.47106E+08
 
   -0.45017E+08         0.55435E+06         0.00000E+00
    0.55435E+06        -0.49971E+08         0.00000E+00
    0.00000E+00         0.00000E+00        -0.47108E+08
 
   -0.45057E+08         0.61617E+06         0.00000E+00
    0.61617E+06        -0.49964E+08         0.00000E+00
    0.00000E+00         0.00000E+00        -0.47109E+08
 
   -0.45098E+08         0.67729E+06         0.00000E+00
    0.67729E+06        -0.49957E+08         0.00000E+00
    0.00000E+00         0.00000E+00        -0.47111E+08
 
   -0.45140E+08         0.73771E+06         0.00000E+00
    0.73771E+06        -0.49948E+08         0.00000E+00
    0.00000E+00         0.00000E+00        -0.47113E+08
 
   -0.45183E+08         0.79744E+06         0.00000E+00
    0.79744E+06        -0.49940E+08         0.00000E+00
    0.00000E+00         0.00000E+00        -0.47115E+08
 
   -0.45227E+08         0.85647E+06         0.00000E+00
    0.85647E+06        -0.49930E+08         0.00000E+00
    0.00000E+00         0.00000E+00        -0.47117E+08
 
   -0.45272E+08         0.91480E+06         0.00000E+00
    0.91480E+06        -0.49920E+08         0.00000E+00
    0.00000E+00         0.00000E+00        -0.47119E+08
 
   -0.45317E+08         0.97246E+06         0.00000E+00
    0.97246E+06        -0.49909E+08         0.00000E+00
    0.00000E+00         0.00000E+00        -0.47121E+08
 
   -0.45363E+08         0.10294E+07         0.00000E+00
    0.10294E+07        -0.49898E+08         0.00000E+00
    0.00000E+00         0.00000E+00        -0.47123E+08
 
   -0.45410E+08         0.10857E+07         0.00000E+00
    0.10857E+07        -0.49886E+08         0.00000E+00
    0.00000E+00         0.00000E+00        -0.47126E+08
 
   -0.45457E+08         0.11413E+07         0.00000E+00
    0.11413E+07        -0.49873E+08         0.00000E+00
    0.00000E+00         0.00000E+00        -0.47128E+08
 
   -0.45505E+08         0.11963E+07         0.00000E+00
    0.11963E+07        -0.49860E+08         0.00000E+00
    0.00000E+00         0.00000E+00        -0.47131E+08
 
   -0.45554E+08         0.12506E+07         0.00000E+00
    0.12506E+07        -0.49846E+08         0.00000E+00
    0.00000E+00         0.00000E+00        -0.47133E+08
 
   -0.45604E+08         0.13042E+07         0.00000E+00
    0.13042E+07        -0.49832E+08         0.00000E+00
    0.00000E+00         0.00000E+00        -0.47136E+08
 
   -0.45654E+08         0.13572E+07         0.00000E+00
    0.13572E+07        -0.49817E+08         0.00000E+00
    0.00000E+00         0.00000E+00        -0.47138E+08
 
   -0.45704E+08         0.14095E+07         0.00000E+00
    0.14095E+07        -0.49801E+08         0.00000E+00
    0.00000E+00         0.00000E+00        -0.47141E+08
 
   -0.45755E+08         0.14612E+07         0.00000E+00
    0.14612E+07        -0.49785E+08         0.00000E+00
    0.00000E+00         0.00000E+00        -0.47143E+08
 
   -0.45807E+08         0.15123E+07         0.00000E+00
    0.15123E+07        -0.49768E+08         0.00000E+00
    0.00000E+00         0.00000E+00        -0.47146E+08
 
   -0.45859E+08         0.15627E+07         0.00000E+00
    0.15627E+07        -0.49751E+08         0.00000E+00
    0.00000E+00         0.00000E+00        -0.47148E+08
 
   -0.45911E+08         0.16126E+07         0.00000E+00
    0.16126E+07        -0.49734E+08         0.00000E+00
    0.00000E+00         0.00000E+00        -0.47151E+08
 
   -0.45964E+08         0.16618E+07         0.00000E+00
    0.16618E+07        -0.49715E+08         0.00000E+00
    0.00000E+00         0.00000E+00        -0.47153E+08
 
   -0.46018E+08         0.17104E+07         0.00000E+00
    0.17104E+07        -0.49697E+08         0.00000E+00
    0.00000E+00         0.00000E+00        -0.47156E+08
 
   -0.46072E+08         0.17584E+07         0.00000E+00
    0.17584E+07        -0.49677E+08         0.00000E+00
    0.00000E+00         0.00000E+00        -0.47158E+08
 
   -0.46126E+08         0.18058E+07         0.00000E+00
    0.18058E+07        -0.49657E+08         0.00000E+00
    0.00000E+00         0.00000E+00        -0.47161E+08
 
   -0.46180E+08         0.18526E+07         0.00000E+00
    0.18526E+07        -0.49637E+08         0.00000E+00
    0.00000E+00         0.00000E+00        -0.47163E+08
 
   -0.46235E+08         0.18989E+07         0.00000E+00
    0.18989E+07        -0.49616E+08         0.00000E+00
    0.00000E+00         0.00000E+00        -0.47165E+08
 
   -0.46291E+08         0.19446E+07         0.00000E+00
    0.19446E+07        -0.49595E+08         0.00000E+00
    0.00000E+00         0.00000E+00        -0.47167E+08
 
   -0.46346E+08         0.19897E+07         0.00000E+00
    0.19897E+07        -0.49573E+08         0.00000E+00
    0.00000E+00         0.00000E+00        -0.47169E+08
 
   -0.46402E+08         0.20342E+07         0.00000E+00
    0.20342E+07        -0.49550E+08         0.00000E+00
    0.00000E+00         0.00000E+00        -0.47171E+08
 
   -0.46459E+08         0.20782E+07         0.00000E+00
    0.20782E+07        -0.49527E+08         0.00000E+00
    0.00000E+00         0.00000E+00        -0.47173E+08
 
   -0.46515E+08         0.21216E+07         0.00000E+00
    0.21216E+07        -0.49504E+08         0.00000E+00
    0.00000E+00         0.00000E+00        -0.47175E+08
 
   -0.46572E+08         0.21644E+07         0.00000E+00
    0.21644E+07        -0.49480E+08         0.00000E+00
    0.00000E+00         0.00000E+00        -0.47177E+08
 
   -0.46629E+08         0.22068E+07         0.00000E+00
    0.22068E+07        -0.49455E+08         0.00000E+00
    0.00000E+00         0.00000E+00        -0.47178E+08
 
   -0.46687E+08         0.22485E+07         0.00000E+00
    0.22485E+07        -0.49430E+08         0.00000E+00
    0.00000E+00         0.00000E+00        -0.47179E+08
 
   -0.46745E+08         0.22898E+07         0.00000E+00
    0.22898E+07        -0.49405E+08         0.00000E+00
    0.00000E+00         0.00000E+00        -0.47181E+08
 
   -0.46803E+08         0.23305E+07         0.00000E+00
    0.23305E+07        -0.49378E+08         0.00000E+00
    0.00000E+00         0.00000E+00        -0.47182E+08
 
   -0.46861E+08         0.23706E+07         0.00000E+00
    0.23706E+07        -0.49352E+08         0.00000E+00
    0.00000E+00         0.00000E+00        -0.47183E+08
 
   -0.46919E+08         0.24103E+07         0.00000E+00
    0.24103E+07        -0.49325E+08         0.00000E+00
    0.00000E+00         0.00000E+00        -0.47184E+08
 
   -0.46978E+08         0.24494E+07         0.00000E+00
    0.24494E+07        -0.49297E+08         0.00000E+00
    0.00000E+00         0.00000E+00        -0.47184E+08
 
   -0.47037E+08         0.24880E+07         0.00000E+00
    0.24880E+07        -0.49269E+08         0.00000E+00
    0.00000E+00         0.00000E+00        -0.47185E+08
 
   -0.47096E+08         0.25260E+07         0.00000E+00
    0.25260E+07        -0.49240E+08         0.00000E+00
    0.00000E+00         0.00000E+00        -0.47185E+08
 
   -0.47156E+08         0.25635E+07         0.00000E+00
    0.25635E+07        -0.49211E+08         0.00000E+00
    0.00000E+00         0.00000E+00        -0.47185E+08
 
   -0.44387E+08         0.36858E+05         0.00000E+00
    0.36858E+05        -0.50000E+08         0.00000E+00
    0.00000E+00         0.00000E+00        -0.46904E+08
 
   -0.44421E+08         0.10844E+06         0.00000E+00
    0.10844E+06        -0.49999E+08         0.00000E+00
    0.00000E+00         0.00000E+00        -0.46904E+08
 
   -0.44457E+08         0.17924E+06         0.00000E+00
    0.17924E+06        -0.49997E+08         0.00000E+00
    0.00000E+00         0.00000E+00        -0.46904E+08
 
   -0.44494E+08         0.24925E+06         0.00000E+00
    0.24925E+06        -0.49995E+08         0.00000E+00
    0.00000E+00         0.00000E+00        -0.46905E+08
 
   -0.44533E+08         0.31849E+06         0.00000E+00
    0.31849E+06        -0.49991E+08         0.00000E+00
    0.00000E+00         0.00000E+00        -0.46906E+08
 
   -0.44572E+08         0.38693E+06         0.00000E+00
    0.38693E+06        -0.49987E+08         0.00000E+00
    0.00000E+00         0.00000E+00        -0.46907E+08
 
   -0.44613E+08         0.45459E+06         0.00000E+00
    0.45459E+06        -0.49982E+08         0.00000E+00
    0.00000E+00         0.00000E+00        -0.46908E+08
 
   -0.44655E+08         0.52147E+06         0.00000E+00
    0.52147E+06        -0.49977E+08         0.00000E+00
    0.00000E+00         0.00000E+00        -0.46910E+08
 
   -0.44698E+08         0.58757E+06         0.00000E+00
    0.58757E+06        -0.49970E+08         0.00000E+00
    0.00000E+00         0.00000E+00        -0.46911E+08
 
   -0.44741E+08         0.65290E+06         0.00000E+00
    0.65290E+06        -0.49963E+08         0.00000E+00
    0.00000E+00         0.00000E+00        -0.46913E+08
 
   -0.44786E+08         0.71745E+06         0.00000E+00
    0.71745E+06        -0.49955E+08         0.00000E+00
    0.00000E+00         0.00000E+00        -0.46915E+08
 
   -0.44832E+08         0.78124E+06         0.00000E+00
    0.78124E+06        -0.49947E+08         0.00000E+00
    0.00000E+00         0.00000E+00        -0.46917E+08
 
   -0.44878E+08         0.84427E+06         0.00000E+00
    0.84427E+06        -0.49938E+08         0.00000E+00
    0.00000E+00         0.00000E+00        -0.46919E+08
 
   -0.44926E+08         0.90654E+06         0.00000E+00
    0.90654E+06        -0.49928E+08         0.00000E+00
    0.00000E+00         0.00000E+00        -0.46921E+08
 
   -0.44974E+08         0.96807E+06         0.00000E+00
    0.96807E+06        -0.49917E+08         0.00000E+00
    0.00000E+00         0.00000E+00        -0.46923E+08
 
   -0.45023E+08         0.10289E+07         0.00000E+00
    0.10289E+07        -0.49906E+08         0.00000E+00
    0.00000E+00         0.00000E+00        -0.46926E+08
 
   -0.45072E+08         0.10889E+07         0.00000E+00
    0.10889E+07        -0.49895E+08         0.00000E+00
    0.00000E+00         0.00000E+00        -0.46928E+08
 
   -0.45123E+08         0.11482E+07         0.00000E+00
    0.11482E+07        -0.49882E+08         0.00000E+00
    0.00000E+00         0.00000E+00        -0.46930E+08
 
   -0.45173E+08         0.12069E+07         0.00000E+00
    0.12069E+07        -0.49869E+08         0.00000E+00
    0.00000E+00         0.00000E+00        -0.46933E+08
 
   -0.45225E+08         0.12648E+07         0.00000E+00
    0.12648E+07        -0.49856E+08         0.00000E+00
    0.00000E+00         0.00000E+00        -0.46936E+08
 
   -0.45277E+08         0.13220E+07         0.00000E+00
    0.13220E+07        -0.49842E+08         0.00000E+00
    0.00000E+00         0.00000E+00        -0.46938E+08
 
   -0.45330E+08         0.13785E+07         0.00000E+00
    0.13785E+07        -0.49827E+08         0.00000E+00
    0.00000E+00         0.00000E+00        -0.46941E+08
 
   -0.45383E+08         0.14343E+07         0.00000E+00
    0.14343E+07        -0.49812E+08         0.00000E+00
    0.00000E+00         0.00000E+00        -0.46944E+08
 
   -0.45437E+08         0.14895E+07         0.00000E+00
    0.14895E+07        -0.49796E+08         0.00000E+00
    0.00000E+00         0.00000E+00        -0.46946E+08
 
   -0.45491E+08         0.15440E+07         0.00000E+00
    0.15440E+07        -0.49779E+08         0.00000E+00
    0.00000E+00         0.00000E+00        -0.46949E+08
 
   -0.45546E+08         0.15979E+07         0.00000E+00
    0.15979E+07        -0.49762E+08         0.00000E+00
    0.00000E+00         0.00000E+00        -0.46952E+08
 
   -0.45601E+08         0.16511E+07         0.00000E+00
    0.16511E+07        -0.49744E+08         0.00000E+00
    0.00000E+00         0.00000E+00        -0.46954E+08
 
   -0.45657E+08         0.17037E+07         0.00000E+00
    0.17037E+07        -0.49726E+08         0.00000E+00
    0.00000E+00         0.00000E+00        -0.46957E+08
 
   -0.45713E+08         0.17556E+07         0.00000E+00
    0.17556E+07        -0.49708E+08         0.00000E+00
    0.00000E+00         0.00000E+00        -0.46960E+08
 
   -0.45769E+08         0.18069E+07         0.00000E+00
    0.18069E+07        -0.49688E+08         0.00000E+00
    0.00000E+00         0.00000E+00        -0.46962E+08
 
   -0.45826E+08         0.18577E+07         0.00000E+00
    0.18577E+07        -0.49668E+08         0.00000E+00
    0.00000E+00         0.00000E+00        -0.46965E+08
 
   -0.45883E+08         0.19078E+07         0.00000E+00
    0.19078E+07        -0.49648E+08         0.00000E+00
    0.00000E+00         0.00000E+00        -0.46967E+08
 
   -0.45941E+08         0.19573E+07         0.00000E+00
    0.19573E+07        -0.49627E+08         0.00000E+00
    0.00000E+00         0.00000E+00        -0.46970E+08
 
   -0.45999E+08         0.20062E+07         0.00000E+00
    0.20062E+07        -0.49606E+08         0.00000E+00
    0.00000E+00         0.00000E+00        -0.46972E+08
 
   -0.46057E+08         0.20546E+07         0.00000E+00
    0.20546E+07        -0.49584E+08         0.00000E+00
    0.00000E+00         0.00000E+00        -0.46974E+08
 
   -0.46116E+08         0.21024E+07         0.00000E+00
    0.21024E+07        -0.49561E+08         0.00000E+00
    0.00000E+00         0.00000E+00        -0.46976E+08
 
   -0.46174E+08         0.21496E+07         0.00000E+00
    0.21496E+07        -0.49538E+08         0.00000E+00
    0.00000E+00         0.00000E+00        -0.46979E+08
 
   -0.46233E+08         0.21963E+07         0.00000E+00
    0.21963E+07        -0.49514E+08         0.00000E+00
    0.00000E+00         0.00000E+00        -0.46980E+08
 
   -0.46293E+08         0.22424E+07         0.00000E+00
    0.22424E+07        -0.49490E+08         0.00000E+00
    0.00000E+00         0.00000E+00        -0.46982E+08
 
   -0.46352E+08         0.22880E+07         0.00000E+00
    0.22880E+07        -0.49465E+08         0.00000E+00
    0.00000E+00         0.00000E+00        -0.46984E+08
 
   -0.46412E+08         0.23330E+07         0.00000E+00
    0.23330E+07        -0.49440E+08         0.00000E+00
    0.00000E+00         0.00000E+00        -0.46986E+08
 
   -0.46473E+08         0.23775E+07         0.00000E+00
    0.23775E+07        -0.49414E+08         0.00000E+00
    0.00000E+00         0.00000E+00        -0.46987E+08
 
   -0.46533E+08         0.24214E+07         0.00000E+00
    0.24214E+07        -0.49387E+08         0.00000E+00
    0.00000E+00         0.00000E+00        -0.46988E+08
 
   -0.46594E+08         0.24649E+07         0.00000E+00
    0.24649E+07        -0.49360E+08         0.00000E+00
    0.00000E+00         0.00000E+00        -0.46990E+08
 
   -0.46654E+08         0.25078E+07         0.00000E+00
    0.25078E+07        -0.49333E+08         0.00000E+00
    0.00000E+00         0.00000E+00        -0.46991E+08
 
   -0.46716E+08         0.25502E+07         0.00000E+00
    0.25502E+07        -0.49304E+08         0.00000E+00
    0.00000E+00         0.00000E+00        -0.46992E+08
 
   -0.46777E+08         0.25920E+07         0.00000E+00
    0.25920E+07        -0.49276E+08         0.00000E+00
    0.00000E+00         0.00000E+00        -0.46992E+08
 
   -0.46839E+08         0.26334E+07         0.00000E+00
    0.26334E+07        -0.49246E+08         0.00000E+00
    0.00000E+00         0.00000E+00        -0.46993E+08
 
   -0.46900E+08         0.26742E+07         0.00000E+00
    0.26742E+07        -0.49216E+08         0.00000E+00
    0.00000E+00         0.00000E+00        -0.46993E+08
 
   -0.46962E+08         0.27145E+07         0.00000E+00
    0.27145E+07        -0.49186E+08         0.00000E+00
    0.00000E+00         0.00000E+00        -0.46993E+08
 
   -0.44016E+08         0.39181E+05         0.00000E+00
    0.39181E+05        -0.50000E+08         0.00000E+00
    0.00000E+00         0.00000E+00        -0.46692E+08
 
   -0.44054E+08         0.11509E+06         0.00000E+00
    0.11509E+06        -0.49999E+08         0.00000E+00
    0.00000E+00         0.00000E+00        -0.46692E+08
 
   -0.44095E+08         0.19010E+06         0.00000E+00
    0.19010E+06        -0.49997E+08         0.00000E+00
    0.00000E+00         0.00000E+00        -0.46693E+08
 
   -0.44136E+08         0.26423E+06         0.00000E+00
    0.26423E+06        -0.49994E+08         0.00000E+00
    0.00000E+00         0.00000E+00        -0.46694E+08
 
   -0.44179E+08         0.33747E+06         0.00000E+00
    0.33747E+06        -0.49991E+08         0.00000E+00
    0.00000E+00         0.00000E+00        -0.46695E+08
 
   -0.44222E+08         0.40982E+06         0.00000E+00
    0.40982E+06        -0.49987E+08         0.00000E+00
    0.00000E+00         0.00000E+00        -0.46696E+08
 
   -0.44267E+08         0.48130E+06         0.00000E+00
    0.48130E+06        -0.49982E+08         0.00000E+00
    0.00000E+00         0.00000E+00        -0.46697E+08
 
   -0.44313E+08         0.55191E+06         0.00000E+00
    0.55191E+06        -0.49976E+08         0.00000E+00
    0.00000E+00         0.00000E+00        -0.46698E+08
 
   -0.44360E+08         0.62166E+06         0.00000E+00
    0.62166E+06        -0.49970E+08         0.00000E+00
    0.00000E+00         0.00000E+00        -0.46700E+08
 
   -0.44408E+08         0.69055E+06         0.00000E+00
    0.69055E+06        -0.49962E+08         0.00000E+00
    0.00000E+00         0.00000E+00        -0.46702E+08
 
   -0.44457E+08         0.75859E+06         0.00000E+00
    0.75859E+06        -0.49954E+08         0.00000E+00
    0.00000E+00         0.00000E+00        -0.46704E+08
 
   -0.44506E+08         0.82580E+06         0.00000E+00
    0.82580E+06        -0.49946E+08         0.00000E+00
    0.00000E+00         0.00000E+00        -0.46706E+08
 
   -0.44557E+08         0.89219E+06         0.00000E+00
    0.89219E+06        -0.49936E+08         0.00000E+00
    0.00000E+00         0.00000E+00        -0.46708E+08
 
   -0.44608E+08         0.95776E+06         0.00000E+00
    0.95776E+06        -0.49926E+08         0.00000E+00
    0.00000E+00         0.00000E+00        -0.46710E+08
 
   -0.44660E+08         0.10225E+07         0.00000E+00
    0.10225E+07        -0.49916E+08         0.00000E+00
    0.00000E+00         0.00000E+00        -0.46713E+08
 
   -0.44713E+08         0.10865E+07         0.00000E+00
    0.10865E+07        -0.49904E+08         0.00000E+00
    0.00000E+00         0.00000E+00        -0.46715E+08
 
   -0.44766E+08         0.11497E+07         0.00000E+00
    0.11497E+07        -0.49892E+08         0.00000E+00
    0.00000E+00         0.00000E+00        -0.46718E+08
 
   -0.44820E+08         0.12121E+07         0.00000E+00
    0.12121E+07        -0.49880E+08         0.00000E+00
    0.00000E+00         0.00000E+00        -0.46721E+08
 
   -0.44875E+08         0.12738E+07         0.00000E+00
    0.12738E+07        -0.49867E+08         0.00000E+00
    0.00000E+00         0.00000E+00        -0.46723E+08
 
   -0.44930E+08         0.13347E+07         0.00000E+00
    0.13347E+07        -0.49853E+08         0.00000E+00
    0.00000E+00         0.00000E+00        -0.46726E+08
 
   -0.44985E+08         0.13949E+07         0.00000E+00
    0.13949E+07        -0.49839E+08         0.00000E+00
    0.00000E+00         0.00000E+00        -0.46729E+08
 
   -0.45042E+08         0.14544E+07         0.00000E+00
    0.14544E+07        -0.49824E+08         0.00000E+00
    0.00000E+00         0.00000E+00        -0.46732E+08
 
   -0.45098E+08         0.15131E+07         0.00000E+00
    0.15131E+07        -0.49808E+08         0.00000E+00
    0.00000E+00         0.00000E+00        -0.46734E+08
 
   -0.45156E+08         0.15712E+07         0.00000E+00
    0.15712E+07        -0.49792E+08         0.00000E+00
    0.00000E+00         0.00000E+00        -0.46737E+08
 
   -0.45213E+08         0.16286E+07         0.00000E+00
    0.16286E+07        -0.49775E+08         0.00000E+00
    0.00000E+00         0.00000E+00        -0.46740E+08
 
   -0.45271E+08         0.16853E+07         0.00000E+00
    0.16853E+07        -0.49758E+08         0.00000E+00
    0.00000E+00         0.00000E+00        -0.46743E+08
 
   -0.45330E+08         0.17414E+07         0.00000E+00
    0.17414E+07        -0.49740E+08         0.00000E+00
    0.00000E+00         0.00000E+00        -0.46746E+08
 
   -0.45388E+08         0.17968E+07         0.00000E+00
    0.17968E+07        -0.49721E+08         0.00000E+00
    0.00000E+00         0.00000E+00        -0.46749E+08
 
   -0.45448E+08         0.18516E+07         0.00000E+00
    0.18516E+07        -0.49702E+08         0.00000E+00
    0.00000E+00         0.00000E+00        -0.46751E+08
 
   -0.45507E+08         0.19057E+07         0.00000E+00
    0.19057E+07        -0.49683E+08         0.00000E+00
    0.00000E+00         0.00000E+00        -0.46754E+08
 
   -0.45567E+08         0.19593E+07         0.00000E+00
    0.19593E+07        -0.49662E+08         0.00000E+00
    0.00000E+00         0.00000E+00        -0.46757E+08
 
   -0.45627E+08         0.20122E+07         0.00000E+00
    0.20122E+07        -0.49642E+08         0.00000E+00
    0.00000E+00         0.00000E+00        -0.46759E+08
 
   -0.45688E+08         0.20646E+07         0.00000E+00
    0.20646E+07        -0.49620E+08         0.00000E+00
    0.00000E+00         0.00000E+00        -0.46762E+08
 
   -0.45749E+08         0.21164E+07         0.00000E+00
    0.21164E+07        -0.49598E+08         0.00000E+00
    0.00000E+00         0.00000E+00        -0.46764E+08
 
   -0.45810E+08         0.21676E+07         0.00000E+00
    0.21676E+07        -0.49576E+08         0.00000E+00
    0.00000E+00         0.00000E+00        -0.46767E+08
 
   -0.45871E+08         0.22182E+07         0.00000E+00
    0.22182E+07        -0.49552E+08         0.00000E+00
    0.00000E+00         0.00000E+00        -0.46769E+08
 
   -0.45932E+08         0.22683E+07         0.00000E+00
    0.22683E+07        -0.49529E+08         0.00000E+00
    0.00000E+00         0.00000E+00        -0.46771E+08
 
   -0.45994E+08         0.23178E+07         0.00000E+00
    0.23178E+07        -0.49504E+08         0.00000E+00
    0.00000E+00         0.00000E+00        -0.46773E+08
 
   -0.46056E+08         0.23668E+07         0.00000E+00
    0.23668E+07        -0.49479E+08         0.00000E+00
    0.00000E+00         0.00000E+00        -0.46775E+08
 
   -0.46119E+08         0.24153E+07         0.00000E+00
    0.24153E+07        -0.49454E+08         0.00000E+00
    0.00000E+00         0.00000E+00        -0.46777E+08
 
   -0.46181E+08         0.24632E+07         0.00000E+00
    0.24632E+07        -0.49428E+08         0.00000E+00
    0.00000E+00         0.00000E+00        -0.46779E+08
 
   -0.46244E+08         0.25106E+07         0.00000E+00
    0.25106E+07        -0.49401E+08         0.00000E+00
    0.00000E+00         0.00000E+00        -0.46780E+08
 
   -0.46307E+08         0.25575E+07         0.00000E+00
    0.25575E+07        -0.49374E+08         0.00000E+00
    0.00000E+00         0.00000E+00        -0.46781E+08
 
   -0.46370E+08         0.26039E+07         0.00000E+00
    0.26039E+07        -0.49346E+08         0.00000E+00
    0.00000E+00         0.00000E+00        -0.46783E+08
 
   -0.46434E+08         0.26498E+07         0.00000E+00
    0.26498E+07        -0.49317E+08         0.00000E+00
    0.00000E+00         0.00000E+00        -0.46784E+08
 
   -0.46497E+08         0.26952E+07         0.00000E+00
    0.26952E+07        -0.49288E+08         0.00000E+00
    0.00000E+00         0.00000E+00        -0.46785E+08
 
   -0.46561E+08         0.27401E+07         0.00000E+00
    0.27401E+07        -0.49258E+08         0.00000E+00
    0.00000E+00         0.00000E+00        -0.46785E+08
 
   -0.46625E+08         0.27845E+07         0.00000E+00
    0.27845E+07        -0.49228E+08         0.00000E+00
    0.00000E+00         0.00000E+00        -0.46786E+08
 
   -0.46690E+08         0.28284E+07         0.00000E+00
    0.28284E+07        -0.49197E+08         0.00000E+00
    0.00000E+00         0.00000E+00        -0.46786E+08
 
   -0.46754E+08         0.28718E+07         0.00000E+00
    0.28718E+07        -0.49165E+08         0.00000E+00
    0.00000E+00         0.00000E+00        -0.46787E+08
 
   -0.43623E+08         0.41573E+05         0.00000E+00
    0.41573E+05        -0.50000E+08         0.00000E+00
    0.00000E+00         0.00000E+00        -0.46465E+08
 
   -0.43666E+08         0.12190E+06         0.00000E+00
    0.12190E+06        -0.49999E+08         0.00000E+00
    0.00000E+00         0.00000E+00        -0.46465E+08
 
   -0.43711E+08         0.20122E+06         0.00000E+00
    0.20122E+06        -0.49997E+08         0.00000E+00
    0.00000E+00         0.00000E+00        -0.46466E+08
 
   -0.43757E+08         0.27952E+06         0.00000E+00
    0.27952E+06        -0.49994E+08         0.00000E+00
    0.00000E+00         0.00000E+00        -0.46466E+08
 
   -0.43804E+08         0.35683E+06         0.00000E+00
    0.35683E+06        -0.49991E+08         0.00000E+00
    0.00000E+00         0.00000E+00        -0.46467E+08
 
   -0.43853E+08         0.43314E+06         0.00000E+00
    0.43314E+06        -0.49987E+08         0.00000E+00
    0.00000E+00         0.00000E+00        -0.46468E+08
 
   -0.43902E+08         0.50848E+06         0.00000E+00
    0.50848E+06        -0.49982E+08         0.00000E+00
    0.00000E+00         0.00000E+00        -0.46470E+08
 
   -0.43953E+08         0.58286E+06         0.00000E+00
    0.58286E+06        -0.49976E+08         0.00000E+00
    0.00000E+00         0.00000E+00        -0.46471E+08
 
   -0.44004E+08         0.65628E+06         0.00000E+00
    0.65628E+06        -0.49969E+08         0.00000E+00
    0.00000E+00         0.00000E+00        -0.46473E+08
 
   -0.44057E+08         0.72876E+06         0.00000E+00
    0.72876E+06        -0.49962E+08         0.00000E+00
    0.00000E+00         0.00000E+00        -0.46475E+08
 
   -0.44110E+08         0.80032E+06         0.00000E+00
    0.80032E+06        -0.49954E+08         0.00000E+00
    0.00000E+00         0.00000E+00        -0.46477E+08
 
   -0.44164E+08         0.87097E+06         0.00000E+00
    0.87097E+06        -0.49945E+08         0.00000E+00
    0.00000E+00         0.00000E+00        -0.46479E+08
 
   -0.44218E+08         0.94073E+06         0.00000E+00
    0.94073E+06        -0.49936E+08         0.00000E+00
    0.00000E+00         0.00000E+00        -0.46482E+08
 
   -0.44274E+08         0.10096E+07         0.00000E+00
    0.10096E+07        -0.49926E+08         0.00000E+00
    0.00000E+00         0.00000E+00        -0.46484E+08
 
   -0.44330E+08         0.10776E+07         0.00000E+00
    0.10776E+07        -0.49915E+08         0.00000E+00
    0.00000E+00         0.00000E+00        -0.46486E+08
 
   -0.44387E+08         0.11448E+07         0.00000E+00
    0.11448E+07        -0.49904E+08         0.00000E+00
    0.00000E+00         0.00000E+00        -0.46489E+08
 
   -0.44444E+08         0.12112E+07         0.00000E+00
    0.12112E+07        -0.49892E+08         0.00000E+00
    0.00000E+00         0.00000E+00        -0.46492E+08
 
   -0.44502E+08         0.12767E+07         0.00000E+00
    0.12767E+07        -0.49879E+08         0.00000E+00
    0.00000E+00         0.00000E+00        -0.46495E+08
 
   -0.44560E+08         0.13415E+07         0.00000E+00
    0.13415E+07        -0.49866E+08         0.00000E+00
    0.00000E+00         0.00000E+00        -0.46497E+08
 
   -0.44619E+08         0.14054E+07         0.00000E+00
    0.14054E+07        -0.49852E+08         0.00000E+00
    0.00000E+00         0.00000E+00        -0.46500E+08
 
   -0.44679E+08         0.14687E+07         0.00000E+00
    0.14687E+07        -0.49837E+08         0.00000E+00
    0.00000E+00         0.00000E+00        -0.46503E+08
 
   -0.44738E+08         0.15311E+07         0.00000E+00
    0.15311E+07        -0.49822E+08         0.00000E+00
    0.00000E+00         0.00000E+00        -0.46506E+08
 
   -0.44799E+08         0.15929E+07         0.00000E+00
    0.15929E+07        -0.49807E+08         0.00000E+00
    0.00000E+00         0.00000E+00        -0.46509E+08
 
   -0.44859E+08         0.16539E+07         0.00000E+00
    0.16539E+07        -0.49790E+08         0.00000E+00
    0.00000E+00         0.00000E+00        -0.46512E+08
 
   -0.44920E+08         0.17142E+07         0.00000E+00
    0.17142E+07        -0.49773E+08         0.00000E+00
    0.00000E+00         0.00000E+00        -0.46515E+08
 
   -0.44982E+08         0.17739E+07         0.00000E+00
    0.17739E+07        -0.49756E+08         0.00000E+00
    0.00000E+00         0.00000E+00        -0.46518E+08
 
   -0.45044E+08         0.18329E+07         0.00000E+00
    0.18329E+07        -0.49738E+08         0.00000E+00
    0.00000E+00         0.00000E+00        -0.46521E+08
 
   -0.45106E+08         0.18913E+07         0.00000E+00
    0.18913E+07        -0.49719E+08         0.00000E+00
    0.00000E+00         0.00000E+00        -0.46524E+08
 
   -0.45168E+08         0.19490E+07         0.00000E+00
    0.19490E+07        -0.49700E+08         0.00000E+00
    0.00000E+00         0.00000E+00        -0.46527E+08
 
   -0.45231E+08         0.20061E+07         0.00000E+00
    0.20061E+07        -0.49680E+08         0.00000E+00
    0.00000E+00         0.00000E+00        -0.46530E+08
 
   -0.45293E+08         0.20626E+07         0.00000E+00
    0.20626E+07        -0.49660E+08         0.00000E+00
    0.00000E+00         0.00000E+00        -0.46532E+08
 
   -0.45357E+08         0.21185E+07         0.00000E+00
    0.21185E+07        -0.49638E+08         0.00000E+00
    0.00000E+00         0.00000E+00        -0.46535E+08
 
   -0.45420E+08         0.21738E+07         0.00000E+00
    0.21738E+07        -0.49617E+08         0.00000E+00
    0.00000E+00         0.00000E+00        -0.46538E+08
 
   -0.45484E+08         0.22286E+07         0.00000E+00
    0.22286E+07        -0.49594E+08         0.00000E+00
    0.00000E+00         0.00000E+00        -0.46540E+08
 
   -0.45547E+08         0.22828E+07         0.00000E+00
    0.22828E+07        -0.49572E+08         0.00000E+00
    0.00000E+00         0.00000E+00        -0.46543E+08
 
   -0.45611E+08         0.23365E+07         0.00000E+00
    0.23365E+07        -0.49548E+08         0.00000E+00
    0.00000E+00         0.00000E+00        -0.46545E+08
 
   -0.45676E+08         0.23896E+07         0.00000E+00
    0.23896E+07        -0.49524E+08         0.00000E+00
    0.00000E+00         0.00000E+00        -0.46547E+08
 
   -0.45740E+08         0.24422E+07         0.00000E+00
    0.24422E+07        -0.49499E+08         0.00000E+00
    0.00000E+00         0.00000E+00        -0.46549E+08
 
   -0.45805E+08         0.24943E+07         0.00000E+00
    0.24943E+07        -0.49474E+08         0.00000E+00
    0.00000E+00         0.00000E+00        -0.46551E+08
 
   -0.45870E+08         0.25458E+07         0.00000E+00
    0.25458E+07        -0.49448E+08         0.00000E+00
    0.00000E+00         0.00000E+00        -0.46553E+08
 
   -0.45935E+08         0.25969E+07         0.00000E+00
    0.25969E+07        -0.49421E+08         0.00000E+00
    0.00000E+00         0.00000E+00        -0.46555E+08
 
   -0.46000E+08         0.26475E+07         0.00000E+00
    0.26475E+07        -0.49394E+08         0.00000E+00
    0.00000E+00         0.00000E+00        -0.46557E+08
 
   -0.46066E+08         0.26976E+07         0.00000E+00
    0.26976E+07        -0.49366E+08         0.00000E+00
    0.00000E+00         0.00000E+00        -0.46558E+08
 
   -0.46132E+08         0.27472E+07         0.00000E+00
    0.27472E+07        -0.49337E+08         0.00000E+00
    0.00000E+00         0.00000E+00        -0.46559E+08
 
   -0.46197E+08         0.27963E+07         0.00000E+00
    0.27963E+07        -0.49307E+08         0.00000E+00
    0.00000E+00         0.00000E+00        -0.46561E+08
 
   -0.46264E+08         0.28450E+07         0.00000E+00
    0.28450E+07        -0.49277E+08         0.00000E+00
    0.00000E+00         0.00000E+00        -0.46561E+08
 
   -0.46330E+08         0.28932E+07         0.00000E+00
    0.28932E+07        -0.49247E+08         0.00000E+00
    0.00000E+00         0.00000E+00        -0.46562E+08
 
   -0.46396E+08         0.29409E+07         0.00000E+00
    0.29409E+07        -0.49215E+08         0.00000E+00
    0.00000E+00         0.00000E+00        -0.46563E+08
 
   -0.46463E+08         0.29882E+07         0.00000E+00
    0.29882E+07        -0.49183E+08         0.00000E+00
    0.00000E+00         0.00000E+00        -0.46563E+08
 
   -0.46530E+08         0.30350E+07         0.00000E+00
    0.30350E+07        -0.49150E+08         0.00000E+00
    0.00000E+00         0.00000E+00        -0.46563E+08
 
   -0.43207E+08         0.44009E+05         0.00000E+00
    0.44009E+05        -0.50000E+08         0.00000E+00
    0.00000E+00         0.00000E+00        -0.46220E+08
 
   -0.43256E+08         0.12880E+06         0.00000E+00
    0.12880E+06        -0.49999E+08         0.00000E+00
    0.00000E+00         0.00000E+00        -0.46220E+08
 
   -0.43306E+08         0.21245E+06         0.00000E+00
    0.21245E+06        -0.49997E+08         0.00000E+00
    0.00000E+00         0.00000E+00        -0.46220E+08
 
   -0.43358E+08         0.29495E+06         0.00000E+00
    0.29495E+06        -0.49994E+08         0.00000E+00
    0.00000E+00         0.00000E+00        -0.46221E+08
 
   -0.43410E+08         0.37633E+06         0.00000E+00
    0.37633E+06        -0.49991E+08         0.00000E+00
    0.00000E+00         0.00000E+00        -0.46222E+08
 
   -0.43464E+08         0.45661E+06         0.00000E+00
    0.45661E+06        -0.49987E+08         0.00000E+00
    0.00000E+00         0.00000E+00        -0.46224E+08
 
   -0.43518E+08         0.53580E+06         0.00000E+00
    0.53580E+06        -0.49982E+08         0.00000E+00
    0.00000E+00         0.00000E+00        -0.46225E+08
 
   -0.43574E+08         0.61393E+06         0.00000E+00
    0.61393E+06        -0.49976E+08         0.00000E+00
    0.00000E+00         0.00000E+00        -0.46227E+08
 
   -0.43630E+08         0.69101E+06         0.00000E+00
    0.69101E+06        -0.49969E+08         0.00000E+00
    0.00000E+00         0.00000E+00        -0.46228E+08
 
   -0.43687E+08         0.76706E+06         0.00000E+00
    0.76706E+06        -0.49962E+08         0.00000E+00
    0.00000E+00         0.00000E+00        -0.46230E+08
 
   -0.43745E+08         0.84211E+06         0.00000E+00
    0.84211E+06        -0.49954E+08         0.00000E+00
    0.00000E+00         0.00000E+00        -0.46233E+08
 
   -0.43804E+08         0.91619E+06         0.00000E+00
    0.91619E+06        -0.49945E+08         0.00000E+00
    0.00000E+00         0.00000E+00        -0.46235E+08
 
   -0.43863E+08         0.98930E+06         0.00000E+00
    0.98930E+06        -0.49936E+08         0.00000E+00
    0.00000E+00         0.00000E+00        -0.46237E+08
 
   -0.43923E+08         0.10615E+07         0.00000E+00
    0.10615E+07        -0.49926E+08         0.00000E+00
    0.00000E+00         0.00000E+00        -0.46240E+08
 
   -0.43984E+08         0.11327E+07         0.00000E+00
    0.11327E+07        -0.49915E+08         0.00000E+00
    0.00000E+00         0.00000E+00        -0.46243E+08
 
   -0.44045E+08         0.12031E+07         0.00000E+00
    0.12031E+07        -0.49904E+08         0.00000E+00
    0.00000E+00         0.00000E+00        -0.46245E+08
 
   -0.44106E+08         0.12726E+07         0.00000E+00
    0.12726E+07        -0.49892E+08         0.00000E+00
    0.00000E+00         0.00000E+00        -0.46248E+08
 
   -0.44168E+08         0.13413E+07         0.00000E+00
    0.13413E+07        -0.49880E+08         0.00000E+00
    0.00000E+00         0.00000E+00        -0.46251E+08
 
   -0.44231E+08         0.14091E+07         0.00000E+00
    0.14091E+07        -0.49866E+08         0.00000E+00
    0.00000E+00         0.00000E+00        -0.46254E+08
 
   -0.44294E+08         0.14761E+07         0.00000E+00
    0.14761E+07        -0.49853E+08         0.00000E+00
    0.00000E+00         0.00000E+00        -0.46257E+08
 
   -0.44357E+08         0.15424E+07         0.00000E+00
    0.15424E+07        -0.49838E+08         0.00000E+00
    0.00000E+00         0.00000E+00        -0.46260E+08
 
   -0.44420E+08         0.16079E+07         0.00000E+00
    0.16079E+07        -0.49823E+08         0.00000E+00
    0.00000E+00         0.00000E+00        -0.46263E+08
 
   -0.44484E+08         0.16727E+07         0.00000E+00
    0.16727E+07        -0.49808E+08         0.00000E+00
    0.00000E+00         0.00000E+00        -0.46266E+08
 
   -0.44548E+08         0.17367E+07         0.00000E+00
    0.17367E+07        -0.49791E+08         0.00000E+00
    0.00000E+00         0.00000E+00        -0.46269E+08
 
   -0.44613E+08         0.18001E+07         0.00000E+00
    0.18001E+07        -0.49775E+08         0.00000E+00
    0.00000E+00         0.00000E+00        -0.46272E+08
 
   -0.44678E+08         0.18627E+07         0.00000E+00
    0.18627E+07        -0.49757E+08         0.00000E+00
    0.00000E+00         0.00000E+00        -0.46275E+08
 
   -0.44743E+08         0.19247E+07         0.00000E+00
    0.19247E+07        -0.49739E+08         0.00000E+00
    0.00000E+00         0.00000E+00        -0.46278E+08
 
   -0.44808E+08         0.19861E+07         0.00000E+00
    0.19861E+07        -0.49721E+08         0.00000E+00
    0.00000E+00         0.00000E+00        -0.46281E+08
 
   -0.44873E+08         0.20469E+07         0.00000E+00
    0.20469E+07        -0.49701E+08         0.00000E+00
    0.00000E+00         0.00000E+00        -0.46284E+08
 
   -0.44939E+08         0.21071E+07         0.00000E+00
    0.21071E+07        -0.49682E+08         0.00000E+00
    0.00000E+00         0.00000E+00        -0.46287E+08
 
   -0.45005E+08         0.21666E+07         0.00000E+00
    0.21666E+07        -0.49661E+08         0.00000E+00
    0.00000E+00         0.00000E+00        -0.46290E+08
 
   -0.45071E+08         0.22256E+07         0.00000E+00
    0.22256E+07        -0.49640E+08         0.00000E+00
    0.00000E+00         0.00000E+00        -0.46293E+08
 
   -0.45137E+08         0.22841E+07         0.00000E+00
    0.22841E+07        -0.49618E+08         0.00000E+00
    0.00000E+00         0.00000E+00        -0.46296E+08
 
   -0.45203E+08         0.23420E+07         0.00000E+00
    0.23420E+07        -0.49596E+08         0.00000E+00
    0.00000E+00         0.00000E+00        -0.46298E+08
 
   -0.45270E+08         0.23994E+07         0.00000E+00
    0.23994E+07        -0.49573E+08         0.00000E+00
    0.00000E+00         0.00000E+00        -0.46301E+08
 
   -0.45336E+08         0.24563E+07         0.00000E+00
    0.24563E+07        -0.49549E+08         0.00000E+00
    0.00000E+00         0.00000E+00        -0.46303E+08
 
   -0.45403E+08         0.25126E+07         0.00000E+00
    0.25126E+07        -0.49525E+08         0.00000E+00
    0.00000E+00         0.00000E+00        -0.46306E+08
 
   -0.45470E+08         0.25685E+07         0.00000E+00
    0.25685E+07        -0.49500E+08         0.00000E+00
    0.00000E+00         0.00000E+00        -0.46308E+08
 
   -0.45537E+08         0.26239E+07         0.00000E+00
    0.26239E+07        -0.49474E+08         0.00000E+00
    0.00000E+00         0.00000E+00        -0.46310E+08
 
   -0.45605E+08         0.26788E+07         0.00000E+00
    0.26788E+07        -0.49447E+08         0.00000E+00
    0.00000E+00         0.00000E+00        -0.46312E+08
 
   -0.45672E+08         0.27333E+07         0.00000E+00
    0.27333E+07        -0.49420E+08         0.00000E+00
    0.00000E+00         0.00000E+00        -0.46314E+08
 
   -0.45740E+08         0.27873E+07         0.00000E+00
    0.27873E+07        -0.49392E+08         0.00000E+00
    0.00000E+00         0.00000E+00        -0.46315E+08
 
   -0.45808E+08         0.28408E+07         0.00000E+00
    0.28408E+07        -0.49364E+08         0.00000E+00
    0.00000E+00         0.00000E+00        -0.46317E+08
 
   -0.45876E+08         0.28940E+07         0.00000E+00
    0.28940E+07        -0.49335E+08         0.00000E+00
    0.00000E+00         0.00000E+00        -0.46318E+08
 
   -0.45944E+08         0.29467E+07         0.00000E+00
    0.29467E+07        -0.49305E+08         0.00000E+00
    0.00000E+00         0.00000E+00        -0.46319E+08
 
   -0.46012E+08         0.29989E+07         0.00000E+00
    0.29989E+07        -0.49274E+08         0.00000E+00
    0.00000E+00         0.00000E+00        -0.46320E+08
 
   -0.46081E+08         0.30507E+07         0.00000E+00
    0.30507E+07        -0.49242E+08         0.00000E+00
    0.00000E+00         0.00000E+00        -0.46321E+08
 
   -0.46150E+08         0.31021E+07         0.00000E+00
    0.31021E+07        -0.49210E+08         0.00000E+00
    0.00000E+00         0.00000E+00        -0.46322E+08
 
   -0.46219E+08         0.31531E+07         0.00000E+00
    0.31531E+07        -0.49177E+08         0.00000E+00
    0.00000E+00         0.00000E+00        -0.46322E+08
 
   -0.46288E+08         0.32037E+07         0.00000E+00
    0.32037E+07        -0.49143E+08         0.00000E+00
    0.00000E+00         0.00000E+00        -0.46322E+08
 
   -0.42769E+08         0.46454E+05         0.00000E+00
    0.46454E+05        -0.50000E+08         0.00000E+00
    0.00000E+00         0.00000E+00        -0.45955E+08
 
   -0.42824E+08         0.13569E+06         0.00000E+00
    0.13569E+06        -0.49999E+08         0.00000E+00
    0.00000E+00         0.00000E+00        -0.45956E+08
 
   -0.42880E+08         0.22362E+06         0.00000E+00
    0.22362E+06        -0.49997E+08         0.00000E+00
    0.00000E+00         0.00000E+00        -0.45956E+08
 
   -0.42938E+08         0.31027E+06         0.00000E+00
    0.31027E+06        -0.49994E+08         0.00000E+00
    0.00000E+00         0.00000E+00        -0.45957E+08
 
   -0.42996E+08         0.39567E+06         0.00000E+00
    0.39567E+06        -0.49991E+08         0.00000E+00
    0.00000E+00         0.00000E+00        -0.45958E+08
 
   -0.43056E+08         0.47984E+06         0.00000E+00
    0.47984E+06        -0.49987E+08         0.00000E+00
    0.00000E+00         0.00000E+00        -0.45959E+08
 
   -0.43116E+08         0.56282E+06         0.00000E+00
    0.56282E+06        -0.49982E+08         0.00000E+00
    0.00000E+00         0.00000E+00        -0.45961E+08
 
   -0.43177E+08         0.64462E+06         0.00000E+00
    0.64462E+06        -0.49976E+08         0.00000E+00
    0.00000E+00         0.00000E+00        -0.45963E+08
 
   -0.43239E+08         0.72528E+06         0.00000E+00
    0.72528E+06        -0.49970E+08         0.00000E+00
    0.00000E+00         0.00000E+00        -0.45964E+08
 
   -0.43301E+08         0.80483E+06         0.00000E+00
    0.80483E+06        -0.49963E+08         0.00000E+00
    0.00000E+00         0.00000E+00        -0.45967E+08
 
   -0.43364E+08         0.88329E+06         0.00000E+00
    0.88329E+06        -0.49955E+08         0.00000E+00
    0.00000E+00         0.00000E+00        -0.45969E+08
 
   -0.43428E+08         0.96071E+06         0.00000E+00
    0.96071E+06        -0.49946E+08         0.00000E+00
    0.00000E+00         0.00000E+00        -0.45971E+08
 
   -0.43492E+08         0.10371E+07         0.00000E+00
    0.10371E+07        -0.49937E+08         0.00000E+00
    0.00000E+00         0.00000E+00        -0.45974E+08
 
   -0.43557E+08         0.11125E+07         0.00000E+00
    0.11125E+07        -0.49928E+08         0.00000E+00
    0.00000E+00         0.00000E+00        -0.45976E+08
 
   -0.43622E+08         0.11869E+07         0.00000E+00
    0.11869E+07        -0.49917E+08         0.00000E+00
    0.00000E+00         0.00000E+00        -0.45979E+08
 
   -0.43687E+08         0.12604E+07         0.00000E+00
    0.12604E+07        -0.49906E+08         0.00000E+00
    0.00000E+00         0.00000E+00        -0.45982E+08
 
   -0.43753E+08         0.13331E+07         0.00000E+00
    0.13331E+07        -0.49895E+08         0.00000E+00
    0.00000E+00         0.00000E+00        -0.45985E+08
 
   -0.43819E+08         0.14048E+07         0.00000E+00
    0.14048E+07        -0.49882E+08         0.00000E+00
    0.00000E+00         0.00000E+00        -0.45988E+08
 
   -0.43886E+08         0.14757E+07         0.00000E+00
    0.14757E+07        -0.49870E+08         0.00000E+00
    0.00000E+00         0.00000E+00        -0.45991E+08
 
   -0.43953E+08         0.15458E+07         0.00000E+00
    0.15458E+07        -0.49856E+08         0.00000E+00
    0.00000E+00         0.00000E+00        -0.45994E+08
 
   -0.44020E+08         0.16150E+07         0.00000E+00
    0.16150E+07        -0.49842E+08         0.00000E+00
    0.00000E+00         0.00000E+00        -0.45997E+08
 
   -0.44087E+08         0.16836E+07         0.00000E+00
    0.16836E+07        -0.49827E+08         0.00000E+00
    0.00000E+00         0.00000E+00        -0.46000E+08
 
   -0.44154E+08         0.17514E+07         0.00000E+00
    0.17514E+07        -0.49812E+08         0.00000E+00
    0.00000E+00         0.00000E+00        -0.46003E+08
 
   -0.44222E+08         0.18184E+07         0.00000E+00
    0.18184E+07        -0.49796E+08         0.00000E+00
    0.00000E+00         0.00000E+00        -0.46007E+08
 
   -0.44290E+08         0.18849E+07         0.00000E+00
    0.18849E+07        -0.49780E+08         0.00000E+00
    0.00000E+00         0.00000E+00        -0.46010E+08
 
   -0.44358E+08         0.19506E+07         0.00000E+00
    0.19506E+07        -0.49763E+08         0.00000E+00
    0.00000E+00         0.00000E+00        -0.46013E+08
 
   -0.44426E+08         0.20157E+07         0.00000E+00
    0.20157E+07        -0.49745E+08         0.00000E+00
    0.00000E+00         0.00000E+00        -0.46016E+08
 
   -0.44494E+08         0.20802E+07         0.00000E+00
    0.20802E+07        -0.49727E+08         0.00000E+00
    0.00000E+00         0.00000E+00        -0.46019E+08
 
   -0.44563E+08         0.21441E+07         0.00000E+00
    0.21441E+07        -0.49708E+08         0.00000E+00
    0.00000E+00         0.00000E+00        -0.46022E+08
 
   -0.44631E+08         0.22074E+07         0.00000E+00
    0.22074E+07        -0.49688E+08         0.00000E+00
    0.00000E+00         0.00000E+00        -0.46025E+08
 
   -0.44700E+08         0.22702E+07         0.00000E+00
    0.22702E+07        -0.49668E+08         0.00000E+00
    0.00000E+00         0.00000E+00        -0.46028E+08
 
   -0.44769E+08         0.23325E+07         0.00000E+00
    0.23325E+07        -0.49647E+08         0.00000E+00
    0.00000E+00         0.00000E+00        -0.46031E+08
 
   -0.44838E+08         0.23942E+07         0.00000E+00
    0.23942E+07        -0.49625E+08         0.00000E+00
    0.00000E+00         0.00000E+00        -0.46034E+08
 
   -0.44906E+08         0.24555E+07         0.00000E+00
    0.24555E+07        -0.49603E+08         0.00000E+00
    0.00000E+00         0.00000E+00        -0.46037E+08
 
   -0.44976E+08         0.25162E+07         0.00000E+00
    0.25162E+07        -0.49580E+08         0.00000E+00
    0.00000E+00         0.00000E+00        -0.46039E+08
 
   -0.45045E+08         0.25765E+07         0.00000E+00
    0.25765E+07        -0.49557E+08         0.00000E+00
    0.00000E+00         0.00000E+00        -0.46042E+08
 
   -0.45114E+08         0.26363E+07         0.00000E+00
    0.26363E+07        -0.49532E+08         0.00000E+00
    0.00000E+00         0.00000E+00        -0.46044E+08
 
   -0.45183E+08         0.26957E+07         0.00000E+00
    0.26957E+07        -0.49507E+08         0.00000E+00
    0.00000E+00         0.00000E+00        -0.46046E+08
 
   -0.45253E+08         0.27547E+07         0.00000E+00
    0.27547E+07        -0.49481E+08         0.00000E+00
    0.00000E+00         0.00000E+00        -0.46048E+08
 
   -0.45322E+08         0.28133E+07         0.00000E+00
    0.28133E+07        -0.49455E+08         0.00000E+00
    0.00000E+00         0.00000E+00        -0.46050E+08
 
   -0.45392E+08         0.28714E+07         0.00000E+00
    0.28714E+07        -0.49427E+08         0.00000E+00
    0.00000E+00         0.00000E+00        -0.46052E+08
 
   -0.45462E+08         0.29291E+07         0.00000E+00
    0.29291E+07        -0.49399E+08         0.00000E+00
    0.00000E+00         0.00000E+00        -0.46054E+08
 
   -0.45532E+08         0.29865E+07         0.00000E+00
    0.29865E+07        -0.49370E+08         0.00000E+00
    0.00000E+00         0.00000E+00        -0.46055E+08
 
   -0.45602E+08         0.30435E+07         0.00000E+00
    0.30435E+07        -0.49341E+08         0.00000E+00
    0.00000E+00         0.00000E+00        -0.46057E+08
 
   -0.45672E+08         0.31000E+07         0.00000E+00
    0.31000E+07        -0.49310E+08         0.00000E+00
    0.00000E+00         0.00000E+00        -0.46058E+08
 
   -0.45742E+08         0.31563E+07         0.00000E+00
    0.31563E+07        -0.49279E+08         0.00000E+00
    0.00000E+00         0.00000E+00        -0.46059E+08
 
   -0.45813E+08         0.32121E+07         0.00000E+00
    0.32121E+07        -0.49247E+08         0.00000E+00
    0.00000E+00         0.00000E+00        -0.46060E+08
 
   -0.45883E+08         0.32676E+07         0.00000E+00
    0.32676E+07        -0.49214E+08         0.00000E+00
    0.00000E+00         0.00000E+00        -0.46060E+08
 
   -0.45954E+08         0.33227E+07         0.00000E+00
    0.33227E+07        -0.49180E+08         0.00000E+00
    0.00000E+00         0.00000E+00        -0.46061E+08
 
   -0.46025E+08         0.33774E+07         0.00000E+00
    0.33774E+07        -0.49145E+08         0.00000E+00
    0.00000E+00         0.00000E+00        -0.46061E+08
 
   -0.42308E+08         0.48862E+05         0.00000E+00
    0.48862E+05        -0.50000E+08         0.00000E+00
    0.00000E+00         0.00000E+00        -0.45670E+08
 
   -0.42370E+08         0.14242E+06         0.00000E+00
    0.14242E+06        -0.49999E+08         0.00000E+00
    0.00000E+00         0.00000E+00        -0.45670E+08
 
   -0.42433E+08         0.23452E+06         0.00000E+00
    0.23452E+06        -0.49997E+08         0.00000E+00
    0.00000E+00         0.00000E+00        -0.45670E+08
 
   -0.42498E+08         0.32518E+06         0.00000E+00
    0.32518E+06        -0.49995E+08         0.00000E+00
    0.00000E+00         0.00000E+00        -0.45671E+08
 
   -0.42563E+08         0.41446E+06         0.00000E+00
    0.41446E+06        -0.49991E+08         0.00000E+00
    0.00000E+00         0.00000E+00        -0.45672E+08
 
   -0.42628E+08         0.50237E+06         0.00000E+00
    0.50237E+06        -0.49987E+08         0.00000E+00
    0.00000E+00         0.00000E+00        -0.45674E+08
 
   -0.42695E+08         0.58897E+06         0.00000E+00
    0.58897E+06        -0.49983E+08         0.00000E+00
    0.00000E+00         0.00000E+00        -0.45675E+08
 
   -0.42762E+08         0.67430E+06         0.00000E+00
    0.67430E+06        -0.49977E+08         0.00000E+00
    0.00000E+00         0.00000E+00        -0.45677E+08
 
   -0.42829E+08         0.75838E+06         0.00000E+00
    0.75838E+06        -0.49971E+08         0.00000E+00
    0.00000E+00         0.00000E+00        -0.45679E+08
 
   -0.42898E+08         0.84127E+06         0.00000E+00
    0.84127E+06        -0.49964E+08         0.00000E+00
    0.00000E+00         0.00000E+00        -0.45681E+08
 
   -0.42966E+08         0.92300E+06         0.00000E+00
    0.92300E+06        -0.49957E+08         0.00000E+00
    0.00000E+00         0.00000E+00        -0.45683E+08
 
   -0.43035E+08         0.10036E+07         0.00000E+00
    0.10036E+07        -0.49949E+08         0.00000E+00
    0.00000E+00         0.00000E+00        -0.45686E+08
 
   -0.43104E+08         0.10832E+07         0.00000E+00
    0.10832E+07        -0.49940E+08         0.00000E+00
    0.00000E+00         0.00000E+00        -0.45689E+08
 
   -0.43174E+08         0.11617E+07         0.00000E+00
    0.11617E+07        -0.49931E+08         0.00000E+00
    0.00000E+00         0.00000E+00        -0.45691E+08
 
   -0.43244E+08         0.12392E+07         0.00000E+00
    0.12392E+07        -0.49921E+08         0.00000E+00
    0.00000E+00         0.00000E+00        -0.45694E+08
 
   -0.43314E+08         0.13157E+07         0.00000E+00
    0.13157E+07        -0.49911E+08         0.00000E+00
    0.00000E+00         0.00000E+00        -0.45697E+08
 
   -0.43385E+08         0.13913E+07         0.00000E+00
    0.13913E+07        -0.49900E+08         0.00000E+00
    0.00000E+00         0.00000E+00        -0.45700E+08
 
   -0.43455E+08         0.14660E+07         0.00000E+00
    0.14660E+07        -0.49888E+08         0.00000E+00
    0.00000E+00         0.00000E+00        -0.45703E+08
 
   -0.43526E+08         0.15399E+07         0.00000E+00
    0.15399E+07        -0.49876E+08         0.00000E+00
    0.00000E+00         0.00000E+00        -0.45706E+08
 
   -0.43597E+08         0.16130E+07         0.00000E+00
    0.16130E+07        -0.49863E+08         0.00000E+00
    0.00000E+00         0.00000E+00        -0.45709E+08
 
   -0.43668E+08         0.16853E+07         0.00000E+00
    0.16853E+07        -0.49849E+08         0.00000E+00
    0.00000E+00         0.00000E+00        -0.45713E+08
 
   -0.43739E+08         0.17568E+07         0.00000E+00
    0.17568E+07        -0.49835E+08         0.00000E+00
    0.00000E+00         0.00000E+00        -0.45716E+08
 
   -0.43810E+08         0.18276E+07         0.00000E+00
    0.18276E+07        -0.49821E+08         0.00000E+00
    0.00000E+00         0.00000E+00        -0.45719E+08
 
   -0.43881E+08         0.18977E+07         0.00000E+00
    0.18977E+07        -0.49806E+08         0.00000E+00
    0.00000E+00         0.00000E+00        -0.45722E+08
 
   -0.43952E+08         0.19672E+07         0.00000E+00
    0.19672E+07        -0.49790E+08         0.00000E+00
    0.00000E+00         0.00000E+00        -0.45726E+08
 
   -0.44023E+08         0.20361E+07         0.00000E+00
    0.20361E+07        -0.49773E+08         0.00000E+00
    0.00000E+00         0.00000E+00        -0.45729E+08
 
   -0.44094E+08         0.21044E+07         0.00000E+00
    0.21044E+07        -0.49756E+08         0.00000E+00
    0.00000E+00         0.00000E+00        -0.45732E+08
 
   -0.44165E+08         0.21720E+07         0.00000E+00
    0.21720E+07        -0.49739E+08         0.00000E+00
    0.00000E+00         0.00000E+00        -0.45735E+08
 
   -0.44236E+08         0.22392E+07         0.00000E+00
    0.22392E+07        -0.49720E+08         0.00000E+00
    0.00000E+00         0.00000E+00        -0.45738E+08
 
   -0.44308E+08         0.23058E+07         0.00000E+00
    0.23058E+07        -0.49701E+08         0.00000E+00
    0.00000E+00         0.00000E+00        -0.45741E+08
 
   -0.44379E+08         0.23720E+07         0.00000E+00
    0.23720E+07        -0.49682E+08         0.00000E+00
    0.00000E+00         0.00000E+00        -0.45744E+08
 
   -0.44450E+08         0.24376E+07         0.00000E+00
    0.24376E+07        -0.49661E+08         0.00000E+00
    0.00000E+00         0.00000E+00        -0.45747E+08
 
   -0.44521E+08         0.25028E+07         0.00000E+00
    0.25028E+07        -0.49640E+08         0.00000E+00
    0.00000E+00         0.00000E+00        -0.45750E+08
 
   -0.44593E+08         0.25676E+07         0.00000E+00
    0.25676E+07        -0.49618E+08         0.00000E+00
    0.00000E+00         0.00000E+00        -0.45753E+08
 
   -0.44664E+08         0.26319E+07         0.00000E+00
    0.26319E+07        -0.49596E+08         0.00000E+00
    0.00000E+00         0.00000E+00        -0.45755E+08
 
   -0.44735E+08         0.26959E+07         0.00000E+00
    0.26959E+07        -0.49572E+08         0.00000E+00
    0.00000E+00         0.00000E+00        -0.45758E+08
 
   -0.44806E+08         0.27595E+07         0.00000E+00
    0.27595E+07        -0.49548E+08         0.00000E+00
    0.00000E+00         0.00000E+00        -0.45760E+08
 
   -0.44878E+08         0.28226E+07         0.00000E+00
    0.28226E+07        -0.49523E+08         0.00000E+00
    0.00000E+00         0.00000E+00        -0.45763E+08
 
   -0.44949E+08         0.28855E+07         0.00000E+00
    0.28855E+07        -0.49498E+08         0.00000E+00
    0.00000E+00         0.00000E+00        -0.45765E+08
 
   -0.45020E+08         0.29480E+07         0.00000E+00
    0.29480E+07        -0.49471E+08         0.00000E+00
    0.00000E+00         0.00000E+00        -0.45767E+08
 
   -0.45092E+08         0.30101E+07         0.00000E+00
    0.30101E+07        -0.49444E+08         0.00000E+00
    0.00000E+00         0.00000E+00        -0.45768E+08
 
   -0.45164E+08         0.30719E+07         0.00000E+00
    0.30719E+07        -0.49416E+08         0.00000E+00
    0.00000E+00         0.00000E+00        -0.45770E+08
 
   -0.45235E+08         0.31334E+07         0.00000E+00
    0.31334E+07        -0.49387E+08         0.00000E+00
    0.00000E+00         0.00000E+00        -0.45772E+08
 
   -0.45307E+08         0.31946E+07         0.00000E+00
    0.31946E+07        -0.49357E+08         0.00000E+00
    0.00000E+00         0.00000E+00        -0.45773E+08
 
   -0.45379E+08         0.32555E+07         0.00000E+00
    0.32555E+07        -0.49326E+08         0.00000E+00
    0.00000E+00         0.00000E+00        -0.45774E+08
 
   -0.45451E+08         0.33161E+07         0.00000E+00
    0.33161E+07        -0.49295E+08         0.00000E+00
    0.00000E+00         0.00000E+00        -0.45775E+08
 
   -0.45523E+08         0.33764E+07         0.00000E+00
    0.33764E+07        -0.49262E+08         0.00000E+00
    0.00000E+00         0.00000E+00        -0.45776E+08
 
   -0.45596E+08         0.34363E+07         0.00000E+00
    0.34363E+07        -0.49228E+08         0.00000E+00
    0.00000E+00         0.00000E+00        -0.45777E+08
 
   -0.45668E+08         0.34960E+07         0.00000E+00
    0.34960E+07        -0.49194E+08         0.00000E+00
    0.00000E+00         0.00000E+00        -0.45777E+08
 
   -0.45741E+08         0.35554E+07         0.00000E+00
    0.35554E+07        -0.49158E+08         0.00000E+00
    0.00000E+00         0.00000E+00        -0.45777E+08
 
   -0.41826E+08         0.51176E+05         0.00000E+00
    0.51176E+05        -0.50000E+08         0.00000E+00
    0.00000E+00         0.00000E+00        -0.45360E+08
 
   -0.41896E+08         0.14884E+06         0.00000E+00
    0.14884E+06        -0.49999E+08         0.00000E+00
    0.00000E+00         0.00000E+00        -0.45360E+08
 
   -0.41967E+08         0.24486E+06         0.00000E+00
    0.24486E+06        -0.49997E+08         0.00000E+00
    0.00000E+00         0.00000E+00        -0.45361E+08
 
   -0.42038E+08         0.33929E+06         0.00000E+00
    0.33929E+06        -0.49995E+08         0.00000E+00
    0.00000E+00         0.00000E+00        -0.45362E+08
 
   -0.42110E+08         0.43218E+06         0.00000E+00
    0.43218E+06        -0.49992E+08         0.00000E+00
    0.00000E+00         0.00000E+00        -0.45363E+08
 
   -0.42183E+08         0.52359E+06         0.00000E+00
    0.52359E+06        -0.49988E+08         0.00000E+00
    0.00000E+00         0.00000E+00        -0.45364E+08
 
   -0.42256E+08         0.61357E+06         0.00000E+00
    0.61357E+06        -0.49984E+08         0.00000E+00
    0.00000E+00         0.00000E+00        -0.45366E+08
 
   -0.42330E+08         0.70216E+06         0.00000E+00
    0.70216E+06        -0.49979E+08         0.00000E+00
    0.00000E+00         0.00000E+00        -0.45368E+08
 
   -0.42404E+08         0.78943E+06         0.00000E+00
    0.78943E+06        -0.49973E+08         0.00000E+00
    0.00000E+00         0.00000E+00        -0.45370E+08
 
   -0.42478E+08         0.87542E+06         0.00000E+00
    0.87542E+06        -0.49967E+08         0.00000E+00
    0.00000E+00         0.00000E+00        -0.45372E+08
 
   -0.42553E+08         0.96019E+06         0.00000E+00
    0.96019E+06        -0.49960E+08         0.00000E+00
    0.00000E+00         0.00000E+00        -0.45374E+08
 
   -0.42627E+08         0.10438E+07         0.00000E+00
    0.10438E+07        -0.49953E+08         0.00000E+00
    0.00000E+00         0.00000E+00        -0.45377E+08
 
   -0.42702E+08         0.11263E+07         0.00000E+00
    0.11263E+07        -0.49945E+08         0.00000E+00
    0.00000E+00         0.00000E+00        -0.45379E+08
 
   -0.42777E+08         0.12077E+07         0.00000E+00
    0.12077E+07        -0.49936E+08         0.00000E+00
    0.00000E+00         0.00000E+00        -0.45382E+08
 
   -0.42852E+08         0.12880E+07         0.00000E+00
    0.12880E+07        -0.49927E+08         0.00000E+00
    0.00000E+00         0.00000E+00        -0.45385E+08
 
   -0.42926E+08         0.13674E+07         0.00000E+00
    0.13674E+07        -0.49918E+08         0.00000E+00
    0.00000E+00         0.00000E+00        -0.45388E+08
 
   -0.43001E+08         0.14459E+07         0.00000E+00
    0.14459E+07        -0.49907E+08         0.00000E+00
    0.00000E+00         0.00000E+00        -0.45391E+08
 
   -0.43076E+08         0.15235E+07         0.00000E+00
    0.15235E+07        -0.49897E+08         0.00000E+00
    0.00000E+00         0.00000E+00        -0.45394E+08
 
   -0.43151E+08         0.16002E+07         0.00000E+00
    0.16002E+07        -0.49885E+08         0.00000E+00
    0.00000E+00         0.00000E+00        -0.45397E+08
 
   -0.43226E+08         0.16762E+07         0.00000E+00
    0.16762E+07        -0.49874E+08         0.00000E+00
    0.00000E+00         0.00000E+00        -0.45401E+08
 
   -0.43300E+08         0.17514E+07         0.00000E+00
    0.17514E+07        -0.49861E+08         0.00000E+00
    0.00000E+00         0.00000E+00        -0.45404E+08
 
   -0.43375E+08         0.18259E+07         0.00000E+00
    0.18259E+07        -0.49848E+08         0.00000E+00
    0.00000E+00         0.00000E+00        -0.45407E+08
 
   -0.43449E+08         0.18997E+07         0.00000E+00
    0.18997E+07        -0.49835E+08         0.00000E+00
    0.00000E+00         0.00000E+00        -0.45410E+08
 
   -0.43524E+08         0.19729E+07         0.00000E+00
    0.19729E+07        -0.49820E+08         0.00000E+00
    0.00000E+00         0.00000E+00        -0.45414E+08
 
   -0.43598E+08         0.20455E+07         0.00000E+00
    0.20455E+07        -0.49806E+08         0.00000E+00
    0.00000E+00         0.00000E+00        -0.45417E+08
 
   -0.43672E+08         0.21175E+07         0.00000E+00
    0.21175E+07        -0.49790E+08         0.00000E+00
    0.00000E+00         0.00000E+00        -0.45420E+08
 
   -0.43746E+08         0.21890E+07         0.00000E+00
    0.21890E+07        -0.49774E+08         0.00000E+00
    0.00000E+00         0.00000E+00        -0.45423E+08
 
   -0.43820E+08         0.22599E+07         0.00000E+00
    0.22599E+07        -0.49757E+08         0.00000E+00
    0.00000E+00         0.00000E+00        -0.45427E+08
 
   -0.43893E+08         0.23304E+07         0.00000E+00
    0.23304E+07        -0.49740E+08         0.00000E+00
    0.00000E+00         0.00000E+00        -0.45430E+08
 
   -0.43967E+08         0.24005E+07         0.00000E+00
    0.24005E+07        -0.49722E+08         0.00000E+00
    0.00000E+00         0.00000E+00        -0.45433E+08
 
   -0.44040E+08         0.24701E+07         0.00000E+00
    0.24701E+07        -0.49703E+08         0.00000E+00
    0.00000E+00         0.00000E+00        -0.45436E+08
 
   -0.44114E+08         0.25394E+07         0.00000E+00
    0.25394E+07        -0.49684E+08         0.00000E+00
    0.00000E+00         0.00000E+00        -0.45439E+08
 
   -0.44187E+08         0.26082E+07         0.00000E+00
    0.26082E+07        -0.49663E+08         0.00000E+00
    0.00000E+00         0.00000E+00        -0.45441E+08
 
   -0.44260E+08         0.26767E+07         0.00000E+00
    0.26767E+07        -0.49642E+08         0.00000E+00
    0.00000E+00         0.00000E+00        -0.45444E+08
 
   -0.44333E+08         0.27449E+07         0.00000E+00
    0.27449E+07        -0.49621E+08         0.00000E+00
    0.00000E+00         0.00000E+00        -0.45447E+08
 
   -0.44406E+08         0.28128E+07         0.00000E+00
    0.28128E+07        -0.49598E+08         0.00000E+00
    0.00000E+00         0.00000E+00        -0.45449E+08
 
   -0.44479E+08         0.28804E+07         0.00000E+00
    0.28804E+07        -0.49575E+08         0.00000E+00
    0.00000E+00         0.00000E+00        -0.45452E+08
 
   -0.44552E+08         0.29477E+07         0.00000E+00
    0.29477E+07        -0.49550E+08         0.00000E+00
    0.00000E+00         0.00000E+00        -0.45454E+08
 
   -0.44625E+08         0.30147E+07         0.00000E+00
    0.30147E+07        -0.49525E+08         0.00000E+00
    0.00000E+00         0.00000E+00        -0.45456E+08
 
   -0.44698E+08         0.30815E+07         0.00000E+00
    0.30815E+07        -0.49499E+08         0.00000E+00
    0.00000E+00         0.00000E+00        -0.45458E+08
 
   -0.44771E+08         0.31480E+07         0.00000E+00
    0.31480E+07        -0.49472E+08         0.00000E+00
    0.00000E+00         0.00000E+00        -0.45460E+08
 
   -0.44844E+08         0.32143E+07         0.00000E+00
    0.32143E+07        -0.49444E+08         0.00000E+00
    0.00000E+00         0.00000E+00        -0.45462E+08
 
   -0.44917E+08         0.32804E+07         0.00000E+00
    0.32804E+07        -0.49416E+08         0.00000E+00
    0.00000E+00         0.00000E+00        -0.45463E+08
 
   -0.44990E+08         0.33462E+07         0.00000E+00
    0.33462E+07        -0.49386E+08         0.00000E+00
    0.00000E+00         0.00000E+00        -0.45464E+08
 
   -0.45063E+08         0.34118E+07         0.00000E+00
    0.34118E+07        -0.49355E+08         0.00000E+00
    0.00000E+00         0.00000E+00        -0.45466E+08
 
   -0.45137E+08         0.34773E+07         0.00000E+00
    0.34773E+07        -0.49323E+08         0.00000E+00
    0.00000E+00         0.00000E+00        -0.45467E+08
 
   -0.45210E+08         0.35425E+07         0.00000E+00
    0.35425E+07        -0.49290E+08         0.00000E+00
    0.00000E+00         0.00000E+00        -0.45467E+08
 
   -0.45284E+08         0.36075E+07         0.00000E+00
    0.36075E+07        -0.49257E+08         0.00000E+00
    0.00000E+00         0.00000E+00        -0.45468E+08
 
   -0.45358E+08         0.36723E+07         0.00000E+00
    0.36723E+07        -0.49222E+08         0.00000E+00
    0.00000E+00         0.00000E+00        -0.45468E+08
 
   -0.45432E+08         0.37368E+07         0.00000E+00
    0.37368E+07        -0.49186E+08         0.00000E+00
    0.00000E+00         0.00000E+00        -0.45469E+08
 
   -0.41323E+08         0.53318E+05         0.00000E+00
    0.53318E+05        -0.50000E+08         0.00000E+00
    0.00000E+00         0.00000E+00        -0.45024E+08
 
   -0.41402E+08         0.15471E+06         0.00000E+00
    0.15471E+06        -0.49999E+08         0.00000E+00
    0.00000E+00         0.00000E+00        -0.45025E+08
 
   -0.41482E+08         0.25427E+06         0.00000E+00
    0.25427E+06        -0.49998E+08         0.00000E+00
    0.00000E+00         0.00000E+00        -0.45025E+08
 
   -0.41561E+08         0.35209E+06         0.00000E+00
    0.35209E+06        -0.49996E+08         0.00000E+00
    0.00000E+00         0.00000E+00        -0.45026E+08
 
   -0.41642E+08         0.44823E+06         0.00000E+00
    0.44823E+06        -0.49993E+08         0.00000E+00
    0.00000E+00         0.00000E+00        -0.45027E+08
 
   -0.41722E+08         0.54275E+06         0.00000E+00
    0.54275E+06        -0.49990E+08         0.00000E+00
    0.00000E+00         0.00000E+00        -0.45029E+08
 
   -0.41802E+08         0.63572E+06         0.00000E+00
    0.63572E+06        -0.49986E+08         0.00000E+00
    0.00000E+00         0.00000E+00        -0.45030E+08
 
   -0.41883E+08         0.72723E+06         0.00000E+00
    0.72723E+06        -0.49981E+08         0.00000E+00
    0.00000E+00         0.00000E+00        -0.45032E+08
 
   -0.41963E+08         0.81732E+06         0.00000E+00
    0.81732E+06        -0.49976E+08         0.00000E+00
    0.00000E+00         0.00000E+00        -0.45034E+08
 
   -0.42044E+08         0.90607E+06         0.00000E+00
    0.90607E+06        -0.49971E+08         0.00000E+00
    0.00000E+00         0.00000E+00        -0.45036E+08
 
   -0.42125E+08         0.99354E+06         0.00000E+00
    0.99354E+06        -0.49965E+08         0.00000E+00
    0.00000E+00         0.00000E+00        -0.45039E+08
 
   -0.42205E+08         0.10798E+07         0.00000E+00
    0.10798E+07        -0.49959E+08         0.00000E+00
    0.00000E+00         0.00000E+00        -0.45041E+08
 
   -0.42285E+08         0.11649E+07         0.00000E+00
    0.11649E+07        -0.49952E+08         0.00000E+00
    0.00000E+00         0.00000E+00        -0.45044E+08
 
   -0.42365E+08         0.12489E+07         0.00000E+00
    0.12489E+07        -0.49944E+08         0.00000E+00
    0.00000E+00         0.00000E+00        -0.45047E+08
 
   -0.42445E+08         0.13319E+07         0.00000E+00
    0.13319E+07        -0.49936E+08         0.00000E+00
    0.00000E+00         0.00000E+00        -0.45050E+08
 
   -0.42525E+08         0.14140E+07         0.00000E+00
    0.14140E+07        -0.49928E+08         0.00000E+00
    0.00000E+00         0.00000E+00        -0.45052E+08
 
   -0.42604E+08         0.14951E+07         0.00000E+00
    0.14951E+07        -0.49919E+08         0.00000E+00
    0.00000E+00         0.00000E+00        -0.45056E+08
 
   -0.42683E+08         0.15753E+07         0.00000E+00
    0.15753E+07        -0.49910E+08         0.00000E+00
    0.00000E+00         0.00000E+00        -0.45059E+08
 
   -0.42762E+08         0.16548E+07         0.00000E+00
    0.16548E+07        -0.49900E+08         0.00000E+00
    0.00000E+00         0.00000E+00        -0.45062E+08
 
   -0.42841E+08         0.17335E+07         0.00000E+00
    0.17335E+07        -0.49889E+08         0.00000E+00
    0.00000E+00         0.00000E+00        -0.45065E+08
 
   -0.42919E+08         0.18115E+07         0.00000E+00
    0.18115E+07        -0.49878E+08         0.00000E+00
    0.00000E+00         0.00000E+00        -0.45068E+08
 
   -0.42997E+08         0.18889E+07         0.00000E+00
    0.18889E+07        -0.49867E+08         0.00000E+00
    0.00000E+00         0.00000E+00        -0.45071E+08
 
   -0.43074E+08         0.19656E+07         0.00000E+00
    0.19656E+07        -0.49855E+08         0.00000E+00
    0.00000E+00         0.00000E+00        -0.45075E+08
 
   -0.43152E+08         0.20418E+07         0.00000E+00
    0.20418E+07        -0.49842E+08         0.00000E+00
    0.00000E+00         0.00000E+00        -0.45078E+08
 
   -0.43229E+08         0.21175E+07         0.00000E+00
    0.21175E+07        -0.49829E+08         0.00000E+00
    0.00000E+00         0.00000E+00        -0.45081E+08
 
   -0.43305E+08         0.21927E+07         0.00000E+00
    0.21927E+07        -0.49815E+08         0.00000E+00
    0.00000E+00         0.00000E+00        -0.45084E+08
 
   -0.43381E+08         0.22674E+07         0.00000E+00
    0.22674E+07        -0.49800E+08         0.00000E+00
    0.00000E+00         0.00000E+00        -0.45088E+08
 
   -0.43457E+08         0.23418E+07         0.00000E+00
    0.23418E+07        -0.49785E+08         0.00000E+00
    0.00000E+00         0.00000E+00        -0.45091E+08
 
   -0.43533E+08         0.24157E+07         0.00000E+00
    0.24157E+07        -0.49769E+08         0.00000E+00
    0.00000E+00         0.00000E+00        -0.45094E+08
 
   -0.43609E+08         0.24894E+07         0.00000E+00
    0.24894E+07        -0.49752E+08         0.00000E+00
    0.00000E+00         0.00000E+00        -0.45097E+08
 
   -0.43684E+08         0.25627E+07         0.00000E+00
    0.25627E+07        -0.49735E+08         0.00000E+00
    0.00000E+00         0.00000E+00        -0.45100E+08
 
   -0.43759E+08         0.26357E+07         0.00000E+00
    0.26357E+07        -0.49716E+08         0.00000E+00
    0.00000E+00         0.00000E+00        -0.45103E+08
 
   -0.43834E+08         0.27084E+07         0.00000E+00
    0.27084E+07        -0.49698E+08         0.00000E+00
    0.00000E+00         0.00000E+00        -0.45105E+08
 
   -0.43908E+08         0.27810E+07         0.00000E+00
    0.27810E+07        -0.49678E+08         0.00000E+00
    0.00000E+00         0.00000E+00        -0.45108E+08
 
   -0.43983E+08         0.28533E+07         0.00000E+00
    0.28533E+07        -0.49657E+08         0.00000E+00
    0.00000E+00         0.00000E+00        -0.45111E+08
 
   -0.44057E+08         0.29254E+07         0.00000E+00
    0.29254E+07        -0.49636E+08         0.00000E+00
    0.00000E+00         0.00000E+00        -0.45113E+08
 
   -0.44131E+08         0.29973E+07         0.00000E+00
    0.29973E+07        -0.49613E+08         0.00000E+00
    0.00000E+00         0.00000E+00        -0.45115E+08
 
   -0.44205E+08         0.30690E+07         0.00000E+00
    0.30690E+07        -0.49590E+08         0.00000E+00
    0.00000E+00         0.00000E+00        -0.45118E+08
 
   -0.44279E+08         0.31406E+07         0.00000E+00
    0.31406E+07        -0.49566E+08         0.00000E+00
    0.00000E+00         0.00000E+00        -0.45120E+08
 
   -0.44353E+08         0.32121E+07         0.00000E+00
    0.32121E+07        -0.49540E+08         0.00000E+00
    0.00000E+00         0.00000E+00        -0.45122E+08
 
   -0.44427E+08         0.32834E+07         0.00000E+00
    0.32834E+07        -0.49514E+08         0.00000E+00
    0.00000E+00         0.00000E+00        -0.45124E+08
 
   -0.44501E+08         0.33547E+07         0.00000E+00
    0.33547E+07        -0.49487E+08         0.00000E+00
    0.00000E+00         0.00000E+00        -0.45125E+08
 
   -0.44574E+08         0.34258E+07         0.00000E+00
    0.34258E+07        -0.49459E+08         0.00000E+00
    0.00000E+00         0.00000E+00        -0.45127E+08
 
   -0.44648E+08         0.34968E+07         0.00000E+00
    0.34968E+07        -0.49429E+08         0.00000E+00
    0.00000E+00         0.00000E+00        -0.45128E+08
 
   -0.44722E+08         0.35676E+07         0.00000E+00
    0.35676E+07        -0.49399E+08         0.00000E+00
    0.00000E+00         0.00000E+00        -0.45129E+08
 
   -0.44797E+08         0.36384E+07         0.00000E+00
    0.36384E+07        -0.49367E+08         0.00000E+00
    0.00000E+00         0.00000E+00        -0.45130E+08
 
   -0.44871E+08         0.37091E+07         0.00000E+00
    0.37091E+07        -0.49335E+08         0.00000E+00
    0.00000E+00         0.00000E+00        -0.45131E+08
 
   -0.44945E+08         0.37797E+07         0.00000E+00
    0.37797E+07        -0.49301E+08         0.00000E+00
    0.00000E+00         0.00000E+00        -0.45132E+08
 
   -0.45020E+08         0.38502E+07         0.00000E+00
    0.38502E+07        -0.49266E+08         0.00000E+00
    0.00000E+00         0.00000E+00        -0.45132E+08
 
   -0.45095E+08         0.39206E+07         0.00000E+00
    0.39206E+07        -0.49229E+08         0.00000E+00
    0.00000E+00         0.00000E+00        -0.45132E+08
 
   -0.40803E+08         0.55196E+05         0.00000E+00
    0.55196E+05        -0.50000E+08         0.00000E+00
    0.00000E+00         0.00000E+00        -0.44660E+08
 
   -0.40892E+08         0.15976E+06         0.00000E+00
    0.15976E+06        -0.49999E+08         0.00000E+00
    0.00000E+00         0.00000E+00        -0.44660E+08
 
   -0.40981E+08         0.26233E+06         0.00000E+00
    0.26233E+06        -0.49998E+08         0.00000E+00
    0.00000E+00         0.00000E+00        -0.44660E+08
 
   -0.41069E+08         0.36298E+06         0.00000E+00
    0.36298E+06        -0.49996E+08         0.00000E+00
    0.00000E+00         0.00000E+00        -0.44661E+08
 
   -0.41158E+08         0.46182E+06         0.00000E+00
    0.46182E+06        -0.49994E+08         0.00000E+00
    0.00000E+00         0.00000E+00        -0.44662E+08
 
   -0.41246E+08         0.55892E+06         0.00000E+00
    0.55892E+06        -0.49992E+08         0.00000E+00
    0.00000E+00         0.00000E+00        -0.44664E+08
 
   -0.41335E+08         0.65438E+06         0.00000E+00
    0.65438E+06        -0.49988E+08         0.00000E+00
    0.00000E+00         0.00000E+00        -0.44665E+08
 
   -0.41423E+08         0.74828E+06         0.00000E+00
    0.74828E+06        -0.49985E+08         0.00000E+00
    0.00000E+00         0.00000E+00        -0.44667E+08
 
   -0.41510E+08         0.84071E+06         0.00000E+00
    0.84071E+06        -0.49981E+08         0.00000E+00
    0.00000E+00         0.00000E+00        -0.44669E+08
 
   -0.41598E+08         0.93175E+06         0.00000E+00
    0.93175E+06        -0.49977E+08         0.00000E+00
    0.00000E+00         0.00000E+00        -0.44671E+08
 
   -0.41684E+08         0.10215E+07         0.00000E+00
    0.10215E+07        -0.49972E+08         0.00000E+00
    0.00000E+00         0.00000E+00        -0.44674E+08
 
   -0.41771E+08         0.11100E+07         0.00000E+00
    0.11100E+07        -0.49967E+08         0.00000E+00
    0.00000E+00         0.00000E+00        -0.44676E+08
 
   -0.41857E+08         0.11973E+07         0.00000E+00
    0.11973E+07        -0.49961E+08         0.00000E+00
    0.00000E+00         0.00000E+00        -0.44679E+08
 
   -0.41942E+08         0.12836E+07         0.00000E+00
    0.12836E+07        -0.49955E+08         0.00000E+00
    0.00000E+00         0.00000E+00        -0.44681E+08
 
   -0.42027E+08         0.13689E+07         0.00000E+00
    0.13689E+07        -0.49949E+08         0.00000E+00
    0.00000E+00         0.00000E+00        -0.44684E+08
 
   -0.42111E+08         0.14532E+07         0.00000E+00
    0.14532E+07        -0.49942E+08         0.00000E+00
    0.00000E+00         0.00000E+00        -0.44687E+08
 
   -0.42195E+08         0.15367E+07         0.00000E+00
    0.15367E+07        -0.49935E+08         0.00000E+00
    0.00000E+00         0.00000E+00        -0.44690E+08
 
   -0.42278E+08         0.16194E+07         0.00000E+00
    0.16194E+07        -0.49928E+08         0.00000E+00
    0.00000E+00         0.00000E+00        -0.44693E+08
 
   -0.42360E+08         0.17014E+07         0.00000E+00
    0.17014E+07        -0.49919E+08         0.00000E+00
    0.00000E+00         0.00000E+00        -0.44696E+08
 
   -0.42442E+08         0.17826E+07         0.00000E+00
    0.17826E+07        -0.49911E+08         0.00000E+00
    0.00000E+00         0.00000E+00        -0.44699E+08
 
   -0.42524E+08         0.18633E+07         0.00000E+00
    0.18633E+07        -0.49902E+08         0.00000E+00
    0.00000E+00         0.00000E+00        -0.44702E+08
 
   -0.42604E+08         0.19434E+07         0.00000E+00
    0.19434E+07        -0.49892E+08         0.00000E+00
    0.00000E+00         0.00000E+00        -0.44706E+08
 
   -0.42685E+08         0.20230E+07         0.00000E+00
    0.20230E+07        -0.49882E+08         0.00000E+00
    0.00000E+00         0.00000E+00        -0.44709E+08
 
   -0.42764E+08         0.21022E+07         0.00000E+00
    0.21022E+07        -0.49871E+08         0.00000E+00
    0.00000E+00         0.00000E+00        -0.44712E+08
 
   -0.42843E+08         0.21809E+07         0.00000E+00
    0.21809E+07        -0.49860E+08         0.00000E+00
    0.00000E+00         0.00000E+00        -0.44715E+08
 
   -0.42922E+08         0.22593E+07         0.00000E+00
    0.22593E+07        -0.49848E+08         0.00000E+00
    0.00000E+00         0.00000E+00        -0.44718E+08
 
   -0.43000E+08         0.23374E+07         0.00000E+00
    0.23374E+07        -0.49835E+08         0.00000E+00
    0.00000E+00         0.00000E+00        -0.44721E+08
 
   -0.43078E+08         0.24152E+07         0.00000E+00
    0.24152E+07        -0.49822E+08         0.00000E+00
    0.00000E+00         0.00000E+00        -0.44724E+08
 
   -0.43155E+08         0.24927E+07         0.00000E+00
    0.24927E+07        -0.49808E+08         0.00000E+00
    0.00000E+00         0.00000E+00        -0.44727E+08
 
   -0.43232E+08         0.25701E+07         0.00000E+00
    0.25701E+07        -0.49793E+08         0.00000E+00
    0.00000E+00         0.00000E+00        -0.44730E+08
 
   -0.43308E+08         0.26472E+07         0.00000E+00
    0.26472E+07        -0.49778E+08         0.00000E+00
    0.00000E+00         0.00000E+00        -0.44733E+08
 
   -0.43384E+08         0.27243E+07         0.00000E+00
    0.27243E+07        -0.49761E+08         0.00000E+00
    0.00000E+00         0.00000E+00        -0.44736E+08
 
   -0.43460E+08         0.28012E+07         0.00000E+00
    0.28012E+07        -0.49744E+08         0.00000E+00
    0.00000E+00         0.00000E+00        -0.44739E+08
 
   -0.43535E+08         0.28780E+07         0.00000E+00
    0.28780E+07        -0.49726E+08         0.00000E+00
    0.00000E+00         0.00000E+00        -0.44741E+08
 
   -0.43610E+08         0.29547E+07         0.00000E+00
    0.29547E+07        -0.49707E+08         0.00000E+00
    0.00000E+00         0.00000E+00        -0.44744E+08
 
   -0.43685E+08         0.30314E+07         0.00000E+00
    0.30314E+07        -0.49687E+08         0.00000E+00
    0.00000E+00         0.00000E+00        -0.44746E+08
 
   -0.43760E+08         0.31080E+07         0.00000E+00
    0.31080E+07        -0.49666E+08         0.00000E+00
    0.00000E+00         0.00000E+00        -0.44748E+08
 
   -0.43834E+08         0.31846E+07         0.00000E+00
    0.31846E+07        -0.49644E+08         0.00000E+00
    0.00000E+00         0.00000E+00        -0.44750E+08
 
   -0.43909E+08         0.32612E+07         0.00000E+00
    0.32612E+07        -0.49622E+08         0.00000E+00
    0.00000E+00         0.00000E+00        -0.44752E+08
 
   -0.43983E+08         0.33378E+07         0.00000E+00
    0.33378E+07        -0.49598E+08         0.00000E+00
    0.00000E+00         0.00000E+00        -0.44754E+08
 
   -0.44057E+08         0.34145E+07         0.00000E+00
    0.34145E+07        -0.49572E+08         0.00000E+00
    0.00000E+00         0.00000E+00        -0.44756E+08
 
   -0.44131E+08         0.34911E+07         0.00000E+00
    0.34911E+07        -0.49546E+08         0.00000E+00
    0.00000E+00         0.00000E+00        -0.44758E+08
 
   -0.44205E+08         0.35678E+07         0.00000E+00
    0.35678E+07        -0.49519E+08         0.00000E+00
    0.00000E+00         0.00000E+00        -0.44759E+08
 
   -0.44279E+08         0.36445E+07         0.00000E+00
    0.36445E+07        -0.49490E+08         0.00000E+00
    0.00000E+00         0.00000E+00        -0.44760E+08
 
   -0.44353E+08         0.37212E+07         0.00000E+00
    0.37212E+07        -0.49461E+08         0.00000E+00
    0.00000E+00         0.00000E+00        -0.44761E+08
 
   -0.44428E+08         0.37980E+07         0.00000E+00
    0.37980E+07        -0.49430E+08         0.00000E+00
    0.00000E+00         0.00000E+00        -0.44762E+08
 
   -0.44502E+08         0.38748E+07         0.00000E+00
    0.38748E+07        -0.49397E+08         0.00000E+00
    0.00000E+00         0.00000E+00        -0.44763E+08
 
   -0.44577E+08         0.39516E+07         0.00000E+00
    0.39516E+07        -0.49364E+08         0.00000E+00
    0.00000E+00         0.00000E+00        -0.44764E+08
 
   -0.44652E+08         0.40285E+07         0.00000E+00
    0.40285E+07        -0.49329E+08         0.00000E+00
    0.00000E+00         0.00000E+00        -0.44764E+08
 
   -0.44727E+08         0.41053E+07         0.00000E+00
    0.41053E+07        -0.49293E+08         0.00000E+00
    0.00000E+00         0.00000E+00        -0.44764E+08
 
   -0.40269E+08         0.56690E+05         0.00000E+00
    0.56690E+05        -0.50000E+08         0.00000E+00
    0.00000E+00         0.00000E+00        -0.44262E+08
 
   -0.40368E+08         0.16367E+06         0.00000E+00
    0.16367E+06        -0.49999E+08         0.00000E+00
    0.00000E+00         0.00000E+00        -0.44262E+08
 
   -0.40467E+08         0.26847E+06         0.00000E+00
    0.26847E+06        -0.49999E+08         0.00000E+00
    0.00000E+00         0.00000E+00        -0.44263E+08
 
   -0.40565E+08         0.37122E+06         0.00000E+00
    0.37122E+06        -0.49998E+08         0.00000E+00
    0.00000E+00         0.00000E+00        -0.44264E+08
 
   -0.40663E+08         0.47202E+06         0.00000E+00
    0.47202E+06        -0.49996E+08         0.00000E+00
    0.00000E+00         0.00000E+00        -0.44265E+08
 
   -0.40760E+08         0.57099E+06         0.00000E+00
    0.57099E+06        -0.49994E+08         0.00000E+00
    0.00000E+00         0.00000E+00        -0.44266E+08
 
   -0.40856E+08         0.66823E+06         0.00000E+00
    0.66823E+06        -0.49992E+08         0.00000E+00
    0.00000E+00         0.00000E+00        -0.44268E+08
 
   -0.40952E+08         0.76386E+06         0.00000E+00
    0.76386E+06        -0.49990E+08         0.00000E+00
    0.00000E+00         0.00000E+00        -0.44269E+08
 
   -0.41047E+08         0.85798E+06         0.00000E+00
    0.85798E+06        -0.49987E+08         0.00000E+00
    0.00000E+00         0.00000E+00        -0.44271E+08
 
   -0.41141E+08         0.95070E+06         0.00000E+00
    0.95070E+06        -0.49984E+08         0.00000E+00
    0.00000E+00         0.00000E+00        -0.44273E+08
 
   -0.41234E+08         0.10421E+07         0.00000E+00
    0.10421E+07        -0.49981E+08         0.00000E+00
    0.00000E+00         0.00000E+00        -0.44276E+08
 
   -0.41326E+08         0.11323E+07         0.00000E+00
    0.11323E+07        -0.49978E+08         0.00000E+00
    0.00000E+00         0.00000E+00        -0.44278E+08
 
   -0.41418E+08         0.12214E+07         0.00000E+00
    0.12214E+07        -0.49974E+08         0.00000E+00
    0.00000E+00         0.00000E+00        -0.44281E+08
 
   -0.41508E+08         0.13094E+07         0.00000E+00
    0.13094E+07        -0.49970E+08         0.00000E+00
    0.00000E+00         0.00000E+00        -0.44283E+08
 
   -0.41598E+08         0.13966E+07         0.00000E+00
    0.13966E+07        -0.49966E+08         0.00000E+00
    0.00000E+00         0.00000E+00        -0.44286E+08
 
   -0.41686E+08         0.14828E+07         0.00000E+00
    0.14828E+07        -0.49961E+08         0.00000E+00
    0.00000E+00         0.00000E+00        -0.44289E+08
 
   -0.41774E+08         0.15683E+07         0.00000E+00
    0.15683E+07        -0.49957E+08         0.00000E+00
    0.00000E+00         0.00000E+00        -0.44291E+08
 
   -0.41860E+08         0.16531E+07         0.00000E+00
    0.16531E+07        -0.49951E+08         0.00000E+00
    0.00000E+00         0.00000E+00        -0.44294E+08
 
   -0.41946E+08         0.17373E+07         0.00000E+00
    0.17373E+07        -0.49945E+08         0.00000E+00
    0.00000E+00         0.00000E+00        -0.44297E+08
 
   -0.42031E+08         0.18209E+07         0.00000E+00
    0.18209E+07        -0.49939E+08         0.00000E+00
    0.00000E+00         0.00000E+00        -0.44300E+08
 
   -0.42115E+08         0.19040E+07         0.00000E+00
    0.19040E+07        -0.49933E+08         0.00000E+00
    0.00000E+00         0.00000E+00        -0.44303E+08
 
   -0.42198E+08         0.19868E+07         0.00000E+00
    0.19868E+07        -0.49926E+08         0.00000E+00
    0.00000E+00         0.00000E+00        -0.44306E+08
 
   -0.42280E+08         0.20691E+07         0.00000E+00
    0.20691E+07        -0.49918E+08         0.00000E+00
    0.00000E+00         0.00000E+00        -0.44309E+08
 
   -0.42362E+08         0.21512E+07         0.00000E+00
    0.21512E+07        -0.49910E+08         0.00000E+00
    0.00000E+00         0.00000E+00        -0.44312E+08
 
   -0.42442E+08         0.22330E+07         0.00000E+00
    0.22330E+07        -0.49901E+08         0.00000E+00
    0.00000E+00         0.00000E+00        -0.44315E+08
 
   -0.42522E+08         0.23146E+07         0.00000E+00
    0.23146E+07        -0.49892E+08         0.00000E+00
    0.00000E+00         0.00000E+00        -0.44318E+08
 
   -0.42602E+08         0.23960E+07         0.00000E+00
    0.23960E+07        -0.49882E+08         0.00000E+00
    0.00000E+00         0.00000E+00        -0.44321E+08
 
   -0.42680E+08         0.24774E+07         0.00000E+00
    0.24774E+07        -0.49871E+08         0.00000E+00
    0.00000E+00         0.00000E+00        -0.44324E+08
 
   -0.42758E+08         0.25587E+07         0.00000E+00
    0.25587E+07        -0.49859E+08         0.00000E+00
    0.00000E+00         0.00000E+00        -0.44327E+08
 
   -0.42835E+08         0.26399E+07         0.00000E+00
    0.26399E+07        -0.49847E+08         0.00000E+00
    0.00000E+00         0.00000E+00        -0.44330E+08
 
   -0.42912E+08         0.27211E+07         0.00000E+00
    0.27211E+07        -0.49834E+08         0.00000E+00
    0.00000E+00         0.00000E+00        -0.44332E+08
 
   -0.42988E+08         0.28024E+07         0.00000E+00
    0.28024E+07        -0.49820E+08         0.00000E+00
    0.00000E+00         0.00000E+00        -0.44335E+08
 
   -0.43064E+08         0.28837E+07         0.00000E+00
    0.28837E+07        -0.49805E+08         0.00000E+00
    0.00000E+00         0.00000E+00        -0.44337E+08
 
   -0.43140E+08         0.29651E+07         0.00000E+00
    0.29651E+07        -0.49790E+08         0.00000E+00
    0.00000E+00         0.00000E+00        -0.44340E+08
 
   -0.43214E+08         0.30466E+07         0.00000E+00
    0.30466E+07        -0.49773E+08         0.00000E+00
    0.00000E+00         0.00000E+00        -0.44342E+08
 
   -0.43289E+08         0.31283E+07         0.00000E+00
    0.31283E+07        -0.49755E+08         0.00000E+00
    0.00000E+00         0.00000E+00        -0.44344E+08
 
   -0.43363E+08         0.32101E+07         0.00000E+00
    0.32101E+07        -0.49736E+08         0.00000E+00
    0.00000E+00         0.00000E+00        -0.44347E+08
 
   -0.43438E+08         0.32920E+07         0.00000E+00
    0.32920E+07        -0.49716E+08         0.00000E+00
    0.00000E+00         0.00000E+00        -0.44349E+08
 
   -0.43511E+08         0.33741E+07         0.00000E+00
    0.33741E+07        -0.49695E+08         0.00000E+00
    0.00000E+00         0.00000E+00        -0.44350E+08
 
   -0.43585E+08         0.34564E+07         0.00000E+00
    0.34564E+07        -0.49673E+08         0.00000E+00
    0.00000E+00         0.00000E+00        -0.44352E+08
 
   -0.43659E+08         0.35389E+07         0.00000E+00
    0.35389E+07        -0.49649E+08         0.00000E+00
    0.00000E+00         0.00000E+00        -0.44354E+08
 
   -0.43732E+08         0.36215E+07         0.00000E+00
    0.36215E+07        -0.49625E+08         0.00000E+00
    0.00000E+00         0.00000E+00        -0.44355E+08
 
   -0.43806E+08         0.37044E+07         0.00000E+00
    0.37044E+07        -0.49599E+08         0.00000E+00
    0.00000E+00         0.00000E+00        -0.44357E+08
 
   -0.43880E+08         0.37874E+07         0.00000E+00
    0.37874E+07        -0.49572E+08         0.00000E+00
    0.00000E+00         0.00000E+00        -0.44358E+08
 
   -0.43953E+08         0.38707E+07         0.00000E+00
    0.38707E+07        -0.49543E+08         0.00000E+00
    0.00000E+00         0.00000E+00        -0.44359E+08
 
   -0.44027E+08         0.39541E+07         0.00000E+00
    0.39541E+07        -0.49513E+08         0.00000E+00
    0.00000E+00         0.00000E+00        -0.44360E+08
 
   -0.44101E+08         0.40377E+07         0.00000E+00
    0.40377E+07        -0.49481E+08         0.00000E+00
    0.00000E+00         0.00000E+00        -0.44360E+08
 
   -0.44175E+08         0.41215E+07         0.00000E+00
    0.41215E+07        -0.49449E+08         0.00000E+00
    0.00000E+00         0.00000E+00        -0.44361E+08
 
   -0.44249E+08         0.42055E+07         0.00000E+00
    0.42055E+07        -0.49414E+08         0.00000E+00
    0.00000E+00         0.00000E+00        -0.44361E+08
 
   -0.44324E+08         0.42896E+07         0.00000E+00
    0.42896E+07        -0.49378E+08         0.00000E+00
    0.00000E+00         0.00000E+00        -0.44361E+08
 
   -0.39724E+08         0.57654E+05         0.00000E+00
    0.57654E+05        -0.50000E+08         0.00000E+00
    0.00000E+00         0.00000E+00        -0.43828E+08
 
   -0.39835E+08         0.16601E+06         0.00000E+00
    0.16601E+06        -0.50000E+08         0.00000E+00
    0.00000E+00         0.00000E+00        -0.43828E+08
 
   -0.39944E+08         0.27204E+06         0.00000E+00
    0.27204E+06        -0.49999E+08         0.00000E+00
    0.00000E+00         0.00000E+00        -0.43829E+08
 
   -0.40053E+08         0.37589E+06         0.00000E+00
    0.37589E+06        -0.49999E+08         0.00000E+00
    0.00000E+00         0.00000E+00        -0.43830E+08
 
   -0.40161E+08         0.47769E+06         0.00000E+00
    0.47769E+06        -0.49998E+08         0.00000E+00
    0.00000E+00         0.00000E+00        -0.43831E+08
 
   -0.40267E+08         0.57759E+06         0.00000E+00
    0.57759E+06        -0.49998E+08         0.00000E+00
    0.00000E+00         0.00000E+00        -0.43832E+08
 
   -0.40372E+08         0.67573E+06         0.00000E+00
    0.67573E+06        -0.49997E+08         0.00000E+00
    0.00000E+00         0.00000E+00        -0.43833E+08
 
   -0.40475E+08         0.77223E+06         0.00000E+00
    0.77223E+06        -0.49996E+08         0.00000E+00
    0.00000E+00         0.00000E+00        -0.43835E+08
 
   -0.40577E+08         0.86722E+06         0.00000E+00
    0.86722E+06        -0.49995E+08         0.00000E+00
    0.00000E+00         0.00000E+00        -0.43837E+08
 
   -0.40678E+08         0.96082E+06         0.00000E+00
    0.96082E+06        -0.49995E+08         0.00000E+00
    0.00000E+00         0.00000E+00        -0.43839E+08
 
   -0.40777E+08         0.10532E+07         0.00000E+00
    0.10532E+07        -0.49993E+08         0.00000E+00
    0.00000E+00         0.00000E+00        -0.43841E+08
 
   -0.40875E+08         0.11444E+07         0.00000E+00
    0.11444E+07        -0.49992E+08         0.00000E+00
    0.00000E+00         0.00000E+00        -0.43843E+08
 
   -0.40972E+08         0.12345E+07         0.00000E+00
    0.12345E+07        -0.49991E+08         0.00000E+00
    0.00000E+00         0.00000E+00        -0.43845E+08
 
   -0.41067E+08         0.13238E+07         0.00000E+00
    0.13238E+07        -0.49990E+08         0.00000E+00
    0.00000E+00         0.00000E+00        -0.43848E+08
 
   -0.41160E+08         0.14122E+07         0.00000E+00
    0.14122E+07        -0.49988E+08         0.00000E+00
    0.00000E+00         0.00000E+00        -0.43850E+08
 
   -0.41253E+08         0.14999E+07         0.00000E+00
    0.14999E+07        -0.49986E+08         0.00000E+00
    0.00000E+00         0.00000E+00        -0.43853E+08
 
   -0.41344E+08         0.15869E+07         0.00000E+00
    0.15869E+07        -0.49984E+08         0.00000E+00
    0.00000E+00         0.00000E+00        -0.43855E+08
 
   -0.41433E+08         0.16735E+07         0.00000E+00
    0.16735E+07        -0.49982E+08         0.00000E+00
    0.00000E+00         0.00000E+00        -0.43858E+08
 
   -0.41521E+08         0.17595E+07         0.00000E+00
    0.17595E+07        -0.49979E+08         0.00000E+00
    0.00000E+00         0.00000E+00        -0.43861E+08
 
   -0.41608E+08         0.18452E+07         0.00000E+00
    0.18452E+07        -0.49976E+08         0.00000E+00
    0.00000E+00         0.00000E+00        -0.43864E+08
 
   -0.41694E+08         0.19306E+07         0.00000E+00
    0.19306E+07        -0.49973E+08         0.00000E+00
    0.00000E+00         0.00000E+00        -0.43866E+08
 
   -0.41779E+08         0.20157E+07         0.00000E+00
    0.20157E+07        -0.49969E+08         0.00000E+00
    0.00000E+00         0.00000E+00        -0.43869E+08
 
   -0.41862E+08         0.21007E+07         0.00000E+00
    0.21007E+07        -0.49964E+08         0.00000E+00
    0.00000E+00         0.00000E+00        -0.43872E+08
 
   -0.41945E+08         0.21856E+07         0.00000E+00
    0.21856E+07        -0.49959E+08         0.00000E+00
    0.00000E+00         0.00000E+00        -0.43875E+08
 
   -0.42026E+08         0.22704E+07         0.00000E+00
    0.22704E+07        -0.49954E+08         0.00000E+00
    0.00000E+00         0.00000E+00        -0.43877E+08
 
   -0.42106E+08         0.23553E+07         0.00000E+00
    0.23553E+07        -0.49948E+08         0.00000E+00
    0.00000E+00         0.00000E+00        -0.43880E+08
 
   -0.42186E+08         0.24402E+07         0.00000E+00
    0.24402E+07        -0.49941E+08         0.00000E+00
    0.00000E+00         0.00000E+00        -0.43883E+08
 
   -0.42264E+08         0.25252E+07         0.00000E+00
    0.25252E+07        -0.49933E+08         0.00000E+00
    0.00000E+00         0.00000E+00        -0.43885E+08
 
   -0.42342E+08         0.26103E+07         0.00000E+00
    0.26103E+07        -0.49925E+08         0.00000E+00
    0.00000E+00         0.00000E+00        -0.43888E+08
 
   -0.42419E+08         0.26957E+07         0.00000E+00
    0.26957E+07        -0.49916E+08         0.00000E+00
    0.00000E+00         0.00000E+00        -0.43891E+08
 
   -0.42495E+08         0.27812E+07         0.00000E+00
    0.27812E+07        -0.49906E+08         0.00000E+00
    0.00000E+00         0.00000E+00        -0.43893E+08
 
   -0.42570E+08         0.28670E+07         0.00000E+00
    0.28670E+07        -0.49895E+08         0.00000E+00
    0.00000E+00         0.00000E+00        -0.43895E+08
 
   -0.42645E+08         0.29531E+07         0.00000E+00
    0.29531E+07        -0.49883E+08         0.00000E+00
    0.00000E+00         0.00000E+00        -0.43898E+08
 
   -0.42719E+08         0.30395E+07         0.00000E+00
    0.30395E+07        -0.49870E+08         0.00000E+00
    0.00000E+00         0.00000E+00        -0.43900E+08
 
   -0.42793E+08         0.31262E+07         0.00000E+00
    0.31262E+07        -0.49857E+08         0.00000E+00
    0.00000E+00         0.00000E+00        -0.43902E+08
 
   -0.42867E+08         0.32133E+07         0.00000E+00
    0.32133E+07        -0.49841E+08         0.00000E+00
    0.00000E+00         0.00000E+00        -0.43904E+08
 
   -0.42940E+08         0.33007E+07         0.00000E+00
    0.33007E+07        -0.49825E+08         0.00000E+00
    0.00000E+00         0.00000E+00        -0.43906E+08
 
   -0.43013E+08         0.33885E+07         0.00000E+00
    0.33885E+07        -0.49808E+08         0.00000E+00
    0.00000E+00         0.00000E+00        -0.43908E+08
 
   -0.43085E+08         0.34766E+07         0.00000E+00
    0.34766E+07        -0.49789E+08         0.00000E+00
    0.00000E+00         0.00000E+00        -0.43909E+08
 
   -0.43157E+08         0.35652E+07         0.00000E+00
    0.35652E+07        -0.49769E+08         0.00000E+00
    0.00000E+00         0.00000E+00        -0.43911E+08
 
   -0.43230E+08         0.36541E+07         0.00000E+00
    0.36541E+07        -0.49748E+08         0.00000E+00
    0.00000E+00         0.00000E+00        -0.43913E+08
 
   -0.43302E+08         0.37434E+07         0.00000E+00
    0.37434E+07        -0.49725E+08         0.00000E+00
    0.00000E+00         0.00000E+00        -0.43914E+08
 
   -0.43374E+08         0.38332E+07         0.00000E+00
    0.38332E+07        -0.49701E+08         0.00000E+00
    0.00000E+00         0.00000E+00        -0.43915E+08
 
   -0.43446E+08         0.39233E+07         0.00000E+00
    0.39233E+07        -0.49676E+08         0.00000E+00
    0.00000E+00         0.00000E+00        -0.43916E+08
 
   -0.43518E+08         0.40137E+07         0.00000E+00
    0.40137E+07        -0.49649E+08         0.00000E+00
    0.00000E+00         0.00000E+00        -0.43917E+08
 
   -0.43591E+08         0.41046E+07         0.00000E+00
    0.41046E+07        -0.49620E+08         0.00000E+00
    0.00000E+00         0.00000E+00        -0.43918E+08
 
   -0.43663E+08         0.41958E+07         0.00000E+00
    0.41958E+07        -0.49590E+08         0.00000E+00
    0.00000E+00         0.00000E+00        -0.43918E+08
 
   -0.43736E+08         0.42874E+07         0.00000E+00
    0.42874E+07        -0.49558E+08         0.00000E+00
    0.00000E+00         0.00000E+00        -0.43919E+08
 
   -0.43809E+08         0.43793E+07         0.00000E+00
    0.43793E+07        -0.49525E+08         0.00000E+00
    0.00000E+00         0.00000E+00        -0.43919E+08
 
   -0.43883E+08         0.44715E+07         0.00000E+00
    0.44715E+07        -0.49489E+08         0.00000E+00
    0.00000E+00         0.00000E+00        -0.43919E+08
 
   -0.39175E+08         0.57908E+05         0.00000E+00
    0.57908E+05        -0.50000E+08         0.00000E+00
    0.00000E+00         0.00000E+00        -0.43353E+08
 
   -0.39298E+08         0.16630E+06         0.00000E+00
    0.16630E+06        -0.50000E+08         0.00000E+00
    0.00000E+00         0.00000E+00        -0.43354E+08
 
   -0.39419E+08         0.27225E+06         0.00000E+00
    0.27225E+06        -0.50000E+08         0.00000E+00
    0.00000E+00         0.00000E+00        -0.43354E+08
 
   -0.39539E+08         0.37591E+06         0.00000E+00
    0.37591E+06        -0.50001E+08         0.00000E+00
    0.00000E+00         0.00000E+00        -0.43355E+08
 
   -0.39656E+08         0.47749E+06         0.00000E+00
    0.47749E+06        -0.50002E+08         0.00000E+00
    0.00000E+00         0.00000E+00        -0.43356E+08
 
   -0.39772E+08         0.57713E+06         0.00000E+00
    0.57713E+06        -0.50002E+08         0.00000E+00
    0.00000E+00         0.00000E+00        -0.43357E+08
 
   -0.39885E+08         0.67501E+06         0.00000E+00
    0.67501E+06        -0.50003E+08         0.00000E+00
    0.00000E+00         0.00000E+00        -0.43358E+08
 
   -0.39996E+08         0.77130E+06         0.00000E+00
    0.77130E+06        -0.50005E+08         0.00000E+00
    0.00000E+00         0.00000E+00        -0.43360E+08
 
   -0.40105E+08         0.86613E+06         0.00000E+00
    0.86613E+06        -0.50006E+08         0.00000E+00
    0.00000E+00         0.00000E+00        -0.43361E+08
 
   -0.40213E+08         0.95967E+06         0.00000E+00
    0.95967E+06        -0.50007E+08         0.00000E+00
    0.00000E+00         0.00000E+00        -0.43363E+08
 
   -0.40318E+08         0.10520E+07         0.00000E+00
    0.10520E+07        -0.50009E+08         0.00000E+00
    0.00000E+00         0.00000E+00        -0.43365E+08
 
   -0.40421E+08         0.11434E+07         0.00000E+00
    0.11434E+07        -0.50011E+08         0.00000E+00
    0.00000E+00         0.00000E+00        -0.43367E+08
 
   -0.40522E+08         0.12339E+07         0.00000E+00
    0.12339E+07        -0.50012E+08         0.00000E+00
    0.00000E+00         0.00000E+00        -0.43369E+08
 
   -0.40621E+08         0.13236E+07         0.00000E+00
    0.13236E+07        -0.50014E+08         0.00000E+00
    0.00000E+00         0.00000E+00        -0.43371E+08
 
   -0.40718E+08         0.14126E+07         0.00000E+00
    0.14126E+07        -0.50016E+08         0.00000E+00
    0.00000E+00         0.00000E+00        -0.43373E+08
 
   -0.40813E+08         0.15012E+07         0.00000E+00
    0.15012E+07        -0.50017E+08         0.00000E+00
    0.00000E+00         0.00000E+00        -0.43376E+08
 
   -0.40906E+08         0.15893E+07         0.00000E+00
    0.15893E+07        -0.50019E+08         0.00000E+00
    0.00000E+00         0.00000E+00        -0.43378E+08
 
   -0.40998E+08         0.16771E+07         0.00000E+00
    0.16771E+07        -0.50020E+08         0.00000E+00
    0.00000E+00         0.00000E+00        -0.43380E+08
 
   -0.41088E+08         0.17646E+07         0.00000E+00
    0.17646E+07        -0.50021E+08         0.00000E+00
    0.00000E+00         0.00000E+00        -0.43383E+08
 
   -0.41176E+08         0.18520E+07         0.00000E+00
    0.18520E+07        -0.50022E+08         0.00000E+00
    0.00000E+00         0.00000E+00        -0.43385E+08
 
   -0.41262E+08         0.19394E+07         0.00000E+00
    0.19394E+07        -0.50023E+08         0.00000E+00
    0.00000E+00         0.00000E+00        -0.43388E+08
 
   -0.41347E+08         0.20267E+07         0.00000E+00
    0.20267E+07        -0.50023E+08         0.00000E+00
    0.00000E+00         0.00000E+00        -0.43390E+08
 
   -0.41431E+08         0.21142E+07         0.00000E+00
    0.21142E+07        -0.50022E+08         0.00000E+00
    0.00000E+00         0.00000E+00        -0.43392E+08
 
   -0.41513E+08         0.22018E+07         0.00000E+00
    0.22018E+07        -0.50021E+08         0.00000E+00
    0.00000E+00         0.00000E+00        -0.43395E+08
 
   -0.41594E+08         0.22897E+07         0.00000E+00
    0.22897E+07        -0.50020E+08         0.00000E+00
    0.00000E+00         0.00000E+00        -0.43397E+08
 
   -0.41673E+08         0.23778E+07         0.00000E+00
    0.23778E+07        -0.50018E+08         0.00000E+00
    0.00000E+00         0.00000E+00        -0.43400E+08
 
   -0.41751E+08         0.24662E+07         0.00000E+00
    0.24662E+07        -0.50015E+08         0.00000E+00
    0.00000E+00         0.00000E+00        -0.43402E+08
 
   -0.41829E+08         0.25550E+07         0.00000E+00
    0.25550E+07        -0.50011E+08         0.00000E+00
    0.00000E+00         0.00000E+00        -0.43404E+08
 
   -0.41905E+08         0.26443E+07         0.00000E+00
    0.26443E+07        -0.50007E+08         0.00000E+00
    0.00000E+00         0.00000E+00        -0.43407E+08
 
   -0.41980E+08         0.27340E+07         0.00000E+00
    0.27340E+07        -0.50002E+08         0.00000E+00
    0.00000E+00         0.00000E+00        -0.43409E+08
 
   -0.42054E+08         0.28241E+07         0.00000E+00
    0.28241E+07        -0.49996E+08         0.00000E+00
    0.00000E+00         0.00000E+00        -0.43411E+08
 
   -0.42128E+08         0.29148E+07         0.00000E+00
    0.29148E+07        -0.49989E+08         0.00000E+00
    0.00000E+00         0.00000E+00        -0.43413E+08
 
   -0.42201E+08         0.30061E+07         0.00000E+00
    0.30061E+07        -0.49980E+08         0.00000E+00
    0.00000E+00         0.00000E+00        -0.43415E+08
 
   -0.42273E+08         0.30979E+07         0.00000E+00
    0.30979E+07        -0.49971E+08         0.00000E+00
    0.00000E+00         0.00000E+00        -0.43417E+08
 
   -0.42344E+08         0.31903E+07         0.00000E+00
    0.31903E+07        -0.49961E+08         0.00000E+00
    0.00000E+00         0.00000E+00        -0.43419E+08
 
   -0.42415E+08         0.32833E+07         0.00000E+00
    0.32833E+07        -0.49949E+08         0.00000E+00
    0.00000E+00         0.00000E+00        -0.43420E+08
 
   -0.42486E+08         0.33769E+07         0.00000E+00
    0.33769E+07        -0.49936E+08         0.00000E+00
    0.00000E+00         0.00000E+00        -0.43422E+08
 
   -0.42556E+08         0.34711E+07         0.00000E+00
    0.34711E+07        -0.49922E+08         0.00000E+00
    0.00000E+00         0.00000E+00        -0.43424E+08
 
   -0.42626E+08         0.35659E+07         0.00000E+00
    0.35659E+07        -0.49906E+08         0.00000E+00
    0.00000E+00         0.00000E+00        -0.43425E+08
 
   -0.42696E+08         0.36614E+07         0.00000E+00
    0.36614E+07        -0.49889E+08         0.00000E+00
    0.00000E+00         0.00000E+00        -0.43426E+08
 
   -0.42766E+08         0.37575E+07         0.00000E+00
    0.37575E+07        -0.49871E+08         0.00000E+00
    0.00000E+00         0.00000E+00        -0.43428E+08
 
   -0.42835E+08         0.38542E+07         0.00000E+00
    0.38542E+07        -0.49851E+08         0.00000E+00
    0.00000E+00         0.00000E+00        -0.43429E+08
 
   -0.42905E+08         0.39515E+07         0.00000E+00
    0.39515E+07        -0.49829E+08         0.00000E+00
    0.00000E+00         0.00000E+00        -0.43430E+08
 
   -0.42975E+08         0.40495E+07         0.00000E+00
    0.40495E+07        -0.49806E+08         0.00000E+00
    0.00000E+00         0.00000E+00        -0.43431E+08
 
   -0.43044E+08         0.41480E+07         0.00000E+00
    0.41480E+07        -0.49781E+08         0.00000E+00
    0.00000E+00         0.00000E+00        -0.43432E+08
 
   -0.43114E+08         0.42472E+07         0.00000E+00
    0.42472E+07        -0.49754E+08         0.00000E+00
    0.00000E+00         0.00000E+00        -0.43432E+08
 
   -0.43185E+08         0.43469E+07         0.00000E+00
    0.43469E+07        -0.49726E+08         0.00000E+00
    0.00000E+00         0.00000E+00        -0.43433E+08
 
   -0.43255E+08         0.44471E+07         0.00000E+00
    0.44471E+07        -0.49695E+08         0.00000E+00
    0.00000E+00         0.00000E+00        -0.43433E+08
 
   -0.43326E+08         0.45479E+07         0.00000E+00
    0.45479E+07        -0.49663E+08         0.00000E+00
    0.00000E+00         0.00000E+00        -0.43433E+08
 
   -0.43398E+08         0.46492E+07         0.00000E+00
    0.46492E+07        -0.49629E+08         0.00000E+00
    0.00000E+00         0.00000E+00        -0.43434E+08
 
   -0.38629E+08         0.57236E+05         0.00000E+00
    0.57236E+05        -0.50000E+08         0.00000E+00
    0.00000E+00         0.00000E+00        -0.42833E+08
 
   -0.38766E+08         0.16394E+06         0.00000E+00
    0.16394E+06        -0.50001E+08         0.00000E+00
    0.00000E+00         0.00000E+00        -0.42833E+08
 
   -0.38899E+08         0.26812E+06         0.00000E+00
    0.26812E+06        -0.50002E+08         0.00000E+00
    0.00000E+00         0.00000E+00        -0.42834E+08
 
   -0.39029E+08         0.37000E+06         0.00000E+00
    0.37000E+06        -0.50003E+08         0.00000E+00
    0.00000E+00         0.00000E+00        -0.42834E+08
 
   -0.39157E+08         0.46979E+06         0.00000E+00
    0.46979E+06        -0.50006E+08         0.00000E+00
    0.00000E+00         0.00000E+00        -0.42835E+08
 
   -0.39281E+08         0.56770E+06         0.00000E+00
    0.56770E+06        -0.50008E+08         0.00000E+00
    0.00000E+00         0.00000E+00        -0.42836E+08
 
   -0.39403E+08         0.66392E+06         0.00000E+00
    0.66392E+06        -0.50011E+08         0.00000E+00
    0.00000E+00         0.00000E+00        -0.42837E+08
 
   -0.39521E+08         0.75865E+06         0.00000E+00
    0.75865E+06        -0.50015E+08         0.00000E+00
    0.00000E+00         0.00000E+00        -0.42838E+08
 
   -0.39637E+08         0.85207E+06         0.00000E+00
    0.85207E+06        -0.50019E+08         0.00000E+00
    0.00000E+00         0.00000E+00        -0.42840E+08
 
   -0.39750E+08         0.94436E+06         0.00000E+00
    0.94436E+06        -0.50024E+08         0.00000E+00
    0.00000E+00         0.00000E+00        -0.42841E+08
 
   -0.39860E+08         0.10357E+07         0.00000E+00
    0.10357E+07        -0.50028E+08         0.00000E+00
    0.00000E+00         0.00000E+00        -0.42843E+08
 
   -0.39967E+08         0.11262E+07         0.00000E+00
    0.11262E+07        -0.50034E+08         0.00000E+00
    0.00000E+00         0.00000E+00        -0.42844E+08
 
   -0.40072E+08         0.12160E+07         0.00000E+00
    0.12160E+07        -0.50039E+08         0.00000E+00
    0.00000E+00         0.00000E+00        -0.42846E+08
 
   -0.40174E+08         0.13053E+07         0.00000E+00
    0.13053E+07        -0.50045E+08         0.00000E+00
    0.00000E+00         0.00000E+00        -0.42848E+08
 
   -0.40273E+08         0.13943E+07         0.00000E+00
    0.13943E+07        -0.50050E+08         0.00000E+00
    0.00000E+00         0.00000E+00        -0.42850E+08
 
   -0.40370E+08         0.14830E+07         0.00000E+00
    0.14830E+07        -0.50056E+08         0.00000E+00
    0.00000E+00         0.00000E+00        -0.42852E+08
 
   -0.40465E+08         0.15715E+07         0.00000E+00
    0.15715E+07        -0.50062E+08         0.00000E+00
    0.00000E+00         0.00000E+00        -0.42854E+08
 
   -0.40557E+08         0.16600E+07         0.00000E+00
    0.16600E+07        -0.50068E+08         0.00000E+00
    0.00000E+00         0.00000E+00        -0.42856E+08
 
   -0.40647E+08         0.17486E+07         0.00000E+00
    0.17486E+07        -0.50074E+08         0.00000E+00
    0.00000E+00         0.00000E+00        -0.42858E+08
 
   -0.40735E+08         0.18374E+07         0.00000E+00
    0.18374E+07        -0.50079E+08         0.00000E+00
    0.00000E+00         0.00000E+00        -0.42860E+08
 
   -0.40821E+08         0.19264E+07         0.00000E+00
    0.19264E+07        -0.50084E+08         0.00000E+00
    0.00000E+00         0.00000E+00        -0.42862E+08
 
   -0.40905E+08         0.20158E+07         0.00000E+00
    0.20158E+07        -0.50089E+08         0.00000E+00
    0.00000E+00         0.00000E+00        -0.42864E+08
 
   -0.40987E+08         0.21056E+07         0.00000E+00
    0.21056E+07        -0.50094E+08         0.00000E+00
    0.00000E+00         0.00000E+00        -0.42866E+08
 
   -0.41067E+08         0.21959E+07         0.00000E+00
    0.21959E+07        -0.50098E+08         0.00000E+00
    0.00000E+00         0.00000E+00        -0.42868E+08
 
   -0.41146E+08         0.22867E+07         0.00000E+00
    0.22867E+07        -0.50101E+08         0.00000E+00
    0.00000E+00         0.00000E+00        -0.42870E+08
 
   -0.41223E+08         0.23782E+07         0.00000E+00
    0.23782E+07        -0.50104E+08         0.00000E+00
    0.00000E+00         0.00000E+00        -0.42872E+08
 
   -0.41298E+08         0.24703E+07         0.00000E+00
    0.24703E+07        -0.50106E+08         0.00000E+00
    0.00000E+00         0.00000E+00        -0.42874E+08
 
   -0.41373E+08         0.25631E+07         0.00000E+00
    0.25631E+07        -0.50107E+08         0.00000E+00
    0.00000E+00         0.00000E+00        -0.42875E+08
 
   -0.41446E+08         0.26567E+07         0.00000E+00
    0.26567E+07        -0.50107E+08         0.00000E+00
    0.00000E+00         0.00000E+00        -0.42877E+08
 
   -0.41518E+08         0.27510E+07         0.00000E+00
    0.27510E+07        -0.50107E+08         0.00000E+00
    0.00000E+00         0.00000E+00        -0.42879E+08
 
   -0.41589E+08         0.28462E+07         0.00000E+00
    0.28462E+07        -0.50105E+08         0.00000E+00
    0.00000E+00         0.00000E+00        -0.42881E+08
 
   -0.41659E+08         0.29421E+07         0.00000E+00
    0.29421E+07        -0.50103E+08         0.00000E+00
    0.00000E+00         0.00000E+00        -0.42882E+08
 
   -0.41728E+08         0.30390E+07         0.00000E+00
    0.30390E+07        -0.50099E+08         0.00000E+00
    0.00000E+00         0.00000E+00        -0.42884E+08
 
   -0.41797E+08         0.31367E+07         0.00000E+00
    0.31367E+07        -0.50094E+08         0.00000E+00
    0.00000E+00         0.00000E+00        -0.42886E+08
 
   -0.41865E+08         0.32353E+07         0.00000E+00
    0.32353E+07        -0.50088E+08         0.00000E+00
    0.00000E+00         0.00000E+00        -0.42887E+08
 
   -0.41932E+08         0.33348E+07         0.00000E+00
    0.33348E+07        -0.50080E+08         0.00000E+00
    0.00000E+00         0.00000E+00        -0.42889E+08
 
   -0.41999E+08         0.34353E+07         0.00000E+00
    0.34353E+07        -0.50071E+08         0.00000E+00
    0.00000E+00         0.00000E+00        -0.42890E+08
 
   -0.42065E+08         0.35366E+07         0.00000E+00
    0.35366E+07        -0.50061E+08         0.00000E+00
    0.00000E+00         0.00000E+00        -0.42891E+08
 
   -0.42132E+08         0.36388E+07         0.00000E+00
    0.36388E+07        -0.50049E+08         0.00000E+00
    0.00000E+00         0.00000E+00        -0.42892E+08
 
   -0.42198E+08         0.37419E+07         0.00000E+00
    0.37419E+07        -0.50035E+08         0.00000E+00
    0.00000E+00         0.00000E+00        -0.42893E+08
 
   -0.42264E+08         0.38460E+07         0.00000E+00
    0.38460E+07        -0.50020E+08         0.00000E+00
    0.00000E+00         0.00000E+00        -0.42894E+08
 
   -0.42329E+08         0.39509E+07         0.00000E+00
    0.39509E+07        -0.50003E+08         0.00000E+00
    0.00000E+00         0.00000E+00        -0.42895E+08
 
   -0.42395E+08         0.40567E+07         0.00000E+00
    0.40567E+07        -0.49985E+08         0.00000E+00
    0.00000E+00         0.00000E+00        -0.42896E+08
 
   -0.42461E+08         0.41633E+07         0.00000E+00
    0.41633E+07        -0.49964E+08         0.00000E+00
    0.00000E+00         0.00000E+00        -0.42897E+08
 
   -0.42528E+08         0.42708E+07         0.00000E+00
    0.42708E+07        -0.49942E+08         0.00000E+00
    0.00000E+00         0.00000E+00        -0.42897E+08
 
   -0.42594E+08         0.43791E+07         0.00000E+00
    0.43791E+07        -0.49918E+08         0.00000E+00
    0.00000E+00         0.00000E+00        -0.42898E+08
 
   -0.42661E+08         0.44883E+07         0.00000E+00
    0.44883E+07        -0.49892E+08         0.00000E+00
    0.00000E+00         0.00000E+00        -0.42898E+08
 
   -0.42728E+08         0.45982E+07         0.00000E+00
    0.45982E+07        -0.49864E+08         0.00000E+00
    0.00000E+00         0.00000E+00        -0.42899E+08
 
   -0.42796E+08         0.47089E+07         0.00000E+00
    0.47089E+07        -0.49833E+08         0.00000E+00
    0.00000E+00         0.00000E+00        -0.42899E+08
 
   -0.42865E+08         0.48203E+07         0.00000E+00
    0.48203E+07        -0.49801E+08         0.00000E+00
    0.00000E+00         0.00000E+00        -0.42899E+08
 
   -0.38098E+08         0.55373E+05         0.00000E+00
    0.55373E+05        -0.50000E+08         0.00000E+00
    0.00000E+00         0.00000E+00        -0.42262E+08
 
   -0.38247E+08         0.15821E+06         0.00000E+00
    0.15821E+06        -0.50001E+08         0.00000E+00
    0.00000E+00         0.00000E+00        -0.42262E+08
 
   -0.38392E+08         0.25854E+06         0.00000E+00
    0.25854E+06        -0.50003E+08         0.00000E+00
    0.00000E+00         0.00000E+00        -0.42262E+08
 
   -0.38534E+08         0.35662E+06         0.00000E+00
    0.35662E+06        -0.50006E+08         0.00000E+00
    0.00000E+00         0.00000E+00        -0.42263E+08
 
   -0.38671E+08         0.45273E+06         0.00000E+00
    0.45273E+06        -0.50010E+08         0.00000E+00
    0.00000E+00         0.00000E+00        -0.42263E+08
 
   -0.38804E+08         0.54709E+06         0.00000E+00
    0.54709E+06        -0.50015E+08         0.00000E+00
    0.00000E+00         0.00000E+00        -0.42264E+08
 
   -0.38933E+08         0.63994E+06         0.00000E+00
    0.63994E+06        -0.50021E+08         0.00000E+00
    0.00000E+00         0.00000E+00        -0.42265E+08
 
   -0.39058E+08         0.73151E+06         0.00000E+00
    0.73151E+06        -0.50028E+08         0.00000E+00
    0.00000E+00         0.00000E+00        -0.42266E+08
 
   -0.39179E+08         0.82201E+06         0.00000E+00
    0.82201E+06        -0.50035E+08         0.00000E+00
    0.00000E+00         0.00000E+00        -0.42267E+08
 
   -0.39297E+08         0.91164E+06         0.00000E+00
    0.91164E+06        -0.50044E+08         0.00000E+00
    0.00000E+00         0.00000E+00        -0.42268E+08
 
   -0.39410E+08         0.10006E+07         0.00000E+00
    0.10006E+07        -0.50052E+08         0.00000E+00
    0.00000E+00         0.00000E+00        -0.42269E+08
 
   -0.39521E+08         0.10890E+07         0.00000E+00
    0.10890E+07        -0.50062E+08         0.00000E+00
    0.00000E+00         0.00000E+00        -0.42270E+08
 
   -0.39627E+08         0.11772E+07         0.00000E+00
    0.11772E+07        -0.50072E+08         0.00000E+00
    0.00000E+00         0.00000E+00        -0.42272E+08
 
   -0.39731E+08         0.12651E+07         0.00000E+00
    0.12651E+07        -0.50082E+08         0.00000E+00
    0.00000E+00         0.00000E+00        -0.42273E+08
 
   -0.39831E+08         0.13531E+07         0.00000E+00
    0.13531E+07        -0.50093E+08         0.00000E+00
    0.00000E+00         0.00000E+00        -0.42274E+08
 
   -0.39928E+08         0.14411E+07         0.00000E+00
    0.14411E+07        -0.50104E+08         0.00000E+00
    0.00000E+00         0.00000E+00        -0.42276E+08
 
   -0.40022E+08         0.15294E+07         0.00000E+00
    0.15294E+07        -0.50115E+08         0.00000E+00
    0.00000E+00         0.00000E+00        -0.42277E+08
 
   -0.40113E+08         0.16181E+07         0.00000E+00
    0.16181E+07        -0.50126E+08         0.00000E+00
    0.00000E+00         0.00000E+00        -0.42279E+08
 
   -0.40201E+08         0.17072E+07         0.00000E+00
    0.17072E+07        -0.50137E+08         0.00000E+00
    0.00000E+00         0.00000E+00        -0.42280E+08
 
   -0.40287E+08         0.17970E+07         0.00000E+00
    0.17970E+07        -0.50148E+08         0.00000E+00
    0.00000E+00         0.00000E+00        -0.42282E+08
 
   -0.40370E+08         0.18874E+07         0.00000E+00
    0.18874E+07        -0.50159E+08         0.00000E+00
    0.00000E+00         0.00000E+00        -0.42283E+08
 
   -0.40451E+08         0.19785E+07         0.00000E+00
    0.19785E+07        -0.50170E+08         0.00000E+00
    0.00000E+00         0.00000E+00        -0.42285E+08
 
   -0.40530E+08         0.20705E+07         0.00000E+00
    0.20705E+07        -0.50180E+08         0.00000E+00
    0.00000E+00         0.00000E+00        -0.42286E+08
 
   -0.40607E+08         0.21634E+07         0.00000E+00
    0.21634E+07        -0.50189E+08         0.00000E+00
    0.00000E+00         0.00000E+00        -0.42288E+08
 
   -0.40682E+08         0.22573E+07         0.00000E+00
    0.22573E+07        -0.50199E+08         0.00000E+00
    0.00000E+00         0.00000E+00        -0.42289E+08
 
   -0.40755E+08         0.23522E+07         0.00000E+00
    0.23522E+07        -0.50207E+08         0.00000E+00
    0.00000E+00         0.00000E+00        -0.42291E+08
 
   -0.40826E+08         0.24481E+07         0.00000E+00
    0.24481E+07        -0.50215E+08         0.00000E+00
    0.00000E+00         0.00000E+00        -0.42292E+08
 
   -0.40896E+08         0.25452E+07         0.00000E+00
    0.25452E+07        -0.50222E+08         0.00000E+00
    0.00000E+00         0.00000E+00        -0.42293E+08
 
   -0.40964E+08         0.26434E+07         0.00000E+00
    0.26434E+07        -0.50228E+08         0.00000E+00
    0.00000E+00         0.00000E+00        -0.42295E+08
 
   -0.41031E+08         0.27427E+07         0.00000E+00
    0.27427E+07        -0.50233E+08         0.00000E+00
    0.00000E+00         0.00000E+00        -0.42296E+08
 
   -0.41097E+08         0.28433E+07         0.00000E+00
    0.28433E+07        -0.50237E+08         0.00000E+00
    0.00000E+00         0.00000E+00        -0.42297E+08
 
   -0.41162E+08         0.29450E+07         0.00000E+00
    0.29450E+07        -0.50239E+08         0.00000E+00
    0.00000E+00         0.00000E+00        -0.42298E+08
 
   -0.41226E+08         0.30480E+07         0.00000E+00
    0.30480E+07        -0.50241E+08         0.00000E+00
    0.00000E+00         0.00000E+00        -0.42300E+08
 
   -0.41289E+08         0.31522E+07         0.00000E+00
    0.31522E+07        -0.50241E+08         0.00000E+00
    0.00000E+00         0.00000E+00        -0.42301E+08
 
   -0.41352E+08         0.32577E+07         0.00000E+00
    0.32577E+07        -0.50240E+08         0.00000E+00
    0.00000E+00         0.00000E+00        -0.42302E+08
 
   -0.41414E+08         0.33644E+07         0.00000E+00
    0.33644E+07        -0.50237E+08         0.00000E+00
    0.00000E+00         0.00000E+00        -0.42303E+08
 
   -0.41475E+08         0.34723E+07         0.00000E+00
    0.34723E+07        -0.50233E+08         0.00000E+00
    0.00000E+00         0.00000E+00        -0.42304E+08
 
   -0.41537E+08         0.35815E+07         0.00000E+00
    0.35815E+07        -0.50227E+08         0.00000E+00
    0.00000E+00         0.00000E+00        -0.42305E+08
 
   -0.41597E+08         0.36919E+07         0.00000E+00
    0.36919E+07        -0.50219E+08         0.00000E+00
    0.00000E+00         0.00000E+00        -0.42305E+08
 
   -0.41658E+08         0.38035E+07         0.00000E+00
    0.38035E+07        -0.50210E+08         0.00000E+00
    0.00000E+00         0.00000E+00        -0.42306E+08
 
   -0.41719E+08         0.39163E+07         0.00000E+00
    0.39163E+07        -0.50199E+08         0.00000E+00
    0.00000E+00         0.00000E+00        -0.42307E+08
 
   -0.41780E+08         0.40303E+07         0.00000E+00
    0.40303E+07        -0.50186E+08         0.00000E+00
    0.00000E+00         0.00000E+00        -0.42307E+08
 
   -0.41841E+08         0.41454E+07         0.00000E+00
    0.41454E+07        -0.50171E+08         0.00000E+00
    0.00000E+00         0.00000E+00        -0.42308E+08
 
   -0.41902E+08         0.42617E+07         0.00000E+00
    0.42617E+07        -0.50154E+08         0.00000E+00
    0.00000E+00         0.00000E+00        -0.42309E+08
 
   -0.41963E+08         0.43791E+07         0.00000E+00
    0.43791E+07        -0.50135E+08         0.00000E+00
    0.00000E+00         0.00000E+00        -0.42309E+08
 
   -0.42025E+08         0.44977E+07         0.00000E+00
    0.44977E+07        -0.50114E+08         0.00000E+00
    0.00000E+00         0.00000E+00        -0.42309E+08
 
   -0.42087E+08         0.46173E+07         0.00000E+00
    0.46173E+07        -0.50091E+08         0.00000E+00
    0.00000E+00         0.00000E+00        -0.42310E+08
 
   -0.42150E+08         0.47379E+07         0.00000E+00
    0.47379E+07        -0.50065E+08         0.00000E+00
    0.00000E+00         0.00000E+00        -0.42310E+08
 
   -0.42213E+08         0.48595E+07         0.00000E+00
    0.48595E+07        -0.50038E+08         0.00000E+00
    0.00000E+00         0.00000E+00        -0.42310E+08
 
   -0.42278E+08         0.49821E+07         0.00000E+00
    0.49821E+07        -0.50008E+08         0.00000E+00
    0.00000E+00         0.00000E+00        -0.42310E+08
 
   -0.37592E+08         0.52008E+05         0.00000E+00
    0.52008E+05        -0.50001E+08         0.00000E+00
    0.00000E+00         0.00000E+00        -0.41633E+08
 
   -0.37754E+08         0.14829E+06         0.00000E+00
    0.14829E+06        -0.50002E+08         0.00000E+00
    0.00000E+00         0.00000E+00        -0.41633E+08
 
   -0.37911E+08         0.24220E+06         0.00000E+00
    0.24220E+06        -0.50005E+08         0.00000E+00
    0.00000E+00         0.00000E+00        -0.41634E+08
 
   -0.38062E+08         0.33406E+06         0.00000E+00
    0.33406E+06        -0.50010E+08         0.00000E+00
    0.00000E+00         0.00000E+00        -0.41634E+08
 
   -0.38208E+08         0.42416E+06         0.00000E+00
    0.42416E+06        -0.50017E+08         0.00000E+00
    0.00000E+00         0.00000E+00        -0.41634E+08
 
   -0.38349E+08         0.51280E+06         0.00000E+00
    0.51280E+06        -0.50024E+08         0.00000E+00
    0.00000E+00         0.00000E+00        -0.41635E+08
 
   -0.38484E+08         0.60024E+06         0.00000E+00
    0.60024E+06        -0.50033E+08         0.00000E+00
    0.00000E+00         0.00000E+00        -0.41635E+08
 
   -0.38614E+08         0.68674E+06         0.00000E+00
    0.68674E+06        -0.50044E+08         0.00000E+00
    0.00000E+00         0.00000E+00        -0.41636E+08
 
   -0.38739E+08         0.77255E+06         0.00000E+00
    0.77255E+06        -0.50055E+08         0.00000E+00
    0.00000E+00         0.00000E+00        -0.41637E+08
 
   -0.38860E+08         0.85788E+06         0.00000E+00
    0.85788E+06        -0.50068E+08         0.00000E+00
    0.00000E+00         0.00000E+00        -0.41637E+08
 
   -0.38975E+08         0.94296E+06         0.00000E+00
    0.94296E+06        -0.50081E+08         0.00000E+00
    0.00000E+00         0.00000E+00        -0.41638E+08
 
   -0.39086E+08         0.10280E+07         0.00000E+00
    0.10280E+07        -0.50096E+08         0.00000E+00
    0.00000E+00         0.00000E+00        -0.41639E+08
 
   -0.39193E+08         0.11131E+07         0.00000E+00
    0.11131E+07        -0.50111E+08         0.00000E+00
    0.00000E+00         0.00000E+00        -0.41640E+08
 
   -0.39296E+08         0.11986E+07         0.00000E+00
    0.11986E+07        -0.50127E+08         0.00000E+00
    0.00000E+00         0.00000E+00        -0.41640E+08
 
   -0.39395E+08         0.12845E+07         0.00000E+00
    0.12845E+07        -0.50143E+08         0.00000E+00
    0.00000E+00         0.00000E+00        -0.41641E+08
 
   -0.39489E+08         0.13711E+07         0.00000E+00
    0.13711E+07        -0.50160E+08         0.00000E+00
    0.00000E+00         0.00000E+00        -0.41642E+08
 
   -0.39581E+08         0.14584E+07         0.00000E+00
    0.14584E+07        -0.50178E+08         0.00000E+00
    0.00000E+00         0.00000E+00        -0.41643E+08
 
   -0.39668E+08         0.15466E+07         0.00000E+00
    0.15466E+07        -0.50195E+08         0.00000E+00
    0.00000E+00         0.00000E+00        -0.41644E+08
 
   -0.39753E+08         0.16358E+07         0.00000E+00
    0.16358E+07        -0.50213E+08         0.00000E+00
    0.00000E+00         0.00000E+00        -0.41645E+08
 
   -0.39834E+08         0.17260E+07         0.00000E+00
    0.17260E+07        -0.50230E+08         0.00000E+00
    0.00000E+00         0.00000E+00        -0.41645E+08
 
   -0.39913E+08         0.18175E+07         0.00000E+00
    0.18175E+07        -0.50248E+08         0.00000E+00
    0.00000E+00         0.00000E+00        -0.41646E+08
 
   -0.39988E+08         0.19103E+07         0.00000E+00
    0.19103E+07        -0.50265E+08         0.00000E+00
    0.00000E+00         0.00000E+00        -0.41647E+08
 
   -0.40062E+08         0.20043E+07         0.00000E+00
    0.20043E+07        -0.50282E+08         0.00000E+00
    0.00000E+00         0.00000E+00        -0.41648E+08
 
   -0.40132E+08         0.20998E+07         0.00000E+00
    0.20998E+07        -0.50298E+08         0.00000E+00
    0.00000E+00         0.00000E+00        -0.41649E+08
 
   -0.40201E+08         0.21968E+07         0.00000E+00
    0.21968E+07        -0.50314E+08         0.00000E+00
    0.00000E+00         0.00000E+00        -0.41650E+08
 
   -0.40268E+08         0.22953E+07         0.00000E+00
    0.22953E+07        -0.50329E+08         0.00000E+00
    0.00000E+00         0.00000E+00        -0.41651E+08
 
   -0.40332E+08         0.23953E+07         0.00000E+00
    0.23953E+07        -0.50344E+08         0.00000E+00
    0.00000E+00         0.00000E+00        -0.41651E+08
 
   -0.40396E+08         0.24969E+07         0.00000E+00
    0.24969E+07        -0.50357E+08         0.00000E+00
    0.00000E+00         0.00000E+00        -0.41652E+08
 
   -0.40457E+08         0.26001E+07         0.00000E+00
    0.26001E+07        -0.50370E+08         0.00000E+00
    0.00000E+00         0.00000E+00        -0.41653E+08
 
   -0.40517E+08         0.27049E+07         0.00000E+00
    0.27049E+07        -0.50381E+08         0.00000E+00
    0.00000E+00         0.00000E+00        -0.41654E+08
 
   -0.40576E+08         0.28113E+07         0.00000E+00
    0.28113E+07        -0.50391E+08         0.00000E+00
    0.00000E+00         0.00000E+00        -0.41654E+08
 
   -0.40634E+08         0.29194E+07         0.00000E+00
    0.29194E+07        -0.50400E+08         0.00000E+00
    0.00000E+00         0.00000E+00        -0.41655E+08
 
   -0.40691E+08         0.30291E+07         0.00000E+00
    0.30291E+07        -0.50408E+08         0.00000E+00
    0.00000E+00         0.00000E+00        -0.41656E+08
 
   -0.40747E+08         0.31405E+07         0.00000E+00
    0.31405E+07        -0.50414E+08         0.00000E+00
    0.00000E+00         0.00000E+00        -0.41656E+08
 
   -0.40802E+08         0.32535E+07         0.00000E+00
    0.32535E+07        -0.50418E+08         0.00000E+00
    0.00000E+00         0.00000E+00        -0.41657E+08
 
   -0.40857E+08         0.33681E+07         0.00000E+00
    0.33681E+07        -0.50421E+08         0.00000E+00
    0.00000E+00         0.00000E+00        -0.41657E+08
 
   -0.40912E+08         0.34844E+07         0.00000E+00
    0.34844E+07        -0.50423E+08         0.00000E+00
    0.00000E+00         0.00000E+00        -0.41658E+08
 
   -0.40966E+08         0.36022E+07         0.00000E+00
    0.36022E+07        -0.50422E+08         0.00000E+00
    0.00000E+00         0.00000E+00        -0.41658E+08
 
   -0.41020E+08         0.37216E+07         0.00000E+00
    0.37216E+07        -0.50420E+08         0.00000E+00
    0.00000E+00         0.00000E+00        -0.41659E+08
 
   -0.41073E+08         0.38426E+07         0.00000E+00
    0.38426E+07        -0.50415E+08         0.00000E+00
    0.00000E+00         0.00000E+00        -0.41659E+08
 
   -0.41127E+08         0.39650E+07         0.00000E+00
    0.39650E+07        -0.50409E+08         0.00000E+00
    0.00000E+00         0.00000E+00        -0.41659E+08
 
   -0.41181E+08         0.40890E+07         0.00000E+00
    0.40890E+07        -0.50400E+08         0.00000E+00
    0.00000E+00         0.00000E+00        -0.41660E+08
 
   -0.41236E+08         0.42145E+07         0.00000E+00
    0.42145E+07        -0.50390E+08         0.00000E+00
    0.00000E+00         0.00000E+00        -0.41660E+08
 
   -0.41290E+08         0.43415E+07         0.00000E+00
    0.43415E+07        -0.50377E+08         0.00000E+00
    0.00000E+00         0.00000E+00        -0.41660E+08
 
   -0.41346E+08         0.44698E+07         0.00000E+00
    0.44698E+07        -0.50362E+08         0.00000E+00
    0.00000E+00         0.00000E+00        -0.41660E+08
 
   -0.41401E+08         0.45996E+07         0.00000E+00
    0.45996E+07        -0.50345E+08         0.00000E+00
    0.00000E+00         0.00000E+00        -0.41661E+08
 
   -0.41457E+08         0.47307E+07         0.00000E+00
    0.47307E+07        -0.50325E+08         0.00000E+00
    0.00000E+00         0.00000E+00        -0.41661E+08
 
   -0.41515E+08         0.48632E+07         0.00000E+00
    0.48632E+07        -0.50303E+08         0.00000E+00
    0.00000E+00         0.00000E+00        -0.41661E+08
 
   -0.41572E+08         0.49969E+07         0.00000E+00
    0.49969E+07        -0.50278E+08         0.00000E+00
    0.00000E+00         0.00000E+00        -0.41661E+08
 
   -0.41631E+08         0.51319E+07         0.00000E+00
    0.51319E+07        -0.50251E+08         0.00000E+00
    0.00000E+00         0.00000E+00        -0.41661E+08
 
   -0.37127E+08         0.46783E+05         0.00000E+00
    0.46783E+05        -0.50001E+08         0.00000E+00
    0.00000E+00         0.00000E+00        -0.40942E+08
 
   -0.37301E+08         0.13325E+06         0.00000E+00
    0.13325E+06        -0.50003E+08         0.00000E+00
    0.00000E+00         0.00000E+00        -0.40942E+08
 
   -0.37468E+08         0.21767E+06         0.00000E+00
    0.21767E+06        -0.50008E+08         0.00000E+00
    0.00000E+00         0.00000E+00        -0.40942E+08
 
   -0.37628E+08         0.30039E+06         0.00000E+00
    0.30039E+06        -0.50015E+08         0.00000E+00
    0.00000E+00         0.00000E+00        -0.40942E+08
 
   -0.37781E+08         0.38176E+06         0.00000E+00
    0.38176E+06        -0.50024E+08         0.00000E+00
    0.00000E+00         0.00000E+00        -0.40942E+08
 
   -0.37927E+08         0.46212E+06         0.00000E+00
    0.46212E+06        -0.50035E+08         0.00000E+00
    0.00000E+00         0.00000E+00        -0.40942E+08
 
   -0.38067E+08         0.54176E+06         0.00000E+00
    0.54176E+06        -0.50048E+08         0.00000E+00
    0.00000E+00         0.00000E+00        -0.40942E+08
 
   -0.38200E+08         0.62097E+06         0.00000E+00
    0.62097E+06        -0.50062E+08         0.00000E+00
    0.00000E+00         0.00000E+00        -0.40942E+08
 
   -0.38327E+08         0.70003E+06         0.00000E+00
    0.70003E+06        -0.50079E+08         0.00000E+00
    0.00000E+00         0.00000E+00        -0.40942E+08
 
   -0.38447E+08         0.77919E+06         0.00000E+00
    0.77919E+06        -0.50096E+08         0.00000E+00
    0.00000E+00         0.00000E+00        -0.40942E+08
 
   -0.38562E+08         0.85868E+06         0.00000E+00
    0.85868E+06        -0.50115E+08         0.00000E+00
    0.00000E+00         0.00000E+00        -0.40943E+08
 
   -0.38672E+08         0.93871E+06         0.00000E+00
    0.93871E+06        -0.50136E+08         0.00000E+00
    0.00000E+00         0.00000E+00        -0.40943E+08
 
   -0.38776E+08         0.10195E+07         0.00000E+00
    0.10195E+07        -0.50157E+08         0.00000E+00
    0.00000E+00         0.00000E+00        -0.40943E+08
 
   -0.38875E+08         0.11012E+07         0.00000E+00
    0.11012E+07        -0.50180E+08         0.00000E+00
    0.00000E+00         0.00000E+00        -0.40943E+08
 
   -0.38970E+08         0.11840E+07         0.00000E+00
    0.11840E+07        -0.50203E+08         0.00000E+00
    0.00000E+00         0.00000E+00        -0.40943E+08
 
   -0.39060E+08         0.12681E+07         0.00000E+00
    0.12681E+07        -0.50227E+08         0.00000E+00
    0.00000E+00         0.00000E+00        -0.40943E+08
 
   -0.39145E+08         0.13536E+07         0.00000E+00
    0.13536E+07        -0.50251E+08         0.00000E+00
    0.00000E+00         0.00000E+00        -0.40944E+08
 
   -0.39227E+08         0.14406E+07         0.00000E+00
    0.14406E+07        -0.50276E+08         0.00000E+00
    0.00000E+00         0.00000E+00        -0.40944E+08
 
   -0.39304E+08         0.15293E+07         0.00000E+00
    0.15293E+07        -0.50301E+08         0.00000E+00
    0.00000E+00         0.00000E+00        -0.40944E+08
 
   -0.39378E+08         0.16197E+07         0.00000E+00
    0.16197E+07        -0.50326E+08         0.00000E+00
    0.00000E+00         0.00000E+00        -0.40944E+08
 
   -0.39449E+08         0.17119E+07         0.00000E+00
    0.17119E+07        -0.50351E+08         0.00000E+00
    0.00000E+00         0.00000E+00        -0.40944E+08
 
   -0.39517E+08         0.18060E+07         0.00000E+00
    0.18060E+07        -0.50376E+08         0.00000E+00
    0.00000E+00         0.00000E+00        -0.40944E+08
 
   -0.39582E+08         0.19021E+07         0.00000E+00
    0.19021E+07        -0.50401E+08         0.00000E+00
    0.00000E+00         0.00000E+00        -0.40945E+08
 
   -0.39644E+08         0.20002E+07         0.00000E+00
    0.20002E+07        -0.50425E+08         0.00000E+00
    0.00000E+00         0.00000E+00        -0.40945E+08
 
   -0.39704E+08         0.21003E+07         0.00000E+00
    0.21003E+07        -0.50449E+08         0.00000E+00
    0.00000E+00         0.00000E+00        -0.40945E+08
 
   -0.39761E+08         0.22026E+07         0.00000E+00
    0.22026E+07        -0.50471E+08         0.00000E+00
    0.00000E+00         0.00000E+00        -0.40945E+08
 
   -0.39817E+08         0.23070E+07         0.00000E+00
    0.23070E+07        -0.50493E+08         0.00000E+00
    0.00000E+00         0.00000E+00        -0.40945E+08
 
   -0.39870E+08         0.24135E+07         0.00000E+00
    0.24135E+07        -0.50514E+08         0.00000E+00
    0.00000E+00         0.00000E+00        -0.40945E+08
 
   -0.39923E+08         0.25222E+07         0.00000E+00
    0.25222E+07        -0.50534E+08         0.00000E+00
    0.00000E+00         0.00000E+00        -0.40945E+08
 
   -0.39973E+08         0.26330E+07         0.00000E+00
    0.26330E+07        -0.50553E+08         0.00000E+00
    0.00000E+00         0.00000E+00        -0.40946E+08
 
   -0.40023E+08         0.27460E+07         0.00000E+00
    0.27460E+07        -0.50570E+08         0.00000E+00
    0.00000E+00         0.00000E+00        -0.40946E+08
 
   -0.40071E+08         0.28611E+07         0.00000E+00
    0.28611E+07        -0.50586E+08         0.00000E+00
    0.00000E+00         0.00000E+00        -0.40946E+08
 
   -0.40119E+08         0.29783E+07         0.00000E+00
    0.29783E+07        -0.50601E+08         0.00000E+00
    0.00000E+00         0.00000E+00        -0.40946E+08
 
   -0.40166E+08         0.30976E+07         0.00000E+00
    0.30976E+07        -0.50614E+08         0.00000E+00
    0.00000E+00         0.00000E+00        -0.40946E+08
 
   -0.40212E+08         0.32189E+07         0.00000E+00
    0.32189E+07        -0.50625E+08         0.00000E+00
    0.00000E+00         0.00000E+00        -0.40946E+08
 
   -0.40258E+08         0.33423E+07         0.00000E+00
    0.33423E+07        -0.50634E+08         0.00000E+00
    0.00000E+00         0.00000E+00        -0.40946E+08
 
   -0.40303E+08         0.34677E+07         0.00000E+00
    0.34677E+07        -0.50642E+08         0.00000E+00
    0.00000E+00         0.00000E+00        -0.40946E+08
 
   -0.40348E+08         0.35951E+07         0.00000E+00
    0.35951E+07        -0.50647E+08         0.00000E+00
    0.00000E+00         0.00000E+00        -0.40946E+08
 
   -0.40394E+08         0.37244E+07         0.00000E+00
    0.37244E+07        -0.50650E+08         0.00000E+00
    0.00000E+00         0.00000E+00        -0.40946E+08
 
   -0.40439E+08         0.38557E+07         0.00000E+00
    0.38557E+07        -0.50652E+08         0.00000E+00
    0.00000E+00         0.00000E+00        -0.40946E+08
 
   -0.40484E+08         0.39888E+07         0.00000E+00
    0.39888E+07        -0.50651E+08         0.00000E+00
    0.00000E+00         0.00000E+00        -0.40946E+08
 
   -0.40530E+08         0.41237E+07         0.00000E+00
    0.41237E+07        -0.50648E+08         0.00000E+00
    0.00000E+00         0.00000E+00        -0.40946E+08
 
   -0.40576E+08         0.42605E+07         0.00000E+00
    0.42605E+07        -0.50642E+08         0.00000E+00
    0.00000E+00         0.00000E+00        -0.40946E+08
 
   -0.40623E+08         0.43991E+07         0.00000E+00
    0.43991E+07        -0.50634E+08         0.00000E+00
    0.00000E+00         0.00000E+00        -0.40946E+08
 
   -0.40670E+08         0.45394E+07         0.00000E+00
    0.45394E+07        -0.50624E+08         0.00000E+00
    0.00000E+00         0.00000E+00        -0.40946E+08
 
   -0.40718E+08         0.46815E+07         0.00000E+00
    0.46815E+07        -0.50611E+08         0.00000E+00
    0.00000E+00         0.00000E+00        -0.40946E+08
 
   -0.40767E+08         0.48252E+07         0.00000E+00
    0.48252E+07        -0.50596E+08         0.00000E+00
    0.00000E+00         0.00000E+00        -0.40945E+08
 
   -0.40816E+08         0.49706E+07         0.00000E+00
    0.49706E+07        -0.50578E+08         0.00000E+00
    0.00000E+00         0.00000E+00        -0.40945E+08
 
   -0.40867E+08         0.51176E+07         0.00000E+00
    0.51176E+07        -0.50557E+08         0.00000E+00
    0.00000E+00         0.00000E+00        -0.40945E+08
 
   -0.40919E+08         0.52662E+07         0.00000E+00
    0.52662E+07        -0.50533E+08         0.00000E+00
    0.00000E+00         0.00000E+00        -0.40945E+08
 
   -0.36721E+08         0.39304E+05         0.00000E+00
    0.39304E+05        -0.50001E+08         0.00000E+00
    0.00000E+00         0.00000E+00        -0.40179E+08
 
   -0.36906E+08         0.11211E+06         0.00000E+00
    0.11211E+06        -0.50004E+08         0.00000E+00
    0.00000E+00         0.00000E+00        -0.40179E+08
 
   -0.37081E+08         0.18341E+06         0.00000E+00
    0.18341E+06        -0.50011E+08         0.00000E+00
    0.00000E+00         0.00000E+00        -0.40179E+08
 
   -0.37247E+08         0.25361E+06         0.00000E+00
    0.25361E+06        -0.50020E+08         0.00000E+00
    0.00000E+00         0.00000E+00        -0.40179E+08
 
   -0.37404E+08         0.32310E+06         0.00000E+00
    0.32310E+06        -0.50032E+08         0.00000E+00
    0.00000E+00         0.00000E+00        -0.40178E+08
 
   -0.37553E+08         0.39224E+06         0.00000E+00
    0.39224E+06        -0.50047E+08         0.00000E+00
    0.00000E+00         0.00000E+00        -0.40178E+08
 
   -0.37694E+08         0.46136E+06         0.00000E+00
    0.46136E+06        -0.50064E+08         0.00000E+00
    0.00000E+00         0.00000E+00        -0.40178E+08
 
   -0.37826E+08         0.53079E+06         0.00000E+00
    0.53079E+06        -0.50084E+08         0.00000E+00
    0.00000E+00         0.00000E+00        -0.40177E+08
 
   -0.37952E+08         0.60080E+06         0.00000E+00
    0.60080E+06        -0.50106E+08         0.00000E+00
    0.00000E+00         0.00000E+00        -0.40177E+08
 
   -0.38069E+08         0.67168E+06         0.00000E+00
    0.67168E+06        -0.50129E+08         0.00000E+00
    0.00000E+00         0.00000E+00        -0.40176E+08
 
   -0.38180E+08         0.74366E+06         0.00000E+00
    0.74366E+06        -0.50155E+08         0.00000E+00
    0.00000E+00         0.00000E+00        -0.40176E+08
 
   -0.38285E+08         0.81698E+06         0.00000E+00
    0.81698E+06        -0.50182E+08         0.00000E+00
    0.00000E+00         0.00000E+00        -0.40175E+08
 
   -0.38383E+08         0.89184E+06         0.00000E+00
    0.89184E+06        -0.50210E+08         0.00000E+00
    0.00000E+00         0.00000E+00        -0.40175E+08
 
   -0.38475E+08         0.96843E+06         0.00000E+00
    0.96843E+06        -0.50240E+08         0.00000E+00
    0.00000E+00         0.00000E+00        -0.40174E+08
 
   -0.38562E+08         0.10469E+07         0.00000E+00
    0.10469E+07        -0.50271E+08         0.00000E+00
    0.00000E+00         0.00000E+00        -0.40174E+08
 
   -0.38643E+08         0.11275E+07         0.00000E+00
    0.11275E+07        -0.50303E+08         0.00000E+00
    0.00000E+00         0.00000E+00        -0.40173E+08
 
   -0.38719E+08         0.12102E+07         0.00000E+00
    0.12102E+07        -0.50335E+08         0.00000E+00
    0.00000E+00         0.00000E+00        -0.40173E+08
 
   -0.38791E+08         0.12953E+07         0.00000E+00
    0.12953E+07        -0.50368E+08         0.00000E+00
    0.00000E+00         0.00000E+00        -0.40172E+08
 
   -0.38858E+08         0.13828E+07         0.00000E+00
    0.13828E+07        -0.50402E+08         0.00000E+00
    0.00000E+00         0.00000E+00        -0.40171E+08
 
   -0.38922E+08         0.14729E+07         0.00000E+00
    0.14729E+07        -0.50436E+08         0.00000E+00
    0.00000E+00         0.00000E+00        -0.40171E+08
 
   -0.38981E+08         0.15655E+07         0.00000E+00
    0.15655E+07        -0.50469E+08         0.00000E+00
    0.00000E+00         0.00000E+00        -0.40170E+08
 
   -0.39037E+08         0.16607E+07         0.00000E+00
    0.16607E+07        -0.50503E+08         0.00000E+00
    0.00000E+00         0.00000E+00        -0.40169E+08
 
   -0.39090E+08         0.17587E+07         0.00000E+00
    0.17587E+07        -0.50536E+08         0.00000E+00
    0.00000E+00         0.00000E+00        -0.40169E+08
 
   -0.39141E+08         0.18595E+07         0.00000E+00
    0.18595E+07        -0.50569E+08         0.00000E+00
    0.00000E+00         0.00000E+00        -0.40168E+08
 
   -0.39188E+08         0.19630E+07         0.00000E+00
    0.19630E+07        -0.50601E+08         0.00000E+00
    0.00000E+00         0.00000E+00        -0.40168E+08
 
   -0.39233E+08         0.20693E+07         0.00000E+00
    0.20693E+07        -0.50633E+08         0.00000E+00
    0.00000E+00         0.00000E+00        -0.40167E+08
 
   -0.39277E+08         0.21784E+07         0.00000E+00
    0.21784E+07        -0.50663E+08         0.00000E+00
    0.00000E+00         0.00000E+00        -0.40166E+08
 
   -0.39318E+08         0.22903E+07         0.00000E+00
    0.22903E+07        -0.50693E+08         0.00000E+00
    0.00000E+00         0.00000E+00        -0.40166E+08
 
   -0.39358E+08         0.24050E+07         0.00000E+00
    0.24050E+07        -0.50721E+08         0.00000E+00
    0.00000E+00         0.00000E+00        -0.40165E+08
 
   -0.39397E+08         0.25225E+07         0.00000E+00
    0.25225E+07        -0.50748E+08         0.00000E+00
    0.00000E+00         0.00000E+00        -0.40165E+08
 
   -0.39434E+08         0.26426E+07         0.00000E+00
    0.26426E+07        -0.50774E+08         0.00000E+00
    0.00000E+00         0.00000E+00        -0.40164E+08
 
   -0.39471E+08         0.27655E+07         0.00000E+00
    0.27655E+07        -0.50798E+08         0.00000E+00
    0.00000E+00         0.00000E+00        -0.40164E+08
 
   -0.39506E+08         0.28910E+07         0.00000E+00
    0.28910E+07        -0.50820E+08         0.00000E+00
    0.00000E+00         0.00000E+00        -0.40163E+08
 
   -0.39542E+08         0.30191E+07         0.00000E+00
    0.30191E+07        -0.50841E+08         0.00000E+00
    0.00000E+00         0.00000E+00        -0.40163E+08
 
   -0.39576E+08         0.31497E+07         0.00000E+00
    0.31497E+07        -0.50859E+08         0.00000E+00
    0.00000E+00         0.00000E+00        -0.40162E+08
 
   -0.39611E+08         0.32828E+07         0.00000E+00
    0.32828E+07        -0.50876E+08         0.00000E+00
    0.00000E+00         0.00000E+00        -0.40162E+08
 
   -0.39645E+08         0.34184E+07         0.00000E+00
    0.34184E+07        -0.50890E+08         0.00000E+00
    0.00000E+00         0.00000E+00        -0.40161E+08
 
   -0.39680E+08         0.35563E+07         0.00000E+00
    0.35563E+07        -0.50902E+08         0.00000E+00
    0.00000E+00         0.00000E+00        -0.40161E+08
 
   -0.39715E+08         0.36966E+07         0.00000E+00
    0.36966E+07        -0.50913E+08         0.00000E+00
    0.00000E+00         0.00000E+00        -0.40160E+08
 
   -0.39749E+08         0.38391E+07         0.00000E+00
    0.38391E+07        -0.50920E+08         0.00000E+00
    0.00000E+00         0.00000E+00        -0.40160E+08
 
   -0.39785E+08         0.39838E+07         0.00000E+00
    0.39838E+07        -0.50926E+08         0.00000E+00
    0.00000E+00         0.00000E+00        -0.40160E+08
 
   -0.39820E+08         0.41307E+07         0.00000E+00
    0.41307E+07        -0.50928E+08         0.00000E+00
    0.00000E+00         0.00000E+00        -0.40159E+08
 
   -0.39857E+08         0.42798E+07         0.00000E+00
    0.42798E+07        -0.50929E+08         0.00000E+00
    0.00000E+00         0.00000E+00        -0.40159E+08
 
   -0.39894E+08         0.44309E+07         0.00000E+00
    0.44309E+07        -0.50927E+08         0.00000E+00
    0.00000E+00         0.00000E+00        -0.40158E+08
 
   -0.39931E+08         0.45842E+07         0.00000E+00
    0.45842E+07        -0.50922E+08         0.00000E+00
    0.00000E+00         0.00000E+00        -0.40158E+08
 
   -0.39970E+08         0.47395E+07         0.00000E+00
    0.47395E+07        -0.50914E+08         0.00000E+00
    0.00000E+00         0.00000E+00        -0.40158E+08
 
   -0.40010E+08         0.48969E+07         0.00000E+00
    0.48969E+07        -0.50904E+08         0.00000E+00
    0.00000E+00         0.00000E+00        -0.40158E+08
 
   -0.40050E+08         0.50562E+07         0.00000E+00
    0.50562E+07        -0.50891E+08         0.00000E+00
    0.00000E+00         0.00000E+00        -0.40157E+08
 
   -0.40092E+08         0.52176E+07         0.00000E+00
    0.52176E+07        -0.50874E+08         0.00000E+00
    0.00000E+00         0.00000E+00        -0.40157E+08
 
   -0.40135E+08         0.53810E+07         0.00000E+00
    0.53810E+07        -0.50855E+08         0.00000E+00
    0.00000E+00         0.00000E+00        -0.40157E+08
 
   -0.36397E+08         0.29175E+05         0.00000E+00
    0.29175E+05        -0.50001E+08         0.00000E+00
    0.00000E+00         0.00000E+00        -0.39338E+08
 
   -0.36588E+08         0.83909E+05         0.00000E+00
    0.83909E+05        -0.50006E+08         0.00000E+00
    0.00000E+00         0.00000E+00        -0.39338E+08
 
   -0.36768E+08         0.13799E+06         0.00000E+00
    0.13799E+06        -0.50014E+08         0.00000E+00
    0.00000E+00         0.00000E+00        -0.39337E+08
 
   -0.36936E+08         0.19186E+06         0.00000E+00
    0.19186E+06        -0.50026E+08         0.00000E+00
    0.00000E+00         0.00000E+00        -0.39337E+08
 
   -0.37094E+08         0.24595E+06         0.00000E+00
    0.24595E+06        -0.50042E+08         0.00000E+00
    0.00000E+00         0.00000E+00        -0.39336E+08
 
   -0.37241E+08         0.30062E+06         0.00000E+00
    0.30062E+06        -0.50061E+08         0.00000E+00
    0.00000E+00         0.00000E+00        -0.39335E+08
 
   -0.37379E+08         0.35624E+06         0.00000E+00
    0.35624E+06        -0.50083E+08         0.00000E+00
    0.00000E+00         0.00000E+00        -0.39335E+08
 
   -0.37507E+08         0.41313E+06         0.00000E+00
    0.41313E+06        -0.50108E+08         0.00000E+00
    0.00000E+00         0.00000E+00        -0.39334E+08
 
   -0.37626E+08         0.47159E+06         0.00000E+00
    0.47159E+06        -0.50136E+08         0.00000E+00
    0.00000E+00         0.00000E+00        -0.39333E+08
 
   -0.37736E+08         0.53190E+06         0.00000E+00
    0.53190E+06        -0.50166E+08         0.00000E+00
    0.00000E+00         0.00000E+00        -0.39331E+08
 
   -0.37839E+08         0.59431E+06         0.00000E+00
    0.59431E+06        -0.50198E+08         0.00000E+00
    0.00000E+00         0.00000E+00        -0.39330E+08
 
   -0.37934E+08         0.65904E+06         0.00000E+00
    0.65904E+06        -0.50233E+08         0.00000E+00
    0.00000E+00         0.00000E+00        -0.39329E+08
 
   -0.38021E+08         0.72630E+06         0.00000E+00
    0.72630E+06        -0.50269E+08         0.00000E+00
    0.00000E+00         0.00000E+00        -0.39328E+08
 
   -0.38102E+08         0.79627E+06         0.00000E+00
    0.79627E+06        -0.50307E+08         0.00000E+00
    0.00000E+00         0.00000E+00        -0.39326E+08
 
   -0.38176E+08         0.86913E+06         0.00000E+00
    0.86913E+06        -0.50346E+08         0.00000E+00
    0.00000E+00         0.00000E+00        -0.39325E+08
 
   -0.38245E+08         0.94501E+06         0.00000E+00
    0.94501E+06        -0.50386E+08         0.00000E+00
    0.00000E+00         0.00000E+00        -0.39323E+08
 
   -0.38307E+08         0.10240E+07         0.00000E+00
    0.10240E+07        -0.50428E+08         0.00000E+00
    0.00000E+00         0.00000E+00        -0.39322E+08
 
   -0.38365E+08         0.11063E+07         0.00000E+00
    0.11063E+07        -0.50470E+08         0.00000E+00
    0.00000E+00         0.00000E+00        -0.39321E+08
 
   -0.38418E+08         0.11920E+07         0.00000E+00
    0.11920E+07        -0.50512E+08         0.00000E+00
    0.00000E+00         0.00000E+00        -0.39319E+08
 
   -0.38466E+08         0.12811E+07         0.00000E+00
    0.12811E+07        -0.50555E+08         0.00000E+00
    0.00000E+00         0.00000E+00        -0.39318E+08
 
   -0.38510E+08         0.13737E+07         0.00000E+00
    0.13737E+07        -0.50599E+08         0.00000E+00
    0.00000E+00         0.00000E+00        -0.39316E+08
 
   -0.38551E+08         0.14698E+07         0.00000E+00
    0.14698E+07        -0.50642E+08         0.00000E+00
    0.00000E+00         0.00000E+00        -0.39315E+08
 
   -0.38588E+08         0.15695E+07         0.00000E+00
    0.15695E+07        -0.50685E+08         0.00000E+00
    0.00000E+00         0.00000E+00        -0.39313E+08
 
   -0.38622E+08         0.16728E+07         0.00000E+00
    0.16728E+07        -0.50727E+08         0.00000E+00
    0.00000E+00         0.00000E+00        -0.39312E+08
 
   -0.38654E+08         0.17798E+07         0.00000E+00
    0.17798E+07        -0.50769E+08         0.00000E+00
    0.00000E+00         0.00000E+00        -0.39311E+08
 
   -0.38683E+08         0.18903E+07         0.00000E+00
    0.18903E+07        -0.50810E+08         0.00000E+00
    0.00000E+00         0.00000E+00        -0.39309E+08
 
   -0.38711E+08         0.20044E+07         0.00000E+00
    0.20044E+07        -0.50850E+08         0.00000E+00
    0.00000E+00         0.00000E+00        -0.39308E+08
 
   -0.38736E+08         0.21221E+07         0.00000E+00
    0.21221E+07        -0.50889E+08         0.00000E+00
    0.00000E+00         0.00000E+00        -0.39307E+08
 
   -0.38761E+08         0.22433E+07         0.00000E+00
    0.22433E+07        -0.50927E+08         0.00000E+00
    0.00000E+00         0.00000E+00        -0.39305E+08
 
   -0.38784E+08         0.23680E+07         0.00000E+00
    0.23680E+07        -0.50964E+08         0.00000E+00
    0.00000E+00         0.00000E+00        -0.39304E+08
 
   -0.38806E+08         0.24961E+07         0.00000E+00
    0.24961E+07        -0.50998E+08         0.00000E+00
    0.00000E+00         0.00000E+00        -0.39303E+08
 
   -0.38828E+08         0.26275E+07         0.00000E+00
    0.26275E+07        -0.51032E+08         0.00000E+00
    0.00000E+00         0.00000E+00        -0.39302E+08
 
   -0.38849E+08         0.27622E+07         0.00000E+00
    0.27622E+07        -0.51063E+08         0.00000E+00
    0.00000E+00         0.00000E+00        -0.39301E+08
 
   -0.38870E+08         0.29001E+07         0.00000E+00
    0.29001E+07        -0.51092E+08         0.00000E+00
    0.00000E+00         0.00000E+00        -0.39300E+08
 
   -0.38891E+08         0.30410E+07         0.00000E+00
    0.30410E+07        -0.51119E+08         0.00000E+00
    0.00000E+00         0.00000E+00        -0.39299E+08
 
   -0.38912E+08         0.31850E+07         0.00000E+00
    0.31850E+07        -0.51144E+08         0.00000E+00
    0.00000E+00         0.00000E+00        -0.39298E+08
 
   -0.38933E+08         0.33318E+07         0.00000E+00
    0.33318E+07        -0.51167E+08         0.00000E+00
    0.00000E+00         0.00000E+00        -0.39297E+08
 
   -0.38955E+08         0.34814E+07         0.00000E+00
    0.34814E+07        -0.51187E+08         0.00000E+00
    0.00000E+00         0.00000E+00        -0.39296E+08
 
   -0.38977E+08         0.36337E+07         0.00000E+00
    0.36337E+07        -0.51205E+08         0.00000E+00
    0.00000E+00         0.00000E+00        -0.39295E+08
 
   -0.39000E+08         0.37887E+07         0.00000E+00
    0.37887E+07        -0.51220E+08         0.00000E+00
    0.00000E+00         0.00000E+00        -0.39295E+08
 
   -0.39024E+08         0.39461E+07         0.00000E+00
    0.39461E+07        -0.51232E+08         0.00000E+00
    0.00000E+00         0.00000E+00        -0.39294E+08
 
   -0.39048E+08         0.41060E+07         0.00000E+00
    0.41060E+07        -0.51242E+08         0.00000E+00
    0.00000E+00         0.00000E+00        -0.39293E+08
 
   -0.39073E+08         0.42682E+07         0.00000E+00
    0.42682E+07        -0.51249E+08         0.00000E+00
    0.00000E+00         0.00000E+00        -0.39293E+08
 
   -0.39099E+08         0.44328E+07         0.00000E+00
    0.44328E+07        -0.51254E+08         0.00000E+00
    0.00000E+00         0.00000E+00        -0.39292E+08
 
   -0.39125E+08         0.45997E+07         0.00000E+00
    0.45997E+07        -0.51255E+08         0.00000E+00
    0.00000E+00         0.00000E+00        -0.39292E+08
 
   -0.39153E+08         0.47690E+07         0.00000E+00
    0.47690E+07        -0.51254E+08         0.00000E+00
    0.00000E+00         0.00000E+00        -0.39291E+08
 
   -0.39181E+08         0.49408E+07         0.00000E+00
    0.49408E+07        -0.51250E+08         0.00000E+00
    0.00000E+00         0.00000E+00        -0.39291E+08
 
   -0.39211E+08         0.51152E+07         0.00000E+00
    0.51152E+07        -0.51243E+08         0.00000E+00
    0.00000E+00         0.00000E+00        -0.39290E+08
 
   -0.39242E+08         0.52921E+07         0.00000E+00
    0.52921E+07        -0.51232E+08         0.00000E+00
    0.00000E+00         0.00000E+00        -0.39290E+08
 
   -0.39274E+08         0.54707E+07         0.00000E+00
    0.54707E+07        -0.51219E+08         0.00000E+00
    0.00000E+00         0.00000E+00        -0.39290E+08
 
   -0.36177E+08         0.16058E+05         0.00000E+00
    0.16058E+05        -0.50002E+08         0.00000E+00
    0.00000E+00         0.00000E+00        -0.38410E+08
 
   -0.36370E+08         0.47884E+05         0.00000E+00
    0.47884E+05        -0.50007E+08         0.00000E+00
    0.00000E+00         0.00000E+00        -0.38410E+08
 
   -0.36548E+08         0.80297E+05         0.00000E+00
    0.80297E+05        -0.50018E+08         0.00000E+00
    0.00000E+00         0.00000E+00        -0.38409E+08
 
   -0.36714E+08         0.11376E+06         0.00000E+00
    0.11376E+06        -0.50033E+08         0.00000E+00
    0.00000E+00         0.00000E+00        -0.38409E+08
 
   -0.36867E+08         0.14868E+06         0.00000E+00
    0.14868E+06        -0.50052E+08         0.00000E+00
    0.00000E+00         0.00000E+00        -0.38407E+08
 
   -0.37007E+08         0.18545E+06         0.00000E+00
    0.18545E+06        -0.50075E+08         0.00000E+00
    0.00000E+00         0.00000E+00        -0.38406E+08
 
   -0.37136E+08         0.22443E+06         0.00000E+00
    0.22443E+06        -0.50103E+08         0.00000E+00
    0.00000E+00         0.00000E+00        -0.38405E+08
 
   -0.37254E+08         0.26593E+06         0.00000E+00
    0.26593E+06        -0.50134E+08         0.00000E+00
    0.00000E+00         0.00000E+00        -0.38403E+08
 
   -0.37362E+08         0.31023E+06         0.00000E+00
    0.31023E+06        -0.50168E+08         0.00000E+00
    0.00000E+00         0.00000E+00        -0.38401E+08
 
   -0.37460E+08         0.35761E+06         0.00000E+00
    0.35761E+06        -0.50204E+08         0.00000E+00
    0.00000E+00         0.00000E+00        -0.38400E+08
 
   -0.37548E+08         0.40830E+06         0.00000E+00
    0.40830E+06        -0.50244E+08         0.00000E+00
    0.00000E+00         0.00000E+00        -0.38398E+08
 
   -0.37628E+08         0.46251E+06         0.00000E+00
    0.46251E+06        -0.50286E+08         0.00000E+00
    0.00000E+00         0.00000E+00        -0.38395E+08
 
   -0.37699E+08         0.52042E+06         0.00000E+00
    0.52042E+06        -0.50330E+08         0.00000E+00
    0.00000E+00         0.00000E+00        -0.38393E+08
 
   -0.37763E+08         0.58221E+06         0.00000E+00
    0.58221E+06        -0.50377E+08         0.00000E+00
    0.00000E+00         0.00000E+00        -0.38391E+08
 
   -0.37820E+08         0.64802E+06         0.00000E+00
    0.64802E+06        -0.50424E+08         0.00000E+00
    0.00000E+00         0.00000E+00        -0.38389E+08
 
   -0.37870E+08         0.71797E+06         0.00000E+00
    0.71797E+06        -0.50474E+08         0.00000E+00
    0.00000E+00         0.00000E+00        -0.38387E+08
 
   -0.37914E+08         0.79217E+06         0.00000E+00
    0.79217E+06        -0.50524E+08         0.00000E+00
    0.00000E+00         0.00000E+00        -0.38384E+08
 
   -0.37953E+08         0.87071E+06         0.00000E+00
    0.87071E+06        -0.50576E+08         0.00000E+00
    0.00000E+00         0.00000E+00        -0.38382E+08
 
   -0.37986E+08         0.95366E+06         0.00000E+00
    0.95366E+06        -0.50628E+08         0.00000E+00
    0.00000E+00         0.00000E+00        -0.38380E+08
 
   -0.38014E+08         0.10411E+07         0.00000E+00
    0.10411E+07        -0.50680E+08         0.00000E+00
    0.00000E+00         0.00000E+00        -0.38377E+08
 
   -0.38039E+08         0.11330E+07         0.00000E+00
    0.11330E+07        -0.50733E+08         0.00000E+00
    0.00000E+00         0.00000E+00        -0.38375E+08
 
   -0.38059E+08         0.12295E+07         0.00000E+00
    0.12295E+07        -0.50787E+08         0.00000E+00
    0.00000E+00         0.00000E+00        -0.38373E+08
 
   -0.38076E+08         0.13305E+07         0.00000E+00
    0.13305E+07        -0.50840E+08         0.00000E+00
    0.00000E+00         0.00000E+00        -0.38371E+08
 
   -0.38090E+08         0.14361E+07         0.00000E+00
    0.14361E+07        -0.50892E+08         0.00000E+00
    0.00000E+00         0.00000E+00        -0.38368E+08
 
   -0.38101E+08         0.15463E+07         0.00000E+00
    0.15463E+07        -0.50945E+08         0.00000E+00
    0.00000E+00         0.00000E+00        -0.38366E+08
 
   -0.38110E+08         0.16609E+07         0.00000E+00
    0.16609E+07        -0.50996E+08         0.00000E+00
    0.00000E+00         0.00000E+00        -0.38364E+08
 
   -0.38118E+08         0.17801E+07         0.00000E+00
    0.17801E+07        -0.51047E+08         0.00000E+00
    0.00000E+00         0.00000E+00        -0.38362E+08
 
   -0.38124E+08         0.19036E+07         0.00000E+00
    0.19036E+07        -0.51096E+08         0.00000E+00
    0.00000E+00         0.00000E+00        -0.38360E+08
 
   -0.38128E+08         0.20315E+07         0.00000E+00
    0.20315E+07        -0.51145E+08         0.00000E+00
    0.00000E+00         0.00000E+00        -0.38358E+08
 
   -0.38132E+08         0.21638E+07         0.00000E+00
    0.21638E+07        -0.51192E+08         0.00000E+00
    0.00000E+00         0.00000E+00        -0.38357E+08
 
   -0.38136E+08         0.23002E+07         0.00000E+00
    0.23002E+07        -0.51237E+08         0.00000E+00
    0.00000E+00         0.00000E+00        -0.38355E+08
 
   -0.38139E+08         0.24407E+07         0.00000E+00
    0.24407E+07        -0.51281E+08         0.00000E+00
    0.00000E+00         0.00000E+00        -0.38353E+08
 
   -0.38142E+08         0.25853E+07         0.00000E+00
    0.25853E+07        -0.51323E+08         0.00000E+00
    0.00000E+00         0.00000E+00        -0.38352E+08
 
   -0.38146E+08         0.27337E+07         0.00000E+00
    0.27337E+07        -0.51362E+08         0.00000E+00
    0.00000E+00         0.00000E+00        -0.38350E+08
 
   -0.38150E+08         0.28858E+07         0.00000E+00
    0.28858E+07        -0.51400E+08         0.00000E+00
    0.00000E+00         0.00000E+00        -0.38349E+08
 
   -0.38155E+08         0.30416E+07         0.00000E+00
    0.30416E+07        -0.51435E+08         0.00000E+00
    0.00000E+00         0.00000E+00        -0.38348E+08
 
   -0.38161E+08         0.32009E+07         0.00000E+00
    0.32009E+07        -0.51467E+08         0.00000E+00
    0.00000E+00         0.00000E+00        -0.38346E+08
 
   -0.38168E+08         0.33634E+07         0.00000E+00
    0.33634E+07        -0.51497E+08         0.00000E+00
    0.00000E+00         0.00000E+00        -0.38345E+08
 
   -0.38176E+08         0.35291E+07         0.00000E+00
    0.35291E+07        -0.51525E+08         0.00000E+00
    0.00000E+00         0.00000E+00        -0.38344E+08
 
   -0.38185E+08         0.36978E+07         0.00000E+00
    0.36978E+07        -0.51549E+08         0.00000E+00
    0.00000E+00         0.00000E+00        -0.38343E+08
 
   -0.38195E+08         0.38693E+07         0.00000E+00
    0.38693E+07        -0.51571E+08         0.00000E+00
    0.00000E+00         0.00000E+00        -0.38342E+08
 
   -0.38207E+08         0.40435E+07         0.00000E+00
    0.40435E+07        -0.51589E+08         0.00000E+00
    0.00000E+00         0.00000E+00        -0.38342E+08
 
   -0.38220E+08         0.42204E+07         0.00000E+00
    0.42204E+07        -0.51605E+08         0.00000E+00
    0.00000E+00         0.00000E+00        -0.38341E+08
 
   -0.38233E+08         0.43997E+07         0.00000E+00
    0.43997E+07        -0.51617E+08         0.00000E+00
    0.00000E+00         0.00000E+00        -0.38340E+08
 
   -0.38248E+08         0.45813E+07         0.00000E+00
    0.45813E+07        -0.51626E+08         0.00000E+00
    0.00000E+00         0.00000E+00        -0.38339E+08
 
   -0.38264E+08         0.47649E+07         0.00000E+00
    0.47649E+07        -0.51632E+08         0.00000E+00
    0.00000E+00         0.00000E+00        -0.38339E+08
 
   -0.38279E+08         0.49505E+07         0.00000E+00
    0.49505E+07        -0.51634E+08         0.00000E+00
    0.00000E+00         0.00000E+00        -0.38338E+08
 
   -0.38295E+08         0.51389E+07         0.00000E+00
    0.51389E+07        -0.51636E+08         0.00000E+00
    0.00000E+00         0.00000E+00        -0.38338E+08
 
   -0.38310E+08         0.53308E+07         0.00000E+00
    0.53308E+07        -0.51634E+08         0.00000E+00
    0.00000E+00         0.00000E+00        -0.38338E+08
 
   -0.38328E+08         0.55292E+07         0.00000E+00
    0.55292E+07        -0.51629E+08         0.00000E+00
    0.00000E+00         0.00000E+00        -0.38338E+08
 
   -0.36088E+08        -0.24388E+03         0.00000E+00
   -0.24388E+03        -0.50002E+08         0.00000E+00
    0.00000E+00         0.00000E+00        -0.37388E+08
 
   -0.36275E+08         0.36853E+04         0.00000E+00
    0.36853E+04        -0.50009E+08         0.00000E+00
    0.00000E+00         0.00000E+00        -0.37387E+08
 
   -0.36445E+08         0.98924E+04         0.00000E+00
    0.98924E+04        -0.50021E+08         0.00000E+00
    0.00000E+00         0.00000E+00        -0.37386E+08
 
   -0.36601E+08         0.18812E+05         0.00000E+00
    0.18812E+05        -0.50039E+08         0.00000E+00
    0.00000E+00         0.00000E+00        -0.37385E+08
 
   -0.36741E+08         0.30838E+05         0.00000E+00
    0.30838E+05        -0.50062E+08         0.00000E+00
    0.00000E+00         0.00000E+00        -0.37384E+08
 
   -0.36868E+08         0.46323E+05         0.00000E+00
    0.46323E+05        -0.50090E+08         0.00000E+00
    0.00000E+00         0.00000E+00        -0.37382E+08
 
   -0.36981E+08         0.65585E+05         0.00000E+00
    0.65585E+05        -0.50122E+08         0.00000E+00
    0.00000E+00         0.00000E+00        -0.37380E+08
 
   -0.37082E+08         0.88909E+05         0.00000E+00
    0.88909E+05        -0.50159E+08         0.00000E+00
    0.00000E+00         0.00000E+00        -0.37378E+08
 
   -0.37171E+08         0.11655E+06         0.00000E+00
    0.11655E+06        -0.50199E+08         0.00000E+00
    0.00000E+00         0.00000E+00        -0.37375E+08
 
   -0.37250E+08         0.14873E+06         0.00000E+00
    0.14873E+06        -0.50242E+08         0.00000E+00
    0.00000E+00         0.00000E+00        -0.37372E+08
 
   -0.37318E+08         0.18564E+06         0.00000E+00
    0.18564E+06        -0.50289E+08         0.00000E+00
    0.00000E+00         0.00000E+00        -0.37370E+08
 
   -0.37376E+08         0.22746E+06         0.00000E+00
    0.22746E+06        -0.50338E+08         0.00000E+00
    0.00000E+00         0.00000E+00        -0.37367E+08
 
   -0.37426E+08         0.27434E+06         0.00000E+00
    0.27434E+06        -0.50390E+08         0.00000E+00
    0.00000E+00         0.00000E+00        -0.37364E+08
 
   -0.37467E+08         0.32640E+06         0.00000E+00
    0.32640E+06        -0.50444E+08         0.00000E+00
    0.00000E+00         0.00000E+00        -0.37361E+08
 
   -0.37500E+08         0.38375E+06         0.00000E+00
    0.38375E+06        -0.50500E+08         0.00000E+00
    0.00000E+00         0.00000E+00        -0.37358E+08
 
   -0.37526E+08         0.44649E+06         0.00000E+00
    0.44649E+06        -0.50558E+08         0.00000E+00
    0.00000E+00         0.00000E+00        -0.37354E+08
 
   -0.37546E+08         0.51468E+06         0.00000E+00
    0.51468E+06        -0.50617E+08         0.00000E+00
    0.00000E+00         0.00000E+00        -0.37351E+08
 
   -0.37559E+08         0.58838E+06         0.00000E+00
    0.58838E+06        -0.50677E+08         0.00000E+00
    0.00000E+00         0.00000E+00        -0.37348E+08
 
   -0.37568E+08         0.66763E+06         0.00000E+00
    0.66763E+06        -0.50739E+08         0.00000E+00
    0.00000E+00         0.00000E+00        -0.37345E+08
 
   -0.37571E+08         0.75245E+06         0.00000E+00
    0.75245E+06        -0.50801E+08         0.00000E+00
    0.00000E+00         0.00000E+00        -0.37342E+08
 
   -0.37570E+08         0.84287E+06         0.00000E+00
    0.84287E+06        -0.50863E+08         0.00000E+00
    0.00000E+00         0.00000E+00        -0.37339E+08
 
   -0.37565E+08         0.93888E+06         0.00000E+00
    0.93888E+06        -0.50926E+08         0.00000E+00
    0.00000E+00         0.00000E+00        -0.37336E+08
 
   -0.37557E+08         0.10405E+07         0.00000E+00
    0.10405E+07        -0.50989E+08         0.00000E+00
    0.00000E+00         0.00000E+00        -0.37333E+08
 
   -0.37546E+08         0.11476E+07         0.00000E+00
    0.11476E+07        -0.51052E+08         0.00000E+00
    0.00000E+00         0.00000E+00        -0.37330E+08
 
   -0.37532E+08         0.12603E+07         0.00000E+00
    0.12603E+07        -0.51115E+08         0.00000E+00
    0.00000E+00         0.00000E+00        -0.37327E+08
 
   -0.37516E+08         0.13784E+07         0.00000E+00
    0.13784E+07        -0.51177E+08         0.00000E+00
    0.00000E+00         0.00000E+00        -0.37324E+08
 
   -0.37499E+08         0.15020E+07         0.00000E+00
    0.15020E+07        -0.51238E+08         0.00000E+00
    0.00000E+00         0.00000E+00        -0.37322E+08
 
   -0.37481E+08         0.16309E+07         0.00000E+00
    0.16309E+07        -0.51299E+08         0.00000E+00
    0.00000E+00         0.00000E+00        -0.37319E+08
 
   -0.37462E+08         0.17650E+07         0.00000E+00
    0.17650E+07        -0.51358E+08         0.00000E+00
    0.00000E+00         0.00000E+00        -0.37317E+08
 
   -0.37442E+08         0.19043E+07         0.00000E+00
    0.19043E+07        -0.51417E+08         0.00000E+00
    0.00000E+00         0.00000E+00        -0.37315E+08
 
   -0.37423E+08         0.20487E+07         0.00000E+00
    0.20487E+07        -0.51473E+08         0.00000E+00
    0.00000E+00         0.00000E+00        -0.37313E+08
 
   -0.37404E+08         0.21980E+07         0.00000E+00
    0.21980E+07        -0.51529E+08         0.00000E+00
    0.00000E+00         0.00000E+00        -0.37311E+08
 
   -0.37386E+08         0.23522E+07         0.00000E+00
    0.23522E+07        -0.51582E+08         0.00000E+00
    0.00000E+00         0.00000E+00        -0.37309E+08
 
   -0.37368E+08         0.25110E+07         0.00000E+00
    0.25110E+07        -0.51634E+08         0.00000E+00
    0.00000E+00         0.00000E+00        -0.37307E+08
 
   -0.37352E+08         0.26742E+07         0.00000E+00
    0.26742E+07        -0.51684E+08         0.00000E+00
    0.00000E+00         0.00000E+00        -0.37306E+08
 
   -0.37338E+08         0.28418E+07         0.00000E+00
    0.28418E+07        -0.51731E+08         0.00000E+00
    0.00000E+00         0.00000E+00        -0.37304E+08
 
   -0.37325E+08         0.30135E+07         0.00000E+00
    0.30135E+07        -0.51777E+08         0.00000E+00
    0.00000E+00         0.00000E+00        -0.37303E+08
 
   -0.37314E+08         0.31893E+07         0.00000E+00
    0.31893E+07        -0.51820E+08         0.00000E+00
    0.00000E+00         0.00000E+00        -0.37301E+08
 
   -0.37305E+08         0.33689E+07         0.00000E+00
    0.33689E+07        -0.51860E+08         0.00000E+00
    0.00000E+00         0.00000E+00        -0.37300E+08
 
   -0.37299E+08         0.35521E+07         0.00000E+00
    0.35521E+07        -0.51897E+08         0.00000E+00
    0.00000E+00         0.00000E+00        -0.37299E+08
 
   -0.37294E+08         0.37385E+07         0.00000E+00
    0.37385E+07        -0.51932E+08         0.00000E+00
    0.00000E+00         0.00000E+00        -0.37298E+08
 
   -0.37292E+08         0.39275E+07         0.00000E+00
    0.39275E+07        -0.51964E+08         0.00000E+00
    0.00000E+00         0.00000E+00        -0.37298E+08
 
   -0.37292E+08         0.41195E+07         0.00000E+00
    0.41195E+07        -0.51993E+08         0.00000E+00
    0.00000E+00         0.00000E+00        -0.37297E+08
 
   -0.37292E+08         0.43138E+07         0.00000E+00
    0.43138E+07        -0.52020E+08         0.00000E+00
    0.00000E+00         0.00000E+00        -0.37296E+08
 
   -0.37293E+08         0.45113E+07         0.00000E+00
    0.45113E+07        -0.52045E+08         0.00000E+00
    0.00000E+00         0.00000E+00        -0.37296E+08
 
   -0.37295E+08         0.47132E+07         0.00000E+00
    0.47132E+07        -0.52067E+08         0.00000E+00
    0.00000E+00         0.00000E+00        -0.37295E+08
 
   -0.37299E+08         0.49183E+07         0.00000E+00
    0.49183E+07        -0.52084E+08         0.00000E+00
    0.00000E+00         0.00000E+00        -0.37295E+08
 
   -0.37304E+08         0.51247E+07         0.00000E+00
    0.51247E+07        -0.52090E+08         0.00000E+00
    0.00000E+00         0.00000E+00        -0.37295E+08
 
   -0.37307E+08         0.53306E+07         0.00000E+00
    0.53306E+07        -0.52093E+08         0.00000E+00
    0.00000E+00         0.00000E+00        -0.37295E+08
 
   -0.37302E+08         0.55285E+07         0.00000E+00
    0.55285E+07        -0.52095E+08         0.00000E+00
    0.00000E+00         0.00000E+00        -0.37294E+08
 
   -0.36155E+08        -0.19683E+05         0.00000E+00
   -0.19683E+05        -0.50002E+08         0.00000E+00
    0.00000E+00         0.00000E+00        -0.36262E+08
 
   -0.36326E+08        -0.48379E+05         0.00000E+00
   -0.48379E+05        -0.50010E+08         0.00000E+00
    0.00000E+00         0.00000E+00        -0.36261E+08
 
   -0.36479E+08        -0.72611E+05         0.00000E+00
   -0.72611E+05        -0.50024E+08         0.00000E+00
    0.00000E+00         0.00000E+00        -0.36260E+08
 
   -0.36615E+08        -0.92013E+05         0.00000E+00
   -0.92013E+05        -0.50045E+08         0.00000E+00
    0.00000E+00         0.00000E+00        -0.36258E+08
 
   -0.36734E+08        -0.10626E+06         0.00000E+00
   -0.10626E+06        -0.50071E+08         0.00000E+00
    0.00000E+00         0.00000E+00        -0.36257E+08
 
   -0.36838E+08        -0.11508E+06         0.00000E+00
   -0.11508E+06        -0.50103E+08         0.00000E+00
    0.00000E+00         0.00000E+00        -0.36254E+08
 
   -0.36927E+08        -0.11821E+06         0.00000E+00
   -0.11821E+06        -0.50140E+08         0.00000E+00
    0.00000E+00         0.00000E+00        -0.36252E+08
 
   -0.37003E+08        -0.11545E+06         0.00000E+00
   -0.11545E+06        -0.50181E+08         0.00000E+00
    0.00000E+00         0.00000E+00        -0.36249E+08
 
   -0.37066E+08        -0.10661E+06         0.00000E+00
   -0.10661E+06        -0.50226E+08         0.00000E+00
    0.00000E+00         0.00000E+00        -0.36245E+08
 
   -0.37117E+08        -0.91548E+05         0.00000E+00
   -0.91548E+05        -0.50275E+08         0.00000E+00
    0.00000E+00         0.00000E+00        -0.36242E+08
 
   -0.37157E+08        -0.70124E+05         0.00000E+00
   -0.70124E+05        -0.50327E+08         0.00000E+00
    0.00000E+00         0.00000E+00        -0.36238E+08
 
   -0.37187E+08        -0.42237E+05         0.00000E+00
   -0.42237E+05        -0.50383E+08         0.00000E+00
    0.00000E+00         0.00000E+00        -0.36235E+08
 
   -0.37207E+08        -0.78064E+04         0.00000E+00
   -0.78064E+04        -0.50441E+08         0.00000E+00
    0.00000E+00         0.00000E+00        -0.36231E+08
 
   -0.37219E+08         0.33234E+05         0.00000E+00
    0.33234E+05        -0.50502E+08         0.00000E+00
    0.00000E+00         0.00000E+00        -0.36227E+08
 
   -0.37222E+08         0.80929E+05         0.00000E+00
    0.80929E+05        -0.50564E+08         0.00000E+00
    0.00000E+00         0.00000E+00        -0.36223E+08
 
   -0.37218E+08         0.13531E+06         0.00000E+00
    0.13531E+06        -0.50629E+08         0.00000E+00
    0.00000E+00         0.00000E+00        -0.36219E+08
 
   -0.37207E+08         0.19639E+06         0.00000E+00
    0.19639E+06        -0.50695E+08         0.00000E+00
    0.00000E+00         0.00000E+00        -0.36215E+08
 
   -0.37190E+08         0.26418E+06         0.00000E+00
    0.26418E+06        -0.50763E+08         0.00000E+00
    0.00000E+00         0.00000E+00        -0.36211E+08
 
   -0.37168E+08         0.33867E+06         0.00000E+00
    0.33867E+06        -0.50832E+08         0.00000E+00
    0.00000E+00         0.00000E+00        -0.36207E+08
 
   -0.37141E+08         0.41984E+06         0.00000E+00
    0.41984E+06        -0.50902E+08         0.00000E+00
    0.00000E+00         0.00000E+00        -0.36204E+08
 
   -0.37109E+08         0.50767E+06         0.00000E+00
    0.50767E+06        -0.50972E+08         0.00000E+00
    0.00000E+00         0.00000E+00        -0.36200E+08
 
   -0.37074E+08         0.60211E+06         0.00000E+00
    0.60211E+06        -0.51044E+08         0.00000E+00
    0.00000E+00         0.00000E+00        -0.36196E+08
 
   -0.37035E+08         0.70312E+06         0.00000E+00
    0.70312E+06        -0.51115E+08         0.00000E+00
    0.00000E+00         0.00000E+00        -0.36193E+08
 
   -0.36994E+08         0.81065E+06         0.00000E+00
    0.81065E+06        -0.51187E+08         0.00000E+00
    0.00000E+00         0.00000E+00        -0.36189E+08
 
   -0.36951E+08         0.92463E+06         0.00000E+00
    0.92463E+06        -0.51258E+08         0.00000E+00
    0.00000E+00         0.00000E+00        -0.36186E+08
 
   -0.36906E+08         0.10450E+07         0.00000E+00
    0.10450E+07        -0.51329E+08         0.00000E+00
    0.00000E+00         0.00000E+00        -0.36183E+08
 
   -0.36860E+08         0.11717E+07         0.00000E+00
    0.11717E+07        -0.51400E+08         0.00000E+00
    0.00000E+00         0.00000E+00        -0.36180E+08
 
   -0.36813E+08         0.13045E+07         0.00000E+00
    0.13045E+07        -0.51471E+08         0.00000E+00
    0.00000E+00         0.00000E+00        -0.36177E+08
 
   -0.36765E+08         0.14435E+07         0.00000E+00
    0.14435E+07        -0.51541E+08         0.00000E+00
    0.00000E+00         0.00000E+00        -0.36174E+08
 
   -0.36719E+08         0.15885E+07         0.00000E+00
    0.15885E+07        -0.51610E+08         0.00000E+00
    0.00000E+00         0.00000E+00        -0.36172E+08
 
   -0.36672E+08         0.17393E+07         0.00000E+00
    0.17393E+07        -0.51677E+08         0.00000E+00
    0.00000E+00         0.00000E+00        -0.36169E+08
 
   -0.36627E+08         0.18958E+07         0.00000E+00
    0.18958E+07        -0.51744E+08         0.00000E+00
    0.00000E+00         0.00000E+00        -0.36167E+08
 
   -0.36583E+08         0.20578E+07         0.00000E+00
    0.20578E+07        -0.51810E+08         0.00000E+00
    0.00000E+00         0.00000E+00        -0.36165E+08
 
   -0.36542E+08         0.22252E+07         0.00000E+00
    0.22252E+07        -0.51874E+08         0.00000E+00
    0.00000E+00         0.00000E+00        -0.36163E+08
 
   -0.36502E+08         0.23978E+07         0.00000E+00
    0.23978E+07        -0.51937E+08         0.00000E+00
    0.00000E+00         0.00000E+00        -0.36162E+08
 
   -0.36465E+08         0.25755E+07         0.00000E+00
    0.25755E+07        -0.51997E+08         0.00000E+00
    0.00000E+00         0.00000E+00        -0.36160E+08
 
   -0.36431E+08         0.27578E+07         0.00000E+00
    0.27578E+07        -0.52056E+08         0.00000E+00
    0.00000E+00         0.00000E+00        -0.36159E+08
 
   -0.36400E+08         0.29440E+07         0.00000E+00
    0.29440E+07        -0.52113E+08         0.00000E+00
    0.00000E+00         0.00000E+00        -0.36158E+08
 
   -0.36372E+08         0.31342E+07         0.00000E+00
    0.31342E+07        -0.52169E+08         0.00000E+00
    0.00000E+00         0.00000E+00        -0.36157E+08
 
   -0.36347E+08         0.33280E+07         0.00000E+00
    0.33280E+07        -0.52224E+08         0.00000E+00
    0.00000E+00         0.00000E+00        -0.36156E+08
 
   -0.36325E+08         0.35262E+07         0.00000E+00
    0.35262E+07        -0.52278E+08         0.00000E+00
    0.00000E+00         0.00000E+00        -0.36156E+08
 
   -0.36307E+08         0.37296E+07         0.00000E+00
    0.37296E+07        -0.52330E+08         0.00000E+00
    0.00000E+00         0.00000E+00        -0.36155E+08
 
   -0.36294E+08         0.39358E+07         0.00000E+00
    0.39358E+07        -0.52376E+08         0.00000E+00
    0.00000E+00         0.00000E+00        -0.36155E+08
 
   -0.36287E+08         0.41448E+07         0.00000E+00
    0.41448E+07        -0.52417E+08         0.00000E+00
    0.00000E+00         0.00000E+00        -0.36155E+08
 
   -0.36285E+08         0.43515E+07         0.00000E+00
    0.43515E+07        -0.52455E+08         0.00000E+00
    0.00000E+00         0.00000E+00        -0.36155E+08
 
   -0.36283E+08         0.45501E+07         0.00000E+00
    0.45501E+07        -0.52495E+08         0.00000E+00
    0.00000E+00         0.00000E+00        -0.36155E+08
 
   -0.36273E+08         0.47472E+07         0.00000E+00
    0.47472E+07        -0.52551E+08         0.00000E+00
    0.00000E+00         0.00000E+00        -0.36155E+08
 
   -0.36251E+08         0.49500E+07         0.00000E+00
    0.49500E+07        -0.52641E+08         0.00000E+00
    0.00000E+00         0.00000E+00        -0.36155E+08
 
   -0.36268E+08         0.51393E+07         0.00000E+00
    0.51393E+07        -0.52724E+08         0.00000E+00
    0.00000E+00         0.00000E+00        -0.36207E+08
 
   -0.36305E+08         0.53213E+07         0.00000E+00
    0.53213E+07        -0.52804E+08         0.00000E+00
    0.00000E+00         0.00000E+00        -0.36285E+08
 
   -0.36402E+08        -0.41893E+05         0.00000E+00
   -0.41893E+05        -0.50003E+08         0.00000E+00
    0.00000E+00         0.00000E+00        -0.35024E+08
 
   -0.36546E+08        -0.10715E+06         0.00000E+00
   -0.10715E+06        -0.50011E+08         0.00000E+00
    0.00000E+00         0.00000E+00        -0.35024E+08
 
   -0.36669E+08        -0.16526E+06         0.00000E+00
   -0.16526E+06        -0.50027E+08         0.00000E+00
    0.00000E+00         0.00000E+00        -0.35022E+08
 
   -0.36773E+08        -0.21596E+06         0.00000E+00
   -0.21596E+06        -0.50049E+08         0.00000E+00
    0.00000E+00         0.00000E+00        -0.35021E+08
 
   -0.36860E+08        -0.25905E+06         0.00000E+00
   -0.25905E+06        -0.50078E+08         0.00000E+00
    0.00000E+00         0.00000E+00        -0.35018E+08
 
   -0.36931E+08        -0.29436E+06         0.00000E+00
   -0.29436E+06        -0.50113E+08         0.00000E+00
    0.00000E+00         0.00000E+00        -0.35015E+08
 
   -0.36986E+08        -0.32178E+06         0.00000E+00
   -0.32178E+06        -0.50152E+08         0.00000E+00
    0.00000E+00         0.00000E+00        -0.35012E+08
 
   -0.37027E+08        -0.34118E+06         0.00000E+00
   -0.34118E+06        -0.50197E+08         0.00000E+00
    0.00000E+00         0.00000E+00        -0.35009E+08
 
   -0.37054E+08        -0.35252E+06         0.00000E+00
   -0.35252E+06        -0.50246E+08         0.00000E+00
    0.00000E+00         0.00000E+00        -0.35005E+08
 
   -0.37069E+08        -0.35573E+06         0.00000E+00
   -0.35573E+06        -0.50298E+08         0.00000E+00
    0.00000E+00         0.00000E+00        -0.35001E+08
 
   -0.37073E+08        -0.35080E+06         0.00000E+00
   -0.35080E+06        -0.50354E+08         0.00000E+00
    0.00000E+00         0.00000E+00        -0.34996E+08
 
   -0.37066E+08        -0.33772E+06         0.00000E+00
   -0.33772E+06        -0.50414E+08         0.00000E+00
    0.00000E+00         0.00000E+00        -0.34992E+08
 
   -0.37050E+08        -0.31651E+06         0.00000E+00
   -0.31651E+06        -0.50476E+08         0.00000E+00
    0.00000E+00         0.00000E+00        -0.34988E+08
 
   -0.37024E+08        -0.28721E+06         0.00000E+00
   -0.28721E+06        -0.50540E+08         0.00000E+00
    0.00000E+00         0.00000E+00        -0.34983E+08
 
   -0.36991E+08        -0.24985E+06         0.00000E+00
   -0.24985E+06        -0.50607E+08         0.00000E+00
    0.00000E+00         0.00000E+00        -0.34978E+08
 
   -0.36950E+08        -0.20450E+06         0.00000E+00
   -0.20450E+06        -0.50676E+08         0.00000E+00
    0.00000E+00         0.00000E+00        -0.34974E+08
 
   -0.36903E+08        -0.15121E+06         0.00000E+00
   -0.15121E+06        -0.50747E+08         0.00000E+00
    0.00000E+00         0.00000E+00        -0.34969E+08
 
   -0.36850E+08        -0.90069E+05         0.00000E+00
   -0.90069E+05        -0.50819E+08         0.00000E+00
    0.00000E+00         0.00000E+00        -0.34965E+08
 
   -0.36792E+08        -0.21139E+05         0.00000E+00
   -0.21139E+05        -0.50892E+08         0.00000E+00
    0.00000E+00         0.00000E+00        -0.34960E+08
 
   -0.36729E+08         0.55491E+05         0.00000E+00
    0.55491E+05        -0.50966E+08         0.00000E+00
    0.00000E+00         0.00000E+00        -0.34956E+08
 
   -0.36662E+08         0.13974E+06         0.00000E+00
    0.13974E+06        -0.51041E+08         0.00000E+00
    0.00000E+00         0.00000E+00        -0.34952E+08
 
   -0.36591E+08         0.23151E+06         0.00000E+00
    0.23151E+06        -0.51117E+08         0.00000E+00
    0.00000E+00         0.00000E+00        -0.34948E+08
 
   -0.36518E+08         0.33072E+06         0.00000E+00
    0.33072E+06        -0.51193E+08         0.00000E+00
    0.00000E+00         0.00000E+00        -0.34944E+08
 
   -0.36442E+08         0.43727E+06         0.00000E+00
    0.43727E+06        -0.51270E+08         0.00000E+00
    0.00000E+00         0.00000E+00        -0.34940E+08
 
   -0.36365E+08         0.55106E+06         0.00000E+00
    0.55106E+06        -0.51347E+08         0.00000E+00
    0.00000E+00         0.00000E+00        -0.34936E+08
 
   -0.36286E+08         0.67201E+06         0.00000E+00
    0.67201E+06        -0.51424E+08         0.00000E+00
    0.00000E+00         0.00000E+00        -0.34933E+08
 
   -0.36207E+08         0.80002E+06         0.00000E+00
    0.80002E+06        -0.51502E+08         0.00000E+00
    0.00000E+00         0.00000E+00        -0.34929E+08
 
   -0.36127E+08         0.93498E+06         0.00000E+00
    0.93498E+06        -0.51579E+08         0.00000E+00
    0.00000E+00         0.00000E+00        -0.34926E+08
 
   -0.36048E+08         0.10767E+07         0.00000E+00
    0.10767E+07        -0.51655E+08         0.00000E+00
    0.00000E+00         0.00000E+00        -0.34923E+08
 
   -0.35970E+08         0.12251E+07         0.00000E+00
    0.12251E+07        -0.51732E+08         0.00000E+00
    0.00000E+00         0.00000E+00        -0.34921E+08
 
   -0.35893E+08         0.13800E+07         0.00000E+00
    0.13800E+07        -0.51807E+08         0.00000E+00
    0.00000E+00         0.00000E+00        -0.34919E+08
 
   -0.35818E+08         0.15414E+07         0.00000E+00
    0.15414E+07        -0.51883E+08         0.00000E+00
    0.00000E+00         0.00000E+00        -0.34916E+08
 
   -0.35746E+08         0.17092E+07         0.00000E+00
    0.17092E+07        -0.51957E+08         0.00000E+00
    0.00000E+00         0.00000E+00        -0.34915E+08
 
   -0.35677E+08         0.18827E+07         0.00000E+00
    0.18827E+07        -0.52030E+08         0.00000E+00
    0.00000E+00         0.00000E+00        -0.34913E+08
 
   -0.35612E+08         0.20614E+07         0.00000E+00
    0.20614E+07        -0.52102E+08         0.00000E+00
    0.00000E+00         0.00000E+00        -0.34912E+08
 
   -0.35549E+08         0.22451E+07         0.00000E+00
    0.22451E+07        -0.52174E+08         0.00000E+00
    0.00000E+00         0.00000E+00        -0.34910E+08
 
   -0.35491E+08         0.24344E+07         0.00000E+00
    0.24344E+07        -0.52245E+08         0.00000E+00
    0.00000E+00         0.00000E+00        -0.34910E+08
 
   -0.35437E+08         0.26302E+07         0.00000E+00
    0.26302E+07        -0.52316E+08         0.00000E+00
    0.00000E+00         0.00000E+00        -0.34909E+08
 
   -0.35391E+08         0.28309E+07         0.00000E+00
    0.28309E+07        -0.52381E+08         0.00000E+00
    0.00000E+00         0.00000E+00        -0.34909E+08
 
   -0.35354E+08         0.30355E+07         0.00000E+00
    0.30355E+07        -0.52440E+08         0.00000E+00
    0.00000E+00         0.00000E+00        -0.34908E+08
 
   -0.35325E+08         0.32376E+07         0.00000E+00
    0.32376E+07        -0.52496E+08         0.00000E+00
    0.00000E+00         0.00000E+00        -0.34908E+08
 
   -0.35299E+08         0.34326E+07         0.00000E+00
    0.34326E+07        -0.52553E+08         0.00000E+00
    0.00000E+00         0.00000E+00        -0.34909E+08
 
   -0.35271E+08         0.36291E+07         0.00000E+00
    0.36291E+07        -0.52635E+08         0.00000E+00
    0.00000E+00         0.00000E+00        -0.34909E+08
 
   -0.35237E+08         0.38257E+07         0.00000E+00
    0.38257E+07        -0.52739E+08         0.00000E+00
    0.00000E+00         0.00000E+00        -0.34912E+08
 
   -0.35255E+08         0.40125E+07         0.00000E+00
    0.40125E+07        -0.52828E+08         0.00000E+00
    0.00000E+00         0.00000E+00        -0.34977E+08
 
   -0.35277E+08         0.41989E+07         0.00000E+00
    0.41989E+07        -0.52917E+08         0.00000E+00
    0.00000E+00         0.00000E+00        -0.35051E+08
 
   -0.35321E+08         0.43765E+07         0.00000E+00
    0.43765E+07        -0.52996E+08         0.00000E+00
    0.00000E+00         0.00000E+00        -0.35150E+08
 
   -0.35418E+08         0.45310E+07         0.00000E+00
    0.45310E+07        -0.53055E+08         0.00000E+00
    0.00000E+00         0.00000E+00        -0.35304E+08
 
   -0.35532E+08         0.46796E+07         0.00000E+00
    0.46796E+07        -0.53139E+08         0.00000E+00
    0.00000E+00         0.00000E+00        -0.35471E+08
 
   -0.35657E+08         0.48164E+07         0.00000E+00
    0.48164E+07        -0.53238E+08         0.00000E+00
    0.00000E+00         0.00000E+00        -0.35639E+08
 
   -0.36847E+08        -0.66159E+05         0.00000E+00
   -0.66159E+05        -0.50003E+08         0.00000E+00
    0.00000E+00         0.00000E+00        -0.33669E+08
 
   -0.36947E+08        -0.17059E+06         0.00000E+00
   -0.17059E+06        -0.50012E+08         0.00000E+00
    0.00000E+00         0.00000E+00        -0.33668E+08
 
   -0.37026E+08        -0.26466E+06         0.00000E+00
   -0.26466E+06        -0.50028E+08         0.00000E+00
    0.00000E+00         0.00000E+00        -0.33667E+08
 
   -0.37086E+08        -0.34831E+06         0.00000E+00
   -0.34831E+06        -0.50052E+08         0.00000E+00
    0.00000E+00         0.00000E+00        -0.33665E+08
 
   -0.37128E+08        -0.42151E+06         0.00000E+00
   -0.42151E+06        -0.50082E+08         0.00000E+00
    0.00000E+00         0.00000E+00        -0.33662E+08
 
   -0.37153E+08        -0.48425E+06         0.00000E+00
   -0.48425E+06        -0.50117E+08         0.00000E+00
    0.00000E+00         0.00000E+00        -0.33659E+08
 
   -0.37162E+08        -0.53656E+06         0.00000E+00
   -0.53656E+06        -0.50158E+08         0.00000E+00
    0.00000E+00         0.00000E+00        -0.33655E+08
 
   -0.37157E+08        -0.57850E+06         0.00000E+00
   -0.57850E+06        -0.50204E+08         0.00000E+00
    0.00000E+00         0.00000E+00        -0.33651E+08
 
   -0.37139E+08        -0.61015E+06         0.00000E+00
   -0.61015E+06        -0.50254E+08         0.00000E+00
    0.00000E+00         0.00000E+00        -0.33647E+08
 
   -0.37108E+08        -0.63161E+06         0.00000E+00
   -0.63161E+06        -0.50307E+08         0.00000E+00
    0.00000E+00         0.00000E+00        -0.33642E+08
 
   -0.37067E+08        -0.64302E+06         0.00000E+00
   -0.64302E+06        -0.50364E+08         0.00000E+00
    0.00000E+00         0.00000E+00        -0.33637E+08
 
   -0.37015E+08        -0.64450E+06         0.00000E+00
   -0.64450E+06        -0.50424E+08         0.00000E+00
    0.00000E+00         0.00000E+00        -0.33633E+08
 
   -0.36954E+08        -0.63622E+06         0.00000E+00
   -0.63622E+06        -0.50486E+08         0.00000E+00
    0.00000E+00         0.00000E+00        -0.33628E+08
 
   -0.36885E+08        -0.61833E+06         0.00000E+00
   -0.61833E+06        -0.50551E+08         0.00000E+00
    0.00000E+00         0.00000E+00        -0.33623E+08
 
   -0.36808E+08        -0.59102E+06         0.00000E+00
   -0.59102E+06        -0.50618E+08         0.00000E+00
    0.00000E+00         0.00000E+00        -0.33618E+08
 
   -0.36725E+08        -0.55444E+06         0.00000E+00
   -0.55444E+06        -0.50687E+08         0.00000E+00
    0.00000E+00         0.00000E+00        -0.33613E+08
 
   -0.36635E+08        -0.50879E+06         0.00000E+00
   -0.50879E+06        -0.50757E+08         0.00000E+00
    0.00000E+00         0.00000E+00        -0.33608E+08
 
   -0.36541E+08        -0.45424E+06         0.00000E+00
   -0.45424E+06        -0.50828E+08         0.00000E+00
    0.00000E+00         0.00000E+00        -0.33603E+08
 
   -0.36441E+08        -0.39096E+06         0.00000E+00
   -0.39096E+06        -0.50901E+08         0.00000E+00
    0.00000E+00         0.00000E+00        -0.33598E+08
 
   -0.36338E+08        -0.31913E+06         0.00000E+00
   -0.31913E+06        -0.50974E+08         0.00000E+00
    0.00000E+00         0.00000E+00        -0.33593E+08
 
   -0.36231E+08        -0.23891E+06         0.00000E+00
   -0.23891E+06        -0.51049E+08         0.00000E+00
    0.00000E+00         0.00000E+00        -0.33589E+08
 
   -0.36122E+08        -0.15044E+06         0.00000E+00
   -0.15044E+06        -0.51124E+08         0.00000E+00
    0.00000E+00         0.00000E+00        -0.33585E+08
 
   -0.36010E+08        -0.53872E+05         0.00000E+00
   -0.53872E+05        -0.51200E+08         0.00000E+00
    0.00000E+00         0.00000E+00        -0.33580E+08
 
   -0.35896E+08         0.50654E+05         0.00000E+00
    0.50654E+05        -0.51276E+08         0.00000E+00
    0.00000E+00         0.00000E+00        -0.33576E+08
 
   -0.35781E+08         0.16299E+06         0.00000E+00
    0.16299E+06        -0.51352E+08         0.00000E+00
    0.00000E+00         0.00000E+00        -0.33573E+08
 
   -0.35666E+08         0.28301E+06         0.00000E+00
    0.28301E+06        -0.51430E+08         0.00000E+00
    0.00000E+00         0.00000E+00        -0.33569E+08
 
   -0.35550E+08         0.41059E+06         0.00000E+00
    0.41059E+06        -0.51507E+08         0.00000E+00
    0.00000E+00         0.00000E+00        -0.33566E+08
 
   -0.35435E+08         0.54566E+06         0.00000E+00
    0.54566E+06        -0.51584E+08         0.00000E+00
    0.00000E+00         0.00000E+00        -0.33563E+08
 
   -0.35321E+08         0.68827E+06         0.00000E+00
    0.68827E+06        -0.51662E+08         0.00000E+00
    0.00000E+00         0.00000E+00        -0.33560E+08
 
   -0.35208E+08         0.83825E+06         0.00000E+00
    0.83825E+06        -0.51740E+08         0.00000E+00
    0.00000E+00         0.00000E+00        -0.33558E+08
 
   -0.35098E+08         0.99523E+06         0.00000E+00
    0.99523E+06        -0.51817E+08         0.00000E+00
    0.00000E+00         0.00000E+00        -0.33556E+08
 
   -0.34990E+08         0.11587E+07         0.00000E+00
    0.11587E+07        -0.51893E+08         0.00000E+00
    0.00000E+00         0.00000E+00        -0.33554E+08
 
   -0.34885E+08         0.13287E+07         0.00000E+00
    0.13287E+07        -0.51971E+08         0.00000E+00
    0.00000E+00         0.00000E+00        -0.33553E+08
 
   -0.34784E+08         0.15064E+07         0.00000E+00
    0.15064E+07        -0.52048E+08         0.00000E+00
    0.00000E+00         0.00000E+00        -0.33551E+08
 
   -0.34689E+08         0.16926E+07         0.00000E+00
    0.16926E+07        -0.52125E+08         0.00000E+00
    0.00000E+00         0.00000E+00        -0.33551E+08
 
   -0.34602E+08         0.18861E+07         0.00000E+00
    0.18861E+07        -0.52194E+08         0.00000E+00
    0.00000E+00         0.00000E+00        -0.33550E+08
 
   -0.34525E+08         0.20816E+07         0.00000E+00
    0.20816E+07        -0.52259E+08         0.00000E+00
    0.00000E+00         0.00000E+00        -0.33550E+08
 
   -0.34453E+08         0.22737E+07         0.00000E+00
    0.22737E+07        -0.52323E+08         0.00000E+00
    0.00000E+00         0.00000E+00        -0.33550E+08
 
   -0.34382E+08         0.24674E+07         0.00000E+00
    0.24674E+07        -0.52409E+08         0.00000E+00
    0.00000E+00         0.00000E+00        -0.33550E+08
 
   -0.34310E+08         0.26634E+07         0.00000E+00
    0.26634E+07        -0.52515E+08         0.00000E+00
    0.00000E+00         0.00000E+00        -0.33557E+08
 
   -0.34291E+08         0.28568E+07         0.00000E+00
    0.28568E+07        -0.52604E+08         0.00000E+00
    0.00000E+00         0.00000E+00        -0.33632E+08
 
   -0.34269E+08         0.30553E+07         0.00000E+00
    0.30553E+07        -0.52692E+08         0.00000E+00
    0.00000E+00         0.00000E+00        -0.33709E+08
 
   -0.34287E+08         0.32481E+07         0.00000E+00
    0.32481E+07        -0.52759E+08         0.00000E+00
    0.00000E+00         0.00000E+00        -0.33833E+08
 
   -0.34338E+08         0.34292E+07         0.00000E+00
    0.34292E+07        -0.52811E+08         0.00000E+00
    0.00000E+00         0.00000E+00        -0.33995E+08
 
   -0.34412E+08         0.36100E+07         0.00000E+00
    0.36100E+07        -0.52887E+08         0.00000E+00
    0.00000E+00         0.00000E+00        -0.34176E+08
 
   -0.34492E+08         0.37792E+07         0.00000E+00
    0.37792E+07        -0.52968E+08         0.00000E+00
    0.00000E+00         0.00000E+00        -0.34354E+08
 
   -0.34584E+08         0.39363E+07         0.00000E+00
    0.39363E+07        -0.53055E+08         0.00000E+00
    0.00000E+00         0.00000E+00        -0.34521E+08
 
   -0.34693E+08         0.40895E+07         0.00000E+00
    0.40895E+07        -0.53144E+08         0.00000E+00
    0.00000E+00         0.00000E+00        -0.34678E+08
 
   -0.34812E+08         0.42395E+07         0.00000E+00
    0.42395E+07        -0.53226E+08         0.00000E+00
    0.00000E+00         0.00000E+00        -0.34819E+08
 
   -0.34942E+08         0.43910E+07         0.00000E+00
    0.43910E+07        -0.53301E+08         0.00000E+00
    0.00000E+00         0.00000E+00        -0.34947E+08
 
   -0.37499E+08        -0.91554E+05         0.00000E+00
   -0.91554E+05        -0.50003E+08         0.00000E+00
    0.00000E+00         0.00000E+00        -0.32190E+08
 
   -0.37539E+08        -0.23581E+06         0.00000E+00
   -0.23581E+06        -0.50012E+08         0.00000E+00
    0.00000E+00         0.00000E+00        -0.32189E+08
 
   -0.37557E+08        -0.36617E+06         0.00000E+00
   -0.36617E+06        -0.50028E+08         0.00000E+00
    0.00000E+00         0.00000E+00        -0.32188E+08
 
   -0.37557E+08        -0.48267E+06         0.00000E+00
   -0.48267E+06        -0.50052E+08         0.00000E+00
    0.00000E+00         0.00000E+00        -0.32185E+08
 
   -0.37539E+08        -0.58548E+06         0.00000E+00
   -0.58548E+06        -0.50081E+08         0.00000E+00
    0.00000E+00         0.00000E+00        -0.32182E+08
 
   -0.37504E+08        -0.67481E+06         0.00000E+00
   -0.67481E+06        -0.50116E+08         0.00000E+00
    0.00000E+00         0.00000E+00        -0.32179E+08
 
   -0.37455E+08        -0.75091E+06         0.00000E+00
   -0.75091E+06        -0.50156E+08         0.00000E+00
    0.00000E+00         0.00000E+00        -0.32175E+08
 
   -0.37392E+08        -0.81403E+06         0.00000E+00
   -0.81403E+06        -0.50200E+08         0.00000E+00
    0.00000E+00         0.00000E+00        -0.32171E+08
 
   -0.37317E+08        -0.86446E+06         0.00000E+00
   -0.86446E+06        -0.50247E+08         0.00000E+00
    0.00000E+00         0.00000E+00        -0.32166E+08
 
   -0.37230E+08        -0.90251E+06         0.00000E+00
   -0.90251E+06        -0.50298E+08         0.00000E+00
    0.00000E+00         0.00000E+00        -0.32162E+08
 
   -0.37134E+08        -0.92847E+06         0.00000E+00
   -0.92847E+06        -0.50352E+08         0.00000E+00
    0.00000E+00         0.00000E+00        -0.32157E+08
 
   -0.37029E+08        -0.94270E+06         0.00000E+00
   -0.94270E+06        -0.50408E+08         0.00000E+00
    0.00000E+00         0.00000E+00        -0.32152E+08
 
   -0.36916E+08        -0.94550E+06         0.00000E+00
   -0.94550E+06        -0.50466E+08         0.00000E+00
    0.00000E+00         0.00000E+00        -0.32147E+08
 
   -0.36795E+08        -0.93723E+06         0.00000E+00
   -0.93723E+06        -0.50526E+08         0.00000E+00
    0.00000E+00         0.00000E+00        -0.32142E+08
 
   -0.36669E+08        -0.91821E+06         0.00000E+00
   -0.91821E+06        -0.50587E+08         0.00000E+00
    0.00000E+00         0.00000E+00        -0.32137E+08
 
   -0.36537E+08        -0.88878E+06         0.00000E+00
   -0.88878E+06        -0.50650E+08         0.00000E+00
    0.00000E+00         0.00000E+00        -0.32132E+08
 
   -0.36400E+08        -0.84927E+06         0.00000E+00
   -0.84927E+06        -0.50714E+08         0.00000E+00
    0.00000E+00         0.00000E+00        -0.32127E+08
 
   -0.36259E+08        -0.79998E+06         0.00000E+00
   -0.79998E+06        -0.50778E+08         0.00000E+00
    0.00000E+00         0.00000E+00        -0.32122E+08
 
   -0.36115E+08        -0.74123E+06         0.00000E+00
   -0.74123E+06        -0.50844E+08         0.00000E+00
    0.00000E+00         0.00000E+00        -0.32117E+08
 
   -0.35968E+08        -0.67332E+06         0.00000E+00
   -0.67332E+06        -0.50910E+08         0.00000E+00
    0.00000E+00         0.00000E+00        -0.32113E+08
 
   -0.35818E+08        -0.59651E+06         0.00000E+00
   -0.59651E+06        -0.50977E+08         0.00000E+00
    0.00000E+00         0.00000E+00        -0.32108E+08
 
   -0.35667E+08        -0.51107E+06         0.00000E+00
   -0.51107E+06        -0.51044E+08         0.00000E+00
    0.00000E+00         0.00000E+00        -0.32104E+08
 
   -0.35514E+08        -0.41722E+06         0.00000E+00
   -0.41722E+06        -0.51111E+08         0.00000E+00
    0.00000E+00         0.00000E+00        -0.32100E+08
 
   -0.35360E+08        -0.31511E+06         0.00000E+00
   -0.31511E+06        -0.51179E+08         0.00000E+00
    0.00000E+00         0.00000E+00        -0.32096E+08
 
   -0.35206E+08        -0.20483E+06         0.00000E+00
   -0.20483E+06        -0.51248E+08         0.00000E+00
    0.00000E+00         0.00000E+00        -0.32093E+08
 
   -0.35051E+08        -0.86504E+05         0.00000E+00
   -0.86504E+05        -0.51317E+08         0.00000E+00
    0.00000E+00         0.00000E+00        -0.32090E+08
 
   -0.34897E+08         0.39713E+05         0.00000E+00
    0.39713E+05        -0.51386E+08         0.00000E+00
    0.00000E+00         0.00000E+00        -0.32087E+08
 
   -0.34744E+08         0.17358E+06         0.00000E+00
    0.17358E+06        -0.51456E+08         0.00000E+00
    0.00000E+00         0.00000E+00        -0.32084E+08
 
   -0.34592E+08         0.31463E+06         0.00000E+00
    0.31463E+06        -0.51525E+08         0.00000E+00
    0.00000E+00         0.00000E+00        -0.32082E+08
 
   -0.34442E+08         0.46334E+06         0.00000E+00
    0.46334E+06        -0.51596E+08         0.00000E+00
    0.00000E+00         0.00000E+00        -0.32080E+08
 
   -0.34293E+08         0.62085E+06         0.00000E+00
    0.62085E+06        -0.51667E+08         0.00000E+00
    0.00000E+00         0.00000E+00        -0.32079E+08
 
   -0.34149E+08         0.78801E+06         0.00000E+00
    0.78801E+06        -0.51740E+08         0.00000E+00
    0.00000E+00         0.00000E+00        -0.32078E+08
 
   -0.34011E+08         0.96324E+06         0.00000E+00
    0.96324E+06        -0.51806E+08         0.00000E+00
    0.00000E+00         0.00000E+00        -0.32077E+08
 
   -0.33880E+08         0.11409E+07         0.00000E+00
    0.11409E+07        -0.51869E+08         0.00000E+00
    0.00000E+00         0.00000E+00        -0.32076E+08
 
   -0.33749E+08         0.13190E+07         0.00000E+00
    0.13190E+07        -0.51933E+08         0.00000E+00
    0.00000E+00         0.00000E+00        -0.32076E+08
 
   -0.33614E+08         0.15025E+07         0.00000E+00
    0.15025E+07        -0.52031E+08         0.00000E+00
    0.00000E+00         0.00000E+00        -0.32077E+08
 
   -0.33524E+08         0.16897E+07         0.00000E+00
    0.16897E+07        -0.52119E+08         0.00000E+00
    0.00000E+00         0.00000E+00        -0.32144E+08
 
   -0.33435E+08         0.18858E+07         0.00000E+00
    0.18858E+07        -0.52204E+08         0.00000E+00
    0.00000E+00         0.00000E+00        -0.32223E+08
 
   -0.33379E+08         0.20847E+07         0.00000E+00
    0.20847E+07        -0.52270E+08         0.00000E+00
    0.00000E+00         0.00000E+00        -0.32349E+08
 
   -0.33362E+08         0.22795E+07         0.00000E+00
    0.22795E+07        -0.52320E+08         0.00000E+00
    0.00000E+00         0.00000E+00        -0.32523E+08
 
   -0.33369E+08         0.24755E+07         0.00000E+00
    0.24755E+07        -0.52395E+08         0.00000E+00
    0.00000E+00         0.00000E+00        -0.32719E+08
 
   -0.33386E+08         0.26628E+07         0.00000E+00
    0.26628E+07        -0.52473E+08         0.00000E+00
    0.00000E+00         0.00000E+00        -0.32913E+08
 
   -0.33422E+08         0.28428E+07         0.00000E+00
    0.28428E+07        -0.52557E+08         0.00000E+00
    0.00000E+00         0.00000E+00        -0.33101E+08
 
   -0.33479E+08         0.30207E+07         0.00000E+00
    0.30207E+07        -0.52644E+08         0.00000E+00
    0.00000E+00         0.00000E+00        -0.33281E+08
 
   -0.33551E+08         0.31961E+07         0.00000E+00
    0.31961E+07        -0.52725E+08         0.00000E+00
    0.00000E+00         0.00000E+00        -0.33444E+08
 
   -0.33640E+08         0.33740E+07         0.00000E+00
    0.33740E+07        -0.52804E+08         0.00000E+00
    0.00000E+00         0.00000E+00        -0.33597E+08
 
   -0.33741E+08         0.35548E+07         0.00000E+00
    0.35548E+07        -0.52876E+08         0.00000E+00
    0.00000E+00         0.00000E+00        -0.33740E+08
 
   -0.33851E+08         0.37368E+07         0.00000E+00
    0.37368E+07        -0.52940E+08         0.00000E+00
    0.00000E+00         0.00000E+00        -0.33872E+08
 
   -0.33970E+08         0.39210E+07         0.00000E+00
    0.39210E+07        -0.52997E+08         0.00000E+00
    0.00000E+00         0.00000E+00        -0.33996E+08
 
   -0.34098E+08         0.41058E+07         0.00000E+00
    0.41058E+07        -0.53047E+08         0.00000E+00
    0.00000E+00         0.00000E+00        -0.34110E+08
 
   -0.38358E+08        -0.11671E+06         0.00000E+00
   -0.11671E+06        -0.50002E+08         0.00000E+00
    0.00000E+00         0.00000E+00        -0.30585E+08
 
   -0.38317E+08        -0.29973E+06         0.00000E+00
   -0.29973E+06        -0.50011E+08         0.00000E+00
    0.00000E+00         0.00000E+00        -0.30585E+08
 
   -0.38257E+08        -0.46437E+06         0.00000E+00
   -0.46437E+06        -0.50027E+08         0.00000E+00
    0.00000E+00         0.00000E+00        -0.30583E+08
 
   -0.38178E+08        -0.61128E+06         0.00000E+00
   -0.61128E+06        -0.50049E+08         0.00000E+00
    0.00000E+00         0.00000E+00        -0.30581E+08
 
   -0.38084E+08        -0.74096E+06         0.00000E+00
   -0.74096E+06        -0.50076E+08         0.00000E+00
    0.00000E+00         0.00000E+00        -0.30578E+08
 
   -0.37974E+08        -0.85389E+06         0.00000E+00
   -0.85389E+06        -0.50107E+08         0.00000E+00
    0.00000E+00         0.00000E+00        -0.30574E+08
 
   -0.37852E+08        -0.95053E+06         0.00000E+00
   -0.95053E+06        -0.50143E+08         0.00000E+00
    0.00000E+00         0.00000E+00        -0.30571E+08
 
   -0.37719E+08        -0.10314E+07         0.00000E+00
   -0.10314E+07        -0.50182E+08         0.00000E+00
    0.00000E+00         0.00000E+00        -0.30567E+08
 
   -0.37575E+08        -0.10971E+07         0.00000E+00
   -0.10971E+07        -0.50224E+08         0.00000E+00
    0.00000E+00         0.00000E+00        -0.30562E+08
 
   -0.37422E+08        -0.11480E+07         0.00000E+00
   -0.11480E+07        -0.50268E+08         0.00000E+00
    0.00000E+00         0.00000E+00        -0.30558E+08
 
   -0.37261E+08        -0.11848E+07         0.00000E+00
   -0.11848E+07        -0.50313E+08         0.00000E+00
    0.00000E+00         0.00000E+00        -0.30553E+08
 
   -0.37094E+08        -0.12080E+07         0.00000E+00
   -0.12080E+07        -0.50361E+08         0.00000E+00
    0.00000E+00         0.00000E+00        -0.30549E+08
 
   -0.36921E+08        -0.12182E+07         0.00000E+00
   -0.12182E+07        -0.50409E+08         0.00000E+00
    0.00000E+00         0.00000E+00        -0.30544E+08
 
   -0.36742E+08        -0.12158E+07         0.00000E+00
   -0.12158E+07        -0.50458E+08         0.00000E+00
    0.00000E+00         0.00000E+00        -0.30539E+08
 
   -0.36560E+08        -0.12016E+07         0.00000E+00
   -0.12016E+07        -0.50508E+08         0.00000E+00
    0.00000E+00         0.00000E+00        -0.30535E+08
 
   -0.36375E+08        -0.11759E+07         0.00000E+00
   -0.11759E+07        -0.50558E+08         0.00000E+00
    0.00000E+00         0.00000E+00        -0.30530E+08
 
   -0.36187E+08        -0.11394E+07         0.00000E+00
   -0.11394E+07        -0.50609E+08         0.00000E+00
    0.00000E+00         0.00000E+00        -0.30525E+08
 
   -0.35996E+08        -0.10925E+07         0.00000E+00
   -0.10925E+07        -0.50659E+08         0.00000E+00
    0.00000E+00         0.00000E+00        -0.30521E+08
 
   -0.35804E+08        -0.10358E+07         0.00000E+00
   -0.10358E+07        -0.50710E+08         0.00000E+00
    0.00000E+00         0.00000E+00        -0.30517E+08
 
   -0.35611E+08        -0.96951E+06         0.00000E+00
   -0.96951E+06        -0.50761E+08         0.00000E+00
    0.00000E+00         0.00000E+00        -0.30513E+08
 
   -0.35417E+08        -0.89417E+06         0.00000E+00
   -0.89417E+06        -0.50812E+08         0.00000E+00
    0.00000E+00         0.00000E+00        -0.30509E+08
 
   -0.35223E+08        -0.81011E+06         0.00000E+00
   -0.81011E+06        -0.50863E+08         0.00000E+00
    0.00000E+00         0.00000E+00        -0.30506E+08
 
   -0.35029E+08        -0.71769E+06         0.00000E+00
   -0.71769E+06        -0.50913E+08         0.00000E+00
    0.00000E+00         0.00000E+00        -0.30502E+08
 
   -0.34835E+08        -0.61737E+06         0.00000E+00
   -0.61737E+06        -0.50964E+08         0.00000E+00
    0.00000E+00         0.00000E+00        -0.30499E+08
 
   -0.34641E+08        -0.50945E+06         0.00000E+00
   -0.50945E+06        -0.51015E+08         0.00000E+00
    0.00000E+00         0.00000E+00        -0.30496E+08
 
   -0.34447E+08        -0.39390E+06         0.00000E+00
   -0.39390E+06        -0.51067E+08         0.00000E+00
    0.00000E+00         0.00000E+00        -0.30494E+08
 
   -0.34253E+08        -0.27045E+06         0.00000E+00
   -0.27045E+06        -0.51119E+08         0.00000E+00
    0.00000E+00         0.00000E+00        -0.30492E+08
 
   -0.34060E+08        -0.13849E+06         0.00000E+00
   -0.13849E+06        -0.51173E+08         0.00000E+00
    0.00000E+00         0.00000E+00        -0.30490E+08
 
   -0.33870E+08         0.28806E+04         0.00000E+00
    0.28806E+04        -0.51229E+08         0.00000E+00
    0.00000E+00         0.00000E+00        -0.30489E+08
 
   -0.33683E+08         0.15101E+06         0.00000E+00
    0.15101E+06        -0.51280E+08         0.00000E+00
    0.00000E+00         0.00000E+00        -0.30488E+08
 
   -0.33497E+08         0.30236E+06         0.00000E+00
    0.30236E+06        -0.51331E+08         0.00000E+00
    0.00000E+00         0.00000E+00        -0.30487E+08
 
   -0.33307E+08         0.45706E+06         0.00000E+00
    0.45706E+06        -0.51382E+08         0.00000E+00
    0.00000E+00         0.00000E+00        -0.30487E+08
 
   -0.33126E+08         0.61838E+06         0.00000E+00
    0.61838E+06        -0.51454E+08         0.00000E+00
    0.00000E+00         0.00000E+00        -0.30512E+08
 
   -0.32970E+08         0.78890E+06         0.00000E+00
    0.78890E+06        -0.51523E+08         0.00000E+00
    0.00000E+00         0.00000E+00        -0.30585E+08
 
   -0.32807E+08         0.97086E+06         0.00000E+00
    0.97086E+06        -0.51592E+08         0.00000E+00
    0.00000E+00         0.00000E+00        -0.30666E+08
 
   -0.32694E+08         0.11565E+07         0.00000E+00
    0.11565E+07        -0.51633E+08         0.00000E+00
    0.00000E+00         0.00000E+00        -0.30822E+08
 
   -0.32608E+08         0.13441E+07         0.00000E+00
    0.13441E+07        -0.51696E+08         0.00000E+00
    0.00000E+00         0.00000E+00        -0.31017E+08
 
   -0.32536E+08         0.15280E+07         0.00000E+00
    0.15280E+07        -0.51765E+08         0.00000E+00
    0.00000E+00         0.00000E+00        -0.31220E+08
 
   -0.32483E+08         0.17073E+07         0.00000E+00
    0.17073E+07        -0.51841E+08         0.00000E+00
    0.00000E+00         0.00000E+00        -0.31423E+08
 
   -0.32455E+08         0.18867E+07         0.00000E+00
    0.18867E+07        -0.51924E+08         0.00000E+00
    0.00000E+00         0.00000E+00        -0.31623E+08
 
   -0.32446E+08         0.20678E+07         0.00000E+00
    0.20678E+07        -0.52003E+08         0.00000E+00
    0.00000E+00         0.00000E+00        -0.31812E+08
 
   -0.32459E+08         0.22542E+07         0.00000E+00
    0.22542E+07        -0.52084E+08         0.00000E+00
    0.00000E+00         0.00000E+00        -0.31994E+08
 
   -0.32490E+08         0.24453E+07         0.00000E+00
    0.24453E+07        -0.52163E+08         0.00000E+00
    0.00000E+00         0.00000E+00        -0.32168E+08
 
   -0.32536E+08         0.26406E+07         0.00000E+00
    0.26406E+07        -0.52236E+08         0.00000E+00
    0.00000E+00         0.00000E+00        -0.32333E+08
 
   -0.32596E+08         0.28407E+07         0.00000E+00
    0.28407E+07        -0.52306E+08         0.00000E+00
    0.00000E+00         0.00000E+00        -0.32492E+08
 
   -0.32671E+08         0.30459E+07         0.00000E+00
    0.30459E+07        -0.52370E+08         0.00000E+00
    0.00000E+00         0.00000E+00        -0.32642E+08
 
   -0.32761E+08         0.32527E+07         0.00000E+00
    0.32527E+07        -0.52430E+08         0.00000E+00
    0.00000E+00         0.00000E+00        -0.32782E+08
 
   -0.32867E+08         0.34607E+07         0.00000E+00
    0.34607E+07        -0.52487E+08         0.00000E+00
    0.00000E+00         0.00000E+00        -0.32913E+08
 
   -0.32989E+08         0.36681E+07         0.00000E+00
    0.36681E+07        -0.52541E+08         0.00000E+00
    0.00000E+00         0.00000E+00        -0.33035E+08
 
   -0.33126E+08         0.38711E+07         0.00000E+00
    0.38711E+07        -0.52594E+08         0.00000E+00
    0.00000E+00         0.00000E+00        -0.33145E+08
 
   -0.39412E+08        -0.14160E+06         0.00000E+00
   -0.14160E+06        -0.50004E+08         0.00000E+00
    0.00000E+00         0.00000E+00        -0.28857E+08
 
   -0.39268E+08        -0.35761E+06         0.00000E+00
   -0.35761E+06        -0.50010E+08         0.00000E+00
    0.00000E+00         0.00000E+00        -0.28856E+08
 
   -0.39107E+08        -0.55184E+06         0.00000E+00
   -0.55184E+06        -0.50023E+08         0.00000E+00
    0.00000E+00         0.00000E+00        -0.28855E+08
 
   -0.38932E+08        -0.72442E+06         0.00000E+00
   -0.72442E+06        -0.50041E+08         0.00000E+00
    0.00000E+00         0.00000E+00        -0.28853E+08
 
   -0.38743E+08        -0.87598E+06         0.00000E+00
   -0.87598E+06        -0.50064E+08         0.00000E+00
    0.00000E+00         0.00000E+00        -0.28850E+08
 
   -0.38543E+08        -0.10073E+07         0.00000E+00
   -0.10073E+07        -0.50089E+08         0.00000E+00
    0.00000E+00         0.00000E+00        -0.28847E+08
 
   -0.38333E+08        -0.11191E+07         0.00000E+00
   -0.11191E+07        -0.50117E+08         0.00000E+00
    0.00000E+00         0.00000E+00        -0.28844E+08
 
   -0.38115E+08        -0.12122E+07         0.00000E+00
   -0.12122E+07        -0.50148E+08         0.00000E+00
    0.00000E+00         0.00000E+00        -0.28841E+08
 
   -0.37890E+08        -0.12874E+07         0.00000E+00
   -0.12874E+07        -0.50180E+08         0.00000E+00
    0.00000E+00         0.00000E+00        -0.28837E+08
 
   -0.37659E+08        -0.13453E+07         0.00000E+00
   -0.13453E+07        -0.50212E+08         0.00000E+00
    0.00000E+00         0.00000E+00        -0.28833E+08
 
   -0.37423E+08        -0.13867E+07         0.00000E+00
   -0.13867E+07        -0.50246E+08         0.00000E+00
    0.00000E+00         0.00000E+00        -0.28830E+08
 
   -0.37185E+08        -0.14126E+07         0.00000E+00
   -0.14126E+07        -0.50278E+08         0.00000E+00
    0.00000E+00         0.00000E+00        -0.28826E+08
 
   -0.36945E+08        -0.14239E+07         0.00000E+00
   -0.14239E+07        -0.50311E+08         0.00000E+00
    0.00000E+00         0.00000E+00        -0.28822E+08
 
   -0.36703E+08        -0.14215E+07         0.00000E+00
   -0.14215E+07        -0.50343E+08         0.00000E+00
    0.00000E+00         0.00000E+00        -0.28818E+08
 
   -0.36460E+08        -0.14063E+07         0.00000E+00
   -0.14063E+07        -0.50374E+08         0.00000E+00
    0.00000E+00         0.00000E+00        -0.28815E+08
 
   -0.36218E+08        -0.13791E+07         0.00000E+00
   -0.13791E+07        -0.50404E+08         0.00000E+00
    0.00000E+00         0.00000E+00        -0.28811E+08
 
   -0.35976E+08        -0.13408E+07         0.00000E+00
   -0.13408E+07        -0.50433E+08         0.00000E+00
    0.00000E+00         0.00000E+00        -0.28807E+08
 
   -0.35735E+08        -0.12921E+07         0.00000E+00
   -0.12921E+07        -0.50461E+08         0.00000E+00
    0.00000E+00         0.00000E+00        -0.28804E+08
 
   -0.35495E+08        -0.12337E+07         0.00000E+00
   -0.12337E+07        -0.50488E+08         0.00000E+00
    0.00000E+00         0.00000E+00        -0.28801E+08
 
   -0.35257E+08        -0.11662E+07         0.00000E+00
   -0.11662E+07        -0.50514E+08         0.00000E+00
    0.00000E+00         0.00000E+00        -0.28798E+08
 
   -0.35019E+08        -0.10902E+07         0.00000E+00
   -0.10902E+07        -0.50541E+08         0.00000E+00
    0.00000E+00         0.00000E+00        -0.28795E+08
 
   -0.34783E+08        -0.10060E+07         0.00000E+00
   -0.10060E+07        -0.50567E+08         0.00000E+00
    0.00000E+00         0.00000E+00        -0.28793E+08
 
   -0.34549E+08        -0.91375E+06         0.00000E+00
   -0.91375E+06        -0.50593E+08         0.00000E+00
    0.00000E+00         0.00000E+00        -0.28790E+08
 
   -0.34316E+08        -0.81345E+06         0.00000E+00
   -0.81345E+06        -0.50620E+08         0.00000E+00
    0.00000E+00         0.00000E+00        -0.28788E+08
 
   -0.34086E+08        -0.70575E+06         0.00000E+00
   -0.70575E+06        -0.50647E+08         0.00000E+00
    0.00000E+00         0.00000E+00        -0.28787E+08
 
   -0.33857E+08        -0.59203E+06         0.00000E+00
   -0.59203E+06        -0.50674E+08         0.00000E+00
    0.00000E+00         0.00000E+00        -0.28785E+08
 
   -0.33629E+08        -0.47337E+06         0.00000E+00
   -0.47337E+06        -0.50699E+08         0.00000E+00
    0.00000E+00         0.00000E+00        -0.28784E+08
 
   -0.33398E+08        -0.35034E+06         0.00000E+00
   -0.35034E+06        -0.50725E+08         0.00000E+00
    0.00000E+00         0.00000E+00        -0.28784E+08
 
   -0.33163E+08        -0.22273E+06         0.00000E+00
   -0.22273E+06        -0.50750E+08         0.00000E+00
    0.00000E+00         0.00000E+00        -0.28787E+08
 
   -0.32946E+08        -0.87420E+05         0.00000E+00
   -0.87420E+05        -0.50782E+08         0.00000E+00
    0.00000E+00         0.00000E+00        -0.28835E+08
 
   -0.32728E+08         0.57705E+05         0.00000E+00
    0.57705E+05        -0.50820E+08         0.00000E+00
    0.00000E+00         0.00000E+00        -0.28896E+08
 
   -0.32504E+08         0.21292E+06         0.00000E+00
    0.21292E+06        -0.50860E+08         0.00000E+00
    0.00000E+00         0.00000E+00        -0.28964E+08
 
   -0.32318E+08         0.37324E+06         0.00000E+00
    0.37324E+06        -0.50888E+08         0.00000E+00
    0.00000E+00         0.00000E+00        -0.29106E+08
 
   -0.32154E+08         0.53383E+06         0.00000E+00
    0.53383E+06        -0.50932E+08         0.00000E+00
    0.00000E+00         0.00000E+00        -0.29285E+08
 
   -0.32002E+08         0.69004E+06         0.00000E+00
    0.69004E+06        -0.50982E+08         0.00000E+00
    0.00000E+00         0.00000E+00        -0.29474E+08
 
   -0.31870E+08         0.84349E+06         0.00000E+00
    0.84349E+06        -0.51042E+08         0.00000E+00
    0.00000E+00         0.00000E+00        -0.29669E+08
 
   -0.31759E+08         0.10002E+07         0.00000E+00
    0.10002E+07        -0.51104E+08         0.00000E+00
    0.00000E+00         0.00000E+00        -0.29861E+08
 
   -0.31669E+08         0.11633E+07         0.00000E+00
    0.11633E+07        -0.51172E+08         0.00000E+00
    0.00000E+00         0.00000E+00        -0.30053E+08
 
   -0.31598E+08         0.13333E+07         0.00000E+00
    0.13333E+07        -0.51241E+08         0.00000E+00
    0.00000E+00         0.00000E+00        -0.30244E+08
 
   -0.31545E+08         0.15101E+07         0.00000E+00
    0.15101E+07        -0.51312E+08         0.00000E+00
    0.00000E+00         0.00000E+00        -0.30432E+08
 
   -0.31510E+08         0.16944E+07         0.00000E+00
    0.16944E+07        -0.51384E+08         0.00000E+00
    0.00000E+00         0.00000E+00        -0.30618E+08
 
   -0.31492E+08         0.18861E+07         0.00000E+00
    0.18861E+07        -0.51456E+08         0.00000E+00
    0.00000E+00         0.00000E+00        -0.30801E+08
 
   -0.31492E+08         0.20858E+07         0.00000E+00
    0.20858E+07        -0.51528E+08         0.00000E+00
    0.00000E+00         0.00000E+00        -0.30981E+08
 
   -0.31512E+08         0.22931E+07         0.00000E+00
    0.22931E+07        -0.51600E+08         0.00000E+00
    0.00000E+00         0.00000E+00        -0.31156E+08
 
   -0.31552E+08         0.25053E+07         0.00000E+00
    0.25053E+07        -0.51672E+08         0.00000E+00
    0.00000E+00         0.00000E+00        -0.31325E+08
 
   -0.31613E+08         0.27202E+07         0.00000E+00
    0.27202E+07        -0.51744E+08         0.00000E+00
    0.00000E+00         0.00000E+00        -0.31485E+08
 
   -0.31693E+08         0.29392E+07         0.00000E+00
    0.29392E+07        -0.51814E+08         0.00000E+00
    0.00000E+00         0.00000E+00        -0.31637E+08
 
   -0.31793E+08         0.31616E+07         0.00000E+00
    0.31616E+07        -0.51882E+08         0.00000E+00
    0.00000E+00         0.00000E+00        -0.31781E+08
 
   -0.31909E+08         0.33861E+07         0.00000E+00
    0.33861E+07        -0.51947E+08         0.00000E+00
    0.00000E+00         0.00000E+00        -0.31917E+08
 
   -0.32039E+08         0.36197E+07         0.00000E+00
    0.36197E+07        -0.52001E+08         0.00000E+00
    0.00000E+00         0.00000E+00        -0.32045E+08
 
   -0.40628E+08        -0.15702E+06         0.00000E+00
   -0.15702E+06        -0.49996E+08         0.00000E+00
    0.00000E+00         0.00000E+00        -0.27012E+08
 
   -0.40361E+08        -0.40201E+06         0.00000E+00
   -0.40201E+06        -0.50003E+08         0.00000E+00
    0.00000E+00         0.00000E+00        -0.27012E+08
 
   -0.40081E+08        -0.61938E+06         0.00000E+00
   -0.61938E+06        -0.50013E+08         0.00000E+00
    0.00000E+00         0.00000E+00        -0.27011E+08
 
   -0.39789E+08        -0.81158E+06         0.00000E+00
   -0.81158E+06        -0.50026E+08         0.00000E+00
    0.00000E+00         0.00000E+00        -0.27009E+08
 
   -0.39488E+08        -0.97935E+06         0.00000E+00
   -0.97935E+06        -0.50041E+08         0.00000E+00
    0.00000E+00         0.00000E+00        -0.27008E+08
 
   -0.39179E+08        -0.11229E+07         0.00000E+00
   -0.11229E+07        -0.50059E+08         0.00000E+00
    0.00000E+00         0.00000E+00        -0.27006E+08
 
   -0.38863E+08        -0.12424E+07         0.00000E+00
   -0.12424E+07        -0.50079E+08         0.00000E+00
    0.00000E+00         0.00000E+00        -0.27004E+08
 
   -0.38543E+08        -0.13386E+07         0.00000E+00
   -0.13386E+07        -0.50098E+08         0.00000E+00
    0.00000E+00         0.00000E+00        -0.27002E+08
 
   -0.38222E+08        -0.14129E+07         0.00000E+00
   -0.14129E+07        -0.50116E+08         0.00000E+00
    0.00000E+00         0.00000E+00        -0.26999E+08
 
   -0.37900E+08        -0.14670E+07         0.00000E+00
   -0.14670E+07        -0.50131E+08         0.00000E+00
    0.00000E+00         0.00000E+00        -0.26997E+08
 
   -0.37581E+08        -0.15028E+07         0.00000E+00
   -0.15028E+07        -0.50144E+08         0.00000E+00
    0.00000E+00         0.00000E+00        -0.26995E+08
 
   -0.37264E+08        -0.15215E+07         0.00000E+00
   -0.15215E+07        -0.50154E+08         0.00000E+00
    0.00000E+00         0.00000E+00        -0.26992E+08
 
   -0.36951E+08        -0.15247E+07         0.00000E+00
   -0.15247E+07        -0.50162E+08         0.00000E+00
    0.00000E+00         0.00000E+00        -0.26990E+08
 
   -0.36642E+08        -0.15138E+07         0.00000E+00
   -0.15138E+07        -0.50167E+08         0.00000E+00
    0.00000E+00         0.00000E+00        -0.26987E+08
 
   -0.36337E+08        -0.14899E+07         0.00000E+00
   -0.14899E+07        -0.50169E+08         0.00000E+00
    0.00000E+00         0.00000E+00        -0.26985E+08
 
   -0.36038E+08        -0.14544E+07         0.00000E+00
   -0.14544E+07        -0.50169E+08         0.00000E+00
    0.00000E+00         0.00000E+00        -0.26983E+08
 
   -0.35744E+08        -0.14084E+07         0.00000E+00
   -0.14084E+07        -0.50167E+08         0.00000E+00
    0.00000E+00         0.00000E+00        -0.26981E+08
 
   -0.35455E+08        -0.13528E+07         0.00000E+00
   -0.13528E+07        -0.50163E+08         0.00000E+00
    0.00000E+00         0.00000E+00        -0.26979E+08
 
   -0.35171E+08        -0.12887E+07         0.00000E+00
   -0.12887E+07        -0.50157E+08         0.00000E+00
    0.00000E+00         0.00000E+00        -0.26977E+08
 
   -0.34892E+08        -0.12169E+07         0.00000E+00
   -0.12169E+07        -0.50150E+08         0.00000E+00
    0.00000E+00         0.00000E+00        -0.26975E+08
 
   -0.34617E+08        -0.11383E+07         0.00000E+00
   -0.11383E+07        -0.50142E+08         0.00000E+00
    0.00000E+00         0.00000E+00        -0.26974E+08
 
   -0.34345E+08        -0.10537E+07         0.00000E+00
   -0.10537E+07        -0.50133E+08         0.00000E+00
    0.00000E+00         0.00000E+00        -0.26973E+08
 
   -0.34076E+08        -0.96370E+06         0.00000E+00
   -0.96370E+06        -0.50124E+08         0.00000E+00
    0.00000E+00         0.00000E+00        -0.26972E+08
 
   -0.33809E+08        -0.86888E+06         0.00000E+00
   -0.86888E+06        -0.50114E+08         0.00000E+00
    0.00000E+00         0.00000E+00        -0.26974E+08
 
   -0.33548E+08        -0.76850E+06         0.00000E+00
   -0.76850E+06        -0.50098E+08         0.00000E+00
    0.00000E+00         0.00000E+00        -0.26994E+08
 
   -0.33291E+08        -0.66202E+06         0.00000E+00
   -0.66202E+06        -0.50088E+08         0.00000E+00
    0.00000E+00         0.00000E+00        -0.27025E+08
 
   -0.33034E+08        -0.54894E+06         0.00000E+00
   -0.54894E+06        -0.50084E+08         0.00000E+00
    0.00000E+00         0.00000E+00        -0.27063E+08
 
   -0.32775E+08        -0.42886E+06         0.00000E+00
   -0.42886E+06        -0.50083E+08         0.00000E+00
    0.00000E+00         0.00000E+00        -0.27105E+08
 
   -0.32513E+08        -0.30245E+06         0.00000E+00
   -0.30245E+06        -0.50087E+08         0.00000E+00
    0.00000E+00         0.00000E+00        -0.27153E+08
 
   -0.32276E+08        -0.17339E+06         0.00000E+00
   -0.17339E+06        -0.50094E+08         0.00000E+00
    0.00000E+00         0.00000E+00        -0.27262E+08
 
   -0.32052E+08        -0.46034E+05         0.00000E+00
   -0.46034E+05        -0.50105E+08         0.00000E+00
    0.00000E+00         0.00000E+00        -0.27400E+08
 
   -0.31837E+08         0.76271E+05         0.00000E+00
    0.76271E+05        -0.50124E+08         0.00000E+00
    0.00000E+00         0.00000E+00        -0.27549E+08
 
   -0.31639E+08         0.19508E+06         0.00000E+00
    0.19508E+06        -0.50151E+08         0.00000E+00
    0.00000E+00         0.00000E+00        -0.27706E+08
 
   -0.31456E+08         0.31623E+06         0.00000E+00
    0.31623E+06        -0.50183E+08         0.00000E+00
    0.00000E+00         0.00000E+00        -0.27866E+08
 
   -0.31290E+08         0.44210E+06         0.00000E+00
    0.44210E+06        -0.50222E+08         0.00000E+00
    0.00000E+00         0.00000E+00        -0.28033E+08
 
   -0.31138E+08         0.57355E+06         0.00000E+00
    0.57355E+06        -0.50265E+08         0.00000E+00
    0.00000E+00         0.00000E+00        -0.28203E+08
 
   -0.31000E+08         0.71090E+06         0.00000E+00
    0.71090E+06        -0.50314E+08         0.00000E+00
    0.00000E+00         0.00000E+00        -0.28379E+08
 
   -0.30875E+08         0.85484E+06         0.00000E+00
    0.85484E+06        -0.50367E+08         0.00000E+00
    0.00000E+00         0.00000E+00        -0.28560E+08
 
   -0.30765E+08         0.10070E+07         0.00000E+00
    0.10070E+07        -0.50425E+08         0.00000E+00
    0.00000E+00         0.00000E+00        -0.28745E+08
 
   -0.30671E+08         0.11683E+07         0.00000E+00
    0.11683E+07        -0.50489E+08         0.00000E+00
    0.00000E+00         0.00000E+00        -0.28934E+08
 
   -0.30593E+08         0.13392E+07         0.00000E+00
    0.13392E+07        -0.50557E+08         0.00000E+00
    0.00000E+00         0.00000E+00        -0.29128E+08
 
   -0.30532E+08         0.15202E+07         0.00000E+00
    0.15202E+07        -0.50630E+08         0.00000E+00
    0.00000E+00         0.00000E+00        -0.29325E+08
 
   -0.30491E+08         0.17103E+07         0.00000E+00
    0.17103E+07        -0.50707E+08         0.00000E+00
    0.00000E+00         0.00000E+00        -0.29523E+08
 
   -0.30473E+08         0.19104E+07         0.00000E+00
    0.19104E+07        -0.50788E+08         0.00000E+00
    0.00000E+00         0.00000E+00        -0.29720E+08
 
   -0.30476E+08         0.21209E+07         0.00000E+00
    0.21209E+07        -0.50873E+08         0.00000E+00
    0.00000E+00         0.00000E+00        -0.29916E+08
 
   -0.30502E+08         0.23429E+07         0.00000E+00
    0.23429E+07        -0.50958E+08         0.00000E+00
    0.00000E+00         0.00000E+00        -0.30108E+08
 
   -0.30549E+08         0.25752E+07         0.00000E+00
    0.25752E+07        -0.51041E+08         0.00000E+00
    0.00000E+00         0.00000E+00        -0.30295E+08
 
   -0.30616E+08         0.28172E+07         0.00000E+00
    0.28172E+07        -0.51121E+08         0.00000E+00
    0.00000E+00         0.00000E+00        -0.30476E+08
 
   -0.30707E+08         0.30657E+07         0.00000E+00
    0.30657E+07        -0.51197E+08         0.00000E+00
    0.00000E+00         0.00000E+00        -0.30647E+08
 
   -0.30825E+08         0.33157E+07         0.00000E+00
    0.33157E+07        -0.51275E+08         0.00000E+00
    0.00000E+00         0.00000E+00        -0.30810E+08
 
   -0.41969E+08        -0.17460E+06         0.00000E+00
   -0.17460E+06        -0.50024E+08         0.00000E+00
    0.00000E+00         0.00000E+00        -0.25069E+08
 
   -0.41563E+08        -0.43792E+06         0.00000E+00
   -0.43792E+06        -0.50022E+08         0.00000E+00
    0.00000E+00         0.00000E+00        -0.25069E+08
 
   -0.41142E+08        -0.67580E+06         0.00000E+00
   -0.67580E+06        -0.50031E+08         0.00000E+00
    0.00000E+00         0.00000E+00        -0.25068E+08
 
   -0.40705E+08        -0.87967E+06         0.00000E+00
   -0.87967E+06        -0.50046E+08         0.00000E+00
    0.00000E+00         0.00000E+00        -0.25068E+08
 
   -0.40260E+08        -0.10477E+07         0.00000E+00
   -0.10477E+07        -0.50060E+08         0.00000E+00
    0.00000E+00         0.00000E+00        -0.25068E+08
 
   -0.39813E+08        -0.11820E+07         0.00000E+00
   -0.11820E+07        -0.50065E+08         0.00000E+00
    0.00000E+00         0.00000E+00        -0.25067E+08
 
   -0.39369E+08        -0.12861E+07         0.00000E+00
   -0.12861E+07        -0.50061E+08         0.00000E+00
    0.00000E+00         0.00000E+00        -0.25067E+08
 
   -0.38931E+08        -0.13641E+07         0.00000E+00
   -0.13641E+07        -0.50050E+08         0.00000E+00
    0.00000E+00         0.00000E+00        -0.25066E+08
 
   -0.38501E+08        -0.14190E+07         0.00000E+00
   -0.14190E+07        -0.50031E+08         0.00000E+00
    0.00000E+00         0.00000E+00        -0.25066E+08
 
   -0.38083E+08        -0.14523E+07         0.00000E+00
   -0.14523E+07        -0.50006E+08         0.00000E+00
    0.00000E+00         0.00000E+00        -0.25078E+08
 
   -0.37675E+08        -0.14668E+07         0.00000E+00
   -0.14668E+07        -0.49974E+08         0.00000E+00
    0.00000E+00         0.00000E+00        -0.25088E+08
 
   -0.37279E+08        -0.14654E+07         0.00000E+00
   -0.14654E+07        -0.49937E+08         0.00000E+00
    0.00000E+00         0.00000E+00        -0.25097E+08
 
   -0.36895E+08        -0.14500E+07         0.00000E+00
   -0.14500E+07        -0.49896E+08         0.00000E+00
    0.00000E+00         0.00000E+00        -0.25104E+08
 
   -0.36523E+08        -0.14224E+07         0.00000E+00
   -0.14224E+07        -0.49850E+08         0.00000E+00
    0.00000E+00         0.00000E+00        -0.25110E+08
 
   -0.36163E+08        -0.13842E+07         0.00000E+00
   -0.13842E+07        -0.49802E+08         0.00000E+00
    0.00000E+00         0.00000E+00        -0.25116E+08
 
   -0.35814E+08        -0.13369E+07         0.00000E+00
   -0.13369E+07        -0.49751E+08         0.00000E+00
    0.00000E+00         0.00000E+00        -0.25121E+08
 
   -0.35475E+08        -0.12817E+07         0.00000E+00
   -0.12817E+07        -0.49698E+08         0.00000E+00
    0.00000E+00         0.00000E+00        -0.25127E+08
 
   -0.35147E+08        -0.12197E+07         0.00000E+00
   -0.12197E+07        -0.49645E+08         0.00000E+00
    0.00000E+00         0.00000E+00        -0.25133E+08
 
   -0.34828E+08        -0.11516E+07         0.00000E+00
   -0.11516E+07        -0.49592E+08         0.00000E+00
    0.00000E+00         0.00000E+00        -0.25139E+08
 
   -0.34517E+08        -0.10782E+07         0.00000E+00
   -0.10782E+07        -0.49539E+08         0.00000E+00
    0.00000E+00         0.00000E+00        -0.25148E+08
 
   -0.34213E+08        -0.99970E+06         0.00000E+00
   -0.99970E+06        -0.49487E+08         0.00000E+00
    0.00000E+00         0.00000E+00        -0.25158E+08
 
   -0.33916E+08        -0.91659E+06         0.00000E+00
   -0.91659E+06        -0.49438E+08         0.00000E+00
    0.00000E+00         0.00000E+00        -0.25170E+08
 
   -0.33623E+08        -0.82905E+06         0.00000E+00
   -0.82905E+06        -0.49390E+08         0.00000E+00
    0.00000E+00         0.00000E+00        -0.25185E+08
 
   -0.33335E+08        -0.73751E+06         0.00000E+00
   -0.73751E+06        -0.49347E+08         0.00000E+00
    0.00000E+00         0.00000E+00        -0.25204E+08
 
   -0.33048E+08        -0.64304E+06         0.00000E+00
   -0.64304E+06        -0.49314E+08         0.00000E+00
    0.00000E+00         0.00000E+00        -0.25226E+08
 
   -0.32772E+08        -0.54651E+06         0.00000E+00
   -0.54651E+06        -0.49283E+08         0.00000E+00
    0.00000E+00         0.00000E+00        -0.25277E+08
 
   -0.32505E+08        -0.45026E+06         0.00000E+00
   -0.45026E+06        -0.49253E+08         0.00000E+00
    0.00000E+00         0.00000E+00        -0.25353E+08
 
   -0.32245E+08        -0.35643E+06         0.00000E+00
   -0.35643E+06        -0.49230E+08         0.00000E+00
    0.00000E+00         0.00000E+00        -0.25440E+08
 
   -0.31993E+08        -0.26697E+06         0.00000E+00
   -0.26697E+06        -0.49214E+08         0.00000E+00
    0.00000E+00         0.00000E+00        -0.25536E+08
 
   -0.31753E+08        -0.18053E+06         0.00000E+00
   -0.18053E+06        -0.49204E+08         0.00000E+00
    0.00000E+00         0.00000E+00        -0.25640E+08
 
   -0.31526E+08        -0.93348E+05         0.00000E+00
   -0.93348E+05        -0.49202E+08         0.00000E+00
    0.00000E+00         0.00000E+00        -0.25751E+08
 
   -0.31310E+08        -0.46009E+04         0.00000E+00
   -0.46009E+04        -0.49207E+08         0.00000E+00
    0.00000E+00         0.00000E+00        -0.25870E+08
 
   -0.31104E+08         0.86135E+05         0.00000E+00
    0.86135E+05        -0.49218E+08         0.00000E+00
    0.00000E+00         0.00000E+00        -0.25996E+08
 
   -0.30907E+08         0.17892E+06         0.00000E+00
    0.17892E+06        -0.49235E+08         0.00000E+00
    0.00000E+00         0.00000E+00        -0.26129E+08
 
   -0.30720E+08         0.27469E+06         0.00000E+00
    0.27469E+06        -0.49258E+08         0.00000E+00
    0.00000E+00         0.00000E+00        -0.26270E+08
 
   -0.30541E+08         0.37475E+06         0.00000E+00
    0.37475E+06        -0.49288E+08         0.00000E+00
    0.00000E+00         0.00000E+00        -0.26420E+08
 
   -0.30370E+08         0.48018E+06         0.00000E+00
    0.48018E+06        -0.49325E+08         0.00000E+00
    0.00000E+00         0.00000E+00        -0.26580E+08
 
   -0.30209E+08         0.59203E+06         0.00000E+00
    0.59203E+06        -0.49369E+08         0.00000E+00
    0.00000E+00         0.00000E+00        -0.26749E+08
 
   -0.30057E+08         0.71130E+06         0.00000E+00
    0.71130E+06        -0.49421E+08         0.00000E+00
    0.00000E+00         0.00000E+00        -0.26929E+08
 
   -0.29916E+08         0.83928E+06         0.00000E+00
    0.83928E+06        -0.49480E+08         0.00000E+00
    0.00000E+00         0.00000E+00        -0.27119E+08
 
   -0.29786E+08         0.97736E+06         0.00000E+00
    0.97736E+06        -0.49548E+08         0.00000E+00
    0.00000E+00         0.00000E+00        -0.27320E+08
 
   -0.29670E+08         0.11269E+07         0.00000E+00
    0.11269E+07        -0.49624E+08         0.00000E+00
    0.00000E+00         0.00000E+00        -0.27532E+08
 
   -0.29569E+08         0.12899E+07         0.00000E+00
    0.12899E+07        -0.49709E+08         0.00000E+00
    0.00000E+00         0.00000E+00        -0.27754E+08
 
   -0.29483E+08         0.14668E+07         0.00000E+00
    0.14668E+07        -0.49800E+08         0.00000E+00
    0.00000E+00         0.00000E+00        -0.27986E+08
 
   -0.29416E+08         0.16619E+07         0.00000E+00
    0.16619E+07        -0.49897E+08         0.00000E+00
    0.00000E+00         0.00000E+00        -0.28227E+08
 
   -0.29371E+08         0.18752E+07         0.00000E+00
    0.18752E+07        -0.50002E+08         0.00000E+00
    0.00000E+00         0.00000E+00        -0.28476E+08
 
   -0.29354E+08         0.21073E+07         0.00000E+00
    0.21073E+07        -0.50113E+08         0.00000E+00
    0.00000E+00         0.00000E+00        -0.28728E+08
 
   -0.29372E+08         0.23525E+07         0.00000E+00
    0.23525E+07        -0.50229E+08         0.00000E+00
    0.00000E+00         0.00000E+00        -0.28976E+08
 
   -0.29426E+08         0.26158E+07         0.00000E+00
    0.26158E+07        -0.50346E+08         0.00000E+00
    0.00000E+00         0.00000E+00        -0.29214E+08
 
   -0.29502E+08         0.28844E+07         0.00000E+00
    0.28844E+07        -0.50452E+08         0.00000E+00
    0.00000E+00         0.00000E+00        -0.29436E+08
 
   -0.43437E+08        -0.19693E+06         0.00000E+00
   -0.19693E+06        -0.49971E+08         0.00000E+00
    0.00000E+00         0.00000E+00        -0.23770E+08
 
   -0.42834E+08        -0.49629E+06         0.00000E+00
   -0.49629E+06        -0.50000E+08         0.00000E+00
    0.00000E+00         0.00000E+00        -0.23735E+08
 
   -0.42188E+08        -0.71724E+06         0.00000E+00
   -0.71724E+06        -0.49995E+08         0.00000E+00
    0.00000E+00         0.00000E+00        -0.23693E+08
 
   -0.41542E+08        -0.87998E+06         0.00000E+00
   -0.87998E+06        -0.49961E+08         0.00000E+00
    0.00000E+00         0.00000E+00        -0.23649E+08
 
   -0.40910E+08        -0.99806E+06         0.00000E+00
   -0.99806E+06        -0.49906E+08         0.00000E+00
    0.00000E+00         0.00000E+00        -0.23605E+08
 
   -0.40298E+08        -0.10781E+07         0.00000E+00
   -0.10781E+07        -0.49851E+08         0.00000E+00
    0.00000E+00         0.00000E+00        -0.23572E+08
 
   -0.39712E+08        -0.11273E+07         0.00000E+00
   -0.11273E+07        -0.49797E+08         0.00000E+00
    0.00000E+00         0.00000E+00        -0.23548E+08
 
   -0.39157E+08        -0.11533E+07         0.00000E+00
   -0.11533E+07        -0.49728E+08         0.00000E+00
    0.00000E+00         0.00000E+00        -0.23522E+08
 
   -0.38629E+08        -0.11618E+07         0.00000E+00
   -0.11618E+07        -0.49650E+08         0.00000E+00
    0.00000E+00         0.00000E+00        -0.23497E+08
 
   -0.38127E+08        -0.11587E+07         0.00000E+00
   -0.11587E+07        -0.49560E+08         0.00000E+00
    0.00000E+00         0.00000E+00        -0.23471E+08
 
   -0.37646E+08        -0.11443E+07         0.00000E+00
   -0.11443E+07        -0.49466E+08         0.00000E+00
    0.00000E+00         0.00000E+00        -0.23446E+08
 
   -0.37188E+08        -0.11187E+07         0.00000E+00
   -0.11187E+07        -0.49367E+08         0.00000E+00
    0.00000E+00         0.00000E+00        -0.23422E+08
 
   -0.36751E+08        -0.10843E+07         0.00000E+00
   -0.10843E+07        -0.49267E+08         0.00000E+00
    0.00000E+00         0.00000E+00        -0.23399E+08
 
   -0.36335E+08        -0.10431E+07         0.00000E+00
   -0.10431E+07        -0.49164E+08         0.00000E+00
    0.00000E+00         0.00000E+00        -0.23378E+08
 
   -0.35938E+08        -0.99693E+06         0.00000E+00
   -0.99693E+06        -0.49062E+08         0.00000E+00
    0.00000E+00         0.00000E+00        -0.23358E+08
 
   -0.35557E+08        -0.94680E+06         0.00000E+00
   -0.94680E+06        -0.48961E+08         0.00000E+00
    0.00000E+00         0.00000E+00        -0.23342E+08
 
   -0.35192E+08        -0.89342E+06         0.00000E+00
   -0.89342E+06        -0.48862E+08         0.00000E+00
    0.00000E+00         0.00000E+00        -0.23328E+08
 
   -0.34841E+08        -0.83732E+06         0.00000E+00
   -0.83732E+06        -0.48766E+08         0.00000E+00
    0.00000E+00         0.00000E+00        -0.23319E+08
 
   -0.34502E+08        -0.77898E+06         0.00000E+00
   -0.77898E+06        -0.48674E+08         0.00000E+00
    0.00000E+00         0.00000E+00        -0.23315E+08
 
   -0.34174E+08        -0.71886E+06         0.00000E+00
   -0.71886E+06        -0.48586E+08         0.00000E+00
    0.00000E+00         0.00000E+00        -0.23316E+08
 
   -0.33856E+08        -0.65740E+06         0.00000E+00
   -0.65740E+06        -0.48504E+08         0.00000E+00
    0.00000E+00         0.00000E+00        -0.23323E+08
 
   -0.33547E+08        -0.59516E+06         0.00000E+00
   -0.59516E+06        -0.48427E+08         0.00000E+00
    0.00000E+00         0.00000E+00        -0.23337E+08
 
   -0.33246E+08        -0.53284E+06         0.00000E+00
   -0.53284E+06        -0.48357E+08         0.00000E+00
    0.00000E+00         0.00000E+00        -0.23358E+08
 
   -0.32953E+08        -0.47131E+06         0.00000E+00
   -0.47131E+06        -0.48294E+08         0.00000E+00
    0.00000E+00         0.00000E+00        -0.23387E+08
 
   -0.32670E+08        -0.41122E+06         0.00000E+00
   -0.41122E+06        -0.48238E+08         0.00000E+00
    0.00000E+00         0.00000E+00        -0.23423E+08
 
   -0.32395E+08        -0.35283E+06         0.00000E+00
   -0.35283E+06        -0.48189E+08         0.00000E+00
    0.00000E+00         0.00000E+00        -0.23468E+08
 
   -0.32132E+08        -0.29524E+06         0.00000E+00
   -0.29524E+06        -0.48149E+08         0.00000E+00
    0.00000E+00         0.00000E+00        -0.23521E+08
 
   -0.31877E+08        -0.23846E+06         0.00000E+00
   -0.23846E+06        -0.48117E+08         0.00000E+00
    0.00000E+00         0.00000E+00        -0.23582E+08
 
   -0.31632E+08        -0.18226E+06         0.00000E+00
   -0.18226E+06        -0.48092E+08         0.00000E+00
    0.00000E+00         0.00000E+00        -0.23651E+08
 
   -0.31395E+08        -0.12653E+06         0.00000E+00
   -0.12653E+06        -0.48073E+08         0.00000E+00
    0.00000E+00         0.00000E+00        -0.23728E+08
 
   -0.31166E+08        -0.71188E+05         0.00000E+00
   -0.71188E+05        -0.48061E+08         0.00000E+00
    0.00000E+00         0.00000E+00        -0.23811E+08
 
   -0.30944E+08        -0.15381E+05         0.00000E+00
   -0.15381E+05        -0.48055E+08         0.00000E+00
    0.00000E+00         0.00000E+00        -0.23902E+08
 
   -0.30730E+08         0.41483E+05         0.00000E+00
    0.41483E+05        -0.48057E+08         0.00000E+00
    0.00000E+00         0.00000E+00        -0.24001E+08
 
   -0.30521E+08         0.99998E+05         0.00000E+00
    0.99998E+05        -0.48066E+08         0.00000E+00
    0.00000E+00         0.00000E+00        -0.24109E+08
 
   -0.30319E+08         0.16052E+06         0.00000E+00
    0.16052E+06        -0.48082E+08         0.00000E+00
    0.00000E+00         0.00000E+00        -0.24226E+08
 
   -0.30120E+08         0.22344E+06         0.00000E+00
    0.22344E+06        -0.48105E+08         0.00000E+00
    0.00000E+00         0.00000E+00        -0.24354E+08
 
   -0.29925E+08         0.28951E+06         0.00000E+00
    0.28951E+06        -0.48137E+08         0.00000E+00
    0.00000E+00         0.00000E+00        -0.24494E+08
 
   -0.29734E+08         0.35977E+06         0.00000E+00
    0.35977E+06        -0.48177E+08         0.00000E+00
    0.00000E+00         0.00000E+00        -0.24646E+08
 
   -0.29545E+08         0.43516E+06         0.00000E+00
    0.43516E+06        -0.48226E+08         0.00000E+00
    0.00000E+00         0.00000E+00        -0.24812E+08
 
   -0.29361E+08         0.51689E+06         0.00000E+00
    0.51689E+06        -0.48284E+08         0.00000E+00
    0.00000E+00         0.00000E+00        -0.24994E+08
 
   -0.29180E+08         0.60644E+06         0.00000E+00
    0.60644E+06        -0.48353E+08         0.00000E+00
    0.00000E+00         0.00000E+00        -0.25192E+08
 
   -0.29003E+08         0.70568E+06         0.00000E+00
    0.70568E+06        -0.48432E+08         0.00000E+00
    0.00000E+00         0.00000E+00        -0.25408E+08
 
   -0.28832E+08         0.81768E+06         0.00000E+00
    0.81768E+06        -0.48523E+08         0.00000E+00
    0.00000E+00         0.00000E+00        -0.25645E+08
 
   -0.28666E+08         0.94459E+06         0.00000E+00
    0.94459E+06        -0.48627E+08         0.00000E+00
    0.00000E+00         0.00000E+00        -0.25905E+08
 
   -0.28503E+08         0.10872E+07         0.00000E+00
    0.10872E+07        -0.48745E+08         0.00000E+00
    0.00000E+00         0.00000E+00        -0.26194E+08
 
   -0.28352E+08         0.12494E+07         0.00000E+00
    0.12494E+07        -0.48876E+08         0.00000E+00
    0.00000E+00         0.00000E+00        -0.26508E+08
 
   -0.28219E+08         0.14379E+07         0.00000E+00
    0.14379E+07        -0.49021E+08         0.00000E+00
    0.00000E+00         0.00000E+00        -0.26846E+08
 
   -0.28119E+08         0.16623E+07         0.00000E+00
    0.16623E+07        -0.49181E+08         0.00000E+00
    0.00000E+00         0.00000E+00        -0.27203E+08
 
   -0.28062E+08         0.19166E+07         0.00000E+00
    0.19166E+07        -0.49358E+08         0.00000E+00
    0.00000E+00         0.00000E+00        -0.27573E+08
 
   -0.28088E+08         0.22200E+07         0.00000E+00
    0.22200E+07        -0.49565E+08         0.00000E+00
    0.00000E+00         0.00000E+00        -0.27944E+08
 
   -0.44617E+08        -0.25417E+06         0.00000E+00
   -0.25417E+06        -0.49990E+08         0.00000E+00
    0.00000E+00         0.00000E+00        -0.26166E+08
 
   -0.43718E+08        -0.32386E+06         0.00000E+00
   -0.32386E+06        -0.49903E+08         0.00000E+00
    0.00000E+00         0.00000E+00        -0.25096E+08
 
   -0.42847E+08        -0.38006E+06         0.00000E+00
   -0.38006E+06        -0.49792E+08         0.00000E+00
    0.00000E+00         0.00000E+00        -0.24238E+08
 
   -0.42026E+08        -0.42199E+06         0.00000E+00
   -0.42199E+06        -0.49662E+08         0.00000E+00
    0.00000E+00         0.00000E+00        -0.23525E+08
 
   -0.41259E+08        -0.45262E+06         0.00000E+00
   -0.45262E+06        -0.49517E+08         0.00000E+00
    0.00000E+00         0.00000E+00        -0.22920E+08
 
   -0.40540E+08        -0.47932E+06         0.00000E+00
   -0.47932E+06        -0.49347E+08         0.00000E+00
    0.00000E+00         0.00000E+00        -0.22463E+08
 
   -0.39858E+08        -0.49472E+06         0.00000E+00
   -0.49472E+06        -0.49160E+08         0.00000E+00
    0.00000E+00         0.00000E+00        -0.22283E+08
 
   -0.39228E+08        -0.49910E+06         0.00000E+00
   -0.49910E+06        -0.48974E+08         0.00000E+00
    0.00000E+00         0.00000E+00        -0.22163E+08
 
   -0.38647E+08        -0.49624E+06         0.00000E+00
   -0.49624E+06        -0.48788E+08         0.00000E+00
    0.00000E+00         0.00000E+00        -0.22052E+08
 
   -0.38092E+08        -0.48582E+06         0.00000E+00
   -0.48582E+06        -0.48610E+08         0.00000E+00
    0.00000E+00         0.00000E+00        -0.21952E+08
 
   -0.37564E+08        -0.46725E+06         0.00000E+00
   -0.46725E+06        -0.48434E+08         0.00000E+00
    0.00000E+00         0.00000E+00        -0.21859E+08
 
   -0.37068E+08        -0.44492E+06         0.00000E+00
   -0.44492E+06        -0.48264E+08         0.00000E+00
    0.00000E+00         0.00000E+00        -0.21774E+08
 
   -0.36606E+08        -0.42161E+06         0.00000E+00
   -0.42161E+06        -0.48101E+08         0.00000E+00
    0.00000E+00         0.00000E+00        -0.21696E+08
 
   -0.36173E+08        -0.39803E+06         0.00000E+00
   -0.39803E+06        -0.47945E+08         0.00000E+00
    0.00000E+00         0.00000E+00        -0.21626E+08
 
   -0.35762E+08        -0.37430E+06         0.00000E+00
   -0.37430E+06        -0.47798E+08         0.00000E+00
    0.00000E+00         0.00000E+00        -0.21563E+08
 
   -0.35371E+08        -0.35030E+06         0.00000E+00
   -0.35030E+06        -0.47658E+08         0.00000E+00
    0.00000E+00         0.00000E+00        -0.21508E+08
 
   -0.34998E+08        -0.32612E+06         0.00000E+00
   -0.32612E+06        -0.47528E+08         0.00000E+00
    0.00000E+00         0.00000E+00        -0.21461E+08
 
   -0.34641E+08        -0.30195E+06         0.00000E+00
   -0.30195E+06        -0.47406E+08         0.00000E+00
    0.00000E+00         0.00000E+00        -0.21421E+08
 
   -0.34297E+08        -0.27787E+06         0.00000E+00
   -0.27787E+06        -0.47293E+08         0.00000E+00
    0.00000E+00         0.00000E+00        -0.21389E+08
 
   -0.33966E+08        -0.25394E+06         0.00000E+00
   -0.25394E+06        -0.47190E+08         0.00000E+00
    0.00000E+00         0.00000E+00        -0.21365E+08
 
   -0.33646E+08        -0.23029E+06         0.00000E+00
   -0.23029E+06        -0.47095E+08         0.00000E+00
    0.00000E+00         0.00000E+00        -0.21349E+08
 
   -0.33338E+08        -0.20712E+06         0.00000E+00
   -0.20712E+06        -0.47010E+08         0.00000E+00
    0.00000E+00         0.00000E+00        -0.21342E+08
 
   -0.33039E+08        -0.18456E+06         0.00000E+00
   -0.18456E+06        -0.46934E+08         0.00000E+00
    0.00000E+00         0.00000E+00        -0.21342E+08
 
   -0.32750E+08        -0.16269E+06         0.00000E+00
   -0.16269E+06        -0.46866E+08         0.00000E+00
    0.00000E+00         0.00000E+00        -0.21350E+08
 
   -0.32472E+08        -0.14165E+06         0.00000E+00
   -0.14165E+06        -0.46808E+08         0.00000E+00
    0.00000E+00         0.00000E+00        -0.21366E+08
 
   -0.32202E+08        -0.12139E+06         0.00000E+00
   -0.12139E+06        -0.46757E+08         0.00000E+00
    0.00000E+00         0.00000E+00        -0.21390E+08
 
   -0.31941E+08        -0.10182E+06         0.00000E+00
   -0.10182E+06        -0.46714E+08         0.00000E+00
    0.00000E+00         0.00000E+00        -0.21420E+08
 
   -0.31689E+08        -0.82525E+05         0.00000E+00
   -0.82525E+05        -0.46679E+08         0.00000E+00
    0.00000E+00         0.00000E+00        -0.21458E+08
 
   -0.31446E+08        -0.63298E+05         0.00000E+00
   -0.63298E+05        -0.46652E+08         0.00000E+00
    0.00000E+00         0.00000E+00        -0.21503E+08
 
   -0.31209E+08        -0.44044E+05         0.00000E+00
   -0.44044E+05        -0.46632E+08         0.00000E+00
    0.00000E+00         0.00000E+00        -0.21556E+08
 
   -0.30979E+08        -0.24679E+05         0.00000E+00
   -0.24679E+05        -0.46620E+08         0.00000E+00
    0.00000E+00         0.00000E+00        -0.21616E+08
 
   -0.30755E+08        -0.52698E+04         0.00000E+00
   -0.52698E+04        -0.46616E+08         0.00000E+00
    0.00000E+00         0.00000E+00        -0.21685E+08
 
   -0.30536E+08         0.14322E+05         0.00000E+00
    0.14322E+05        -0.46620E+08         0.00000E+00
    0.00000E+00         0.00000E+00        -0.21762E+08
 
   -0.30322E+08         0.34297E+05         0.00000E+00
    0.34297E+05        -0.46631E+08         0.00000E+00
    0.00000E+00         0.00000E+00        -0.21848E+08
 
   -0.30112E+08         0.55017E+05         0.00000E+00
    0.55017E+05        -0.46651E+08         0.00000E+00
    0.00000E+00         0.00000E+00        -0.21944E+08
 
   -0.29904E+08         0.76699E+05         0.00000E+00
    0.76699E+05        -0.46679E+08         0.00000E+00
    0.00000E+00         0.00000E+00        -0.22051E+08
 
   -0.29696E+08         0.99433E+05         0.00000E+00
    0.99433E+05        -0.46717E+08         0.00000E+00
    0.00000E+00         0.00000E+00        -0.22170E+08
 
   -0.29489E+08         0.12340E+06         0.00000E+00
    0.12340E+06        -0.46763E+08         0.00000E+00
    0.00000E+00         0.00000E+00        -0.22302E+08
 
   -0.29280E+08         0.14915E+06         0.00000E+00
    0.14915E+06        -0.46820E+08         0.00000E+00
    0.00000E+00         0.00000E+00        -0.22449E+08
 
   -0.29069E+08         0.17721E+06         0.00000E+00
    0.17721E+06        -0.46887E+08         0.00000E+00
    0.00000E+00         0.00000E+00        -0.22614E+08
 
   -0.28856E+08         0.20816E+06         0.00000E+00
    0.20816E+06        -0.46967E+08         0.00000E+00
    0.00000E+00         0.00000E+00        -0.22798E+08
 
   -0.28638E+08         0.24278E+06         0.00000E+00
    0.24278E+06        -0.47059E+08         0.00000E+00
    0.00000E+00         0.00000E+00        -0.23005E+08
 
   -0.28414E+08         0.28177E+06         0.00000E+00
    0.28177E+06        -0.47166E+08         0.00000E+00
    0.00000E+00         0.00000E+00        -0.23239E+08
 
   -0.28184E+08         0.32696E+06         0.00000E+00
    0.32696E+06        -0.47289E+08         0.00000E+00
    0.00000E+00         0.00000E+00        -0.23503E+08
 
   -0.27947E+08         0.38084E+06         0.00000E+00
    0.38084E+06        -0.47431E+08         0.00000E+00
    0.00000E+00         0.00000E+00        -0.23805E+08
 
   -0.27698E+08         0.44648E+06         0.00000E+00
    0.44648E+06        -0.47595E+08         0.00000E+00
    0.00000E+00         0.00000E+00        -0.24155E+08
 
   -0.27421E+08         0.52693E+06         0.00000E+00
    0.52693E+06        -0.47784E+08         0.00000E+00
    0.00000E+00         0.00000E+00        -0.24574E+08
 
   -0.27143E+08         0.62885E+06         0.00000E+00
    0.62885E+06        -0.48003E+08         0.00000E+00
    0.00000E+00         0.00000E+00        -0.25056E+08
 
   -0.26873E+08         0.76432E+06         0.00000E+00
    0.76432E+06        -0.48253E+08         0.00000E+00
    0.00000E+00         0.00000E+00        -0.25608E+08
 
   -0.26621E+08         0.92992E+06         0.00000E+00
    0.92992E+06        -0.48534E+08         0.00000E+00
    0.00000E+00         0.00000E+00        -0.26229E+08
 
SCALARS stresss double 
LOOKUP_TABLE default
  -49959318.8247441     
  -49960810.5090988     
  -49962137.6951828     
  -49963337.7562184     
  -49964436.4361633     
  -49965452.2657683     
  -49966399.0831891     
  -49967287.5405199     
  -49968126.0446462     
  -49968921.3690974     
  -49969679.0666775     
  -49970403.7568116     
  -49971099.3313289     
  -49971769.1054749     
  -49972415.9311147     
  -49973042.2832023     
  -49973650.3269390     
  -49974241.9707255     
  -49974818.9084942     
  -49975382.6539916     
  -49975934.5688876     
  -49976475.8861068     
  -49977007.7294328     
  -49977531.1301964     
  -49978047.0416781     
  -49978556.3517297     
  -49979059.8940266     
  -49979558.4582973     
  -49980052.7998302     
  -49980543.6485333     
  -49981031.7178104     
  -49981517.7135204     
  -49982002.3433100     
  -49982486.3266529     
  -49982970.4059931     
  -49983455.3595021     
  -49983942.0161121     
  -49984431.2737325     
  -49984924.1219146     
  -49985421.6707954     
  -49985925.1890373     
  -49986436.1549270     
  -49986956.3272102     
  -49987487.8464205     
  -49988033.3849106     
  -49988596.3775848     
  -49989181.3916670     
  -49989794.7458734     
  -49990445.5953945     
  -49991147.9215442     
  -49958311.5831798     
  -49959049.5609749     
  -49959830.8946748     
  -49960622.8974308     
  -49961408.7294402     
  -49962179.8659055     
  -49962932.2532399     
  -49963664.2869044     
  -49964375.7162635     
  -49965067.0357287     
  -49965739.1387117     
  -49966393.1176872     
  -49967030.1476090     
  -49967651.4179648     
  -49968258.0937475     
  -49968851.2938635     
  -49969432.0801512     
  -49970001.4528750     
  -49970560.3501541     
  -49971109.6497455     
  -49971650.1721949     
  -49972182.6847354     
  -49972707.9055478     
  -49973226.5081444     
  -49973739.1257332     
  -49974246.3554806     
  -49974748.7626272     
  -49975246.8844377     
  -49975741.2339751     
  -49976232.3036973     
  -49976720.5688708     
  -49977206.4907868     
  -49977690.5197455     
  -49978173.0977460     
  -49978654.6607645     
  -49979135.6404231     
  -49979616.4647169     
  -49980097.5572464     
  -49980579.3340312     
  -49981062.1963509     
  -49981546.5169519     
  -49982032.6149907     
  -49982520.7114675     
  -49983010.8501116     
  -49983502.7555668     
  -49983995.5747203     
  -49984487.3941256     
  -49984974.3160918     
  -49985448.6402224     
  -49985895.1821429     
  -49957464.4136844     
  -49957914.4552354     
  -49958386.0471814     
  -49958880.6484618     
  -49959394.3807652     
  -49959922.2049727     
  -49960459.4431719     
  -49961002.2270191     
  -49961547.5332283     
  -49962093.0785760     
  -49962637.1830125     
  -49963178.6409705     
  -49963716.6129569     
  -49964250.5386182     
  -49964780.0687212     
  -49965305.0126007     
  -49965825.2978184     
  -49966340.9392887     
  -49966852.0156753     
  -49967358.6513501     
  -49967861.0025936     
  -49968359.2470276     
  -49968853.5755049     
  -49969344.1858600     
  -49969831.2780575     
  -49970315.0503754     
  -49970795.6963323     
  -49971273.4021194     
  -49971748.3443322     
  -49972220.6878163     
  -49972690.5834500     
  -49973158.1656771     
  -49973623.5495874     
  -49974086.8273027     
  -49974548.0633754     
  -49975007.2888297     
  -49975464.4933689     
  -49975919.6151444     
  -49976372.5273156     
  -49976823.0204636     
  -49977270.7798057     
  -49977715.3562636     
  -49978156.1311859     
  -49978592.2769077     
  -49979022.7217154     
  -49979446.1437184     
  -49979861.0566482     
  -49980266.1424650     
  -49980661.2038147     
  -49981049.6281330     
  -49956283.3030488     
  -49956569.6474453     
  -49956880.9589414     
  -49957213.6065812     
  -49957565.5723252     
  -49957934.9851842     
  -49958319.8507180     
  -49958718.1145259     
  -49959127.7755200     
  -49959546.9709454     
  -49959974.0230392     
  -49960407.4557289     
  -49960845.9919920     
  -49961288.5403000     
  -49961734.1758418     
  -49962182.1200521     
  -49962631.7204596     
  -49963082.4319080     
  -49963533.7996151     
  -49963985.4441884     
  -49964437.0485333     
  -49964888.3464885     
  -49965339.1129845     
  -49965789.1555100     
  -49966238.3066748     
  -49966686.4176724     
  -49967133.3524580     
  -49967578.9824767     
  -49968023.1817834     
  -49968465.8224153     
  -49968906.7698786     
  -49969345.8786246     
  -49969782.9873929     
  -49970217.9143129     
  -49970650.4516646     
  -49971080.3602323     
  -49971507.3632295     
  -49971931.1398641     
  -49972351.3187629     
  -49972767.4717272     
  -49973179.1086890     
  -49973585.6753347     
  -49973986.5556543     
  -49974381.0824581     
  -49974768.5588477     
  -49975148.2900843     
  -49975519.6107292     
  -49975881.8458964     
  -49976234.0140964     
  -49976573.7226702     
  -49954793.7378117     
  -49954975.0991547     
  -49955179.6222216     
  -49955405.9747023     
  -49955652.4405518     
  -49955917.3909653     
  -49956199.3185666     
  -49956496.7991197     
  -49956808.4662195     
  -49957133.0060134     
  -49957469.1631416     
  -49957815.7498808     
  -49958171.6539809     
  -49958535.8434060     
  -49958907.3677472     
  -49959285.3567822     
  -49959669.0168853     
  -49960057.6259750     
  -49960450.5275756     
  -49960847.1244364     
  -49961246.8720238     
  -49961649.2721008     
  -49962053.8665277     
  -49962460.2313558     
  -49962867.9712492     
  -49963276.7142328     
  -49963686.1067554     
  -49964095.8090351     
  -49964505.4906577     
  -49964914.8263922     
  -49965323.4921938     
  -49965731.1613705     
  -49966137.5009030     
  -49966542.1679238     
  -49966944.8063840     
  -49967345.0439676     
  -49967742.4893493     
  -49968136.7299303     
  -49968527.3302281     
  -49968913.8311035     
  -49969295.7499697     
  -49969672.5819520     
  -49970043.8015697     
  -49970408.8637654     
  -49970767.2020154     
  -49971118.2204669     
  -49971461.2794453     
  -49971795.6892501     
  -49972120.7865629     
  -49972436.3600095     
  -49952973.8995380     
  -49953088.6246039     
  -49953224.8354722     
  -49953381.3928927     
  -49953557.2499189     
  -49953751.3303955     
  -49953962.5471335     
  -49954189.8267875     
  -49954432.1224866     
  -49954688.4184953     
  -49954957.7319881     
  -49955239.1144244     
  -49955531.6531627     
  -49955834.4731529     
  -49956146.7383518     
  -49956467.6525816     
  -49956796.4596871     
  -49957132.4429706     
  -49957474.9239607     
  -49957823.2606190     
  -49958176.8451019     
  -49958535.1011931     
  -49958897.4815101     
  -49959263.4645725     
  -49959632.5518039     
  -49960004.2645219     
  -49960378.1409613     
  -49960753.7333619     
  -49961130.6051478     
  -49961508.3282213     
  -49961886.4803880     
  -49962264.6429365     
  -49962642.3983921     
  -49963019.3284698     
  -49963395.0122537     
  -49963769.0246289     
  -49964140.9349907     
  -49964510.3062448     
  -49964876.6940881     
  -49965239.6465321     
  -49965598.7035872     
  -49965953.3970010     
  -49966303.2499804     
  -49966647.7770261     
  -49966986.4845153     
  -49967318.8735343     
  -49967644.4470041     
  -49967962.7195970     
  -49968273.2069488     
  -49968575.2823574     
  -49950817.7658037     
  -49950891.0703191     
  -49950984.1153645     
  -49951096.1088819     
  -49951226.2304108     
  -49951373.6682064     
  -49951537.6147916     
  -49951717.2647929     
  -49951911.8172779     
  -49952120.4795294     
  -49952342.4704987     
  -49952577.0234829     
  -49952823.3881197     
  -49953080.8318915     
  -49953348.6412735     
  -49953626.1225869     
  -49953912.6025725     
  -49954207.4286779     
  -49954509.9690603     
  -49954819.6123068     
  -49955135.7668944     
  -49955457.8604146     
  -49955785.3385974     
  -49956117.6641711     
  -49956454.3155960     
  -49956794.7857074     
  -49957138.5803024     
  -49957485.2167030     
  -49957834.2223229     
  -49958185.1332644     
  -49958537.4929697     
  -49958890.8509475     
  -49959244.7615927     
  -49959598.7831166     
  -49959952.4765997     
  -49960305.4051761     
  -49960657.1333553     
  -49961007.2264821     
  -49961355.2503358     
  -49961700.7708745     
  -49962043.3541401     
  -49962382.5663662     
  -49962717.9743493     
  -49963049.1461341     
  -49963375.6519296     
  -49963697.0648023     
  -49964012.9600919     
  -49964322.9127740     
  -49964626.4989233     
  -49964923.3437511     
  -49948321.3488060     
  -49948371.5332242     
  -49948439.7563592     
  -49948525.4198872     
  -49948627.9191713     
  -49948746.6373114     
  -49948880.9506832     
  -49949030.2324289     
  -49949193.8543843     
  -49949371.1886547     
  -49949561.6092384     
  -49949764.4936676     
  -49949979.2245516     
  -49950205.1909455     
  -49950441.7895125     
  -49950688.4254824     
  -49950944.5134157     
  -49951209.4777882     
  -49951482.7534058     
  -49951763.7856612     
  -49952052.0306432     
  -49952346.9551074     
  -49952648.0363246     
  -49952954.7618192     
  -49953266.6290138     
  -49953583.1447993     
  -49953903.8250447     
  -49954228.1940682     
  -49954555.7840829     
  -49954886.1346368     
  -49955218.7920603     
  -49955553.3089371     
  -49955889.2436089     
  -49956226.1597277     
  -49956563.6258635     
  -49956901.2151776     
  -49957238.5051690     
  -49957575.0775009     
  -49957910.5179173     
  -49958244.4162553     
  -49958576.3665573     
  -49958905.9672808     
  -49959232.8215845     
  -49959556.5376581     
  -49959876.7290725     
  -49960193.0152334     
  -49960505.0223064     
  -49960812.3852092     
  -49961114.7494082     
  -49961411.7574677     
  -49945483.3139136     
  -49945523.8670235     
  -49945580.8835521     
  -49945653.9107961     
  -49945742.4826251     
  -49945846.1231438     
  -49945964.3472210     
  -49946096.6618270     
  -49946242.5676771     
  -49946401.5607768     
  -49946573.1337998     
  -49946756.7773362     
  -49946951.9810446     
  -49947158.2347178     
  -49947375.0292586     
  -49947601.8575580     
  -49947838.2152721     
  -49948083.6014964     
  -49948337.5193399     
  -49948599.4764023     
  -49948868.9851616     
  -49949145.5632755     
  -49949428.7338069     
  -49949718.0253782     
  -49950012.9722637     
  -49950313.1144294     
  -49950617.9975277     
  -49950927.1728570     
  -49951240.1972951     
  -49951556.6332156     
  -49951876.0483964     
  -49952198.0159285     
  -49952522.1141325     
  -49952847.9264923     
  -49953175.0416109     
  -49953503.0531953     
  -49953831.5600773     
  -49954160.1662731     
  -49954488.4810867     
  -49954816.1192579     
  -49955142.7011573     
  -49955467.8530278     
  -49955791.2072789     
  -49956112.4028444     
  -49956431.0856215     
  -49956746.9089901     
  -49957059.5343052     
  -49957368.6310938     
  -49957673.8770817     
  -49957974.9631079     
  -49942303.5723283     
  -49942344.5815300     
  -49942400.6371959     
  -49942471.3930612     
  -49942556.4896114     
  -49942655.5548831     
  -49942768.2060305     
  -49942894.0505444     
  -49943032.6873543     
  -49943183.7079161     
  -49943346.6972802     
  -49943521.2351130     
  -49943706.8966617     
  -49943903.2536570     
  -49944109.8751556     
  -49944326.3283228     
  -49944552.1791551     
  -49944786.9931442     
  -49945030.3358818     
  -49945281.7736070     
  -49945540.8736987     
  -49945807.2051148     
  -49946080.3387822     
  -49946359.8479413     
  -49946645.3084487     
  -49946936.2990435     
  -49947232.4015806     
  -49947533.2012372     
  -49947838.2866967     
  -49948147.2503155     
  -49948459.6882765     
  -49948775.2007364     
  -49949093.3919687     
  -49949413.8705096     
  -49949736.2493085     
  -49950060.1458888     
  -49950385.1825212     
  -49950710.9864132     
  -49951037.1899171     
  -49951363.4307585     
  -49951689.3522893     
  -49952014.6037653     
  -49952338.8406514     
  -49952661.7249502     
  -49952982.9255498     
  -49953302.1185815     
  -49953618.9878098     
  -49953933.2251530     
  -49954244.5313777     
  -49954552.6153350     
  -49938782.2597938     
  -49938831.2339000     
  -49938894.0244108     
  -49938970.3635891     
  -49939059.9699794     
  -49939162.5495066     
  -49939277.7963568     
  -49939405.3939357     
  -49939545.0158139     
  -49939696.3266303     
  -49939858.9829586     
  -49940032.6341426     
  -49940216.9230991     
  -49940411.4870866     
  -49940615.9584393     
  -49940829.9652625     
  -49941053.1320918     
  -49941285.0805146     
  -49941525.4297546     
  -49941773.7972206     
  -49942029.7990201     
  -49942293.0504390     
  -49942563.1663891     
  -49942839.7618261     
  -49943122.4521380     
  -49943410.8535091     
  -49943704.5832594     
  -49944003.2601637     
  -49944306.5047530     
  -49944613.9395991     
  -49944925.1895881     
  -49945239.8821827     
  -49945557.6476777     
  -49945878.1194504     
  -49946200.9342084     
  -49946525.7322376     
  -49946852.1576513     
  -49947179.8586437     
  -49947508.4877480     
  -49947837.7021020     
  -49948167.1637205     
  -49948496.5397770     
  -49948825.5028929     
  -49949153.7314365     
  -49949480.9098330     
  -49949806.7288890     
  -49950130.8861283     
  -49950453.0861071     
  -49950773.0406652     
  -49951090.4696237     
  -49934918.7521012     
  -49934981.2148411     
  -49935056.4642669     
  -49935144.2895675     
  -49935244.4664200     
  -49935356.7577729     
  -49935480.9146649     
  -49935616.6769966     
  -49935763.7742867     
  -49935921.9264139     
  -49936090.8443416     
  -49936270.2308206     
  -49936459.7810713     
  -49936659.1834417     
  -49936868.1200438     
  -49937086.2673664     
  -49937313.2968639     
  -49937548.8755218     
  -49937792.6663982     
  -49938044.3291412     
  -49938303.5204846     
  -49938569.8947196     
  -49938843.1041461     
  -49939122.7995022     
  -49939408.6303750     
  -49939700.2455917     
  -49939997.2935946     
  -49940299.4227993     
  -49940606.2819387     
  -49940917.5203938     
  -49941232.7885129     
  -49941551.7379204     
  -49941874.0218174     
  -49942199.2952736     
  -49942527.2155146     
  -49942857.4422031     
  -49943189.6377175     
  -49943523.4674261     
  -49943858.5999612     
  -49944194.7074909     
  -49944531.4659908     
  -49944868.5555156     
  -49945205.6604707     
  -49945542.4698853     
  -49945878.6776849     
  -49946213.9829620     
  -49946548.0902455     
  -49946880.7097749     
  -49947211.5578004     
  -49947540.3567527     
  -49930710.8641311     
  -49930790.8038891     
  -49930882.7056570     
  -49930986.3981449     
  -49931101.6970346     
  -49931228.4056389     
  -49931366.3155426     
  -49931515.2072426     
  -49931674.8507765     
  -49931845.0063397     
  -49932025.4248893     
  -49932215.8487366     
  -49932416.0121247     
  -49932625.6417935     
  -49932844.4575287     
  -49933072.1726962     
  -49933308.4947617     
  -49933553.1257935     
  -49933805.7629506     
  -49934066.0989546     
  -49934333.8225467     
  -49934608.6189287     
  -49934890.1701892     
  -49935178.1557159     
  -49935472.2525924     
  -49935772.1359829     
  -49936077.4795030     
  -49936387.9555783     
  -49936703.2357917     
  -49937022.9912196     
  -49937346.8927579     
  -49937674.6114385     
  -49938005.8187369     
  -49938340.1868725     
  -49938677.3891006     
  -49939017.0999981     
  -49939358.9957432     
  -49939702.7543891     
  -49940048.0561326     
  -49940394.5835779     
  -49940742.0219959     
  -49941090.0595790     
  -49941438.3876917     
  -49941786.7011167     
  -49942134.6982965     
  -49942482.0815713     
  -49942828.5574121     
  -49943173.8366479     
  -49943517.6346770     
  -49943859.6717085     
  -49926154.2484172     
  -49926254.4799519     
  -49926366.0505876     
  -49926488.8144601     
  -49926622.6133637     
  -49926767.2772819     
  -49926922.6249179     
  -49927088.4642164     
  -49927264.5928823     
  -49927450.7988916     
  -49927646.8609964     
  -49927852.5492221     
  -49928067.6253559     
  -49928291.8434268     
  -49928524.9501766     
  -49928766.6855211     
  -49929016.7830015     
  -49929274.9702259     
  -49929540.9692996     
  -49929814.4972462     
  -49930095.2664171     
  -49930382.9848911     
  -49930677.3568634     
  -49930978.0830237     
  -49931284.8609254     
  -49931597.3853429     
  -49931915.3486211     
  -49932238.4410141     
  -49932566.3510148     
  -49932898.7656763     
  -49933235.3709239     
  -49933575.8518594     
  -49933919.8930570     
  -49934267.1788521     
  -49934617.3936224     
  -49934970.2220619     
  -49935325.3494485     
  -49935682.4619048     
  -49936041.2466523     
  -49936401.3922601     
  -49936762.5888864     
  -49937124.5285152     
  -49937486.9051857     
  -49937849.4152164     
  -49938211.7574227     
  -49938573.6333281     
  -49938934.7473683     
  -49939294.8070892     
  -49939653.5233396     
  -49940010.6104477     
  -49921241.9882410     
  -49921364.4486283     
  -49921497.8181432     
  -49921641.9649110     
  -49921796.7455077     
  -49921962.0053880     
  -49922137.5793143     
  -49922323.2917828     
  -49922518.9574487     
  -49922724.3815480     
  -49922939.3603161     
  -49923163.6814027     
  -49923397.1242816     
  -49923639.4606563     
  -49923890.4548599     
  -49924149.8642494     
  -49924417.4395935     
  -49924692.9254545     
  -49924976.0605635     
  -49925266.5781885     
  -49925564.2064958     
  -49925868.6689038     
  -49926179.6844302     
  -49926496.9680316     
  -49926820.2309354     
  -49927149.1809651     
  -49927483.5228577     
  -49927822.9585746     
  -49928167.1876042     
  -49928515.9072586     
  -49928868.8129628     
  -49929225.5985365     
  -49929585.9564704     
  -49929949.5781945     
  -49930316.1543406     
  -49930685.3749979     
  -49931056.9299630     
  -49931430.5089822     
  -49931805.8019887     
  -49932182.4993334     
  -49932560.2920086     
  -49932938.8718665     
  -49933317.9318307     
  -49933697.1661018     
  -49934076.2703562     
  -49934454.9419384     
  -49934832.8800468     
  -49935209.7859127     
  -49935585.3629707     
  -49935959.3170254     
  -49915964.3551279     
  -49916110.3465706     
  -49916266.9976059     
  -49916434.1811595     
  -49916611.7594289     
  -49916799.5842264     
  -49916997.4973241     
  -49917205.3307991     
  -49917422.9073796     
  -49917650.0407909     
  -49917886.5361000     
  -49918132.1900594     
  -49918386.7914492     
  -49918650.1214164     
  -49918921.9538124     
  -49919202.0555266     
  -49919490.1868174     
  -49919786.1016390     
  -49920089.5479647     
  -49920400.2681053     
  -49920717.9990240     
  -49921042.4726457     
  -49921373.4161623     
  -49921710.5523325     
  -49922053.5997766     
  -49922402.2732666     
  -49922756.2840104     
  -49923115.3399309     
  -49923479.1459399     
  -49923847.4042065     
  -49924219.8144200     
  -49924596.0740471     
  -49924975.8785843     
  -49925358.9218042     
  -49925744.8959962     
  -49926133.4922028     
  -49926524.4004491     
  -49926917.3099673     
  -49927311.9094161     
  -49927707.8870939     
  -49928104.9311466     
  -49928502.7297703     
  -49928900.9714076     
  -49929299.3449384     
  -49929697.5398656     
  -49930095.2464937     
  -49930492.1561025     
  -49930887.9611143     
  -49931282.3552553     
  -49931675.0337097     
  -49910308.6925765     
  -49910479.0799092     
  -49910660.0432952     
  -49910851.4531609     
  -49911053.1700000     
  -49911265.0446458     
  -49911486.9185469     
  -49911718.6240455     
  -49911959.9846580     
  -49912210.8153560     
  -49912470.9228498     
  -49912740.1058716     
  -49913018.1554586     
  -49913304.8552368     
  -49913599.9817032     
  -49913903.3045069     
  -49914214.5867300     
  -49914533.5851651     
  -49914860.0505923     
  -49915193.7280529     
  -49915534.3571213     
  -49915881.6721739     
  -49916235.4026545     
  -49916595.2733378     
  -49916961.0045885     
  -49917332.3126175     
  -49917708.9097341     
  -49918090.5045952     
  -49918476.8024501     
  -49918867.5053813     
  -49919262.3125418     
  -49919660.9203881     
  -49920063.0229089     
  -49920468.3118498     
  -49920876.4769334     
  -49921287.2060762     
  -49921700.1855993     
  -49922115.1004363     
  -49922531.6343361     
  -49922949.4700613     
  -49923368.2895821     
  -49923787.7742654     
  -49924207.6050599     
  -49924627.4626758     
  -49925047.0277606     
  -49925465.9810695     
  -49925884.0036312     
  -49926300.7769096     
  -49926715.9829594     
  -49927129.3045780     
  -49904259.3878254     
  -49904454.7569696     
  -49904660.7695799     
  -49904877.2878625     
  -49905104.1648197     
  -49905341.2444664     
  -49905588.3620497     
  -49905845.3442724     
  -49906112.0095195     
  -49906388.1680874     
  -49906673.6224154     
  -49906968.1673188     
  -49907271.5902235     
  -49907583.6714019     
  -49907904.1842089     
  -49908232.8953189     
  -49908569.5649624     
  -49908913.9471626     
  -49909265.7899712     
  -49909624.8357038     
  -49909990.8211735     
  -49910363.4779246     
  -49910742.5324629     
  -49911127.7064861     
  -49911518.7171115     
  -49911915.2771014     
  -49912317.0950872     
  -49912723.8757902     
  -49913135.3202405     
  -49913551.1259935     
  -49913970.9873431     
  -49914394.5955327     
  -49914821.6389628     
  -49915251.8033961     
  -49915684.7721595     
  -49916120.2263429     
  -49916557.8449944     
  -49916997.3053136     
  -49917438.2828400     
  -49917880.4516396     
  -49918323.4844869     
  -49918767.0530448     
  -49919210.8280398     
  -49919654.4794351     
  -49920097.6765993     
  -49920540.0884722     
  -49920981.3837268     
  -49921421.2309285     
  -49921859.2986903     
  -49922295.2558243     
  -49897797.8982355     
  -49898018.6812023     
  -49898250.3113571     
  -49898492.6382577     
  -49898745.5028967     
  -49899008.7378727     
  -49899282.1675660     
  -49899565.6083188     
  -49899858.8686189     
  -49900161.7492865     
  -49900474.0436642     
  -49900795.5378097     
  -49901126.0106907     
  -49901465.2343813     
  -49901812.9742608     
  -49902168.9892128     
  -49902533.0318268     
  -49902904.8485991     
  -49903284.1801348     
  -49903670.7613509     
  -49904064.3216776     
  -49904464.5852617     
  -49904871.2711675     
  -49905284.0935788     
  -49905702.7619995     
  -49906126.9814529     
  -49906556.4526809     
  -49906990.8723416     
  -49907429.9332052     
  -49907873.3243490     
  -49908320.7313512     
  -49908771.8364817     
  -49909226.3188931     
  -49909683.8548082     
  -49910144.1177064     
  -49910606.7785087     
  -49911071.5057596     
  -49911537.9658075     
  -49912005.8229833     
  -49912474.7397766     
  -49912944.3770099     
  -49913414.3940103     
  -49913884.4487795     
  -49914354.1981618     
  -49914823.2980092     
  -49915291.4033453     
  -49915758.1685263     
  -49916223.2474006     
  -49916686.2934658     
  -49917146.9600245     
  -49890902.8053860     
  -49891149.3770631     
  -49891407.1223984     
  -49891675.8749130     
  -49891955.4600951     
  -49892245.6955373     
  -49892546.3910788     
  -49892857.3489525     
  -49893178.3639348     
  -49893509.2235006     
  -49893849.7079800     
  -49894199.5907196     
  -49894558.6382453     
  -49894926.6104287     
  -49895303.2606548     
  -49895688.3359918     
  -49896081.5773638     
  -49896482.7197230     
  -49896891.4922252     
  -49897307.6184049     
  -49897730.8163521     
  -49898160.7988895     
  -49898597.2737505     
  -49899039.9437567     
  -49899488.5069970     
  -49899942.6570056     
  -49900402.0829403     
  -49900866.4697605     
  -49901335.4984056     
  -49901808.8459714     
  -49902286.1858877     
  -49902767.1880944     
  -49903251.5192167     
  -49903738.8427403     
  -49904228.8191851     
  -49904721.1062787     
  -49905215.3591279     
  -49905711.2303909     
  -49906208.3704470     
  -49906706.4275658     
  -49907205.0480763     
  -49907703.8765335     
  -49908202.5558849     
  -49908700.7276366     
  -49909198.0320169     
  -49909694.1081405     
  -49910188.5941709     
  -49910681.1274830     
  -49911171.3448236     
  -49911658.8824725     
  -49883549.8766142     
  -49883822.6281969     
  -49884106.9906052     
  -49884402.7787478     
  -49884709.7999206     
  -49885027.8539197     
  -49885356.7331592     
  -49885696.2227932     
  -49886046.1008416     
  -49886406.1383196     
  -49886776.0993711     
  -49887155.7414049     
  -49887544.8152340     
  -49887943.0652180     
  -49888350.2294077     
  -49888766.0396924     
  -49889190.2219491     
  -49889622.4961942     
  -49890062.5767361     
  -49890510.1723306     
  -49890964.9863369     
  -49891426.7168753     
  -49891895.0569860     
  -49892369.6947892     
  -49892850.3136454     
  -49893336.5923176     
  -49893828.2051330     
  -49894324.8221464     
  -49894826.1093032     
  -49895331.7286032     
  -49895841.3382649     
  -49896354.5928898     
  -49896871.1436265     
  -49897390.6383363     
  -49897912.7217573     
  -49898437.0356696     
  -49898963.2190600     
  -49899490.9082877     
  -49900019.7372481     
  -49900549.3375393     
  -49901079.3386258     
  -49901609.3680047     
  -49902139.0513705     
  -49902668.0127802     
  -49903195.8748194     
  -49903722.2587677     
  -49904246.7847648     
  -49904769.0719771     
  -49905288.7387642     
  -49905805.4028468     
  -49875712.1196072     
  -49876011.5130922     
  -49876323.0549488     
  -49876646.5395148     
  -49876981.7538236     
  -49877328.4777005     
  -49877686.4838628     
  -49878055.5380255     
  -49878435.3990088     
  -49878825.8188514     
  -49879226.5429250     
  -49879637.3100540     
  -49880057.8526376     
  -49880487.8967741     
  -49880927.1623890     
  -49881375.3633657     
  -49881832.2076775     
  -49882297.3975234     
  -49882770.6294652     
  -49883251.5945664     
  -49883739.9785342     
  -49884235.4618618     
  -49884737.7199735     
  -49885246.4233710     
  -49885761.2377809     
  -49886281.8243040     
  -49886807.8395658     
  -49887338.9358680     
  -49887874.7613414     
  -49888414.9600999     
  -49888959.1723953     
  -49889507.0347734     
  -49890058.1802308     
  -49890612.2383727     
  -49891168.8355717     
  -49891727.5951275     
  -49892288.1374276     
  -49892850.0801080     
  -49893413.0382163     
  -49893976.6243746     
  -49894540.4489436     
  -49895104.1201880     
  -49895667.2444423     
  -49896229.4262785     
  -49896790.2686745     
  -49897349.3731832     
  -49897906.3401043     
  -49898460.7686559     
  -49899012.2571487     
  -49899560.4031616     
  -49867359.8204628     
  -49867686.4281148     
  -49868025.8135521     
  -49868377.7490369     
  -49868741.9997260     
  -49869118.3237576     
  -49869506.4723409     
  -49869906.1898504     
  -49870317.2139225     
  -49870739.2755573     
  -49871172.0992219     
  -49871615.4029578     
  -49872068.8984919     
  -49872532.2913491     
  -49873005.2809687     
  -49873487.5608232     
  -49873978.8185397     
  -49874478.7360238     
  -49874986.9895863     
  -49875503.2500709     
  -49876027.1829858     
  -49876558.4486364     
  -49877096.7022602     
  -49877641.5941637     
  -49878192.7698614     
  -49878749.8702161     
  -49879312.5315820     
  -49879880.3859481     
  -49880453.0610848     
  -49881030.1806911     
  -49881611.3645435     
  -49882196.2286474     
  -49882784.3853889     
  -49883375.4436890     
  -49883969.0091591     
  -49884564.6842582     
  -49885162.0684514     
  -49885760.7583704     
  -49886360.3479756     
  -49886960.4287195     
  -49887560.5897125     
  -49888160.4178898     
  -49888759.4981806     
  -49889357.4136794     
  -49889953.7458185     
  -49890548.0745436     
  -49891139.9784908     
  -49891729.0351664     
  -49892314.8211286     
  -49892896.9121727     
  -49858460.5593366     
  -49858815.0915022     
  -49859183.1160081     
  -49859564.3818506     
  -49859958.6310183     
  -49860365.5985728     
  -49860785.0127335     
  -49861216.5949661     
  -49861660.0600734     
  -49862115.1162898     
  -49862581.4653795     
  -49863058.8027360     
  -49863546.8174869     
  -49864045.1925993     
  -49864553.6049896     
  -49865071.7256351     
  -49865599.2196885     
  -49866135.7465952     
  -49866680.9602130     
  -49867234.5089337     
  -49867796.0358083     
  -49868365.1786730     
  -49868941.5702791     
  -49869524.8384239     
  -49870114.6060843     
  -49870710.4915528     
  -49871312.1085754     
  -49871919.0664915     
  -49872530.9703764     
  -49873147.4211855     
  -49873768.0159004     
  -49874392.3476782     
  -49875020.0060013     
  -49875650.5768309     
  -49876283.6427615     
  -49876918.7831782     
  -49877555.5744162     
  -49878193.5899222     
  -49878832.4004182     
  -49879471.5740682     
  -49880110.6766465     
  -49880749.2717091     
  -49881386.9207676     
  -49882023.1834654     
  -49882657.6177569     
  -49883289.7800899     
  -49883919.2255902     
  -49884545.5082501     
  -49885168.1811196     
  -49885786.7965008     
  -49848979.2004966     
  -49849362.5246138     
  -49849760.1357327     
  -49850171.7585986     
  -49850597.1109509     
  -49851035.9036027     
  -49851487.8405253     
  -49851952.6189341     
  -49852429.9293781     
  -49852919.4558326     
  -49853420.8757942     
  -49853933.8603786     
  -49854458.0744217     
  -49854993.1765831     
  -49855538.8194521     
  -49856094.6496566     
  -49856660.3079749     
  -49857235.4294494     
  -49857819.6435034     
  -49858412.5740605     
  -49859013.8396660     
  -49859623.0536112     
  -49860239.8240603     
  -49860863.7541793     
  -49861494.4422678     
  -49862131.4818931     
  -49862774.4620264     
  -49863422.9671822     
  -49864076.5775597     
  -49864734.8691866     
  -49865397.4140655     
  -49866063.7803232     
  -49866733.5323620     
  -49867406.2310140     
  -49868081.4336978     
  -49868758.6945777     
  -49869437.5647266     
  -49870117.5922902     
  -49870798.3226556     
  -49871479.2986216     
  -49872160.0605729     
  -49872840.1466567     
  -49873519.0929634     
  -49874196.4337095     
  -49874871.7014247     
  -49875544.4271427     
  -49876214.1405946     
  -49876880.3704073     
  -49877542.6443052     
  -49878200.4893159     
  -49838877.8554788     
  -49839291.0086329     
  -49839719.3200857     
  -49840162.4894618     
  -49840620.2092933     
  -49841092.1651030     
  -49841578.0354902     
  -49842077.4922190     
  -49842590.2003096     
  -49843115.8181318     
  -49843653.9975011     
  -49844204.3837778     
  -49844766.6159682     
  -49845340.3268285     
  -49845925.1429717     
  -49846520.6849764     
  -49847126.5674986     
  -49847742.3993864     
  -49848367.7837959     
  -49849002.3183118     
  -49849645.5950684     
  -49850297.2008751     
  -49850956.7173430     
  -49851623.7210152     
  -49852297.7834989     
  -49852978.4716009     
  -49853665.3474654     
  -49854357.9687145     
  -49855055.8885916     
  -49855758.6561074     
  -49856465.8161891     
  -49857176.9098320     
  -49857891.4742542     
  -49858609.0430549     
  -49859329.1463745     
  -49860051.3110589     
  -49860775.0608267     
  -49861499.9164394     
  -49862225.3958751     
  -49862951.0145060     
  -49863676.2852788     
  -49864400.7188993     
  -49865123.8240206     
  -49865845.1074348     
  -49866564.0742694     
  -49867280.2281872     
  -49867993.0715912     
  -49868702.1058327     
  -49869406.8314252     
  -49870106.7482628     
  -49828115.8192570     
  -49828560.0161853     
  -49829020.3172930     
  -49829496.3962598     
  -49829987.9195059     
  -49830494.5462805     
  -49831015.9287528     
  -49831551.7121051     
  -49832101.5346282     
  -49832665.0278187     
  -49833241.8164799     
  -49833831.5188234     
  -49834433.7465743     
  -49835048.1050785     
  -49835674.1934120     
  -49836311.6044937     
  -49836959.9251995     
  -49837618.7364798     
  -49838287.6134794     
  -49838966.1256593     
  -49839653.8369224     
  -49840350.3057407     
  -49841055.0852858     
  -49841767.7235623     
  -49842487.7635430     
  -49843214.7433083     
  -49843948.1961874     
  -49844687.6509030     
  -49845432.6317187     
  -49846182.6585898     
  -49846937.2473168     
  -49847695.9097020     
  -49848458.1537100     
  -49849223.4836311     
  -49849991.4002480     
  -49850761.4010059     
  -49851532.9801869     
  -49852305.6290874     
  -49853078.8361993     
  -49853852.0873956     
  -49854624.8661194     
  -49855396.6535777     
  -49856166.9289385     
  -49856935.1695335     
  -49857700.8510642     
  -49858463.4478137     
  -49859222.4328623     
  -49859977.2783086     
  -49860727.4554961     
  -49861472.4352445     
  -49816649.4800567     
  -49817126.1181143     
  -49817619.8800353     
  -49818130.4127219     
  -49818657.3555761     
  -49819200.3405952     
  -49819758.9924701     
  -49820332.9286852     
  -49820921.7596205     
  -49821525.0886555     
  -49822142.5122755     
  -49822773.6201799     
  -49823417.9953927     
  -49824075.2143752     
  -49824744.8471416     
  -49825426.4573761     
  -49826119.6025530     
  -49826823.8340592     
  -49827538.6973192     
  -49828263.7319226     
  -49828998.4717546     
  -49829742.4451284     
  -49830495.1749216     
  -49831256.1787143     
  -49832024.9689309     
  -49832801.0529841     
  -49833583.9334228     
  -49834373.1080824     
  -49835168.0702387     
  -49835968.3087650     
  -49836773.3082922     
  -49837582.5493730     
  -49838395.5086488     
  -49839211.6590213     
  -49840030.4698267     
  -49840851.4070142     
  -49841673.9333290     
  -49842497.5084983     
  -49843321.5894223     
  -49844145.6303691     
  -49844969.0831741     
  -49845791.3974442     
  -49846612.0207663     
  -49847430.3989208     
  -49848245.9761006     
  -49849058.1951343     
  -49849866.4977158     
  -49850670.3246383     
  -49851469.1160354     
  -49852262.3116265     
  -49804432.2038003     
  -49804942.8660655     
  -49805471.7460318     
  -49806018.4629434     
  -49806582.6282343     
  -49807163.8456336     
  -49807761.7112725     
  -49808375.8137928     
  -49809005.7344576     
  -49809651.0472633     
  -49810311.3190540     
  -49810986.1096374     
  -49811674.9719032     
  -49812377.4519435     
  -49813093.0891753     
  -49813821.4164653     
  -49814561.9602574     
  -49815314.2407021     
  -49816077.7717889     
  -49816852.0614810     
  -49817636.6118527     
  -49818430.9192301     
  -49819234.4743333     
  -49820046.7624233     
  -49820867.2634503     
  -49821695.4522061     
  -49822530.7984791     
  -49823372.7672134     
  -49824220.8186698     
  -49825074.4085919     
  -49825932.9883746     
  -49826796.0052371     
  -49827662.9023988     
  -49828533.1192600     
  -49829406.0915857     
  -49830281.2516947     
  -49831158.0286517     
  -49832035.8484649     
  -49832914.1342871     
  -49833792.3066223     
  -49834669.7835370     
  -49835545.9808759     
  -49836420.3124832     
  -49837292.1904296     
  -49838161.0252436     
  -49839026.2261494     
  -49839887.2013107     
  -49840743.3580794     
  -49841594.1032521     
  -49842438.8433316     
  -49791414.1942656     
  -49791960.6516881     
  -49792526.4961595     
  -49793111.3183061     
  -49793714.7005700     
  -49794336.2173254     
  -49794975.4349960     
  -49795631.9121738     
  -49796305.1997390     
  -49796994.8409830     
  -49797700.3717311     
  -49798421.3204688     
  -49799157.2084693     
  -49799907.5499227     
  -49800671.8520680     
  -49801449.6153271     
  -49802240.3334407     
  -49803043.4936073     
  -49803858.5766242     
  -49804685.0570314     
  -49805522.4032576     
  -49806370.0777703     
  -49807227.5372270     
  -49808094.2326310     
  -49808969.6094893     
  -49809853.1079743     
  -49810744.1630883     
  -49811642.2048320     
  -49812546.6583759     
  -49813456.9442360     
  -49814372.4784524     
  -49815292.6727732     
  -49816216.9348408     
  -49817144.6683834     
  -49818075.2734108     
  -49819008.1464136     
  -49819942.6805688     
  -49820878.2659478     
  -49821814.2897314     
  -49822750.1364287     
  -49823685.1881012     
  -49824618.8245927     
  -49825550.4237644     
  -49826479.3617360     
  -49827405.0131324     
  -49828326.7513366     
  -49829243.9487490     
  -49830155.9770531     
  -49831062.2074879     
  -49831962.0111271     
  -49777542.3299610     
  -49778126.5432326     
  -49778731.3906652     
  -49779356.4332054     
  -49780001.2231816     
  -49780665.3044318     
  -49781348.2124326     
  -49782049.4744290     
  -49782768.6095668     
  -49783505.1290254     
  -49784258.5361520     
  -49785028.3265992     
  -49785813.9884623     
  -49786615.0024201     
  -49787430.8418771     
  -49788260.9731080     
  -49789104.8554044     
  -49789961.9412239     
  -49790831.6763424     
  -49791713.5000073     
  -49792606.8450956     
  -49793511.1382732     
  -49794425.8001578     
  -49795350.2454849     
  -49796283.8832769     
  -49797226.1170158     
  -49798176.3448183     
  -49799133.9596164     
  -49800098.3493394     
  -49801068.8971019     
  -49802044.9813942     
  -49803025.9762776     
  -49804011.2515833     
  -49805000.1731171     
  -49805992.1028666     
  -49806986.3992151     
  -49807982.4171589     
  -49808979.5085303     
  -49809977.0222261     
  -49810974.3044404     
  -49811970.6989043     
  -49812965.5471303     
  -49813958.1886629     
  -49814947.9613361     
  -49815934.2015357     
  -49816916.2444694     
  -49817893.4244435     
  -49818865.0751460     
  -49819830.5299372     
  -49820789.1221480     
  -49762759.9785216     
  -49763384.1001750     
  -49764030.1839292     
  -49764697.7598720     
  -49765386.3489804     
  -49766095.4632606     
  -49766824.6058908     
  -49767573.2713630     
  -49768340.9456276     
  -49769127.1062390     
  -49769931.2225021     
  -49770752.7556214     
  -49771591.1588510     
  -49772445.8776473     
  -49773316.3498228     
  -49774202.0057034     
  -49775102.2682860     
  -49776016.5534007     
  -49776944.2698739     
  -49777884.8196946     
  -49778837.5981838     
  -49779801.9941663     
  -49780777.3901457     
  -49781763.1624828     
  -49782758.6815767     
  -49783763.3120506     
  -49784776.4129394     
  -49785797.3378827     
  -49786825.4353205     
  -49787860.0486938     
  -49788900.5166484     
  -49789946.1732441     
  -49790996.3481676     
  -49792050.3669503     
  -49793107.5511911     
  -49794167.2187838     
  -49795228.6841498     
  -49796291.2584768     
  -49797354.2499616     
  -49798416.9640600     
  -49799478.7037422     
  -49800538.7697536     
  -49801596.4608832     
  -49802651.0742373     
  -49803701.9055209     
  -49804748.2493255     
  -49805789.3994246     
  -49806824.6490760     
  -49807853.2913324     
  -49808874.6193597     
  -49747006.7891598     
  -49747673.1662673     
  -49748362.9180503     
  -49749075.5424275     
  -49749810.5276567     
  -49750567.3524895     
  -49751345.4863259     
  -49752144.3893720     
  -49752963.5127966     
  -49753802.2988908     
  -49754660.1812281     
  -49755536.5848266     
  -49756430.9263127     
  -49757342.6140865     
  -49758271.0484900     
  -49759215.6219761     
  -49760175.7192815     
  -49761150.7176005     
  -49762139.9867626     
  -49763142.8894117     
  -49764158.7811894     
  -49765187.0109198     
  -49766226.9207990     
  -49767277.8465865     
  -49768339.1178010     
  -49769410.0579193     
  -49770489.9845789     
  -49771578.2097849     
  -49772674.0401204     
  -49773776.7769617     
  -49774885.7166971     
  -49776000.1509512     
  -49777119.3668132     
  -49778242.6470701     
  -49779369.2704458     
  -49780498.5118441     
  -49781629.6425986     
  -49782761.9307273     
  -49783894.6411931     
  -49785027.0361712     
  -49786158.3753217     
  -49787287.9160693     
  -49788414.9138897     
  -49789538.6226030     
  -49790658.2946736     
  -49791773.1815189     
  -49792882.5338242     
  -49793985.6018668     
  -49795081.6358472     
  -49796169.8862299     
  -49730218.4633869     
  -49730929.6411380     
  -49731665.6952779     
  -49732426.0901055     
  -49733210.2796511     
  -49734017.7078463     
  -49734847.8086935     
  -49735700.0064380     
  -49736573.7157396     
  -49737468.3418467     
  -49738383.2807711     
  -49739317.9194651     
  -49740271.6359991     
  -49741243.7997429     
  -49742233.7715470     
  -49743240.9039278     
  -49744264.5412538     
  -49745304.0199353     
  -49746358.6686164     
  -49747427.8083689     
  -49748510.7528907     
  -49749606.8087063     
  -49750715.2753701     
  -49751835.4456745     
  -49752966.6058605     
  -49754108.0358317     
  -49755259.0093738     
  -49756418.7943762     
  -49757586.6530595     
  -49758761.8422058     
  -49759943.6133952     
  -49761131.2132461     
  -49762323.8836605     
  -49763520.8620747     
  -49764721.3817151     
  -49765924.6718604     
  -49767129.9581080     
  -49768336.4626477     
  -49769543.4045413     
  -49770750.0000082     
  -49771955.4627180     
  -49773159.0040897     
  -49774359.8335987     
  -49775557.1590904     
  -49776750.1871018     
  -49777938.1231911     
  -49779120.1722750     
  -49780295.5389753     
  -49781463.4279731     
  -49782623.0443735     
  -49712326.5038833     
  -49713085.2302556     
  -49713870.4290458     
  -49714681.5293317     
  -49715517.9492565     
  -49716379.0962140     
  -49717264.3670351     
  -49718173.1481751     
  -49719104.8159016     
  -49720058.7364842     
  -49721034.2663859     
  -49722030.7524551     
  -49723047.5321206     
  -49724083.9335875     
  -49725139.2760358     
  -49726212.8698208     
  -49727304.0166761     
  -49728412.0099192     
  -49729536.1346599     
  -49730675.6680108     
  -49731829.8793021     
  -49732998.0302985     
  -49734179.3754196     
  -49735373.1619649     
  -49736578.6303407     
  -49737795.0142926     
  -49739021.5411408     
  -49740257.4320204     
  -49741501.9021258     
  -49742754.1609598     
  -49744013.4125872     
  -49745278.8558941     
  -49746549.6848514     
  -49747825.0887849     
  -49749104.2526498     
  -49750386.3573122     
  -49751670.5798356     
  -49752956.0937746     
  -49754242.0694745     
  -49755527.6743780     
  -49756812.0733389     
  -49758094.4289430     
  -49759373.9018363     
  -49760649.6510619     
  -49761920.8344037     
  -49763186.6087398     
  -49764446.1304033     
  -49765698.5555534     
  -49766943.0405545     
  -49768178.7423659     
  -49693257.9410351     
  -49694067.1727435     
  -49694904.5730618     
  -49695769.5340850     
  -49696661.4362464     
  -49697579.6485200     
  -49698523.5286242     
  -49699492.4232260     
  -49700485.6681469     
  -49701502.5885697     
  -49702542.4992470     
  -49703604.7047114     
  -49704688.4994870     
  -49705793.1683038     
  -49706917.9863135     
  -49708062.2193074     
  -49709225.1239377     
  -49710405.9479409     
  -49711603.9303634     
  -49712818.3017912     
  -49714048.2845822     
  -49715293.0931014     
  -49716551.9339602     
  -49717824.0062593     
  -49719108.5018351     
  -49720404.6055105     
  -49721711.4953493     
  -49723028.3429162     
  -49724354.3135400     
  -49725688.5665828     
  -49727030.2557134     
  -49728378.5291865     
  -49729732.5301267     
  -49731091.3968191     
  -49732454.2630051     
  -49733820.2581841     
  -49735188.5079228     
  -49736558.1341695     
  -49737928.2555768     
  -49739297.9878302     
  -49740666.4439851     
  -49742032.7348107     
  -49743395.9691423     
  -49744755.2542420     
  -49746109.6961673     
  -49747458.4001495     
  -49748800.4709805     
  -49750135.0134093     
  -49751461.1325487     
  -49752777.9342919     
  -49672935.0362948     
  -49673797.9461999     
  -49674690.8276036     
  -49675613.0336847     
  -49676563.9051682     
  -49677542.7705469     
  -49678548.9463035     
  -49679581.7371339     
  -49680640.4361722     
  -49681724.3252162     
  -49682832.6749552     
  -49683964.7451992     
  -49685119.7851098     
  -49686297.0334340     
  -49687495.7187390     
  -49688715.0596500     
  -49689954.2650912     
  -49691212.5345282     
  -49692489.0582142     
  -49693783.0174395     
  -49695093.5847830     
  -49696419.9243687     
  -49697761.1921249     
  -49699116.5360472     
  -49700485.0964658     
  -49701866.0063171     
  -49703258.3914192     
  -49704661.3707526     
  -49706074.0567450     
  -49707495.5555621     
  -49708924.9674025     
  -49710361.3867990     
  -49711803.9029251     
  -49713251.5999077     
  -49714703.5571458     
  -49716158.8496355     
  -49717616.5483022     
  -49719075.7203391     
  -49720535.4295537     
  -49721994.7367209     
  -49723452.6999446     
  -49724908.3750272     
  -49726360.8158474     
  -49727809.0747464     
  -49729252.2029243     
  -49730689.2508444     
  -49732119.2686479     
  -49733541.3065791     
  -49734954.4154203     
  -49736357.6469376     
  -49651274.9611547     
  -49652194.9473331     
  -49653146.8218553     
  -49654129.8968625     
  -49655143.4711812     
  -49656186.8305649     
  -49657259.2479373     
  -49658359.9836361     
  -49659488.2856590     
  -49660643.3899102     
  -49661824.5204490     
  -49663030.8897405     
  -49664261.6989080     
  -49665516.1379872     
  -49666793.3861834     
  -49668092.6121307     
  -49669412.9741542     
  -49670753.6205347     
  -49672113.6897768     
  -49673492.3108797     
  -49674888.6036121     
  -49676301.6787900     
  -49677730.6385582     
  -49679174.5766769     
  -49680632.5788107     
  -49682103.7228236     
  -49683587.0790774     
  -49685081.7107354     
  -49686586.6740713     
  -49688101.0187828     
  -49689623.7883109     
  -49691154.0201648     
  -49692690.7462532     
  -49694232.9932212     
  -49695779.7827939     
  -49697330.1321267     
  -49698883.0541626     
  -49700437.5579967     
  -49701992.6492486     
  -49703547.3304422     
  -49705100.6013937     
  -49706651.4596089     
  -49708198.9006879     
  -49709741.9187406     
  -49711279.5068101     
  -49712810.6573075     
  -49714334.3624557     
  -49715849.6147444     
  -49717355.4073962     
  -49718850.7348440     
  -49628189.4501498     
  -49629170.1468801     
  -49630184.7707993     
  -49631232.5906825     
  -49632312.8610537     
  -49633424.8224503     
  -49634567.7016899     
  -49635740.7121365     
  -49636943.0539701     
  -49638173.9144563     
  -49639432.4682188     
  -49640717.8775129     
  -49642029.2925022     
  -49643365.8515363     
  -49644726.6814320     
  -49646110.8977562     
  -49647517.6051127     
  -49648945.8974307     
  -49650394.8582575     
  -49651863.5610537     
  -49653351.0694924     
  -49654856.4377619     
  -49656378.7108726     
  -49657916.9249673     
  -49659470.1076365     
  -49661037.2782380     
  -49662617.4482209     
  -49664209.6214549     
  -49665812.7945649     
  -49667425.9572705     
  -49669048.0927315     
  -49670678.1778993     
  -49672315.1838745     
  -49673958.0762707     
  -49675605.8155854     
  -49677257.3575770     
  -49678911.6536509     
  -49680567.6512505     
  -49682224.2942592     
  -49683880.5234075     
  -49685535.2766917     
  -49687187.4897985     
  -49688836.0965415     
  -49690480.0293055     
  -49692118.2195017     
  -49693749.5980325     
  -49695373.0957684     
  -49696987.6440345     
  -49698592.1751096     
  -49700185.6227372     
  -49603584.4259279     
  -49604629.7169223     
  -49605711.1048585     
  -49606827.8125817     
  -49607979.0476678     
  -49609164.0027138     
  -49610381.8556300     
  -49611631.7699327     
  -49612912.8950391     
  -49614224.3665636     
  -49615565.3066163     
  -49616934.8241031     
  -49618332.0150285     
  -49619755.9628008     
  -49621205.7385389     
  -49622680.4013834     
  -49624178.9988091     
  -49625700.5669414     
  -49627244.1308758     
  -49628808.7050006     
  -49630393.2933233     
  -49631996.8898009     
  -49633618.4786743     
  -49635257.0348066     
  -49636911.5240257     
  -49638580.9034726     
  -49640264.1219527     
  -49641960.1202941     
  -49643667.8317099     
  -49645386.1821668     
  -49647114.0907588     
  -49648850.4700883     
  -49650594.2266517     
  -49652344.2612335     
  -49654099.4693060     
  -49655858.7414370     
  -49657620.9637046     
  -49659385.0181202     
  -49661149.7830595     
  -49662914.1337019     
  -49664676.9424794     
  -49666437.0795341     
  -49668193.4131856     
  -49669944.8104085     
  -49671690.1373204     
  -49673428.2596807     
  -49675158.0434003     
  -49676878.3550637     
  -49678588.0624631     
  -49680286.0351445     
  -49577359.5940432     
  -49578473.6283652     
  -49579626.0701605     
  -49580816.0935101     
  -49582042.8561180     
  -49583305.4996310     
  -49584603.1499594     
  -49585934.9175994     
  -49587299.8979573     
  -49588697.1716755     
  -49590125.8049605     
  -49591584.8499133     
  -49593073.3448620     
  -49594590.3146965     
  -49596134.7712065     
  -49597705.7134220     
  -49599302.1279566     
  -49600922.9893542     
  -49602567.2604390     
  -49604233.8926687     
  -49605921.8264918     
  -49607629.9917085     
  -49609357.3078360     
  -49611102.6844773     
  -49612865.0216956     
  -49614643.2103925     
  -49616436.1326920     
  -49618242.6623284     
  -49620061.6650413     
  -49621891.9989747     
  -49623732.5150833     
  -49625582.0575444     
  -49627439.4641761     
  -49629303.5668631     
  -49631173.1919889     
  -49633047.1608759     
  -49634924.2902329     
  -49636803.3926109     
  -49638683.2768676     
  -49640562.7486402     
  -49642440.6108280     
  -49644315.6640842     
  -49646186.7073178     
  -49648052.5382060     
  -49649911.9537176     
  -49651763.7506474     
  -49653606.7261629     
  -49655439.6783623     
  -49657261.4068468     
  -49659070.7133045     
  -49549408.0047457     
  -49550595.2159929     
  -49551823.2969775     
  -49553091.3698648     
  -49554398.5392376     
  -49555743.8924483     
  -49557126.4999734     
  -49558545.4157692     
  -49559999.6776297     
  -49561488.3075462     
  -49563010.3120698     
  -49564564.6826747     
  -49566150.3961261     
  -49567766.4148481     
  -49569411.6872968     
  -49571085.1483343     
  -49572785.7196068     
  -49574512.3099257     
  -49576263.8156518     
  -49578039.1210832     
  -49579837.0988472     
  -49581656.6102951     
  -49583496.5059028     
  -49585355.6256738     
  -49587232.7995481     
  -49589126.8478155     
  -49591036.5815334     
  -49592960.8029507     
  -49594898.3059362     
  -49596847.8764133     
  -49598808.2928014     
  -49600778.3264616     
  -49602756.7421517     
  -49604742.2984856     
  -49606733.7484016     
  -49608729.8396378     
  -49610729.3152150     
  -49612730.9139290     
  -49614733.3708501     
  -49616735.4178330     
  -49618735.7840354     
  -49620733.1964467     
  -49622726.3804273     
  -49624714.0602584     
  -49626694.9597029     
  -49628667.8025786     
  -49630631.3133430     
  -49632584.2176917     
  -49634525.2431691     
  -49636453.1197938     
  -49519615.5786439     
  -49520880.7081582     
  -49522189.3335819     
  -49523540.5216363     
  -49524933.3201456     
  -49526366.7584285     
  -49527839.8476902     
  -49529351.5814170     
  -49530900.9357734     
  -49532486.8699998     
  -49534108.3268141     
  -49535764.2328147     
  -49537453.4988859     
  -49539175.0206066     
  -49540927.6786614     
  -49542710.3392539     
  -49544521.8545241     
  -49546361.0629684     
  -49548226.7898630     
  -49550117.8476906     
  -49552033.0365714     
  -49553971.1446970     
  -49555930.9487693     
  -49557911.2144431     
  -49559910.6967734     
  -49561928.1406669     
  -49563962.2813397     
  -49566011.8447785     
  -49568075.5482087     
  -49570152.1005673     
  -49572240.2029822     
  -49574338.5492578     
  -49576445.8263675     
  -49578560.7149521     
  -49580681.8898267     
  -49582808.0204951     
  -49584937.7716711     
  -49587069.8038099     
  -49589202.7736466     
  -49591335.3347455     
  -49593466.1380579     
  -49595593.8324906     
  -49597717.0654850     
  -49599834.4836070     
  -49601944.7331485     
  -49604046.4607416     
  -49606138.3139846     
  -49608218.9420817     
  -49610286.9964967     
  -49612341.1316205     
  -49487860.5927394     
  -49489208.7178278     
  -49490603.1424593     
  -49492042.8739264     
  -49493526.8991928     
  -49495054.1853294     
  -49496623.6799509     
  -49498234.3116554     
  -49499884.9904657     
  -49501574.6082728     
  -49503302.0392817     
  -49505066.1404597     
  -49506865.7519871     
  -49508699.6977098     
  -49510566.7855961     
  -49512465.8081947     
  -49514395.5430965     
  -49516354.7533992     
  -49518342.1881754     
  -49520356.5829435     
  -49522396.6601425     
  -49524461.1296109     
  -49526548.6890687     
  -49528658.0246037     
  -49530787.8111628     
  -49532936.7130472     
  -49535103.3844122     
  -49537286.4697728     
  -49539484.6045139     
  -49541696.4154068     
  -49543920.5211304     
  -49546155.5328003     
  -49548400.0545027     
  -49550652.6838363     
  -49552912.0124615     
  -49555176.6266559     
  -49557445.1078799     
  -49559716.0333482     
  -49561987.9766128     
  -49564259.5081532     
  -49566529.1959774     
  -49568795.6062330     
  -49571057.3038289     
  -49573312.8530682     
  -49575560.8182936     
  -49577799.7645442     
  -49580028.2582260     
  -49582244.8677960     
  -49584448.1644597     
  -49586636.7228848     
  -49454013.1229593     
  -49455449.6913847     
  -49456935.5555478     
  -49458469.6587745     
  -49460050.9225023     
  -49461678.2467679     
  -49463350.5106962     
  -49465066.5729921     
  -49466825.2724342     
  -49468625.4283702     
  -49470465.8412151     
  -49472345.2929514     
  -49474262.5476318     
  -49476216.3518841     
  -49478205.4354190     
  -49480228.5115399     
  -49482284.2776559     
  -49484371.4157976     
  -49486488.5931357     
  -49488634.4625027     
  -49490807.6629179     
  -49493006.8201159     
  -49495230.5470790     
  -49497477.4445723     
  -49499746.1016845     
  -49502035.0963715     
  -49504342.9960052     
  -49506668.3579267     
  -49509009.7300052     
  -49511365.6512012     
  -49513734.6521361     
  -49516115.2556678     
  -49518505.9774715     
  -49520905.3266288     
  -49523311.8062227     
  -49525723.9139399     
  -49528140.1426821     
  -49530558.9811845     
  -49532978.9146434     
  -49535398.4253532     
  -49537815.9933532     
  -49540230.0970840     
  -49542639.2140558     
  -49545041.8215268     
  -49547436.3971950     
  -49549821.4199013     
  -49552195.3703463     
  -49554556.7318215     
  -49556903.9909541     
  -49559235.6384675     
  -49417934.4389643     
  -49419465.3112938     
  -49421048.6849394     
  -49422683.4340463     
  -49424368.4091737     
  -49426102.4378432     
  -49427884.3250894     
  -49429712.8540131     
  -49431586.7863352     
  -49433504.8629541     
  -49435465.8045043     
  -49437468.3119169     
  -49439511.0669829     
  -49441592.7329182     
  -49443711.9549306     
  -49445867.3607893     
  -49448057.5613971     
  -49450281.1513642     
  -49452536.7095855     
  -49454822.7998195     
  -49457137.9712712     
  -49459480.7591771     
  -49461849.6853935     
  -49464243.2589888     
  -49466659.9768379     
  -49469098.3242224     
  -49471556.7754326     
  -49474033.7943758     
  -49476527.8351876     
  -49479037.3428491     
  -49481560.7538084     
  -49484096.4966087     
  -49486642.9925211     
  -49489198.6561846     
  -49491761.8962522     
  -49494331.1160444     
  -49496904.7142102     
  -49499481.0853957     
  -49502058.6209222     
  -49504635.7094717     
  -49507210.7377840     
  -49509782.0913618     
  -49512348.1551886     
  -49514907.3144562     
  -49517457.9553050     
  -49519998.4655767     
  -49522527.2355806     
  -49525042.6588737     
  -49527543.1330556     
  -49530027.0605786     
  -49379476.3467185     
  -49381107.8485110     
  -49382795.2853064     
  -49384537.4560258     
  -49386333.1341595     
  -49388181.0683887     
  -49390079.9832074     
  -49392028.5795472     
  -49394025.5354041     
  -49396069.5064662     
  -49398159.1267435     
  -49400293.0091991     
  -49402469.7463827     
  -49404687.9110648     
  -49406946.0568732     
  -49409242.7189309     
  -49411576.4144960     
  -49413945.6436035     
  -49416348.8897082     
  -49418784.6203308     
  -49421251.2877053     
  -49423747.3294292     
  -49426271.1691157     
  -49428821.2170487     
  -49431395.8708409     
  -49433993.5160946     
  -49436612.5270659     
  -49439251.2673329     
  -49441908.0904669     
  -49444581.3407086     
  -49447269.3536485     
  -49449970.4569119     
  -49452682.9708496     
  -49455405.2092343     
  -49458135.4799623     
  -49460872.0857625     
  -49463613.3249127     
  -49466357.4919624     
  -49469102.8784639     
  -49471847.7737133     
  -49474590.4654987     
  -49477329.2408595     
  -49480062.3868562     
  -49482788.1913504     
  -49485504.9437972     
  -49488210.9360503     
  -49490904.4631799     
  -49493583.8243047     
  -49496247.3234391     
  -49498893.2703558     
  -49338480.4740838     
  -49340219.4603658     
  -49342018.0642374     
  -49343875.0023351     
  -49345788.9638672     
  -49347758.6113202     
  -49349782.5811665     
  -49351859.4845737     
  -49353987.9081153     
  -49356166.4144822     
  -49358393.5431954     
  -49360667.8113195     
  -49362987.7141775     
  -49365351.7260664     
  -49367758.3009732     
  -49370205.8732922     
  -49372692.8585431     
  -49375217.6540902     
  -49377778.6398620     
  -49380374.1790728     
  -49383002.6189445     
  -49385662.2914305     
  -49388351.5139404     
  -49391068.5900672     
  -49393811.8103155     
  -49396579.4528321     
  -49399369.7841393     
  -49402181.0598698     
  -49405011.5255058     
  -49407859.4171204     
  -49410722.9621225     
  -49413600.3800066     
  -49416489.8831060     
  -49419389.6773509     
  -49422297.9630325     
  -49425212.9355718     
  -49428132.7862956     
  -49431055.7032186     
  -49433979.8718330     
  -49436903.4759064     
  -49439824.6982881     
  -49442741.7217243     
  -49445652.7296841     
  -49448555.9071950     
  -49451449.4416912     
  -49454331.5238725     
  -49457200.3485781     
  -49460054.1156723     
  -49462891.0309463     
  -49465709.3070355     
  -49294777.4945938     
  -49296631.4296120     
  -49298548.9367045     
  -49300528.6419175     
  -49302569.1417147     
  -49304669.0037848     
  -49306826.7678499     
  -49309040.9464744     
  -49311310.0258742     
  -49313632.4667261     
  -49316006.7049778     
  -49318431.1526572     
  -49320904.1986820     
  -49323424.2096689     
  -49325989.5307425     
  -49328598.4863441     
  -49331249.3810396     
  -49333940.5003282     
  -49336670.1114490     
  -49339436.4641896     
  -49342237.7916924     
  -49345072.3112626     
  -49347938.2251754     
  -49350833.7214837     
  -49353756.9748265     
  -49356706.1472377     
  -49359679.3889562     
  -49362674.8392371     
  -49365690.6271647     
  -49368724.8724670     
  -49371775.6863331     
  -49374841.1722328     
  -49377919.4267395     
  -49381008.5403570     
  -49384106.5983499     
  -49387211.6815793     
  -49390321.8673428     
  -49393435.2302210     
  -49396549.8429302     
  -49399663.7771820     
  -49402775.1045509     
  -49405881.8973499     
  -49408982.2295161     
  -49412074.1775053     
  -49415155.8211981     
  -49418225.2448176     
  -49421280.5378594     
  -49424319.7960351     
  -49427341.1222306     
  -49430342.6274790     
  -49248186.2846150     
  -49250163.3404842     
  -49252208.2201040     
  -49254319.4491035     
  -49256495.5212207     
  -49258734.8992293     
  -49261036.0158658     
  -49263397.2747547     
  -49265817.0513346     
  -49268293.6937814     
  -49270825.5239317     
  -49273410.8382038     
  -49276047.9085175     
  -49278734.9832119     
  -49281470.2879612     
  -49284252.0266891     
  -49287078.3824805     
  -49289947.5184913     
  -49292857.5788569     
  -49295806.6895978     
  -49298792.9595236     
  -49301814.4811357     
  -49304869.3315275     
  -49307955.5732842     
  -49311071.2553804     
  -49314214.4140770     
  -49317383.0738175     
  -49320575.2481240     
  -49323788.9404921     
  -49327022.1452878     
  -49330272.8486431     
  -49333539.0293542     
  -49336818.6597805     
  -49340109.7067460     
  -49343410.1324430     
  -49346717.8953394     
  -49350030.9510893     
  -49353347.2534485     
  -49356664.7551948     
  -49359981.4090540     
  -49363295.1686333     
  -49366603.9893606     
  -49369905.8294335     
  -49373198.6507764     
  -49376480.4200077     
  -49379749.1094181     
  -49383002.6979604     
  -49386239.1722524     
  -49389456.5275940     
  -49392652.7689978     
  -49198513.0093787     
  -49200622.1879544     
  -49202803.7667486     
  -49205056.1592974     
  -49207377.7447917     
  -49209766.8691457     
  -49212221.8460619     
  -49214740.9580947     
  -49217322.4577115     
  -49219964.5683497     
  -49222665.4854720     
  -49225423.3776168     
  -49228236.3874457     
  -49231102.6327870     
  -49234020.2076747     
  -49236987.1833837     
  -49240001.6094609     
  -49243061.5147514     
  -49246164.9084213     
  -49249309.7809755     
  -49252494.1052713     
  -49255715.8375289     
  -49258972.9183366     
  -49262263.2736535     
  -49265584.8158076     
  -49268935.4444916     
  -49272313.0477549     
  -49275715.5029933     
  -49279140.6779369     
  -49282586.4316349     
  -49286050.6154401     
  -49289531.0739920     
  -49293025.6461995     
  -49296532.1662235     
  -49300048.4644604     
  -49303572.3685273     
  -49307101.7042483     
  -49310634.2966443     
  -49314167.9709259     
  -49317700.5534907     
  -49321229.8729256     
  -49324753.7610148     
  -49328270.0537549     
  -49331776.5923779     
  -49335271.2243824     
  -49338751.8045753     
  -49342216.1961234     
  -49345662.2716180     
  -49349087.9141518     
  -49352491.0184102     
  -49145550.1339346     
  -49147801.4170433     
  -49150130.0314309     
  -49152534.2646269     
  -49155012.3672367     
  -49157562.5541748     
  -49160183.0058929     
  -49162871.8696045     
  -49165627.2605033     
  -49168447.2629766     
  -49171329.9318124     
  -49174273.2934006     
  -49177275.3469273     
  -49180334.0655626     
  -49183447.3976416     
  -49186613.2678379     
  -49189829.5783306     
  -49193094.2099634     
  -49196405.0233969     
  -49199759.8602535     
  -49203156.5442556     
  -49206592.8823560     
  -49210066.6658624     
  -49213575.6715545     
  -49217117.6627953     
  -49220690.3906355     
  -49224291.5949132     
  -49227919.0053472     
  -49231570.3426256     
  -49235243.3194904     
  -49238935.6418169     
  -49242645.0096910     
  -49246369.1184820     
  -49250105.6599146     
  -49253852.3231379     
  -49257606.7957944     
  -49261366.7650884     
  -49265129.9188546     
  -49268893.9466289     
  -49272656.5407209     
  -49276415.3972895     
  -49280168.2174231     
  -49283912.7082243     
  -49287646.5839015     
  -49291367.5668669     
  -49295073.3888434     
  -49298761.7919812     
  -49302430.5299842     
  -49306077.3692497     
  -49309700.0900201     
  -49089075.3560389     
  -49091479.8900841     
  -49093967.0727912     
  -49096535.0490802     
  -49099181.9242749     
  -49101905.7655296     
  -49104704.6032480     
  -49107576.4324940     
  -49110519.2143940     
  -49113530.8775297     
  -49116609.3193222     
  -49119752.4074050     
  -49122957.9809881     
  -49126223.8522110     
  -49129547.8074849     
  -49132927.6088247     
  -49136360.9951696     
  -49139845.6836932     
  -49143379.3711018     
  -49146959.7349232     
  -49150584.4347833     
  -49154251.1136725     
  -49157957.3992021     
  -49161700.9048500     
  -49165479.2311962     
  -49169289.9671492     
  -49173130.6911628     
  -49176998.9724443     
  -49180892.3721540     
  -49184808.4445977     
  -49188744.7384105     
  -49192698.7977354     
  -49196668.1633953     
  -49200650.3740593     
  -49204642.9674051     
  -49208643.4812773     
  -49212649.4548432     
  -49216658.4297457     
  -49220667.9512559     
  -49224675.5694252     
  -49228678.8402381     
  -49232675.3267679     
  -49236662.6003335     
  -49240638.2416627     
  -49244599.8420589     
  -49248545.0045756     
  -49252471.3451984     
  -49256376.4940363     
  -49260258.0965233     
  -49264113.8146325     
  -49028850.4594494     
  -49031420.7813725     
  -49034079.4888258     
  -49036824.5643033     
  -49039653.9479894     
  -49042565.5394110     
  -49045557.1990771     
  -49048626.7501056     
  -49051771.9798371     
  -49054990.6414354     
  -49058280.4554728     
  -49061639.1115018     
  -49065064.2696113     
  -49068553.5619681     
  -49072104.5943428     
  -49075714.9476194     
  -49079382.1792914     
  -49083103.8249396     
  -49086877.3996963     
  -49090700.3996931     
  -49094570.3034933     
  -49098484.5735091     
  -49102440.6574043     
  -49106435.9894815     
  -49110467.9920557     
  -49114534.0768137     
  -49118631.6461598     
  -49122758.0945490     
  -49126910.8098075     
  -49131087.1744418     
  -49135284.5669359     
  -49139500.3630387     
  -49143731.9370420     
  -49147976.6630491     
  -49152231.9162350     
  -49156495.0741010     
  -49160763.5177218     
  -49165034.6329877     
  -49169305.8118433     
  -49173574.4535226     
  -49177837.9657825     
  -49182093.7661356     
  -49186339.2830832     
  -49190571.9573509     
  -49194789.2431267     
  -49198988.6093035     
  -49203167.5407283     
  -49207323.5394581     
  -49211454.1260251     
  -49215556.8407123     
  -48964620.0881962     
  -48967370.4007906     
  -48970215.2890612     
  -48973152.5494513     
  -48976179.9334147     
  -48979295.1493275     
  -48982495.8643819     
  -48985779.7064619     
  -48989144.2659994     
  -48992587.0978112     
  -48996105.7229146     
  -48999697.6303240     
  -49003360.2788254     
  -49007091.0987301     
  -49010887.4936075     
  -49014746.8419954     
  -49018666.4990904     
  -49022643.7984149     
  -49026676.0534646     
  -49030760.5593332     
  -49034894.5943171     
  -49039075.4214987     
  -49043300.2903099     
  -49047566.4380745     
  -49051871.0915327     
  -49056211.4683445     
  -49060584.7785763     
  -49064988.2261686     
  -49069419.0103870     
  -49073874.3272564     
  -49078351.3709796     
  -49082847.3353411     
  -49087359.4150972     
  -49091884.8073524     
  -49096420.7129243     
  -49100964.3376976     
  -49105512.8939676     
  -49110063.6017755     
  -49114613.6902363     
  -49119160.3988595     
  -49123700.9788657     
  -49128232.6944988     
  -49132752.8243367     
  -49137258.6626000     
  -49141747.5204623     
  -49146216.7273622     
  -49150663.6323189     
  -49155085.6052532     
  -49159480.0383155     
  -49163844.3472227     
  -48896110.4452806     
  -48899056.9509029     
  -48902104.7088485     
  -48905251.3014104     
  -48908494.2633480     
  -48911831.0840974     
  -48915259.2099562     
  -48918776.0462425     
  -48922378.9594266     
  -48926065.2792358     
  -48929832.3007308     
  -48933677.2863552     
  -48937597.4679544     
  -48941590.0487687     
  -48945652.2053950     
  -48949781.0897216     
  -48953973.8308334     
  -48958227.5368886     
  -48962539.2969674     
  -48966906.1828919     
  -48971325.2510184     
  -48975793.5440028     
  -48980308.0925380     
  -48984865.9170658     
  -48989464.0294623     
  -48994099.4346985     
  -48998769.1324762     
  -49003470.1188402     
  -49008199.3877678     
  -49012953.9327362     
  -49017730.7482689     
  -49022526.8314619     
  -49027339.1834912     
  -49032164.8111026     
  -49037000.7280843     
  -49041843.9567244     
  -49046691.5292541     
  -49051540.4892783     
  -49056387.8931942     
  -49061230.8116002     
  -49066066.3306960     
  -49070891.5536757     
  -49075703.6021153     
  -49080499.6173564     
  -49085276.7618873     
  -49090032.2207237     
  -49094763.2027908     
  -49099466.9423083     
  -49104140.7001794     
  -49108781.7653881     
  -48823027.9231160     
  -48826189.2258743     
  -48829458.9750498     
  -48832834.5054734     
  -48836313.1021742     
  -48839892.0029294     
  -48843568.4007794     
  -48847339.4465057     
  -48851202.2510740     
  -48855153.8880390     
  -48859191.3959130     
  -48863311.7804959     
  -48867512.0171689     
  -48871789.0531486     
  -48876139.8097052     
  -48880561.1843416     
  -48885050.0529357     
  -48889603.2718451     
  -48894217.6799757     
  -48898890.1008124     
  -48903617.3444156     
  -48908396.2093808     
  -48913223.4847643     
  -48918095.9519747     
  -48923010.3866313     
  -48927963.5603895     
  -48932952.2427360     
  -48937973.2027522     
  -48943023.2108492     
  -48948099.0404735     
  -48953197.4697867     
  -48958315.2833184     
  -48963449.2735950     
  -48968596.2427444     
  -48973753.0040799     
  -48978916.3836626     
  -48984083.2218454     
  -48989250.3747991     
  -48994414.7160232     
  -48999573.1378417     
  -49004722.5528867     
  -49009859.8955716     
  -49014982.1235544     
  -49020086.2191942     
  -49025169.1910022     
  -49030228.0750897     
  -49035259.9366135     
  -49040261.8712230     
  -49045231.0065090     
  -49050164.5034574     
  -48745057.6780743     
  -48748455.2655383     
  -48751969.0372717     
  -48755596.0413237     
  -48759333.2741344     
  -48763177.6834668     
  -48767126.1712908     
  -48771175.5966200     
  -48775322.7782996     
  -48779564.4977451     
  -48783897.5016333     
  -48788318.5045428     
  -48792824.1915469     
  -48797411.2207563     
  -48802076.2258136     
  -48806815.8183400     
  -48811626.5903328     
  -48816505.1165163     
  -48821447.9566453     
  -48826451.6577627     
  -48831512.7564110     
  -48836627.7808001     
  -48841793.2529298     
  -48847005.6906712     
  -48852261.6098050     
  -48857557.5260198     
  -48862889.9568708     
  -48868255.4237005     
  -48873650.4535220     
  -48879071.5808676     
  -48884515.3496023     
  -48889978.3147060     
  -48895457.0440234     
  -48900948.1199856     
  -48906448.1413028     
  -48911953.7246324     
  -48917461.5062213     
  -48922968.1435267     
  -48928470.3168159     
  -48933964.7307474     
  -48939448.1159353     
  -48944917.2304988     
  -48950368.8615985     
  -48955799.8269628     
  -48961206.9764051     
  -48966587.1933347     
  -48971937.3962632     
  -48977254.5403093     
  -48982535.6187032     
  -48987777.6642946     
  -48661862.1679764     
  -48665520.9842665     
  -48669304.2849538     
  -48673208.7851403     
  -48677231.1472109     
  -48681367.9841891     
  -48685615.8630319     
  -48689971.3078600     
  -48694430.8031262     
  -48698990.7967200     
  -48703647.7030093     
  -48708397.9058188     
  -48713237.7613463     
  -48718163.6010160     
  -48723171.7342707     
  -48728258.4513024     
  -48733420.0257224     
  -48738652.7171721     
  -48743952.7738751     
  -48749316.4351308     
  -48754739.9337527     
  -48760219.4984494     
  -48765751.3561534     
  -48771331.7342954     
  -48776956.8630277     
  -48782622.9773978     
  -48788326.3194727     
  -48794063.1404172     
  -48799829.7025266     
  -48805622.2812152     
  -48811437.1669646     
  -48817270.6672305     
  -48823119.1083124     
  -48828978.8371872     
  -48834846.2233086     
  -48840717.6603739     
  -48846589.5680622     
  -48852458.3937433     
  -48858320.6141621     
  -48864172.7370986     
  -48870011.3030077     
  -48875832.8866395     
  -48881634.0986429     
  -48887411.5871552     
  -48893162.0393803     
  -48898882.1831567     
  -48904568.7885190     
  -48910218.6692552     
  -48915828.6844619     
  -48921395.7400995     
  -48573079.6795398     
  -48577028.8022133     
  -48581111.2782617     
  -48585323.4359733     
  -48589661.5508120     
  -48594121.8492394     
  -48598700.5124565     
  -48603393.6800632     
  -48608197.4536375     
  -48613107.9002346     
  -48618121.0558049     
  -48623232.9285333     
  -48628439.5020987     
  -48633736.7388563     
  -48639120.5829418     
  -48644586.9633006     
  -48650131.7966406     
  -48655750.9903129     
  -48661440.4451186     
  -48667196.0580454     
  -48673013.7249351     
  -48678889.3430822     
  -48684818.8137674     
  -48690798.0447266     
  -48696822.9525568     
  -48702889.4650622     
  -48708993.5235408     
  -48715131.0850154     
  -48721298.1244098     
  -48727490.6366722     
  -48733704.6388492     
  -48739936.1721116     
  -48746181.3037350     
  -48752436.1290371     
  -48758696.7732742     
  -48764959.3934993     
  -48771220.1803850     
  -48777475.3600123     
  -48783721.1956293     
  -48789953.9893814     
  -48796170.0840163     
  -48802365.8645656     
  -48808537.7600069     
  -48814682.2449077     
  -48820795.8410550     
  -48826875.1190730     
  -48832916.7000310     
  -48838917.2570458     
  -48844873.5168792     
  -48850782.2615360     
  -48478322.8829844     
  -48482596.3163046     
  -48487012.5301128     
  -48491567.4034803     
  -48496256.7639266     
  -48501076.3917439     
  -48506022.0242180     
  -48511089.3597463     
  -48516274.0618538     
  -48521571.7631082     
  -48526978.0689340     
  -48532488.5613279     
  -48538098.8024763     
  -48543804.3382757     
  -48549600.7017588     
  -48555483.4164265     
  -48561447.9994882     
  -48567489.9650131     
  -48573604.8269920     
  -48579788.1023141     
  -48586035.3136604     
  -48592341.9923138     
  -48598703.6808915     
  -48605115.9359993     
  -48611574.3308118     
  -48618074.4575797     
  -48624611.9300686     
  -48631182.3859297     
  -48637781.4890066     
  -48644404.9315804     
  -48651048.4365558     
  -48657707.7595910     
  -48664378.6911746     
  -48671057.0586515     
  -48677738.7282017     
  -48684419.6067743     
  -48691095.6439801     
  -48697762.8339452     
  -48704417.2171290     
  -48711054.8821101     
  -48717671.9673421     
  -48724264.6628829     
  -48730829.2121010     
  -48737361.9133618     
  -48743859.1216958     
  -48750317.2504534     
  -48756732.7729493     
  -48763102.2240982     
  -48769422.2020467     
  -48775689.3698040     
  -48377177.4635171     
  -48381815.0602958     
  -48386605.3880299     
  -48391543.8048730     
  -48396625.6205444     
  -48401846.1011832     
  -48407200.4740737     
  -48412683.9322410     
  -48418291.6389204     
  -48424018.7319008     
  -48429860.3277447     
  -48435811.5258861     
  -48441867.4126078     
  -48448023.0649019     
  -48454273.5542141     
  -48460613.9500747     
  -48467039.3236192     
  -48473544.7510004     
  -48480125.3166949     
  -48486776.1167073     
  -48493492.2616741     
  -48500268.8798704     
  -48507101.1201233     
  -48513984.1546332     
  -48520913.1817087     
  -48527883.4284155     
  -48534890.1531446     
  -48541928.6481022     
  -48548994.2417247     
  -48556082.3010219     
  -48563188.2338534     
  -48570307.4911380     
  -48577435.5690047     
  -48584568.0108837     
  -48591700.4095443     
  -48598828.4090823     
  -48605947.7068592     
  -48613054.0553988     
  -48620143.2642437     
  -48627211.2017743     
  -48634253.7969966     
  -48641267.0412991     
  -48648246.9901848     
  -48655189.7649809     
  -48662091.5545305     
  -48668948.6168675     
  -48675757.2808827     
  -48682513.9479799     
  -48689215.0937289     
  -48695857.2695171     
  -48269200.8946435     
  -48274249.4176751     
  -48279461.0781720     
  -48284830.6317553     
  -48290352.7911367     
  -48296022.2315197     
  -48301833.5958380     
  -48307781.4998365     
  -48313860.5369964     
  -48320065.2833058     
  -48326390.3018806     
  -48332830.1474358     
  -48339379.3706136     
  -48346032.5221677     
  -48352784.1570101     
  -48359628.8381221     
  -48366561.1403328     
  -48373575.6539695     
  -48380666.9883835     
  -48387829.7753537     
  -48395058.6723739     
  -48402348.3658253     
  -48409693.5740402     
  -48417089.0502592     
  -48424529.5854869     
  -48432010.0112495     
  -48439525.2022593     
  -48447070.0789884     
  -48454639.6101582     
  -48462228.8151467     
  -48469832.7663186     
  -48477446.5912834     
  -48485065.4750830     
  -48492684.6623166     
  -48500299.4592042     
  -48507905.2355940     
  -48515497.4269181     
  -48523071.5361007     
  -48530623.1354224     
  -48538147.8683456     
  -48545641.4513046     
  -48553099.6754646     
  -48560518.4084544     
  -48567893.5960758     
  -48575221.2639954     
  -48582497.5194206     
  -48589718.5527665     
  -48596880.6393159     
  -48603980.1408768     
  -48611013.5074420     
  -48153921.4365917     
  -48159435.7684753     
  -48165123.9901111     
  -48170980.1626775     
  -48176998.3130515     
  -48183172.4397513     
  -48189496.5186814     
  -48195964.5086861     
  -48202570.3569125     
  -48209308.0039886     
  -48216171.3890204     
  -48223154.4544101     
  -48230251.1505021     
  -48237455.4400605     
  -48244761.3025805     
  -48252162.7384412     
  -48259653.7729028     
  -48267228.4599523     
  -48274880.8860043     
  -48282605.1734600     
  -48290395.4841299     
  -48298246.0225263     
  -48306151.0390275     
  -48314104.8329229     
  -48322101.7553398     
  -48330136.2120602     
  -48338202.6662315     
  -48346295.6409751     
  -48354409.7219000     
  -48362539.5595253     
  -48370679.8716167     
  -48378825.4454426     
  -48386971.1399546     
  -48395111.8878976     
  -48403242.6978543     
  -48411358.6562292     
  -48419454.9291775     
  -48427526.7644839     
  -48435569.4933950     
  -48443578.5324120     
  -48451549.3850480     
  -48459477.6435535     
  -48467358.9906168     
  -48475189.2010429     
  -48482964.1434164     
  -48490679.7817514     
  -48498332.1771359     
  -48505917.4893720     
  -48513431.9786193     
  -48520872.0070441     
  -48030837.4649725     
  -48036881.9715304     
  -48043111.3000185     
  -48049518.7149442     
  -48056097.4589965     
  -48062840.7595011     
  -48069741.8346380     
  -48076793.8994285     
  -48083990.1714947     
  -48091323.8765974     
  -48098788.2539593     
  -48106376.5613777     
  -48114082.0801329     
  -48121898.1196981     
  -48129818.0222570     
  -48137835.1670347     
  -48145942.9744481     
  -48154134.9100821     
  -48162404.4884974     
  -48170745.2768766     
  -48179150.8985140     
  -48187615.0361565     
  -48196131.4352011     
  -48204693.9067549     
  -48213296.3305653     
  -48221932.6578252     
  -48230596.9138603     
  -48239283.2007045     
  -48247985.6995695     
  -48256698.6732157     
  -48265416.4682290     
  -48274133.5172112     
  -48282844.3408889     
  -48291543.5501484     
  -48300225.8480011     
  -48308886.0314861     
  -48317518.9935166     
  -48326119.7246740     
  -48334683.3149583     
  -48343204.9554984     
  -48351679.9402279     
  -48360103.6675346     
  -48368471.6418856     
  -48376779.4754367     
  -48385022.8896297     
  -48393197.7167829     
  -48401299.9016821     
  -48409325.5031740     
  -48417270.6957700     
  -48425131.7712644     
  -47899417.2606037     
  -47906067.3077507     
  -47912913.0522053     
  -47919946.8497366     
  -47927161.0515736     
  -47934548.0113095     
  -47942100.0915231     
  -47949809.6701260     
  -47957669.1464422     
  -47965670.9470262     
  -47973807.5312294     
  -47982071.3965201     
  -47990455.0835664     
  -47998951.1810891     
  -48007552.3304915     
  -48016251.2302759     
  -48025040.6402517     
  -48033913.3855463     
  -48042862.3604234     
  -48051880.5319192     
  -48060960.9433028     
  -48070096.7173683     
  -48079281.0595684     
  -48088507.2609947     
  -48097768.7012149     
  -48107058.8509729     
  -48116371.2747595     
  -48125699.6332632     
  -48135037.6857052     
  -48144379.2920711     
  -48153718.4152412     
  -48163049.1230307     
  -48172365.5901458     
  -48181662.1000626     
  -48190933.0468368     
  -48200172.9368502     
  -48209376.3905023     
  -48218538.1438524     
  -48227653.0502203     
  -48236716.0817521     
  -48245722.3309564     
  -48254667.0122194     
  -48263545.4633040     
  -48272353.1468394     
  -48281085.6518083     
  -48289738.6950360     
  -48298308.1226896     
  -48306789.9117914     
  -48315180.1717533     
  -48323475.1459377     
  -47759099.4216233     
  -47766443.0379659     
  -47773992.8447231     
  -47781740.1681886     
  -47789676.3532396     
  -47797792.7705815     
  -47806080.8236606     
  -47814531.9552559     
  -47823137.6537576     
  -47831889.4591440     
  -47840778.9686650     
  -47849797.8422436     
  -47858937.8076036     
  -47868190.6651348     
  -47877548.2925052     
  -47887002.6490296     
  -47896545.7798047     
  -47906169.8196211     
  -47915866.9966610     
  -47925629.6359924     
  -47935450.1628689     
  -47945321.1058442     
  -47955235.0997127     
  -47965184.8882834     
  -47975163.3269986     
  -47985163.3854053     
  -47995178.1494891     
  -48005200.8238806     
  -48015224.7339408     
  -48025243.3277384     
  -48035250.1779243     
  -48045238.9835137     
  -48055203.5715843     
  -48065137.8988996     
  -48075036.0534641     
  -48084892.2560205     
  -48094700.8614962     
  -48104456.3604075     
  -48114153.3802283     
  -48123786.6867331     
  -48133351.1853203     
  -48142841.9223235     
  -48152254.0863192     
  -48161583.0094368     
  -48170824.1686798     
  -48179973.1872624     
  -48189025.8359712     
  -48197978.0345571     
  -48206825.8531644     
  -48215565.5138031     
  -47609294.0940799     
  -47617433.7611668     
  -47625789.2942815     
  -47634350.8629135     
  -47643108.6852818     
  -47652053.0357547     
  -47661174.2518862     
  -47670462.7410800     
  -47679908.9868949     
  -47689503.5550042     
  -47699237.0988200     
  -47709100.3647977     
  -47719084.1974312     
  -47729179.5439513     
  -47739377.4587413     
  -47749669.1074805     
  -47760045.7710282     
  -47770498.8490613     
  -47781019.8634763     
  -47791600.4615687     
  -47802232.4190010     
  -47812907.6425711     
  -47823618.1727929     
  -47834356.1863010     
  -47845113.9980901     
  -47855884.0635999     
  -47866658.9806584     
  -47877431.4912932     
  -47888194.4834210     
  -47898940.9924274     
  -47909664.2026468     
  -47920357.4487520     
  -47931014.2170651     
  -47941628.1467984     
  -47952193.0312356     
  -47962702.8188635     
  -47973151.6144621     
  -47983533.6801646     
  -47993843.4364948     
  -48004075.4633908     
  -48014224.5012251     
  -48024285.4518289     
  -48034253.3795285     
  -48044123.5122033     
  -48053891.2423725     
  -48063552.1283192     
  -48073101.8952585     
  -48082536.4365587     
  -48091851.8150212     
  -48101044.2642284     
  -47449385.2575802     
  -47458439.7959545     
  -47467718.4893591     
  -47477210.2198122     
  -47486903.9565237     
  -47496788.7632550     
  -47506853.8052414     
  -47517088.3556914     
  -47527481.8018789     
  -47538023.6508460     
  -47548703.5347290     
  -47559511.2157267     
  -47570436.5907245     
  -47581469.6955906     
  -47592600.7091588     
  -47603819.9569144     
  -47615117.9143963     
  -47626485.2103328     
  -47637912.6295217     
  -47649391.1154746     
  -47660911.7728336     
  -47672465.8695801     
  -47684044.8390453     
  -47695640.2817388     
  -47707243.9670072     
  -47718847.8345371     
  -47730443.9957144     
  -47742024.7348543     
  -47753582.5103126     
  -47765109.9554932     
  -47776599.8797615     
  -47788045.2692773     
  -47799439.2877590     
  -47810775.2771897     
  -47822046.7584769     
  -47833247.4320777     
  -47844371.1785991     
  -47855412.0593851     
  -47866364.3171012     
  -47877222.3763245     
  -47887980.8441527     
  -47898634.5108395     
  -47909178.3504659     
  -47919607.5216584     
  -47929917.3683619     
  -47940103.4206769     
  -47950161.3957691     
  -47960087.1988607     
  -47969876.9243114     
  -47979526.8567967     
  -47278734.3487811     
  -47288840.8500508     
  -47299177.6783703     
  -47309732.2990213     
  -47320492.3126434     
  -47331445.4622157     
  -47342579.6395448     
  -47353882.8912804     
  -47365343.4244771     
  -47376949.6117231     
  -47388689.9958552     
  -47400553.2942790     
  -47412528.4029134     
  -47424604.3997787     
  -47436770.5482464     
  -47449016.2999688     
  -47461331.2975076     
  -47473705.3766777     
  -47486128.5686246     
  -47498591.1016528     
  -47511083.4028217     
  -47523596.0993257     
  -47536120.0196751     
  -47548646.1946941     
  -47561165.8583505     
  -47573670.4484351     
  -47586151.6071029     
  -47598601.1812935     
  -47611011.2230446     
  -47623373.9897119     
  -47635681.9441119     
  -47647927.7545984     
  -47660104.2950891     
  -47672204.6450528     
  -47684222.0894731     
  -47696150.1187981     
  -47707982.4288913     
  -47719712.9209941     
  -47731335.7017122     
  -47742845.0830378     
  -47754235.5824188     
  -47765501.9228855     
  -47776639.0332468     
  -47787642.0483652     
  -47798506.3095215     
  -47809227.3648794     
  -47819800.9700598     
  -47830223.0888339     
  -47840489.8939443     
  -47850597.7680646     
  -47096685.5581058     
  -47108001.2902881     
  -47119550.4824217     
  -47131319.0617720     
  -47143293.1502851     
  -47155459.0707690     
  -47167803.3525302     
  -47180312.7364903     
  -47192974.1798070     
  -47205774.8600228     
  -47218702.1787667     
  -47231743.7650299     
  -47244887.4780404     
  -47258121.4097583     
  -47271433.8870135     
  -47284813.4733090     
  -47298248.9703087     
  -47311729.4190344     
  -47325244.1007888     
  -47338782.5378275     
  -47352334.4937985     
  -47365889.9739695     
  -47379439.2252610     
  -47392972.7361050     
  -47406481.2361471     
  -47419955.6958101     
  -47433387.3257354     
  -47446767.5761224     
  -47460088.1359786     
  -47473340.9323001     
  -47486518.1291973     
  -47499612.1269806     
  -47512615.5612234     
  -47525521.3018147     
  -47538322.4520195     
  -47551012.3475568     
  -47563584.5557133     
  -47576032.8745036     
  -47588351.3318918     
  -47600534.1850862     
  -47612575.9199206     
  -47624471.2503349     
  -47636215.1179658     
  -47647802.6918600     
  -47659229.3683224     
  -47670490.7709087     
  -47681582.7505744     
  -47692501.3859909     
  -47703242.9840385     
  -47713804.0804877     
  -46902573.1947215     
  -46915277.3791212     
  -46928213.9699503     
  -46941367.2520078     
  -46954721.7767157     
  -46968262.3669606     
  -46981974.1213460     
  -46995842.4178838     
  -47009852.9171555     
  -47023991.5649707     
  -47038244.5945511     
  -47052598.5282694     
  -47067040.1789676     
  -47081556.6508835     
  -47096135.3402111     
  -47110763.9353196     
  -47125430.4166568     
  -47140123.0563619     
  -47154830.4176104     
  -47169541.3537158     
  -47184245.0070107     
  -47198930.8075294     
  -47213588.4715141     
  -47228207.9997663     
  -47242779.6758645     
  -47257294.0642674     
  -47271742.0083238     
  -47286114.6282082     
  -47300403.3188001     
  -47314599.7475273     
  -47328695.8521888     
  -47342683.8387771     
  -47356556.1793146     
  -47370305.6097234     
  -47383925.1277422     
  -47397407.9909076     
  -47410747.7146149     
  -47423938.0702726     
  -47436973.0835669     
  -47449847.0328487     
  -47462554.4476583     
  -47475090.1074005     
  -47487449.0401845     
  -47499626.5218398     
  -47511618.0751232     
  -47523419.4691268     
  -47535026.7189007     
  -47546436.0853011     
  -47557644.0750770     
  -47568647.4412045     
  -46695731.5825549     
  -46710026.9041970     
  -46724547.9840005     
  -46739277.3882473     
  -46754198.0358141     
  -46769293.2009991     
  -46784546.5157239     
  -46799941.9711459     
  -46815463.9187159     
  -46831097.0707157     
  -46846826.5003066     
  -46862637.6411239     
  -46878516.2864475     
  -46894448.5879806     
  -46910421.0542659     
  -46926420.5487708     
  -46942434.2876684     
  -46958449.8373439     
  -46974455.1116548     
  -46990438.3689688     
  -47006388.2090092     
  -47022293.5695308     
  -47038143.7228526     
  -47053928.2722697     
  -47069637.1483698     
  -47085260.6052759     
  -47100789.2168380     
  -47116213.8727947     
  -47131525.7749254     
  -47146716.4332153     
  -47161777.6620505     
  -47176701.5764637     
  -47191480.5884490     
  -47206107.4033635     
  -47220575.0164344     
  -47234876.7093865     
  -47249006.0472099     
  -47262956.8750805     
  -47276723.3154531     
  -47290299.7653385     
  -47303680.8937832     
  -47316861.6395636     
  -47329837.2091113     
  -47342603.0746813     
  -47355154.9727789     
  -47367488.9028579     
  -47379601.1263021     
  -47391488.1657065     
  -47403146.8044652     
  -47414574.0866850     
  -46475508.0275435     
  -46491621.6961814     
  -46507947.1730304     
  -46524465.2730368     
  -46541157.2650172     
  -46558004.8716354     
  -46574990.2687371     
  -46592096.0840819     
  -46609305.3955124     
  -46626601.7286025     
  -46643969.0538202     
  -46661391.7832456     
  -46678854.7668794     
  -46696343.2885776     
  -46713843.0616483     
  -46731340.2241448     
  -46748821.3338867     
  -46766273.3632432     
  -46783683.6937083     
  -46801040.1102993     
  -46818330.7958075     
  -46835544.3249300     
  -46852669.6583105     
  -46869696.1365147     
  -46886613.4739679     
  -46903411.7528783     
  -46920081.4171720     
  -46936613.2664606     
  -46952998.4500667     
  -46969228.4611273     
  -46985295.1307971     
  -47001190.6225726     
  -47016907.4267549     
  -47032438.3550731     
  -47047776.5354848     
  -47062915.4071723     
  -47077848.7157526     
  -47092570.5087175     
  -47107075.1311206     
  -47121357.2215281     
  -47135411.7082477     
  -47149233.8058527     
  -47162819.0120149     
  -47176163.1046624     
  -47189262.1394763     
  -47202112.4477411     
  -47214710.6345617     
  -47227053.5774611     
  -47239138.4253788     
  -47250962.5980668     
  -46241279.4860770     
  -46259463.6089894     
  -46277836.2445257     
  -46296376.4854371     
  -46315063.9959536     
  -46333879.0078999     
  -46352802.3161705     
  -46371815.2736109     
  -46390899.7853522     
  -46410038.3026445     
  -46429213.8162343     
  -46448409.8493291     
  -46467610.4501920     
  -46486800.1844060     
  -46505964.1268511     
  -46525087.8534293     
  -46544157.4325787     
  -46563159.4166100     
  -46582080.8329024     
  -46600909.1749931     
  -46619632.3935914     
  -46638238.8875510     
  -46656717.4948289     
  -46675057.4834619     
  -46693248.5425875     
  -46711280.7735357     
  -46729144.6810197     
  -46746831.1644475     
  -46764331.5093805     
  -46781637.3791600     
  -46798740.8067251     
  -46815634.1866418     
  -46832310.2673643     
  -46848762.1437481     
  -46864983.2498325     
  -46880967.3519120     
  -46896708.5419144     
  -46912201.2311003     
  -46927440.1441038     
  -46942420.3133286     
  -46957137.0737155     
  -46971586.0578992     
  -46985763.1917645     
  -46999664.6904231     
  -47013287.0546237     
  -47026627.0676072     
  -47039681.7924252     
  -47052448.5697454     
  -47064925.0161206     
  -47077109.0228136     
  -45992473.6709881     
  -46013004.6291547     
  -46033689.0397183     
  -46054504.3877181     
  -46075428.8642829     
  -46096441.3576639     
  -46117521.4436569     
  -46138649.3754667     
  -46159806.0730709     
  -46180973.1121328     
  -46202132.7125191     
  -46223267.7264686     
  -46244361.6264635     
  -46265398.4928493     
  -46286363.0012492     
  -46307240.4098169     
  -46328016.5463714     
  -46348677.7954522     
  -46369211.0853375     
  -46389603.8750593     
  -46409844.1414544     
  -46429920.3662832     
  -46449821.5234506     
  -46469537.0663590     
  -46489056.9154232     
  -46508371.4457748     
  -46527471.4751841     
  -46546348.2522221     
  -46564993.4446886     
  -46583399.1283284     
  -46601557.7758559     
  -46619462.2463099     
  -46637105.7747571     
  -46654481.9623630     
  -46671584.7668476     
  -46688408.4933430     
  -46704947.7856688     
  -46721197.6180425     
  -46737153.2872371     
  -46752810.4052051     
  -46768164.8921822     
  -46783212.9702790     
  -46797951.1575901     
  -46812376.2628191     
  -46826485.3804426     
  -46840275.8864299     
  -46853745.4345291     
  -46866891.9531096     
  -46879713.6426957     
  -46892208.9739380     
  -45728595.4610529     
  -45751771.8920870     
  -45775052.1203599     
  -45798412.2520808     
  -45821829.2513242     
  -45845280.9245083     
  -45868745.9043261     
  -45892203.6331936     
  -45915634.3462788     
  -45939019.0541726     
  -45962339.5252642     
  -45985578.2678767     
  -46008718.5122212     
  -46031744.1922231     
  -46054639.9272735     
  -46077391.0039560     
  -46099983.3577954     
  -46122403.5550760     
  -46144638.7747716     
  -46166676.7906286     
  -46188505.9534409     
  -46210115.1735532     
  -46231493.9036264     
  -46252632.1216977     
  -46273520.3145645     
  -46294149.4615202     
  -46314511.0184676     
  -46334596.9024332     
  -46354399.4765049     
  -46373911.5352132     
  -46393126.2903746     
  -46412037.3574147     
  -46430638.7421872     
  -46448924.8283029     
  -46466890.3649855     
  -46484530.4554622     
  -46501840.5459098     
  -46518816.4149571     
  -46535454.1637704     
  -46551750.2067196     
  -46567701.2626374     
  -46583304.3467136     
  -46598556.7629718     
  -46613456.0974115     
  -46628000.2117947     
  -46642187.2380734     
  -46656015.5735062     
  -46669483.8765461     
  -46682591.0631049     
  -46695336.3042003     
  -45449259.6414760     
  -45475398.5179331     
  -45501573.6672412     
  -45527760.1962282     
  -45553934.2380095     
  -45580072.9281262     
  -45606154.3802407     
  -45632157.6614721     
  -45658062.7674427     
  -45683850.5971149     
  -45709502.9274853     
  -45735002.3882099     
  -45760332.4362228     
  -45785477.3304158     
  -45810422.1064368     
  -45835152.5516668     
  -45859655.1804274     
  -45883917.2094734     
  -45907926.5338143     
  -45931671.7029122     
  -45955141.8972958     
  -45978326.9056280     
  -46001217.1022629     
  -46023803.4253209     
  -46046077.3553133     
  -46068030.8943386     
  -46089656.5458747     
  -46110947.2951850     
  -46131896.5903568     
  -46152498.3239869     
  -46172746.8155244     
  -46192636.7942854     
  -46212163.3831447     
  -46231322.0829173     
  -46250108.7574269     
  -46268519.6192839     
  -46286551.2163498     
  -46304200.4189390     
  -46321464.4076959     
  -46338340.6622197     
  -46354826.9504234     
  -46370921.3185355     
  -46386622.0819873     
  -46401927.8169179     
  -46416837.3524485     
  -46431349.7637998     
  -46445464.3661107     
  -46459180.7088061     
  -46472498.5719173     
  -46485417.9607642     
  -45154231.2045100     
  -45183661.3414611     
  -45213038.6125886     
  -45242337.7008070     
  -45271534.4989470     
  -45300606.0753401     
  -45329530.6391286     
  -45358287.5053956     
  -45386857.0602123     
  -45415220.7256923     
  -45443360.9251409     
  -45471261.0483852     
  -45498905.4173625     
  -45526279.2520467     
  -45553368.6367803     
  -45580160.4870820     
  -45606642.5169906     
  -45632803.2070024     
  -45658631.7726553     
  -45684118.1338058     
  -45709252.8846422     
  -45734027.2644711     
  -45758433.1293099     
  -45782462.9243129     
  -45806109.6570551     
  -45829366.8716919     
  -45852228.6240097     
  -45874689.4573782     
  -45896744.3796123     
  -45918388.8407441     
  -45939618.7117133     
  -45960430.2639620     
  -45980820.1499478     
  -46000785.3845412     
  -46020323.3273440     
  -46039431.6658495     
  -46058108.3995486     
  -46076351.8247908     
  -46094160.5206524     
  -46111533.3355310     
  -46128469.3745558     
  -46144967.9881471     
  -46161028.7608167     
  -46176651.5013391     
  -46191836.2336525     
  -46206583.1882653     
  -46220892.7948576     
  -46234765.6764234     
  -46248202.6403000     
  -46261204.6791735     
  -44843474.6797541     
  -44876526.7887836     
  -44909411.0467817     
  -44942102.5423404     
  -44974577.7700162     
  -45006814.5825553     
  -45038792.1430963     
  -45070490.8774715     
  -45101892.4267301     
  -45132979.5999995     
  -45163736.3277938     
  -45194147.6158759     
  -45224199.4997714     
  -45253879.0000259     
  -45283174.0782915     
  -45312073.5943211     
  -45340567.2639406     
  -45368645.6180647     
  -45396299.9628111     
  -45423522.3407644     
  -45450305.4934305     
  -45476642.8249173     
  -45502528.3668686     
  -45527956.7446726     
  -45552923.1449599     
  -45577423.2843957     
  -45601453.3797704     
  -45625010.1193831     
  -45648090.6357049     
  -45670692.4793172     
  -45692813.5940810     
  -45714452.2935521     
  -45735607.2385569     
  -45756277.4159942     
  -45776462.1186715     
  -45796160.9264006     
  -45815373.6879011     
  -45834100.5041470     
  -45852341.7121370     
  -45870097.8701377     
  -45887369.7438845     
  -45904158.2925884     
  -45920464.6581016     
  -45936290.1526687     
  -45951636.2480820     
  -45966504.5670165     
  -45980896.8736100     
  -45994815.0629719     
  -46008261.1651983     
  -46021237.3168841     
  -44517214.2073616     
  -44554206.3016533     
  -44590884.9969996     
  -44627226.9471519     
  -44663210.4153345     
  -44698815.2094736     
  -44734022.6177864     
  -44768815.3449049     
  -44803177.4486884     
  -44837094.2778767     
  -44870552.4107204     
  -44903539.5947237     
  -44936044.6876157     
  -44968057.5996660     
  -44999569.2374423     
  -45030571.4491035     
  -45061056.9713076     
  -45091019.3778053     
  -45120453.0297818     
  -45149353.0279936     
  -45177715.1667430     
  -45205535.8897186     
  -45232812.2477216     
  -45259541.8582873     
  -45285722.8671987     
  -45311353.9118891     
  -45336434.0867077     
  -45360962.9100125     
  -45384940.2930774     
  -45408366.5107183     
  -45431242.1736788     
  -45453568.2025696     
  -45475345.8035070     
  -45496576.4450274     
  -45517261.8368016     
  -45537403.9091001     
  -45557004.7944922     
  -45576066.8092076     
  -45594592.4377888     
  -45612584.3167077     
  -45630045.2191272     
  -45646978.0444114     
  -45663385.7998295     
  -45679271.5925035     
  -45694638.6192400     
  -45709490.1516248     
  -45723829.5287737     
  -45737660.1558136     
  -45750985.4564510     
  -45763808.9476007     
  -44176006.1912512     
  -44217222.6931883     
  -44257944.5294716     
  -44298151.5085192     
  -44337825.2504265     
  -44376949.1004124     
  -44415508.0432987     
  -44453488.6192064     
  -44490878.8406748     
  -44527668.1113942     
  -44563847.1467170     
  -44599407.8961077     
  -44634343.4676690     
  -44668648.0548776     
  -44702316.8656397     
  -44735346.0537692     
  -44767732.6529780     
  -44799474.5134526     
  -44830570.2410804     
  -44861019.1393759     
  -44890821.1541425     
  -44919976.8208971     
  -44948487.2150637     
  -44976353.9049349     
  -45003578.9073870     
  -45030164.6463000     
  -45056113.9136502     
  -45081429.8332437     
  -45106115.8269248     
  -45130175.5833418     
  -45153613.0288317     
  -45176432.3008622     
  -45198637.7231115     
  -45220233.7833484     
  -45241225.1117326     
  -45261616.4629999     
  -45281412.6965716     
  -45300618.7636911     
  -45319239.6875648     
  -45337280.5529077     
  -45354746.4947079     
  -45371642.6743453     
  -45387974.2888267     
  -45403746.5418560     
  -45418964.6295681     
  -45433633.7483522     
  -45447759.0728211     
  -45461345.7212603     
  -45474398.8795531     
  -45486923.4878203     
  -43820826.0621918     
  -43866488.3279597     
  -43911433.4762756     
  -43955646.6213493     
  -43999114.8740738     
  -44041827.2277755     
  -44083774.4459748     
  -44124948.9525288     
  -44165344.7243616     
  -44204957.1869748     
  -44243783.1129393     
  -44281820.5235130     
  -44319068.5935457     
  -44355527.5597872     
  -44391198.6327153     
  -44426083.9119840     
  -44460186.3055736     
  -44493509.4527215     
  -44526057.6506945     
  -44557835.7854542     
  -44588849.2662560     
  -44619103.9642039     
  -44648606.1547797     
  -44677362.4643435     
  -44705379.8205638     
  -44732665.4068082     
  -44759226.6203485     
  -44785071.0342150     
  -44810206.3629268     
  -44834640.4313257     
  -44858381.1475812     
  -44881436.4780695     
  -44903814.4269200     
  -44925523.0152228     
  -44946570.2679656     
  -44966964.1949176     
  -44986712.7867560     
  -45005823.9916140     
  -45024305.7235195     
  -45042165.8385706     
  -45059412.1219441     
  -45076052.3216986     
  -45092094.0616480     
  -45107544.9094216     
  -45122412.3752558     
  -45136703.8251083     
  -45150426.5221625     
  -45163587.6970808     
  -45176194.0785677     
  -45188252.9838967     
  -43453169.2918052     
  -43503394.4486882     
  -43552633.3777789     
  -43600879.3767822     
  -43648127.8798634     
  -43694376.3084752     
  -43739623.9264428     
  -43783871.6991328     
  -43827122.1569724     
  -43869379.2635399     
  -43910648.2882944     
  -43950935.6841164     
  -43990248.9696994     
  -44028596.6169085     
  -44065987.9431466     
  -44102433.0088034     
  -44137942.5198351     
  -44172527.7355295     
  -44206200.3815080     
  -44238972.5680199     
  -44270856.7135891     
  -44301865.4740710     
  -44332011.6771589     
  -44361308.2623862     
  -44389768.2267250     
  -44417404.5755559     
  -44444230.2793630     
  -44470258.2362866     
  -44495501.2392013     
  -44519971.9495238     
  -44543682.8731128     
  -44566646.3459219     
  -44588874.5176470     
  -44610379.3505109     
  -44631172.6018966     
  -44651265.8409626     
  -44670670.4184255     
  -44689397.5176886     
  -44707458.0935218     
  -44724862.9413623     
  -44741622.7137554     
  -44757747.7765712     
  -44773248.5126169     
  -44788135.0106288     
  -44802417.0737216     
  -44816104.5464083     
  -44829207.0870840     
  -44841733.8788301     
  -44853695.1856588     
  -44865098.3924535     
  -43075163.1920204     
  -43129907.3267868     
  -43183344.6080416     
  -43235480.3074598     
  -43286321.8776787     
  -43335878.7635923     
  -43384162.2193733     
  -43431185.1326996     
  -43476961.8560416     
  -43521508.0447661     
  -43564840.5022802     
  -43606977.0319069     
  -43647936.2956242     
  -43687737.6794511     
  -43726401.1654918     
  -43763947.2105305     
  -43800396.6311428     
  -43835770.4953072     
  -43870090.0205152     
  -43903376.4784146     
  -43935651.1060364     
  -43966935.0237101     
  -43997249.1598852     
  -44026614.1830126     
  -44055050.4405084     
  -44082577.9058720     
  -44109216.1327334     
  -44134984.2159320     
  -44159900.7643606     
  -44183983.8769019     
  -44207251.1375122     
  -44229719.5997446     
  -44251405.8042209     
  -44272325.7636695     
  -44292495.0287562     
  -44311928.6435662     
  -44330641.2893817     
  -44348647.1357955     
  -44365960.1191649     
  -44382593.7252439     
  -44398561.0268293     
  -44413875.2630563     
  -44428548.7585722     
  -44442594.2184593     
  -44456024.5715282     
  -44468851.6553020     
  -44481087.2336878     
  -44492744.0582630     
  -44503830.4713532     
  -44514364.2776770     
  -42689678.6476494     
  -42748659.9243720     
  -42805959.1219802     
  -42861598.3438911     
  -42915601.7500659     
  -42967995.3225072     
  -43018806.6457961     
  -43068064.6976142     
  -43115799.6492191     
  -43162042.6763891     
  -43206825.7793948     
  -43250181.6125484     
  -43292143.3221218     
  -43332744.3927674     
  -43372018.5017487     
  -43409999.3808022     
  -43446720.6853130     
  -43482215.8705338     
  -43516518.0747092     
  -43549660.0090311     
  -43581673.8544744     
  -43612591.1655844     
  -43642442.7811486     
  -43671258.7422771     
  -43699068.2189981     
  -43725899.4431273     
  -43751779.6540377     
  -43776735.0568705     
  -43800790.7784923     
  -43823970.8561953     
  -43846298.2025281     
  -43867794.6571154     
  -43888480.9580376     
  -43908376.8759295     
  -43927501.0912128     
  -43945871.5284995     
  -43963505.0217874     
  -43980418.0946090     
  -43996626.1607521     
  -44012144.6087113     
  -44026988.7450026     
  -44041171.9424070     
  -44054709.9113307     
  -44067615.8527022     
  -44079901.8626204     
  -44091584.1812454     
  -44102678.6471479     
  -44113196.5999254     
  -44123163.8056147     
  -44132572.5189833     
  -42300418.4243906     
  -42363016.5439754     
  -42423503.3250877     
  -42481923.6724571     
  -42538324.1268350     
  -42592752.6121005     
  -42645258.1850570     
  -42695890.8025126     
  -42744701.1041434     
  -42791740.2065289     
  -42837059.5113318     
  -42880710.5227507     
  -42922744.6763306     
  -42963213.1762277     
  -43002166.8412621     
  -43039655.9584058     
  -43075730.1430405     
  -43110438.2054597     
  -43143828.0229170     
  -43175946.4166926     
  -43206839.0337108     
  -43236550.2327480     
  -43265122.9761031     
  -43292598.7257739     
  -43319017.3424325     
  -43344416.9977187     
  -43368834.0784229     
  -43392303.0959496     
  -43414856.6557336     
  -43436525.3587395     
  -43457337.8504910     
  -43477320.6208373     
  -43496498.2085245     
  -43514892.8996214     
  -43532525.4692889     
  -43549414.2918220     
  -43565577.0674966     
  -43581028.5072595     
  -43595783.9879090     
  -43609856.1787794     
  -43623256.5062458     
  -43636002.3073514     
  -43648101.3763168     
  -43659571.0934204     
  -43670431.4674686     
  -43680686.4168274     
  -43690344.8388263     
  -43699436.7366387     
  -43707944.7093762     
  -43715965.9535479     
  -41911941.7013533     
  -41977073.4766519     
  -42039617.5380151     
  -42099648.3765162     
  -42157241.3298648     
  -42212472.2756270     
  -42265417.3916015     
  -42316152.9302943     
  -42364755.0047013     
  -42411299.3971254     
  -42455861.3735835     
  -42498515.5174924     
  -42539335.5694058     
  -42578394.2786859     
  -42615763.2611792     
  -42651512.8633102     
  -42685712.0311338     
  -42718428.1825007     
  -42749727.0815636     
  -42779672.7145794     
  -42808327.1659681     
  -42835750.4923592     
  -42862000.5911031     
  -42887133.0680166     
  -42911201.1101011     
  -42934255.3278449     
  -42956343.6505622     
  -42977511.2074081     
  -42997800.0271415     
  -43017249.0590132     
  -43035893.7226588     
  -43053766.4416337     
  -43070895.6774917     
  -43087306.9915101     
  -43103020.4748298     
  -43118054.5914429     
  -43132420.3621820     
  -43146130.8192969     
  -43159188.6336648     
  -43171600.4730131     
  -43183372.1661353     
  -43194486.7440154     
  -43204965.0383209     
  -43214795.0963375     
  -43223966.0328430     
  -43232532.8198399     
  -43240524.9895198     
  -43247889.4542753     
  -43254750.7621142     
  -43260875.1906154     
  -41529568.1279340     
  -41595546.0788495     
  -41658429.0141141     
  -41718328.1360129     
  -41775353.9981209     
  -41829616.4093396     
  -41881224.2097458     
  -41930285.0793527     
  -41976905.3877579     
  -42021190.0314776     
  -42063242.3189848     
  -42103163.8407242     
  -42141054.3663547     
  -42177011.7392625     
  -42211131.7826510     
  -42243508.2089558     
  -42274232.5300104     
  -42303393.9677767     
  -42331079.3617395     
  -42357373.0707172     
  -42382356.8676947     
  -42406109.8302400     
  -42428708.2298683     
  -42450225.3933922     
  -42470731.5180541     
  -42490293.5655696     
  -42508974.9246874     
  -42526835.1603272     
  -42543930.3407282     
  -42560312.0329924     
  -42576028.0001933     
  -42591119.3640427     
  -42605623.6718433     
  -42619570.1616749     
  -42632988.1556391     
  -42645891.3191672     
  -42658299.1932366     
  -42670202.6074821     
  -42681610.1319488     
  -42692495.1218234     
  -42702819.0630182     
  -42712607.0418872     
  -42721728.9116580     
  -42730178.8323501     
  -42737947.3249246     
  -42744826.3281187     
  -42750791.3641821     
  -42756179.3963461     
  -42760662.8423522     
  -42764998.4709051     
  -41159101.0391848     
  -41223491.5731004     
  -41284277.4110261     
  -41341612.1002734     
  -41395647.0524998     
  -41446530.9814945     
  -41494409.8564043     
  -41539426.8530137     
  -41581722.2451943     
  -41621433.4254532     
  -41658694.8049424     
  -41693637.8288743     
  -41726390.9362742     
  -41757079.5674022     
  -41785826.1568690     
  -41812750.1304618     
  -41837967.9079221     
  -41861592.9017535     
  -41883735.5148862     
  -41904503.1323166     
  -41924000.0978102     
  -41942327.6574365     
  -41959583.8613100     
  -41975863.5175574     
  -41991258.2146938     
  -42005855.9362233     
  -42019741.4005889     
  -42032995.7422727     
  -42045694.2179885     
  -42057909.0544172     
  -42069705.5951501     
  -42081150.6482149     
  -42092297.6434046     
  -42103202.4445151     
  -42113891.6982456     
  -42124420.9969595     
  -42134787.6427665     
  -42145050.6231530     
  -42155154.3995503     
  -42165125.4687211     
  -42174977.4822430     
  -42184463.4373858     
  -42193863.5752819     
  -42202900.3365465     
  -42211234.9403214     
  -42219071.2156144     
  -42225772.5002245     
  -42229541.3351601     
  -42231596.2930027     
  -42230465.5243545     
  -40806332.8454039     
  -40865842.0962758     
  -40921273.7806662     
  -40972829.2738100     
  -41020703.7171180     
  -41065087.4781112     
  -41106166.0661282     
  -41144120.0949170     
  -41179125.5268967     
  -41211353.4771529     
  -41240970.5614309     
  -41268138.8573335     
  -41293016.1229585     
  -41315755.8717740     
  -41336507.5199158     
  -41355416.5412069     
  -41372624.6026452     
  -41388269.7079955     
  -41402486.3312707     
  -41415405.5505820     
  -41427155.2016386     
  -41437860.0793009     
  -41447642.1475780     
  -41456620.4037928     
  -41464910.4790319     
  -41472625.7017815     
  -41479875.3457724     
  -41486765.6198806     
  -41493406.3089344     
  -41499897.0972431     
  -41506340.2812926     
  -41512810.7399775     
  -41519413.8287802     
  -41526218.5963506     
  -41533362.2415493     
  -41540823.8812067     
  -41548768.9094222     
  -41557120.2274941     
  -41566190.8347826     
  -41575910.7196811     
  -41586142.7236662     
  -41597458.9904322     
  -41608361.3443149     
  -41619487.8231300     
  -41631740.8337840     
  -41644428.3580807     
  -41659758.7422796     
  -41682533.8696167     
  -41732933.4094713     
  -41797953.3103101     
  -40476362.1743181     
  -40526771.3761497     
  -40572722.9679609     
  -40614461.0402140     
  -40652225.9484650     
  -40686249.9803412     
  -40716757.8506923     
  -40743967.1610916     
  -40768087.9464023     
  -40789324.0542299     
  -40807872.4474604     
  -40823924.0442934     
  -40837663.6226885     
  -40849270.3111262     
  -40858917.8793140     
  -40866775.0107317     
  -40873005.6746446     
  -40877769.4776922     
  -40881222.0400621     
  -40883515.3401697     
  -40884797.9663424     
  -40885215.2502857     
  -40884909.5380072     
  -40884021.6849434     
  -40882692.8380616     
  -40881060.2851858     
  -40879263.7162784     
  -40877440.2862954     
  -40875704.1627887     
  -40874202.4859778     
  -40873062.7488016     
  -40872489.4176653     
  -40872533.6675892     
  -40873373.8012032     
  -40874963.8851950     
  -40877873.8058642     
  -40881874.5850072     
  -40887440.1131498     
  -40893522.5824199     
  -40900626.3391970     
  -40909839.8413789     
  -40920295.5479823     
  -40938430.1632907     
  -40962460.1856094     
  -41020156.6016274     
  -41081668.2230922     
  -41155691.6983473     
  -41259024.7004350     
  -41380714.0308005     
  -41511247.0552651     
  -40172824.1072095     
  -40209015.3279001     
  -40240496.4316516     
  -40267572.0414450     
  -40290522.7819714     
  -40309619.3719172     
  -40325122.1823898     
  -40337281.1043888     
  -40346338.6995366     
  -40352526.0659789     
  -40356066.8481056     
  -40357175.3985644     
  -40356058.6221661     
  -40352915.7033011     
  -40347938.5362165     
  -40341312.3966210     
  -40333216.3480056     
  -40323823.8410304     
  -40313303.3393338     
  -40301819.1293999     
  -40289532.3960215     
  -40276602.3676592     
  -40263186.4527987     
  -40249436.4950936     
  -40235496.4128776     
  -40221522.5740933     
  -40207663.3528003     
  -40194080.1370130     
  -40181006.3401021     
  -40168528.3339070     
  -40156816.2360472     
  -40145817.9773801     
  -40136134.4024493     
  -40127799.6367171     
  -40121460.1094347     
  -40115347.1835826     
  -40111157.6897193     
  -40108756.0319933     
  -40113619.8818980     
  -40127536.9395689     
  -40175781.3674318     
  -40223453.8592234     
  -40292961.2523474     
  -40381502.3497182     
  -40491720.7825009     
  -40604826.2495628     
  -40720049.3523198     
  -40838316.6412343     
  -40952415.8160812     
  -41063445.1257160     
  -39897289.6867775     
  -39913234.3516220     
  -39924475.2028768     
  -39931307.3992274     
  -39934050.8499571     
  -39933010.5393967     
  -39928480.1296178     
  -39920742.8593904     
  -39910060.3975376     
  -39896690.7276962     
  -39880874.6917008     
  -39862845.2356328     
  -39842822.4507858     
  -39821016.5589035     
  -39797628.8928049     
  -39772851.7907238     
  -39746869.5114216     
  -39719858.4996894     
  -39691987.7488247     
  -39663418.9610336     
  -39634306.6361837     
  -39604799.2663278     
  -39575044.8904933     
  -39545206.8908071     
  -39515467.0176571     
  -39485946.0279059     
  -39456789.7395280     
  -39428107.4539601     
  -39399825.4030094     
  -39372512.7706465     
  -39346354.7289922     
  -39322141.7140238     
  -39298094.3829786     
  -39275194.0518286     
  -39253084.5989858     
  -39240825.8793565     
  -39262061.6966022     
  -39287438.6616633     
  -39332696.4660336     
  -39401623.7112406     
  -39494445.8635275     
  -39590903.0761015     
  -39693340.8614590     
  -39800860.6165709     
  -39906590.0364277     
  -40013700.6836117     
  -40119145.3814349     
  -40221124.6610961     
  -40320852.2076943     
  -40417960.8702464     
  -39648692.8494726     
  -39637788.9490862     
  -39622235.3837008     
  -39602520.4990921     
  -39579007.2671085     
  -39552044.7319498     
  -39521950.3037486     
  -39489010.7227619     
  -39453529.6928159     
  -39415761.8611398     
  -39375967.3207045     
  -39334378.1948045     
  -39291221.0281843     
  -39246710.1207969     
  -39201046.0496182     
  -39154418.7386953     
  -39107006.6699031     
  -39058978.4515262     
  -39010493.7102152     
  -38961703.9178118     
  -38912752.3660032     
  -38863769.6024922     
  -38814857.4029782     
  -38766054.0312619     
  -38717363.8969312     
  -38669068.1927203     
  -38621361.2620967     
  -38574516.6739777     
  -38529245.3905316     
  -38483773.8499570     
  -38438407.4603991     
  -38392131.5185137     
  -38364028.8828592     
  -38359073.0518645     
  -38354936.1407668     
  -38382967.0351650     
  -38440257.5958209     
  -38506843.8413140     
  -38582582.3298515     
  -38667112.7012663     
  -38753728.2844693     
  -38845868.6549103     
  -38940184.8901516     
  -39035227.9791062     
  -39131444.3166946     
  -39227472.2486867     
  -39324393.1419606     
  -39422489.5124152     
  -39521491.7305977     
  -39621731.2617282     
  -39424193.9869835     
  -39378037.3120558     
  -39328316.2643444     
  -39275145.4138005     
  -39218872.6330914     
  -39159781.3434403     
  -39098191.8202013     
  -39034461.4581609     
  -38968801.1208360     
  -38901532.3305928     
  -38832884.0993208     
  -38763131.2470745     
  -38692509.9926370     
  -38621235.9960686     
  -38549511.0839180     
  -38477512.7991654     
  -38405400.0921905     
  -38333311.8054472     
  -38261369.4327409     
  -38189681.9685191     
  -38118353.9643095     
  -38047504.8586691     
  -37977308.6427117     
  -37908050.7698255     
  -37839953.2889116     
  -37772099.0001356     
  -37704050.0459285     
  -37635478.6036795     
  -37566715.4182984     
  -37521011.7179234     
  -37481354.9165606     
  -37442611.3329603     
  -37437362.3386906     
  -37457027.1606846     
  -37485796.4172805     
  -37527069.4430620     
  -37574710.7702407     
  -37631149.3664113     
  -37694395.4461136     
  -37762918.4890544     
  -37837428.1854744     
  -37916494.2961848     
  -38000625.2938695     
  -38089555.4049416     
  -38182856.9327051     
  -38280500.1972705     
  -38381585.7649794     
  -38485421.0771840     
  -38590872.1038163     
  -38695118.8047421     
  -39211949.3404735     
  -39125285.8342120     
  -39034842.3524064     
  -38941551.5714836     
  -38845743.0463031     
  -38747966.5076635     
  -38648530.4161501     
  -38547524.9740959     
  -38445569.2277534     
  -38342848.2712690     
  -38239874.3632069     
  -38136894.8272789     
  -38034186.8375015     
  -37932004.5651690     
  -37830547.1211439     
  -37729995.3089841     
  -37630487.9958146     
  -37532127.5685894     
  -37434972.6746149     
  -37339027.8763256     
  -37244233.3442129     
  -37150439.5415585     
  -37057365.9930819     
  -36965701.3112107     
  -36880227.9990266     
  -36801364.6958767     
  -36727155.4156961     
  -36654490.7279807     
  -36584117.6718700     
  -36544284.6589658     
  -36519204.0110052     
  -36503414.4982785     
  -36498447.2813943     
  -36501796.6023953     
  -36514885.6174617     
  -36535467.8799925     
  -36564259.0620068     
  -36600592.9758805     
  -36645117.5572357     
  -36698208.2686867     
  -36759566.6576517     
  -36829348.5703597     
  -36907331.0533990     
  -36993816.0569535     
  -37088153.2919401     
  -37188985.7812448     
  -37294893.0448777     
  -37404346.3603903     
  -37516895.0740713     
  -37636298.6744753     
  -39020664.1931802     
  -38884552.3817998     
  -38746936.7612468     
  -38606256.5496891     
  -38462518.9255350     
  -38315225.7806880     
  -38165445.4004615     
  -38015551.7990374     
  -37866147.2717277     
  -37722079.7665377     
  -37579020.4004632     
  -37437606.0288701     
  -37298217.6585308     
  -37161131.4012430     
  -37026703.3809941     
  -36895153.0762323     
  -36766695.6230876     
  -36641484.2466599     
  -36519613.4568135     
  -36401134.3762701     
  -36286061.0503369     
  -36174393.1272529     
  -36066119.8425395     
  -35961659.3151570     
  -35862890.6981150     
  -35777332.6504046     
  -35704061.3752996     
  -35638169.4775039     
  -35581023.7765526     
  -35532096.1059055     
  -35492863.7283197     
  -35462359.3417124     
  -35439325.0645255     
  -35423967.8765694     
  -35416034.4428778     
  -35416275.2320399     
  -35424782.4071981     
  -35442204.3490563     
  -35468790.6999674     
  -35505000.0399709     
  -35551508.4506272     
  -35608830.5612445     
  -35677281.9072690     
  -35756475.8138493     
  -35846806.9016058     
  -35949532.8179884     
  -36064891.8193945     
  -36192142.4489331     
  -36328936.2816837     
  -36463375.2740255     
  -39059181.8114093     
  -38856476.7024939     
  -38625281.9319928     
  -38383831.6807515     
  -38140565.7500954     
  -37906988.1468040     
  -37685577.2422566     
  -37469161.1417482     
  -37258867.5946628     
  -37052539.1166097     
  -36852654.5463000     
  -36659192.0362786     
  -36472308.0159754     
  -36292361.4714069     
  -36119211.1203023     
  -35953148.7937943     
  -35794138.2972617     
  -35642101.0675718     
  -35496974.0995875     
  -35358762.9863983     
  -35227572.7610778     
  -35103562.3938662     
  -34987031.2388539     
  -34878241.5190809     
  -34776865.8974583     
  -34684149.5105870     
  -34600506.8219300     
  -34525497.0529064     
  -34458400.2335184     
  -34398773.9590949     
  -34346063.2381229     
  -34300542.2335778     
  -34262508.7481426     
  -34231905.4991235     
  -34208858.7615299     
  -34193261.1883460     
  -34185369.2367068     
  -34185568.5230493     
  -34194483.1839209     
  -34212815.5720862     
  -34241339.9764233     
  -34281086.7765910     
  -34333345.9708410     
  -34399541.1234354     
  -34480860.0337707     
  -34578696.9532377     
  -34695428.0919391     
  -34834092.1732343     
  -34997697.3569990     
  -35199340.2814410     
  -40257939.1441106     
  -39572260.9085697     
  -38958992.6087424     
  -38404525.9971887     
  -37898534.1263046     
  -37450193.0217208     
  -37100387.4425983     
  -36788259.0583915     
  -36495562.3521729     
  -36217997.6223793     
  -35952556.0082473     
  -35702010.6783556     
  -35467693.7516450     
  -35247850.9368079     
  -35040868.5081706     
  -34845987.2578536     
  -34662271.6612724     
  -34489287.8541008     
  -34326561.7539431     
  -34173687.6977084     
  -34030400.1221667     
  -33896464.3736221     
  -33771634.5403647     
  -33655692.2120653     
  -33548496.7065207     
  -33449578.7906633     
  -33358618.8443003     
  -33275472.9183484     
  -33200058.4358221     
  -33132206.7787249     
  -33071817.5284346     
  -33018727.4922646     
  -32972771.5587638     
  -32933933.7216125     
  -32902268.6583291     
  -32877889.2290528     
  -32860792.1389468     
  -32851309.9295635     
  -32849839.6595196     
  -32856979.7001221     
  -32873557.4917617     
  -32900576.3394828     
  -32939431.6310098     
  -32992044.4512832     
  -33060949.0034445     
  -33149217.4066813     
  -33259650.3008066     
  -33400513.1359796     
  -33578062.8353428     
  -33794767.6323846     
SCALARS 2waySource double 
LOOKUP_TABLE default
 -3.198125455310100E-006
 -3.092164178462585E-006
 -2.996831476800891E-006
 -2.909653641863045E-006
 -2.828992036287444E-006
 -2.753696000695391E-006
 -2.682916697162667E-006
 -2.616002470119101E-006
 -2.552437058980935E-006
 -2.491801264967645E-006
 -2.433748016358439E-006
 -2.377985430904988E-006
 -2.324264862839811E-006
 -2.272372187048071E-006
 -2.222121266054320E-006
 -2.173348938556702E-006
 -2.125911099341324E-006
 -2.079679581061850E-006
 -2.034539637134549E-006
 -1.990387882632132E-006
 -1.947130588778306E-006
 -1.904682253101603E-006
 -1.862964386116906E-006
 -1.821904468501933E-006
 -1.781435042593010E-006
 -1.741492908762730E-006
 -1.702018402472323E-006
 -1.662954731179909E-006
 -1.624247352727234E-006
 -1.585843378074381E-006
 -1.547690981587759E-006
 -1.509738801430580E-006
 -1.471935310737449E-006
 -1.434228136975567E-006
 -1.396563301649526E-006
 -1.358884344436651E-006
 -1.321131283623003E-006
 -1.283239346051928E-006
 -1.245137370927658E-006
 -1.206745746100691E-006
 -1.167973661542820E-006
 -1.128715341359622E-006
 -1.088844704328606E-006
 -1.048207528598953E-006
 -1.006609512264381E-006
 -9.637973312171248E-007
 -9.194272835834698E-007
 -8.730110687427185E-007
 -8.238178373126627E-007
 -7.706895636747285E-007
 -3.254609623091151E-006
 -3.193565718682031E-006
 -3.131134713312922E-006
 -3.069068113490602E-006
 -3.008187354929817E-006
 -2.948854038569181E-006
 -2.891198245127602E-006
 -2.835232231016182E-006
 -2.780908492629442E-006
 -2.728150130621677E-006
 -2.676867051216510E-006
 -2.626964729480834E-006
 -2.578348962894619E-006
 -2.530928410330371E-006
 -2.484615881991529E-006
 -2.439328913717053E-006
 -2.394989927546205E-006
 -2.351526153541156E-006
 -2.308869415982068E-006
 -2.266955845721238E-006
 -2.225725555766250E-006
 -2.185122302404143E-006
 -2.145093144970361E-006
 -2.105588111623817E-006
 -2.066559874934246E-006
 -2.027963438681014E-006
 -1.989755835866361E-006
 -1.951895836979483E-006
 -1.914343666992170E-006
 -1.877060729200164E-006
 -1.840009334013904E-006
 -1.803152430838963E-006
 -1.766453341573756E-006
 -1.729875495062141E-006
 -1.693382163302071E-006
 -1.656936202795907E-006
 -1.620499809127195E-006
 -1.584034301228080E-006
 -1.547499966785329E-006
 -1.510856027929342E-006
 -1.474060837416570E-006
 -1.437072512582354E-006
 -1.399850401307494E-006
 -1.362358143031458E-006
 -1.324569830402321E-006
 -1.286482305054177E-006
 -1.248139832956592E-006
 -1.209684296127696E-006
 -1.171459117737342E-006
 -1.134228748656326E-006
 -3.316696153028815E-006
 -3.275880781626271E-006
 -3.234087727236383E-006
 -3.191364616069257E-006
 -3.147998186236446E-006
 -3.104295707600875E-006
 -3.060516368708332E-006
 -3.016858611352540E-006
 -2.973466218869191E-006
 -2.930438996199447E-006
 -2.887843074821829E-006
 -2.845719432920203E-006
 -2.804090510539234E-006
 -2.762965199818443E-006
 -2.722342560444350E-006
 -2.682214571620259E-006
 -2.642568167832274E-006
 -2.603386745498356E-006
 -2.564651279026292E-006
 -2.526341147788941E-006
 -2.488434748537329E-006
 -2.450909947948310E-006
 -2.413744415794652E-006
 -2.376915869018195E-006
 -2.340402249520780E-006
 -2.304181853255654E-006
 -2.268233424379262E-006
 -2.232536225617778E-006
 -2.197070094340787E-006
 -2.161815492841770E-006
 -2.126753561085185E-006
 -2.091866180694536E-006
 -2.057136060086643E-006
 -2.022546852894074E-006
 -1.988083325210234E-006
 -1.953731592158739E-006
 -1.919479451605069E-006
 -1.885316852872924E-006
 -1.851236552423498E-006
 -1.817235026670549E-006
 -1.783313734456751E-006
 -1.749480843288213E-006
 -1.715753539961902E-006
 -1.682160996056023E-006
 -1.648747842967592E-006
 -1.615577356471881E-006
 -1.582731778362622E-006
 -1.550302647405042E-006
 -1.518352594560567E-006
 -1.486801782951865E-006
 -3.406447658968977E-006
 -3.378052181496002E-006
 -3.348408377696179E-006
 -3.317719716593372E-006
 -3.286119254884727E-006
 -3.253736095584088E-006
 -3.220702537361391E-006
 -3.187147619281008E-006
 -3.153190594873269E-006
 -3.118937164011326E-006
 -3.084478187637653E-006
 -3.049890017902251E-006
 -3.015235697298927E-006
 -2.980566525773222E-006
 -2.945923700155879E-006
 -2.911339869531005E-006
 -2.876840535444718E-006
 -2.842445274345477E-006
 -2.808168785220647E-006
 -2.774021777555421E-006
 -2.740011719480345E-006
 -2.706143466714212E-006
 -2.672419791768824E-006
 -2.638841830972057E-006
 -2.605409464785688E-006
 -2.572121644948764E-006
 -2.538976680260104E-006
 -2.505972491474898E-006
 -2.473106844772414E-006
 -2.440377572473187E-006
 -2.407782789364766E-006
 -2.375321112748796E-006
 -2.342991894478121E-006
 -2.310795473439469E-006
 -2.278733457137664E-006
 -2.246809041106151E-006
 -2.215027374041083E-006
 -2.183395974423166E-006
 -2.151925199133565E-006
 -2.120628754319858E-006
 -2.089524219359507E-006
 -2.058633521829398E-006
 -2.027983248750144E-006
 -1.997604606949438E-006
 -1.967532774628042E-006
 -1.937805414131594E-006
 -1.908460563170637E-006
 -1.879535934166999E-006
 -1.851077471846667E-006
 -1.823181997868812E-006
 -3.522373215958616E-006
 -3.502693468716415E-006
 -3.481699343625826E-006
 -3.459500689364629E-006
 -3.436217487078890E-006
 -3.411960282141381E-006
 -3.386830430615390E-006
 -3.360922489155653E-006
 -3.334325356189403E-006
 -3.307122333717367E-006
 -3.279390756314271E-006
 -3.251201621693622E-006
 -3.222619412167994E-006
 -3.193702144589625E-006
 -3.164501615359052E-006
 -3.135063784850335E-006
 -3.105429246720156E-006
 -3.075633737954687E-006
 -3.045708657534306E-006
 -3.015681572321950E-006
 -2.985576697293473E-006
 -2.955415343340095E-006
 -2.925216330191456E-006
 -2.894996364877730E-006
 -2.864770387855422E-006
 -2.834551890087336E-006
 -2.804353204815901E-006
 -2.774185778094980E-006
 -2.744060422100871E-006
 -2.713987555154284E-006
 -2.683977432009427E-006
 -2.654040367687669E-006
 -2.624186957422622E-006
 -2.594428294529069E-006
 -2.564776186719021E-006
 -2.535243369856037E-006
 -2.505843715724533E-006
 -2.476592427461421E-006
 -2.447506212704174E-006
 -2.418603420782605E-006
 -2.389904127912387E-006
 -2.361430156484445E-006
 -2.333205027055097E-006
 -2.305253873793057E-006
 -2.277603415337937E-006
 -2.250282154407282E-006
 -2.223320987402585E-006
 -2.196753944937714E-006
 -2.170616514966826E-006
 -2.144930779536816E-006
 -3.665220348928534E-006
 -3.651626130514323E-006
 -3.636726147848378E-006
 -3.620608776381829E-006
 -3.603356952542720E-006
 -3.585052727964802E-006
 -3.565775970293364E-006
 -3.545603222149101E-006
 -3.524607274680765E-006
 -3.502857104472627E-006
 -3.480417905798444E-006
 -3.457351117576730E-006
 -3.433714436493429E-006
 -3.409561837621958E-006
 -3.384943623614804E-006
 -3.359906513989440E-006
 -3.334493776455644E-006
 -3.308745395818252E-006
 -3.282698272651571E-006
 -3.256386443059313E-006
 -3.229841311319460E-006
 -3.203091888473933E-006
 -3.176165031338992E-006
 -3.149085677969710E-006
 -3.121877076720298E-006
 -3.094561007221263E-006
 -3.067157992314624E-006
 -3.039687500497985E-006
 -3.012168138903890E-006
 -2.984617836925550E-006
 -2.957054020602936E-006
 -2.929493777797996E-006
 -2.901954013899826E-006
 -2.874451597394083E-006
 -2.847003494233869E-006
 -2.819626889456068E-006
 -2.792339294161117E-006
 -2.765158635907345E-006
 -2.738103331037091E-006
 -2.711192338732338E-006
 -2.684445198838152E-006
 -2.657882058328307E-006
 -2.631523693018786E-006
 -2.605391527145308E-006
 -2.579507635513110E-006
 -2.553894670661917E-006
 -2.528575602085385E-006
 -2.503573209848564E-006
 -2.478910006867752E-006
 -2.454612730527571E-006
 -3.835013340065236E-006
 -3.825631457384694E-006
 -3.814990006892289E-006
 -3.803157302175865E-006
 -3.790200738960516E-006
 -3.776185456284249E-006
 -3.761174643506323E-006
 -3.745229626525989E-006
 -3.728409747533316E-006
 -3.710772210503187E-006
 -3.692371967594161E-006
 -3.673261655389148E-006
 -3.653491568808327E-006
 -3.633109660629149E-006
 -3.612161559795710E-006
 -3.590690605980875E-006
 -3.568737899869532E-006
 -3.546342368955911E-006
 -3.523540848113027E-006
 -3.500368173607856E-006
 -3.476857288560987E-006
 -3.453039357528721E-006
 -3.428943887818067E-006
 -3.404598855191774E-006
 -3.380030831813005E-006
 -3.355265114558274E-006
 -3.330325852044843E-006
 -3.305236169024939E-006
 -3.280018286966370E-006
 -3.254693639772747E-006
 -3.229282983795457E-006
 -3.203806501270935E-006
 -3.178283896443270E-006
 -3.152734483588386E-006
 -3.127177266332492E-006
 -3.101631007603440E-006
 -3.076114289862200E-006
 -3.050645565288661E-006
 -3.025243195896462E-006
 -2.999925483478718E-006
 -2.974710688965735E-006
 -2.949617039788527E-006
 -2.924662722285958E-006
 -2.899865855092634E-006
 -2.875244442062541E-006
 -2.850816316728629E-006
 -2.826599120409437E-006
 -2.802610375198590E-006
 -2.778867515214465E-006
 -2.755386411272269E-006
 -4.031656736185444E-006
 -4.025039868662142E-006
 -4.017237896862418E-006
 -4.008304593586726E-006
 -3.998292770117004E-006
 -3.987254441287314E-006
 -3.975240568282886E-006
 -3.962300926725508E-006
 -3.948484044405940E-006
 -3.933837150490134E-006
 -3.918406123257781E-006
 -3.902235441410833E-006
 -3.885368145221924E-006
 -3.867845810535906E-006
 -3.849708536022022E-006
 -3.830994942685106E-006
 -3.811742184464499E-006
 -3.791985968746533E-006
 -3.771760585812632E-006
 -3.751098946382364E-006
 -3.730032626261564E-006
 -3.708591917250338E-006
 -3.686805883222983E-006
 -3.664702420349056E-006
 -3.642308320351941E-006
 -3.619649335706604E-006
 -3.596750245721464E-006
 -3.573634922495113E-006
 -3.550326395772080E-006
 -3.526846915837728E-006
 -3.503218013627038E-006
 -3.479460557310545E-006
 -3.455594804702424E-006
 -3.431640450917561E-006
 -3.407616670706253E-006
 -3.383542155097829E-006
 -3.359435141867739E-006
 -3.335313439455249E-006
 -3.311194443938780E-006
 -3.287095148589800E-006
 -3.263032145618454E-006
 -3.239021619939756E-006
 -3.215079335390884E-006
 -3.191220614835225E-006
 -3.167460316153331E-006
 -3.143812803486620E-006
 -3.120291902132492E-006
 -3.096910808665537E-006
 -3.073681970810889E-006
 -3.050617426615032E-006
 -4.254918877879633E-006
 -4.249935724705925E-006
 -4.243857052775784E-006
 -4.236724958541341E-006
 -4.228581186253058E-006
 -4.219466984333138E-006
 -4.209423076239946E-006
 -4.198489593689816E-006
 -4.186706003139819E-006
 -4.174111042558584E-006
 -4.160742669346029E-006
 -4.146638016669176E-006
 -4.131833356509957E-006
 -4.116364069014777E-006
 -4.100264618345339E-006
 -4.083568535127877E-006
 -4.066308405455086E-006
 -4.048515866170773E-006
 -4.030221605989680E-006
 -4.011455371975021E-006
 -3.992245980811272E-006
 -3.972621334305507E-006
 -3.952608438528578E-006
 -3.932233425992247E-006
 -3.911521580260960E-006
 -3.890497362329446E-006
 -3.869184438195427E-006
 -3.847605706973650E-006
 -3.825783328962042E-006
 -3.803738753073519E-006
 -3.781492743085082E-006
 -3.759065402192125E-006
 -3.736476195348689E-006
 -3.713743969004230E-006
 -3.690886967749049E-006
 -3.667922847562333E-006
 -3.644868685269588E-006
 -3.621740983913056E-006
 -3.598555673823677E-006
 -3.575328109178680E-006
 -3.552073059953368E-006
 -3.528804699263621E-006
 -3.505536585931786E-006
 -3.482281641909915E-006
 -3.459052123672346E-006
 -3.435859586917740E-006
 -3.412714847095323E-006
 -3.389627946230807E-006
 -3.366608131041037E-006
 -3.343663685886810E-006
 -4.504509963462008E-006
 -4.500270260095352E-006
 -4.495032003468592E-006
 -4.488827624259685E-006
 -4.481689540771069E-006
 -4.473650099681676E-006
 -4.464741494348047E-006
 -4.454995701848447E-006
 -4.444444426606942E-006
 -4.433119046687265E-006
 -4.421050563590147E-006
 -4.408269556609151E-006
 -4.394806142117414E-006
 -4.380689937632562E-006
 -4.365950030490898E-006
 -4.350614950849176E-006
 -4.334712648884814E-006
 -4.318270476002394E-006
 -4.301315169791696E-006
 -4.283872842544386E-006
 -4.265968972997470E-006
 -4.247628400994533E-006
 -4.228875324723101E-006
 -4.209733300164694E-006
 -4.190225242386693E-006
 -4.170373428277477E-006
 -4.150199500371164E-006
 -4.129724471358905E-006
 -4.108968728911951E-006
 -4.087952040443568E-006
 -4.066693557462669E-006
 -4.045211819152675E-006
 -4.023524754872217E-006
 -4.001649685232490E-006
 -3.979603321490257E-006
 -3.957401762998354E-006
 -3.935060492427997E-006
 -3.912594368600083E-006
 -3.890017616725192E-006
 -3.867343815856839E-006
 -3.844585883430882E-006
 -3.821756056719906E-006
 -3.798865871079728E-006
 -3.775926134947171E-006
 -3.752946901792449E-006
 -3.729937439415697E-006
 -3.706906196273131E-006
 -3.683860761554233E-006
 -3.660807814809193E-006
 -3.637753113601554E-006
 -4.780147243717893E-006
 -4.775954717808676E-006
 -4.770861581425337E-006
 -4.764892265403699E-006
 -4.758071454312127E-006
 -4.750424017827890E-006
 -4.741974951796703E-006
 -4.732749318306082E-006
 -4.722772189053315E-006
 -4.712068592800100E-006
 -4.700663466399110E-006
 -4.688581609147102E-006
 -4.675847640308946E-006
 -4.662485959843089E-006
 -4.648520712329615E-006
 -4.633975753913720E-006
 -4.618874622249062E-006
 -4.603240509221901E-006
 -4.587096236319303E-006
 -4.570464232462362E-006
 -4.553366514124728E-006
 -4.535824667515424E-006
 -4.517859832631359E-006
 -4.499492688951910E-006
 -4.480743442523178E-006
 -4.461631814218653E-006
 -4.442177028928476E-006
 -4.422397805401205E-006
 -4.402312346554312E-006
 -4.381938329947501E-006
 -4.361292898233035E-006
 -4.340392649338950E-006
 -4.319253626143860E-006
 -4.297891305478652E-006
 -4.276320586216117E-006
 -4.254555776292152E-006
 -4.232610578455859E-006
 -4.210498074633046E-006
 -4.188230708724915E-006
 -4.165820267713577E-006
 -4.143277861007030E-006
 -4.120613897869554E-006
 -4.097838062952043E-006
 -4.074959289815328E-006
 -4.051985732372923E-006
 -4.028924734054903E-006
 -4.005782794624380E-006
 -3.982565535600717E-006
 -3.959277666310388E-006
 -3.935922936061008E-006
 -5.081617002199832E-006
 -5.076933089542701E-006
 -5.071442990391952E-006
 -5.065164537655084E-006
 -5.058116004485332E-006
 -5.050316043343881E-006
 -5.041783626279180E-006
 -5.032537989090006E-006
 -5.022598578008988E-006
 -5.011984998770420E-006
 -5.000716968218943E-006
 -4.988814268453595E-006
 -4.976296703451275E-006
 -4.963184058112209E-006
 -4.949496059599799E-006
 -4.935252340903847E-006
 -4.920472406585798E-006
 -4.905175600515119E-006
 -4.889381075585175E-006
 -4.873107765208501E-006
 -4.856374356510089E-006
 -4.839199265042511E-006
 -4.821600610938148E-006
 -4.803596196260808E-006
 -4.785203483503737E-006
 -4.766439574990990E-006
 -4.747321193074345E-006
 -4.727864660955381E-006
 -4.708085883938882E-006
 -4.688000331017299E-006
 -4.667623016581991E-006
 -4.646968482120087E-006
 -4.626050777767792E-006
 -4.604883443532206E-006
 -4.583479490120326E-006
 -4.561851379162830E-006
 -4.540011002765171E-006
 -4.517969662273142E-006
 -4.495738046112097E-006
 -4.473326206657822E-006
 -4.450743536028966E-006
 -4.427998740729934E-006
 -4.405099815085961E-006
 -4.382054013416860E-006
 -4.358867820886482E-006
 -4.335546923104218E-006
 -4.312096174456387E-006
 -4.288519564977071E-006
 -4.264820184903601E-006
 -4.241000191265190E-006
 -5.408825240621742E-006
 -5.403239488249509E-006
 -5.396935355104041E-006
 -5.389925307710321E-006
 -5.382222377621070E-006
 -5.373840104215146E-006
 -5.364792479895357E-006
 -5.355093897005210E-006
 -5.344759096853408E-006
 -5.333803120764424E-006
 -5.322241263116543E-006
 -5.310089026234501E-006
 -5.297362077184922E-006
 -5.284076206348768E-006
 -5.270247287758743E-006
 -5.255891241111898E-006
 -5.241023995410654E-006
 -5.225661454108203E-006
 -5.209819461730664E-006
 -5.193513771862533E-006
 -5.176760016374199E-006
 -5.159573675881384E-006
 -5.141970051220503E-006
 -5.123964235958571E-006
 -5.105571089721413E-006
 -5.086805212321828E-006
 -5.067680918509527E-006
 -5.048212213297262E-006
 -5.028412767699599E-006
 -5.008295894805730E-006
 -4.987874526058537E-006
 -4.967161187677479E-006
 -4.946167977063319E-006
 -4.924906539137823E-006
 -4.903388042486165E-006
 -4.881623155236984E-006
 -4.859622020585749E-006
 -4.837394231886641E-006
 -4.814948807214240E-006
 -4.792294163380516E-006
 -4.769438089282065E-006
 -4.746387718570972E-006
 -4.723149501584117E-006
 -4.699729176493821E-006
 -4.676131739650703E-006
 -4.652361415081997E-006
 -4.628421623104660E-006
 -4.604314948073393E-006
 -4.580043105585038E-006
 -4.555606907881993E-006
 -5.761835480093958E-006
 -5.755040334342938E-006
 -5.747606086289983E-006
 -5.739540908763816E-006
 -5.730853616682745E-006
 -5.721553614281450E-006
 -5.711650843837182E-006
 -5.701155736114577E-006
 -5.690079162275452E-006
 -5.678432387344930E-006
 -5.666227025128341E-006
 -5.653474994615996E-006
 -5.640188477776371E-006
 -5.626379878742010E-006
 -5.612061784280191E-006
 -5.597246925589114E-006
 -5.581948141263132E-006
 -5.566178341445954E-006
 -5.549950473080729E-006
 -5.533277486202208E-006
 -5.516172301199152E-006
 -5.498647776974815E-006
 -5.480716679951112E-006
 -5.462391653842611E-006
 -5.443685190083429E-006
 -5.424609598909914E-006
 -5.405176980954411E-006
 -5.385399199285808E-006
 -5.365287851879777E-006
 -5.344854244350285E-006
 -5.324109362928628E-006
 -5.303063847613448E-006
 -5.281727965391251E-006
 -5.260111583484220E-006
 -5.238224142542180E-006
 -5.216074629714588E-006
 -5.193671551556440E-006
 -5.171022906701008E-006
 -5.148136158213050E-006
 -5.125018205651294E-006
 -5.101675356699827E-006
 -5.078113298402162E-006
 -5.054337067906618E-006
 -5.030351022736451E-006
 -5.006158810505529E-006
 -4.981763338122925E-006
 -4.957166740390787E-006
 -4.932370348077315E-006
 -4.907374655260070E-006
 -4.882179286356481E-006
 -6.140894050494749E-006
 -6.132663215136791E-006
 -6.123863043963595E-006
 -6.114498341703030E-006
 -6.104574596014545E-006
 -6.094097929020810E-006
 -6.083075050027476E-006
 -6.071513209405222E-006
 -6.059420153620438E-006
 -6.046804081427421E-006
 -6.033673601132690E-006
 -6.020037688976353E-006
 -6.005905648555483E-006
 -5.991287071260674E-006
 -5.976191797727567E-006
 -5.960629880211752E-006
 -5.944611545900027E-006
 -5.928147161091192E-006
 -5.911247196191922E-006
 -5.893922191498037E-006
 -5.876182723734283E-006
 -5.858039373257415E-006
 -5.839502691892828E-006
 -5.820583171376878E-006
 -5.801291212308707E-006
 -5.781637093591083E-006
 -5.761630942289780E-006
 -5.741282703863551E-006
 -5.720602112705751E-006
 -5.699598662938293E-006
 -5.678281579422389E-006
 -5.656659788924274E-006
 -5.634741891345885E-006
 -5.612536131068083E-006
 -5.590050368214876E-006
 -5.567292049937591E-006
 -5.544268181556782E-006
 -5.520985297594823E-006
 -5.497449432605993E-006
 -5.473666091808312E-006
 -5.449640221448215E-006
 -5.425376178875838E-006
 -5.400877702292828E-006
 -5.376147880174502E-006
 -5.351189120307236E-006
 -5.326003118425797E-006
 -5.300590826438756E-006
 -5.274952420228703E-006
 -5.249087267038055E-006
 -5.222993892332669E-006
 -6.546444742214746E-006
 -6.536614686071086E-006
 -6.526275263093499E-006
 -6.515428694477007E-006
 -6.504077899041127E-006
 -6.492226448895970E-006
 -6.479878525952497E-006
 -6.467038879272295E-006
 -6.453712783256449E-006
 -6.439905996661705E-006
 -6.425624722403386E-006
 -6.410875568154063E-006
 -6.395665507711150E-006
 -6.380001843106019E-006
 -6.363892167438162E-006
 -6.347344328397697E-006
 -6.330366392454656E-006
 -6.312966609689464E-006
 -6.295153379245838E-006
 -6.276935215311626E-006
 -6.258320713682886E-006
 -6.239318518814137E-006
 -6.219937291332111E-006
 -6.200185675993572E-006
 -6.180072270003978E-006
 -6.159605591722545E-006
 -6.138794049655150E-006
 -6.117645911722383E-006
 -6.096169274776293E-006
 -6.074372034276555E-006
 -6.052261854156960E-006
 -6.029846136756665E-006
 -6.007131992876500E-006
 -5.984126211826103E-006
 -5.960835231479772E-006
 -5.937265108307542E-006
 -5.913421487310701E-006
 -5.889309571850734E-006
 -5.864934093342558E-006
 -5.840299280765940E-006
 -5.815408829971770E-006
 -5.790265872760047E-006
 -5.764872945689790E-006
 -5.739231958612279E-006
 -5.713344162882451E-006
 -5.687210119273127E-006
 -5.660829665496949E-006
 -5.634201883395129E-006
 -5.607325065733529E-006
 -5.580196682602463E-006
 -6.979135205267278E-006
 -6.967589543837926E-006
 -6.955584903659357E-006
 -6.943121574694758E-006
 -6.930200541200694E-006
 -6.916823441157321E-006
 -6.902992526320001E-006
 -6.888710622820527E-006
 -6.873981092359433E-006
 -6.858807793954782E-006
 -6.843195046258096E-006
 -6.827147590401476E-006
 -6.810670553393427E-006
 -6.793769412015068E-006
 -6.776449957246984E-006
 -6.758718259142516E-006
 -6.740580632187760E-006
 -6.722043601110590E-006
 -6.703113867087284E-006
 -6.683798274368958E-006
 -6.664103777258240E-006
 -6.644037407453998E-006
 -6.623606241697442E-006
 -6.602817369715807E-006
 -6.581677862437710E-006
 -6.560194740415358E-006
 -6.538374942480600E-006
 -6.516225294554397E-006
 -6.493752478614137E-006
 -6.470963001749583E-006
 -6.447863165333107E-006
 -6.424459034200814E-006
 -6.400756405896046E-006
 -6.376760779870308E-006
 -6.352477326659266E-006
 -6.327910856984204E-006
 -6.303065790755542E-006
 -6.277946125952929E-006
 -6.252555407350437E-006
 -6.226896695050321E-006
 -6.200972532829998E-006
 -6.174784916228230E-006
 -6.148335260409472E-006
 -6.121624367710932E-006
 -6.094652394930119E-006
 -6.067418820247130E-006
 -6.039922409832028E-006
 -6.012161184083068E-006
 -5.984132383481478E-006
 -5.955832434047913E-006
 -7.439817465753376E-006
 -7.426473955686496E-006
 -7.412712831917702E-006
 -7.398532983918877E-006
 -7.383933980560149E-006
 -7.368916032888502E-006
 -7.353479957276975E-006
 -7.337627138944735E-006
 -7.321359495838432E-006
 -7.304679442891101E-006
 -7.287589856620563E-006
 -7.270094040109081E-006
 -7.252195688293964E-006
 -7.233898853608823E-006
 -7.215207911962077E-006
 -7.196127528994115E-006
 -7.176662626657680E-006
 -7.156818350072192E-006
 -7.136600034631825E-006
 -7.116013173377608E-006
 -7.095063384587466E-006
 -7.073756379577091E-006
 -7.052097930694796E-006
 -7.030093839477700E-006
 -7.007749904955203E-006
 -6.985071892075572E-006
 -6.962065500240265E-006
 -6.938736331891268E-006
 -6.915089861180190E-006
 -6.891131402647469E-006
 -6.866866079904874E-006
 -6.842298794291751E-006
 -6.817434193509769E-006
 -6.792276640153018E-006
 -6.766830180154520E-006
 -6.741098511117001E-006
 -6.715084950491169E-006
 -6.688792403577527E-006
 -6.662223331349380E-006
 -6.635379718029510E-006
 -6.608263038459104E-006
 -6.580874225157219E-006
 -6.553213635132984E-006
 -6.525281016362841E-006
 -6.497075473930200E-006
 -6.468595435840169E-006
 -6.439838618404560E-006
 -6.410801991290029E-006
 -6.381481742106754E-006
 -6.351873240574066E-006
 -7.929544633373841E-006
 -7.914344505908280E-006
 -7.898759878760610E-006
 -7.882788662381122E-006
 -7.866429425240801E-006
 -7.849681359409854E-006
 -7.832544246310859E-006
 -7.815018422703730E-006
 -7.797104746864413E-006
 -7.778804564979765E-006
 -7.760119677734111E-006
 -7.741052307101083E-006
 -7.721605063338226E-006
 -7.701780912150118E-006
 -7.681583142035085E-006
 -7.661015331815095E-006
 -7.640081318301092E-006
 -7.618785164130655E-006
 -7.597131125717405E-006
 -7.575123621334992E-006
 -7.552767199303361E-006
 -7.530066506261629E-006
 -7.507026255520162E-006
 -7.483651195470407E-006
 -7.459946078038957E-006
 -7.435915627139971E-006
 -7.411564507166226E-006
 -7.386897291425277E-006
 -7.361918430566416E-006
 -7.336632220933987E-006
 -7.311042772849676E-006
 -7.285153978785525E-006
 -7.258969481421917E-006
 -7.232492641565780E-006
 -7.205726505883547E-006
 -7.178673774476909E-006
 -7.151336768218006E-006
 -7.123717395864398E-006
 -7.095817120931941E-006
 -7.067636928261792E-006
 -7.039177290310435E-006
 -7.010438133104980E-006
 -6.981418801852570E-006
 -6.952118026202224E-006
 -6.922533885080090E-006
 -6.892663771141802E-006
 -6.862504354785569E-006
 -6.832051547689059E-006
 -6.801300465891263E-006
 -6.770245392364767E-006
 -8.449565477512058E-006
 -8.432464825774293E-006
 -8.415005426747988E-006
 -8.397184537138677E-006
 -8.379000047663095E-006
 -8.360450450776566E-006
 -8.341534808546622E-006
 -8.322252720564594E-006
 -8.302604291980185E-006
 -8.282590101576886E-006
 -8.262211169974746E-006
 -8.241468927875017E-006
 -8.220365184413771E-006
 -8.198902095547589E-006
 -8.177082132530493E-006
 -8.154908050439335E-006
 -8.132382856721884E-006
 -8.109509779822234E-006
 -8.086292237790448E-006
 -8.062733806939666E-006
 -8.038838190472410E-006
 -8.014609187134905E-006
 -7.990050659800922E-006
 -7.965166504050164E-006
 -7.939960616676942E-006
 -7.914436864126433E-006
 -7.888599050847550E-006
 -7.862450887528830E-006
 -7.835995959231643E-006
 -7.809237693352506E-006
 -7.782179327456370E-006
 -7.754823876898836E-006
 -7.727174102270197E-006
 -7.699232476610369E-006
 -7.671001152382695E-006
 -7.642481928187160E-006
 -7.613676215190988E-006
 -7.584585003259250E-006
 -7.555208826746498E-006
 -7.525547729954709E-006
 -7.495601232213100E-006
 -7.465368292560042E-006
 -7.434847274021393E-006
 -7.404035907446439E-006
 -7.372931254865082E-006
 -7.341529672386444E-006
 -7.309826772571208E-006
 -7.277817386262758E-006
 -7.245495523883181E-006
 -7.212854336136994E-006
 -9.001318151441136E-006
 -8.982281086751246E-006
 -8.962904601357203E-006
 -8.943185540369019E-006
 -8.923121359010046E-006
 -8.902710091981843E-006
 -8.881950322822822E-006
 -8.860841153276631E-006
 -8.839382172643109E-006
 -8.817573427112773E-006
 -8.795415389121664E-006
 -8.772908926649877E-006
 -8.750055272560081E-006
 -8.726855993843474E-006
 -8.703312960895546E-006
 -8.679428316715780E-006
 -8.655204446080375E-006
 -8.630643944655911E-006
 -8.605749588047100E-006
 -8.580524300755371E-006
 -8.554971125085752E-006
 -8.529093189912085E-006
 -8.502893679358151E-006
 -8.476375801340569E-006
 -8.449542755973828E-006
 -8.422397703813145E-006
 -8.394943733939996E-006
 -8.367183831849748E-006
 -8.339120847123113E-006
 -8.310757460899389E-006
 -8.282096153093086E-006
 -8.253139169353447E-006
 -8.223888487745190E-006
 -8.194345785139096E-006
 -8.164512403268733E-006
 -8.134389314463751E-006
 -8.103977087016356E-006
 -8.073275850172993E-006
 -8.042285258709281E-006
 -8.011004457083963E-006
 -7.979432043168358E-006
 -7.947566031461411E-006
 -7.915403815845791E-006
 -7.882942131805669E-006
 -7.850177018111847E-006
 -7.817103777922054E-006
 -7.783716939315512E-006
 -7.750010215168709E-006
 -7.715976462425601E-006
 -7.681607640662277E-006
 -9.586423992212246E-006
 -9.565417296370199E-006
 -9.544085012876647E-006
 -9.522423746634347E-006
 -9.500430690919430E-006
 -9.478103597769765E-006
 -9.455440748333870E-006
 -9.432440923113756E-006
 -9.409103372172410E-006
 -9.385427785241613E-006
 -9.361414261775027E-006
 -9.337063280891521E-006
 -9.312375671250057E-006
 -9.287352580824248E-006
 -9.261995446567073E-006
 -9.236305963971406E-006
 -9.210286056510288E-006
 -9.183937844944338E-006
 -9.157263616490911E-006
 -9.130265793845201E-006
 -9.102946904035981E-006
 -9.075309547105081E-006
 -9.047356364595927E-006
 -9.019090007853502E-006
 -8.990513106087726E-006
 -8.961628234221041E-006
 -8.932437880481920E-006
 -8.902944413731162E-006
 -8.873150050516884E-006
 -8.843056821824084E-006
 -8.812666539497193E-006
 -8.781980762352936E-006
 -8.751000761913884E-006
 -8.719727487782648E-006
 -8.688161532604203E-006
 -8.656303096638186E-006
 -8.624151951860658E-006
 -8.591707405631167E-006
 -8.558968263861940E-006
 -8.525932793690837E-006
 -8.492598685616433E-006
 -8.458963015088295E-006
 -8.425022203508414E-006
 -8.390771978619175E-006
 -8.356207334297571E-006
 -8.321322489645430E-006
 -8.286110847425273E-006
 -8.250564951777501E-006
 -8.214676445180180E-006
 -8.178436024671045E-006
 -1.020668203486449E-005
 -1.018367105573525E-005
 -1.016034372383580E-005
 -1.013669651590044E-005
 -1.011272647879692E-005
 -1.008843120041049E-005
 -1.006380878040592E-005
 -1.003885780089526E-005
 -1.001357729698670E-005
 -9.987966727209858E-006
 -9.962025943807592E-006
 -9.935755162900241E-006
 -9.909154934505898E-006
 -9.882226112409586E-006
 -9.854969823864360E-006
 -9.827387439146737E-006
 -9.799480540903755E-006
 -9.771250893322872E-006
 -9.742700411117748E-006
 -9.713831128264200E-006
 -9.684645166542177E-006
 -9.655144703814042E-006
 -9.625331942072543E-006
 -9.595209075191668E-006
 -9.564778256421430E-006
 -9.534041565560563E-006
 -9.503000975828207E-006
 -9.471658320388430E-006
 -9.440015258541813E-006
 -9.408073241524081E-006
 -9.375833477927739E-006
 -9.343296898721200E-006
 -9.310464121819672E-006
 -9.277335416233807E-006
 -9.243910665714370E-006
 -9.210189331935555E-006
 -9.176170417137250E-006
 -9.141852426232830E-006
 -9.107233328371790E-006
 -9.072310517885719E-006
 -9.037080774643677E-006
 -9.001540223752699E-006
 -8.965684294607547E-006
 -8.929507679224559E-006
 -8.893004289883252E-006
 -8.856167215994362E-006
 -8.818988680194550E-006
 -8.781459993639143E-006
 -8.743571510451334E-006
 -8.705312581290660E-006
 -1.086406465441388E-005
 -1.083901021757934E-005
 -1.081364490256103E-005
 -1.078796512075393E-005
 -1.076196783981858E-005
 -1.073565055453108E-005
 -1.070901125750582E-005
 -1.068204840977454E-005
 -1.065476091122813E-005
 -1.062714807090961E-005
 -1.059920957711256E-005
 -1.057094546734264E-005
 -1.054235609808238E-005
 -1.051344211436431E-005
 -1.048420441913278E-005
 -1.045464414240648E-005
 -1.042476261019887E-005
 -1.039456131321796E-005
 -1.036404187528973E-005
 -1.033320602153080E-005
 -1.030205554623244E-005
 -1.027059228046492E-005
 -1.023881805934083E-005
 -1.020673468897426E-005
 -1.017434391309684E-005
 -1.014164737929872E-005
 -1.010864660488853E-005
 -1.007534294237434E-005
 -1.004173754450912E-005
 -1.000783132890676E-005
 -9.973624942200061E-006
 -9.939118723715671E-006
 -9.904312668652757E-006
 -9.869206390744867E-006
 -9.833799084363316E-006
 -9.798089486058021E-006
 -9.762075835505639E-006
 -9.725755835840692E-006
 -9.689126613340063E-006
 -9.652184676422458E-006
 -9.614925873986247E-006
 -9.577345352982916E-006
 -9.539437515260006E-006
 -9.501195973606161E-006
 -9.462613507007514E-006
 -9.423682015018160E-006
 -9.384392471293651E-006
 -9.344734876200983E-006
 -9.304698208477990E-006
 -9.264270375924965E-006
 -1.156071458105467E-005
 -1.153357071806282E-005
 -1.150611846052544E-005
 -1.147835417691168E-005
 -1.145027478296286E-005
 -1.142187771204325E-005
 -1.139316088535795E-005
 -1.136412268200233E-005
 -1.133476190886534E-005
 -1.130507777034382E-005
 -1.127506983787501E-005
 -1.124473801926785E-005
 -1.121408252782137E-005
 -1.118310385122829E-005
 -1.115180272022916E-005
 -1.112018007701520E-005
 -1.108823704337882E-005
 -1.105597488857856E-005
 -1.102339499689043E-005
 -1.099049883487486E-005
 -1.095728791830279E-005
 -1.092376377873512E-005
 -1.088992792973687E-005
 -1.085578183273183E-005
 -1.082132686244068E-005
 -1.078656427188931E-005
 -1.075149515701679E-005
 -1.071612042079315E-005
 -1.068044073686404E-005
 -1.064445651271631E-005
 -1.060816785228785E-005
 -1.057157451805617E-005
 -1.053467589255822E-005
 -1.049747093929866E-005
 -1.045995816304581E-005
 -1.042213556951597E-005
 -1.038400062433124E-005
 -1.034555021133005E-005
 -1.030678059012487E-005
 -1.026768735291732E-005
 -1.022826538053516E-005
 -1.018850879764133E-005
 -1.014841092712497E-005
 -1.010796424358954E-005
 -1.006716032594943E-005
 -1.002598980908957E-005
 -9.984442334541318E-006
 -9.942506500153934E-006
 -9.900169808712142E-006
 -9.857418615485250E-006
 -1.229894341371648E-005
 -1.226965573516287E-005
 -1.224005985144725E-005
 -1.221015207757027E-005
 -1.217992927193444E-005
 -1.214938880575677E-005
 -1.211852853235729E-005
 -1.208734675628079E-005
 -1.205584220224567E-005
 -1.202401398389617E-005
 -1.199186157235157E-005
 -1.195938476455711E-005
 -1.192658365137040E-005
 -1.189345858543294E-005
 -1.186001014875105E-005
 -1.182623912000839E-005
 -1.179214644157647E-005
 -1.175773318621894E-005
 -1.172300052345629E-005
 -1.168794968557642E-005
 -1.165258193329359E-005
 -1.161689852099847E-005
 -1.158090066161153E-005
 -1.154458949101662E-005
 -1.150796603202885E-005
 -1.147103115790049E-005
 -1.143378555534527E-005
 -1.139622968703312E-005
 -1.135836375355743E-005
 -1.132018765483801E-005
 -1.128170095094503E-005
 -1.124290282230107E-005
 -1.120379202926087E-005
 -1.116436687102313E-005
 -1.112462514385173E-005
 -1.108456409858790E-005
 -1.104418039741037E-005
 -1.100347006981395E-005
 -1.096242846780793E-005
 -1.092105022025341E-005
 -1.087932918634918E-005
 -1.083725840821548E-005
 -1.079483006253987E-005
 -1.075203541126396E-005
 -1.070886475125489E-005
 -1.066530736297090E-005
 -1.062135145800112E-005
 -1.057698412553823E-005
 -1.053219127768412E-005
 -1.048695759355105E-005
 -1.308123167477170E-005
 -1.304973624288173E-005
 -1.301793112568888E-005
 -1.298581254740302E-005
 -1.295337727693334E-005
 -1.292062259599637E-005
 -1.288754626709050E-005
 -1.285414650127196E-005
 -1.282042192580466E-005
 -1.278637155155960E-005
 -1.275199474023876E-005
 -1.271729117136236E-005
 -1.268226080898742E-005
 -1.264690386817945E-005
 -1.261122078119277E-005
 -1.257521216334248E-005
 -1.253887877855409E-005
 -1.250222150457025E-005
 -1.246524129780184E-005
 -1.242793915776908E-005
 -1.239031609117078E-005
 -1.235237307550536E-005
 -1.231411102223728E-005
 -1.227553073952139E-005
 -1.223663289440133E-005
 -1.219741797449306E-005
 -1.215788624916652E-005
 -1.211803773009255E-005
 -1.207787213125808E-005
 -1.203738882832926E-005
 -1.199658681737720E-005
 -1.195546467293871E-005
 -1.191402050536468E-005
 -1.187225191745255E-005
 -1.183015596030157E-005
 -1.178772908840552E-005
 -1.174496711389819E-005
 -1.170186515996806E-005
 -1.165841761337949E-005
 -1.161461807606956E-005
 -1.157045931581645E-005
 -1.152593321589483E-005
 -1.148103072372748E-005
 -1.143574179845732E-005
 -1.139005535745133E-005
 -1.134395922163339E-005
 -1.129744005966125E-005
 -1.125048333089100E-005
 -1.120307322705794E-005
 -1.115519261268222E-005
 -1.391023039601703E-005
 -1.387645297549127E-005
 -1.384236327656842E-005
 -1.380795737354592E-005
 -1.377323189187669E-005
 -1.373818397458107E-005
 -1.370281124854354E-005
 -1.366711179062410E-005
 -1.363108409361801E-005
 -1.359472703198601E-005
 -1.355803982738392E-005
 -1.352102201395659E-005
 -1.348367340335235E-005
 -1.344599404945826E-005
 -1.340798421284486E-005
 -1.336964432488067E-005
 -1.333097495148274E-005
 -1.329197675652777E-005
 -1.325265046483451E-005
 -1.321299682476601E-005
 -1.317301657035826E-005
 -1.313271038302483E-005
 -1.309207885273586E-005
 -1.305112243869992E-005
 -1.300984142951466E-005
 -1.296823590274022E-005
 -1.292630568388929E-005
 -1.288405030479333E-005
 -1.284146896133053E-005
 -1.279856047046522E-005
 -1.275532322660042E-005
 -1.271175515717734E-005
 -1.266785367753665E-005
 -1.262361564494634E-005
 -1.257903731183165E-005
 -1.253411427814742E-005
 -1.248884144283449E-005
 -1.244321295435022E-005
 -1.239722216025083E-005
 -1.235086155577144E-005
 -1.230412273134314E-005
 -1.225699631907024E-005
 -1.220947193807052E-005
 -1.216153813865989E-005
 -1.211318234535655E-005
 -1.206439079863842E-005
 -1.201514849541790E-005
 -1.196543912819661E-005
 -1.191524502284710E-005
 -1.186454707497707E-005
 -1.478876419570982E-005
 -1.475261978277850E-005
 -1.471615987948938E-005
 -1.467938033328587E-005
 -1.464227755424371E-005
 -1.460484847948140E-005
 -1.456709053742098E-005
 -1.452900161190698E-005
 -1.449058000614159E-005
 -1.445182440642403E-005
 -1.441273384565876E-005
 -1.437330766661206E-005
 -1.433354548490867E-005
 -1.429344715171684E-005
 -1.425301271613811E-005
 -1.421224238721719E-005
 -1.417113649561831E-005
 -1.412969545488164E-005
 -1.408791972227094E-005
 -1.404580975918667E-005
 -1.400336599107650E-005
 -1.396058876688453E-005
 -1.391747831794747E-005
 -1.387403471634839E-005
 -1.383025783269735E-005
 -1.378614729328198E-005
 -1.374170243659850E-005
 -1.369692226920484E-005
 -1.365180542087397E-005
 -1.360635009901318E-005
 -1.356055404233904E-005
 -1.351441447372610E-005
 -1.346792805225690E-005
 -1.342109082439923E-005
 -1.337389817426969E-005
 -1.332634477299876E-005
 -1.327842452708466E-005
 -1.323013052578186E-005
 -1.318145498741420E-005
 -1.313238920461860E-005
 -1.308292348846218E-005
 -1.303304711138149E-005
 -1.298274824893962E-005
 -1.293201392030404E-005
 -1.288082992745364E-005
 -1.282918079302452E-005
 -1.277704969678935E-005
 -1.272441841067706E-005
 -1.267126723233481E-005
 -1.261757491714130E-005
 -1.571983579254735E-005
 -1.568122834042227E-005
 -1.564230200524407E-005
 -1.560305231587945E-005
 -1.556347538022727E-005
 -1.552356784727945E-005
 -1.548332686906794E-005
 -1.544275006245487E-005
 -1.540183547072313E-005
 -1.536058152500597E-005
 -1.531898700545736E-005
 -1.527705100217148E-005
 -1.523477287582656E-005
 -1.519215221801465E-005
 -1.514918881124563E-005
 -1.510588258857392E-005
 -1.506223359284089E-005
 -1.501824193551536E-005
 -1.497390775505974E-005
 -1.492923117484073E-005
 -1.488421226053877E-005
 -1.483885097701796E-005
 -1.479314714462958E-005
 -1.474710039493639E-005
 -1.470071012579914E-005
 -1.465397545582222E-005
 -1.460689517809916E-005
 -1.455946771324686E-005
 -1.451169106169716E-005
 -1.446356275516772E-005
 -1.441507980735290E-005
 -1.436623866374424E-005
 -1.431703515052140E-005
 -1.426746442258998E-005
 -1.421752091057957E-005
 -1.416719826686599E-005
 -1.411648931055408E-005
 -1.406538597136628E-005
 -1.401387923239363E-005
 -1.396195907170321E-005
 -1.390961440270129E-005
 -1.385683301326332E-005
 -1.380360150355075E-005
 -1.374990522247684E-005
 -1.369572820277708E-005
 -1.364105309463363E-005
 -1.358586109780881E-005
 -1.353013189221319E-005
 -1.347384356689928E-005
 -1.341697254736797E-005
 -1.670663190085944E-005
 -1.666545417476824E-005
 -1.662395438102519E-005
 -1.658212762572254E-005
 -1.653996961519825E-005
 -1.649747661544956E-005
 -1.645464541144350E-005
 -1.641147326625448E-005
 -1.636795788003996E-005
 -1.632409734881765E-005
 -1.627989012298583E-005
 -1.623533496561610E-005
 -1.619043091041138E-005
 -1.614517721936839E-005
 -1.609957334010038E-005
 -1.605361886274137E-005
 -1.600731347647002E-005
 -1.596065692559116E-005
 -1.591364896512050E-005
 -1.586628931590184E-005
 -1.581857761915661E-005
 -1.577051339049117E-005
 -1.572209597328615E-005
 -1.567332449146837E-005
 -1.562419780161370E-005
 -1.557471444433359E-005
 -1.552487259496063E-005
 -1.547467001342751E-005
 -1.542410399337041E-005
 -1.537317131036419E-005
 -1.532186816929376E-005
 -1.527019015079954E-005
 -1.521813215677602E-005
 -1.516568835485236E-005
 -1.511285212184761E-005
 -1.505961598615317E-005
 -1.500597156896979E-005
 -1.495190952439444E-005
 -1.489741947829494E-005
 -1.484248996592153E-005
 -1.478710836821505E-005
 -1.473126084676820E-005
 -1.467493227737609E-005
 -1.461810618215043E-005
 -1.456076466011408E-005
 -1.450288831625013E-005
 -1.444445618893723E-005
 -1.438544567572732E-005
 -1.432583245739144E-005
 -1.426559042019222E-005
 -1.775253045828759E-005
 -1.770866396522013E-005
 -1.766447277369640E-005
 -1.761995145209277E-005
 -1.757509519500545E-005
 -1.752989977969343E-005
 -1.748436152245253E-005
 -1.743847723480288E-005
 -1.739224417952852E-005
 -1.734566002647690E-005
 -1.729872280815545E-005
 -1.725143087502714E-005
 -1.720378285051399E-005
 -1.715577758565734E-005
 -1.710741411343127E-005
 -1.705869160262304E-005
 -1.700960931130952E-005
 -1.696016653985476E-005
 -1.691036258341183E-005
 -1.686019668389551E-005
 -1.680966798136572E-005
 -1.675877546485734E-005
 -1.670751792251314E-005
 -1.665589389109169E-005
 -1.660390160474999E-005
 -1.655153894306369E-005
 -1.649880337829944E-005
 -1.644569192182963E-005
 -1.639220106971929E-005
 -1.633832674737629E-005
 -1.628406425329809E-005
 -1.622940820180905E-005
 -1.617435246478898E-005
 -1.611889011232090E-005
 -1.606301335224363E-005
 -1.600671346853669E-005
 -1.594998075849307E-005
 -1.589280446867137E-005
 -1.583517272951916E-005
 -1.577707248867207E-005
 -1.571848944283687E-005
 -1.565940796823885E-005
 -1.559981104955993E-005
 -1.553968020732011E-005
 -1.547899542366134E-005
 -1.541773506643063E-005
 -1.535587581157907E-005
 -1.529339256373690E-005
 -1.523025837495785E-005
 -1.516644436156284E-005
 -1.886110915030497E-005
 -1.881442409740737E-005
 -1.876741257694442E-005
 -1.872006849518962E-005
 -1.867238641535236E-005
 -1.862436151075766E-005
 -1.857598951795591E-005
 -1.852726668966001E-005
 -1.847818974749676E-005
 -1.842875583455201E-005
 -1.837896246768190E-005
 -1.832880748951046E-005
 -1.827828902013213E-005
 -1.822740540846474E-005
 -1.817615518319847E-005
 -1.812453700335036E-005
 -1.807254960833338E-005
 -1.802019176755730E-005
 -1.796746222949638E-005
 -1.791435967018858E-005
 -1.786088264113229E-005
 -1.780702951656759E-005
 -1.775279844004549E-005
 -1.769818727031788E-005
 -1.764319352644934E-005
 -1.758781433215175E-005
 -1.753204635928582E-005
 -1.747588577046982E-005
 -1.741932816079733E-005
 -1.736236849857777E-005
 -1.730500106508473E-005
 -1.724721939325089E-005
 -1.718901620527045E-005
 -1.713038334906869E-005
 -1.707131173358761E-005
 -1.701179126280802E-005
 -1.695181076853440E-005
 -1.689135794180975E-005
 -1.683041926295326E-005
 -1.676897993016228E-005
 -1.670702378661478E-005
 -1.664453324602471E-005
 -1.658148921658677E-005
 -1.651787102326559E-005
 -1.645365632835495E-005
 -1.638882105024032E-005
 -1.632333928033963E-005
 -1.625718319810374E-005
 -1.619032298405398E-005
 -1.612272673077862E-005
 -2.003615521322961E-005
 -1.998651045466685E-005
 -1.993653859537275E-005
 -1.988623274669985E-005
 -1.983558671248343E-005
 -1.978459493863504E-005
 -1.973325246265626E-005
 -1.968155486296696E-005
 -1.962949820806813E-005
 -1.957707900547743E-005
 -1.952429415040079E-005
 -1.947114087411386E-005
 -1.941761669201527E-005
 -1.936371935129570E-005
 -1.930944677821952E-005
 -1.925479702495758E-005
 -1.919976821593191E-005
 -1.914435849365278E-005
 -1.908856596399237E-005
 -1.903238864087504E-005
 -1.897582439030539E-005
 -1.891887087375984E-005
 -1.886152549082242E-005
 -1.880378532110591E-005
 -1.874564706533221E-005
 -1.868710698560413E-005
 -1.862816084478024E-005
 -1.856880384492583E-005
 -1.850903056478275E-005
 -1.844883489622173E-005
 -1.838820997964016E-005
 -1.832714813823464E-005
 -1.826564081112013E-005
 -1.820367848522005E-005
 -1.814125062592129E-005
 -1.807834560638591E-005
 -1.801495063551098E-005
 -1.795105168446040E-005
 -1.788663341172603E-005
 -1.782167908663760E-005
 -1.775617051129559E-005
 -1.769008794084049E-005
 -1.762341000201671E-005
 -1.755611360994429E-005
 -1.748817388306501E-005
 -1.741956405617872E-005
 -1.735025539148498E-005
 -1.728021708762122E-005
 -1.720941618654813E-005
 -1.713781747827011E-005
 -2.128167651735439E-005
 -2.122891945234462E-005
 -2.117583603270039E-005
 -2.112241843456188E-005
 -2.106865956708353E-005
 -2.101455301809863E-005
 -2.096009299966494E-005
 -2.090527429344818E-005
 -2.085009219591519E-005
 -2.079454246329094E-005
 -2.073862125624583E-005
 -2.068232508427091E-005
 -2.062565074970429E-005
 -2.056859529137319E-005
 -2.051115592780157E-005
 -2.045332999995603E-005
 -2.039511491349399E-005
 -2.033650808044358E-005
 -2.027750686031886E-005
 -2.021810850059233E-005
 -2.015831007649999E-005
 -2.009810843014391E-005
 -2.003750010881148E-005
 -1.997648130253178E-005
 -1.991504778075861E-005
 -1.985319482817132E-005
 -1.979091717953683E-005
 -1.972820895361067E-005
 -1.966506358597111E-005
 -1.960147376079487E-005
 -1.953743134150060E-005
 -1.947292730020769E-005
 -1.940795164595342E-005
 -1.934249335164757E-005
 -1.927654027965344E-005
 -1.921007910600245E-005
 -1.914309524312536E-005
 -1.907557276109620E-005
 -1.900749430729327E-005
 -1.893884102441174E-005
 -1.886959246681813E-005
 -1.879972651510037E-005
 -1.872921928882406E-005
 -1.865804505738064E-005
 -1.858617614888231E-005
 -1.851358285700622E-005
 -1.844023334575853E-005
 -1.836609355204411E-005
 -1.829112708598181E-005
 -1.821529512887894E-005
 -2.260191395324953E-005
 -2.254588033783119E-005
 -2.248952270677841E-005
 -2.243283215425606E-005
 -2.237580055322941E-005
 -2.231842049678851E-005
 -2.226068523934121E-005
 -2.220258863766736E-005
 -2.214412509171605E-005
 -2.208528948520762E-005
 -2.202607712591740E-005
 -2.196648368564162E-005
 -2.190650513979782E-005
 -2.184613770660682E-005
 -2.178537778584192E-005
 -2.172422189706891E-005
 -2.166266661735931E-005
 -2.160070851844029E-005
 -2.153834410319588E-005
 -2.147556974153551E-005
 -2.141238160554055E-005
 -2.134877560385269E-005
 -2.128474731529764E-005
 -2.122029192160662E-005
 -2.115540413930548E-005
 -2.109007815062523E-005
 -2.102430753344330E-005
 -2.095808519017163E-005
 -2.089140327556211E-005
 -2.082425312338008E-005
 -2.075662517185600E-005
 -2.068850888790681E-005
 -2.061989269004792E-005
 -2.055076386993421E-005
 -2.048110851248562E-005
 -2.041091141453473E-005
 -2.034015600192567E-005
 -2.026882424501269E-005
 -2.019689657247816E-005
 -2.012435178343781E-005
 -2.005116695773155E-005
 -1.997731736434228E-005
 -1.990277636787017E-005
 -1.982751533301450E-005
 -1.975150352694900E-005
 -1.967470801953475E-005
 -1.959709358130049E-005
 -1.951862257910945E-005
 -1.943925486939765E-005
 -1.935894768895936E-005
 -2.400135516606921E-005
 -2.394186879812241E-005
 -2.388206253000544E-005
 -2.382192622198391E-005
 -2.376145056449020E-005
 -2.370062701468099E-005
 -2.363944773285026E-005
 -2.357790551865165E-005
 -2.351599374712450E-005
 -2.345370630444151E-005
 -2.339103752335441E-005
 -2.332798211829410E-005
 -2.326453512008503E-005
 -2.320069181023955E-005
 -2.313644765475284E-005
 -2.307179823739784E-005
 -2.300673919246126E-005
 -2.294126613686221E-005
 -2.287537460163655E-005
 -2.280905996270061E-005
 -2.274231737089133E-005
 -2.267514168121152E-005
 -2.260752738122184E-005
 -2.253946851856067E-005
 -2.247095862751827E-005
 -2.240199065461832E-005
 -2.233255688316525E-005
 -2.226264885669226E-005
 -2.219225730125150E-005
 -2.212137204650651E-005
 -2.204998194558007E-005
 -2.197807479353976E-005
 -2.190563724454493E-005
 -2.183265472753552E-005
 -2.175911136040934E-005
 -2.168498986265959E-005
 -2.161027146635135E-005
 -2.153493582541966E-005
 -2.145896092319110E-005
 -2.138232297807489E-005
 -2.130499634733581E-005
 -2.122695342889079E-005
 -2.114816456104975E-005
 -2.106859792010423E-005
 -2.098821941572246E-005
 -2.090699258403328E-005
 -2.082487847834225E-005
 -2.074183555734745E-005
 -2.065781957085219E-005
 -2.057278344279019E-005
 -2.548474970388071E-005
 -2.542162193464833E-005
 -2.535818030868828E-005
 -2.529441329704445E-005
 -2.523031025832395E-005
 -2.516586136998077E-005
 -2.510105755942484E-005
 -2.503589043495435E-005
 -2.497035221643864E-005
 -2.490443566575629E-005
 -2.483813401685422E-005
 -2.477144090549306E-005
 -2.470435029857287E-005
 -2.463685642297353E-005
 -2.456895369394531E-005
 -2.450063664292830E-005
 -2.443189984478051E-005
 -2.436273784439062E-005
 -2.429314508258823E-005
 -2.422311582133393E-005
 -2.415264406812835E-005
 -2.408172349958875E-005
 -2.401034738414343E-005
 -2.393850850380751E-005
 -2.386619907495358E-005
 -2.379341066805469E-005
 -2.372013412633826E-005
 -2.364635948327191E-005
 -2.357207587885756E-005
 -2.349727147465407E-005
 -2.342193336746403E-005
 -2.334604750164068E-005
 -2.326959857993891E-005
 -2.319256997285033E-005
 -2.311494362634035E-005
 -2.303669996796373E-005
 -2.295781781122243E-005
 -2.287827425816049E-005
 -2.279804460006993E-005
 -2.271710221626975E-005
 -2.263541847085575E-005
 -2.255296260736074E-005
 -2.246970164122847E-005
 -2.238560025003209E-005
 -2.230062066134495E-005
 -2.221472253816246E-005
 -2.212786286181852E-005
 -2.203999581227889E-005
 -2.195107264571417E-005
 -2.186104156926788E-005
 -2.705712566539390E-005
 -2.699015468124556E-005
 -2.692287792778295E-005
 -2.685528233060227E-005
 -2.678735576680903E-005
 -2.671908699041080E-005
 -2.665046555758391E-005
 -2.658148175169537E-005
 -2.651212650809897E-005
 -2.644239133862931E-005
 -2.637226825574313E-005
 -2.630174969630417E-005
 -2.623082844492087E-005
 -2.615949755680802E-005
 -2.608775028014342E-005
 -2.601557997784355E-005
 -2.594298004873589E-005
 -2.586994384805669E-005
 -2.579646460724512E-005
 -2.572253535298076E-005
 -2.564814882537378E-005
 -2.557329739535133E-005
 -2.549797298105837E-005
 -2.542216696332708E-005
 -2.534587010010429E-005
 -2.526907243978868E-005
 -2.519176323343867E-005
 -2.511393084574001E-005
 -2.503556266476126E-005
 -2.495664501033620E-005
 -2.487716304107990E-005
 -2.479710065992859E-005
 -2.471644041817206E-005
 -2.463516341787806E-005
 -2.455324921266978E-005
 -2.447067570673894E-005
 -2.438741905207051E-005
 -2.430345354377466E-005
 -2.421875151343509E-005
 -2.413328322043850E-005
 -2.404701674114511E-005
 -2.395991785586994E-005
 -2.387194993354593E-005
 -2.378307381399956E-005
 -2.369324768775366E-005
 -2.360242697324170E-005
 -2.351056419136004E-005
 -2.341760883724195E-005
 -2.332350724915785E-005
 -2.322820247445147E-005
 -2.872380794848659E-005
 -2.865277775372985E-005
 -2.858145199676672E-005
 -2.850981590407554E-005
 -2.843785572467595E-005
 -2.836555864899960E-005
 -2.829291272759681E-005
 -2.821990678959841E-005
 -2.814653036094258E-005
 -2.807277358226187E-005
 -2.799862712644522E-005
 -2.792408211577541E-005
 -2.784913003864092E-005
 -2.777376266573134E-005
 -2.769797196573679E-005
 -2.762175002040583E-005
 -2.754508893900844E-005
 -2.746798077209770E-005
 -2.739041742452050E-005
 -2.731239056766304E-005
 -2.723389155084236E-005
 -2.715491131177828E-005
 -2.707544028615508E-005
 -2.699546831612940E-005
 -2.691498455779436E-005
 -2.683397738750300E-005
 -2.675243430699574E-005
 -2.667034184729742E-005
 -2.658768547126464E-005
 -2.650444947476293E-005
 -2.642061688639085E-005
 -2.633616936568286E-005
 -2.625108709970113E-005
 -2.616534869798530E-005
 -2.607893108573854E-005
 -2.599180939519053E-005
 -2.590395685508465E-005
 -2.581534467814224E-005
 -2.572594194650192E-005
 -2.563571549498306E-005
 -2.554462979210622E-005
 -2.545264681880098E-005
 -2.535972594466535E-005
 -2.526582380172507E-005
 -2.517089415556740E-005
 -2.507488777374151E-005
 -2.497775229136791E-005
 -2.487943207377966E-005
 -2.477986807616358E-005
 -2.467899770001734E-005
 -3.049043821212067E-005
 -3.041511722706983E-005
 -3.033951303640109E-005
 -3.026360902103137E-005
 -3.018738966315484E-005
 -3.011084045779993E-005
 -3.003394782417889E-005
 -2.995669901684148E-005
 -2.987908203650935E-005
 -2.980108554063932E-005
 -2.972269875357498E-005
 -2.964391137632560E-005
 -2.956471349586734E-005
 -2.948509549394445E-005
 -2.940504795533029E-005
 -2.932456157546150E-005
 -2.924362706744278E-005
 -2.916223506833107E-005
 -2.908037604467451E-005
 -2.899804019723504E-005
 -2.891521736483035E-005
 -2.883189692727111E-005
 -2.874806770730882E-005
 -2.866371787153744E-005
 -2.857883483017981E-005
 -2.849340513573526E-005
 -2.840741438036601E-005
 -2.832084709199268E-005
 -2.823368662903332E-005
 -2.814591507368963E-005
 -2.805751312372295E-005
 -2.796845998266474E-005
 -2.787873324833847E-005
 -2.778830879965665E-005
 -2.769716068161215E-005
 -2.760526098832614E-005
 -2.751257974416830E-005
 -2.741908478274077E-005
 -2.732474162373722E-005
 -2.722951334753801E-005
 -2.713336046743927E-005
 -2.703624079946178E-005
 -2.693810932958525E-005
 -2.683891807833187E-005
 -2.673861596262907E-005
 -2.663714865475763E-005
 -2.653445843836425E-005
 -2.643048406136140E-005
 -2.632516058563429E-005
 -2.621841923340866E-005
 -3.236299666814366E-005
 -3.228313583630180E-005
 -3.220300628271168E-005
 -3.212258940975667E-005
 -3.204186780811344E-005
 -3.196082516005018E-005
 -3.187944614255303E-005
 -3.179771633020923E-005
 -3.171562209779948E-005
 -3.163315052260190E-005
 -3.155028928629078E-005
 -3.146702657646314E-005
 -3.138335098765565E-005
 -3.129925142191905E-005
 -3.121471698877124E-005
 -3.112973690457612E-005
 -3.104430039126719E-005
 -3.095839657433964E-005
 -3.087201438008076E-005
 -3.078514243197477E-005
 -3.069776894624722E-005
 -3.060988162640938E-005
 -3.052146755687016E-005
 -3.043251309544229E-005
 -3.034300376470446E-005
 -3.025292414220540E-005
 -3.016225774937489E-005
 -3.007098693909200E-005
 -2.997909278186358E-005
 -2.988655495050988E-005
 -2.979335160328845E-005
 -2.969945926537334E-005
 -2.960485270861599E-005
 -2.950950482951306E-005
 -2.941338652526086E-005
 -2.931646656785322E-005
 -2.921871147608828E-005
 -2.912008538543653E-005
 -2.902054991561575E-005
 -2.892006403584919E-005
 -2.881858392763163E-005
 -2.871606284494213E-005
 -2.861245097179492E-005
 -2.850769527698895E-005
 -2.840173936599547E-005
 -2.829452332979534E-005
 -2.818598359062053E-005
 -2.807605274443142E-005
 -2.796465940001019E-005
 -2.785172801455810E-005
 -3.434782581339122E-005
 -3.426315608731603E-005
 -3.417823417087622E-005
 -3.409303937653263E-005
 -3.400755230080537E-005
 -3.392175471826566E-005
 -3.383562947534571E-005
 -3.374916038392191E-005
 -3.366233211463275E-005
 -3.357513008988313E-005
 -3.348754037649417E-005
 -3.339954957794721E-005
 -3.331114472618477E-005
 -3.322231317291370E-005
 -3.313304248035146E-005
 -3.304332031138063E-005
 -3.295313431904204E-005
 -3.286247203533034E-005
 -3.277132075920581E-005
 -3.267966744380127E-005
 -3.258749858272681E-005
 -3.249480009543397E-005
 -3.240155721157793E-005
 -3.230775435427134E-005
 -3.221337502223020E-005
 -3.211840167067366E-005
 -3.202281559094448E-005
 -3.192659678876666E-005
 -3.182972386104562E-005
 -3.173217387117565E-005
 -3.163392222271578E-005
 -3.153494253139500E-005
 -3.143520649532651E-005
 -3.133468376338342E-005
 -3.123334180159909E-005
 -3.113114575752097E-005
 -3.102805832241445E-005
 -3.092403959123673E-005
 -3.081904692024452E-005
 -3.071303478213137E-005
 -3.060595461864293E-005
 -3.049775469047591E-005
 -3.038837992440642E-005
 -3.027777175749504E-005
 -3.016586797827768E-005
 -3.005260256478114E-005
 -2.993790551927538E-005
 -2.982170269959228E-005
 -2.970391564689759E-005
 -2.958446140978775E-005
 -3.645165619302169E-005
 -3.636188524030884E-005
 -3.627188053483586E-005
 -3.618161921964281E-005
 -3.609107982666199E-005
 -3.600024216015804E-005
 -3.590908718000129E-005
 -3.581759688473366E-005
 -3.572575419440105E-005
 -3.563354283311403E-005
 -3.554094721126403E-005
 -3.544795230737393E-005
 -3.535454354954149E-005
 -3.526070669638758E-005
 -3.516642771749848E-005
 -3.507169267330006E-005
 -3.497648759427279E-005
 -3.488079835952463E-005
 -3.478461057456744E-005
 -3.468790944832252E-005
 -3.459067966923573E-005
 -3.449290528046740E-005
 -3.439456955406638E-005
 -3.429565486406575E-005
 -3.419614255845332E-005
 -3.409601282988931E-005
 -3.399524458513980E-005
 -3.389381531313928E-005
 -3.379170095156411E-005
 -3.368887575188411E-005
 -3.358531214276995E-005
 -3.348098059176564E-005
 -3.337584946516345E-005
 -3.326988488594293E-005
 -3.316305058971417E-005
 -3.305530777854724E-005
 -3.294661497256842E-005
 -3.283692785924482E-005
 -3.272619914023414E-005
 -3.261437837567109E-005
 -3.250141182580015E-005
 -3.238724228982800E-005
 -3.227180894183977E-005
 -3.215504716370836E-005
 -3.203688837482426E-005
 -3.191725985851460E-005
 -3.179608458503872E-005
 -3.167328103099830E-005
 -3.154876299503258E-005
 -3.142243940960271E-005
 -3.868163424869618E-005
 -3.858644218772734E-005
 -3.849103651421844E-005
 -3.839539216706595E-005
 -3.829948558797373E-005
 -3.820329459290257E-005
 -3.810679824336691E-005
 -3.800997671762137E-005
 -3.791281118164680E-005
 -3.781528365990164E-005
 -3.771737690581872E-005
 -3.761907427197370E-005
 -3.752035957987813E-005
 -3.742121698937810E-005
 -3.732163086756736E-005
 -3.722158565717355E-005
 -3.712106574437001E-005
 -3.702005532593948E-005
 -3.691853827573229E-005
 -3.681649801036669E-005
 -3.671391735407133E-005
 -3.661077840264615E-005
 -3.650706238641568E-005
 -3.640274953216093E-005
 -3.629781892390075E-005
 -3.619224836245184E-005
 -3.608601422373018E-005
 -3.597909131563849E-005
 -3.587145273349939E-005
 -3.576306971393284E-005
 -3.565391148707312E-005
 -3.554394512704047E-005
 -3.543313540054961E-005
 -3.532144461360331E-005
 -3.520883245606393E-005
 -3.509525584412555E-005
 -3.498066876043942E-005
 -3.486502209190137E-005
 -3.474826346488707E-005
 -3.463033707785464E-005
 -3.451118353120362E-005
 -3.439073965421236E-005
 -3.426893832898498E-005
 -3.414570831119574E-005
 -3.402097404756850E-005
 -3.389465548989210E-005
 -3.376666790545115E-005
 -3.363692168369511E-005
 -3.350532213902886E-005
 -3.337176930952523E-005
 -4.104535224496651E-005
 -4.094438618510381E-005
 -4.084322809418439E-005
 -4.074185073278292E-005
 -4.064022848683551E-005
 -4.053833722541878E-005
 -4.043615415848434E-005
 -4.033365769456174E-005
 -4.023082729834838E-005
 -4.012764334816465E-005
 -4.002408699323073E-005
 -3.992014001071787E-005
 -3.981578466250425E-005
 -3.971100355161801E-005
 -3.960577947828576E-005
 -3.950009529553108E-005
 -3.939393376428659E-005
 -3.928727740791473E-005
 -3.918010836611286E-005
 -3.907240824810862E-005
 -3.896415798507508E-005
 -3.885533768169785E-005
 -3.874592646682891E-005
 -3.863590234311535E-005
 -3.852524203553318E-005
 -3.841392083876923E-005
 -3.830191246330056E-005
 -3.818918888014702E-005
 -3.807572016413741E-005
 -3.796147433564319E-005
 -3.784641720065232E-005
 -3.773051218906864E-005
 -3.761372019115456E-005
 -3.749599939198496E-005
 -3.737730510382731E-005
 -3.725758959626250E-005
 -3.713680192401861E-005
 -3.701488775231858E-005
 -3.689178917964254E-005
 -3.676744455778358E-005
 -3.664178830902150E-005
 -3.651475074033370E-005
 -3.638625785443832E-005
 -3.625623115758124E-005
 -3.612458746385312E-005
 -3.599123869596829E-005
 -3.585609168222478E-005
 -3.571904794962440E-005
 -3.558000351285667E-005
 -3.543884865906541E-005
 -4.355088017800597E-005
 -4.344374730169276E-005
 -4.333644511062098E-005
 -4.322894429237464E-005
 -4.312121728995543E-005
 -4.301323814402393E-005
 -4.290498233523358E-005
 -4.279642662666894E-005
 -4.268754890630663E-005
 -4.257832802949065E-005
 -4.246874366133964E-005
 -4.235877611908049E-005
 -4.224840621422214E-005
 -4.213761509451913E-005
 -4.202638408570467E-005
 -4.191469453285212E-005
 -4.180252764139374E-005
 -4.168986431766282E-005
 -4.157668500890300E-005
 -4.146296954268617E-005
 -4.134869696564297E-005
 -4.123384538144236E-005
 -4.111839178789960E-005
 -4.100231191317546E-005
 -4.088558005094557E-005
 -4.076816889443000E-005
 -4.065004936922804E-005
 -4.053119046482324E-005
 -4.041155906466020E-005
 -4.029111977470580E-005
 -4.016983475034791E-005
 -4.004766352156040E-005
 -3.992456281616798E-005
 -3.980048638113456E-005
 -3.967538480172341E-005
 -3.954920531841484E-005
 -3.942189164143011E-005
 -3.929338376274907E-005
 -3.916361776547182E-005
 -3.903252563038149E-005
 -3.890003503956046E-005
 -3.876606917691698E-005
 -3.863054652544988E-005
 -3.849338066113265E-005
 -3.835448004318823E-005
 -3.821374780066527E-005
 -3.807108151509232E-005
 -3.792637299903170E-005
 -3.777950807041353E-005
 -3.763036632238122E-005
 -4.620679944534930E-005
 -4.609305833143927E-005
 -4.597917142675297E-005
 -4.586510755303539E-005
 -4.575083742297281E-005
 -4.563633346477137E-005
 -4.552156964705693E-005
 -4.540652130406223E-005
 -4.529116496103836E-005
 -4.517547815987649E-005
 -4.505943928486557E-005
 -4.494302738854476E-005
 -4.482622201760610E-005
 -4.470900303876144E-005
 -4.459135046453883E-005
 -4.447324427891121E-005
 -4.435466426270475E-005
 -4.423558981873117E-005
 -4.411599979650738E-005
 -4.399587231653948E-005
 -4.387518459404222E-005
 -4.375391276203384E-005
 -4.363203169370530E-005
 -4.350951482393829E-005
 -4.338633396991778E-005
 -4.326245915069535E-005
 -4.313785840562459E-005
 -4.301249761152584E-005
 -4.288634029850861E-005
 -4.275934746425633E-005
 -4.263147738677688E-005
 -4.250268543534690E-005
 -4.237292387962232E-005
 -4.224214169676151E-005
 -4.211028437638479E-005
 -4.197729372328127E-005
 -4.184310765768714E-005
 -4.170766001300470E-005
 -4.157088033079030E-005
 -4.143269365288213E-005
 -4.129302031049437E-005
 -4.115177571010615E-005
 -4.100887011599412E-005
 -4.086420842924875E-005
 -4.071768996305219E-005
 -4.056920821409057E-005
 -4.041865062989248E-005
 -4.026589837190124E-005
 -4.011082607409958E-005
 -3.995330159699213E-005
 -4.902223788572824E-005
 -4.890138773662913E-005
 -4.878041582123965E-005
 -4.865928943021698E-005
 -4.853797788283706E-005
 -4.841645233159256E-005
 -4.829468556737729E-005
 -4.817265182527552E-005
 -4.805032659081967E-005
 -4.792768640674082E-005
 -4.780470868012736E-005
 -4.768137148993725E-005
 -4.755765339481744E-005
 -4.743353324113231E-005
 -4.730898997116269E-005
 -4.718400243137402E-005
 -4.705854918068760E-005
 -4.693260829865836E-005
 -4.680615719349580E-005
 -4.667917240978659E-005
 -4.655162943587378E-005
 -4.642350251076249E-005
 -4.629476443043791E-005
 -4.616538635351916E-005
 -4.603533760610154E-005
 -4.590458548568481E-005
 -4.577309506407775E-005
 -4.564082898911821E-005
 -4.550774728512791E-005
 -4.537380715193060E-005
 -4.523896276230731E-005
 -4.510316505776970E-005
 -4.496636154248266E-005
 -4.482849607518688E-005
 -4.468950865899480E-005
 -4.454933522889663E-005
 -4.440790743679264E-005
 -4.426515243394124E-005
 -4.412099265059633E-005
 -4.397534557271574E-005
 -4.382812351553481E-005
 -4.367923339386646E-005
 -4.352857648886907E-005
 -4.337604821121132E-005
 -4.322153786032521E-005
 -4.306492837966434E-005
 -4.290609610766839E-005
 -4.274491052431131E-005
 -4.258123399297968E-005
 -4.241492149749230E-005
 -5.200690557585165E-005
 -5.187837297835794E-005
 -5.174974291494497E-005
 -5.162098163658971E-005
 -5.149205755776179E-005
 -5.136294103850647E-005
 -5.123360416751970E-005
 -5.110402054614028E-005
 -5.097416507325757E-005
 -5.084401373104288E-005
 -5.071354337145821E-005
 -5.058273150346996E-005
 -5.045155608089806E-005
 -5.031999529082955E-005
 -5.018802734247649E-005
 -5.005563025645665E-005
 -4.992278165433334E-005
 -4.978945854834558E-005
 -4.965563713124782E-005
 -4.952129256612096E-005
 -4.938639877601766E-005
 -4.925092823341552E-005
 -4.911485174924315E-005
 -4.897813826143997E-005
 -4.884075462287635E-005
 -4.870266538851079E-005
 -4.856383260165245E-005
 -4.842421557917706E-005
 -4.828377069556317E-005
 -4.814245116556864E-005
 -4.800020682544810E-005
 -4.785698391249575E-005
 -4.771272484280613E-005
 -4.756736798703199E-005
 -4.742084744402343E-005
 -4.727309281215977E-005
 -4.712402895817033E-005
 -4.697357578331984E-005
 -4.682164798671949E-005
 -4.666815482563014E-005
 -4.651299987252888E-005
 -4.635608076875405E-005
 -4.619728897455553E-005
 -4.603650951532185E-005
 -4.587362072378352E-005
 -4.570849397800812E-005
 -4.554099343492476E-005
 -4.537097575922771E-005
 -4.519828984737220E-005
 -4.502277654648139E-005
 -5.517113048642623E-005
 -5.503425331186666E-005
 -5.489730319707530E-005
 -5.476024603327695E-005
 -5.462305000021916E-005
 -5.448568532302458E-005
 -5.434812403056104E-005
 -5.421033971521416E-005
 -5.407230729413190E-005
 -5.393400277170255E-005
 -5.379540300332479E-005
 -5.365648546034802E-005
 -5.351722799605571E-005
 -5.337760861265261E-005
 -5.323760522912617E-005
 -5.309719544986977E-005
 -5.295635633397803E-005
 -5.281506416508563E-005
 -5.267329422161585E-005
 -5.253102054733128E-005
 -5.238821572203508E-005
 -5.224485063230024E-005
 -5.210089424207157E-005
 -5.195631336300601E-005
 -5.181107242438640E-005
 -5.166513324247066E-005
 -5.151845478910299E-005
 -5.137099295941360E-005
 -5.122270033848931E-005
 -5.107352596676264E-005
 -5.092341510404681E-005
 -5.077230899193362E-005
 -5.062014461444492E-005
 -5.046685445674359E-005
 -5.031236626166850E-005
 -5.015660278397028E-005
 -4.999948154200586E-005
 -4.984091456668363E-005
 -4.968080814753255E-005
 -4.951906257558181E-005
 -4.935557188293167E-005
 -4.919022357877141E-005
 -4.902289838160747E-005
 -4.885346994752437E-005
 -4.868180459423440E-005
 -4.850776102067728E-005
 -4.833119002196727E-005
 -4.815193419944876E-005
 -4.796982766559996E-005
 -4.778469574355816E-005
 -5.852589274406629E-005
 -5.837990078273434E-005
 -5.823386088431389E-005
 -5.808773948263900E-005
 -5.794150540546913E-005
 -5.779512960333218E-005
 -5.764858488053084E-005
 -5.750184562829469E-005
 -5.735488755992354E-005
 -5.720768744791336E-005
 -5.706022286291622E-005
 -5.691247191443800E-005
 -5.676441299318309E-005
 -5.661602451491841E-005
 -5.646728466571715E-005
 -5.631817114846059E-005
 -5.616866093048167E-005
 -5.601872999216477E-005
 -5.586835307639671E-005
 -5.571750343868052E-005
 -5.556615259775829E-005
 -5.541427008660944E-005
 -5.526182320360761E-005
 -5.510877676369977E-005
 -5.495509284940758E-005
 -5.480073056147325E-005
 -5.464564576898148E-005
 -5.448979085872893E-005
 -5.433311448368536E-005
 -5.417556131034588E-005
 -5.401707176472861E-005
 -5.385758177687304E-005
 -5.369702252361094E-005
 -5.353532016936707E-005
 -5.337239560482629E-005
 -5.320816418322250E-005
 -5.304253545404601E-005
 -5.287541289391187E-005
 -5.270669363443407E-005
 -5.253626818678537E-005
 -5.236402016281452E-005
 -5.218982599238388E-005
 -5.201355463679169E-005
 -5.183506729795870E-005
 -5.165421712318865E-005
 -5.147084890522517E-005
 -5.128479877739160E-005
 -5.109589390352107E-005
 -5.090395216245950E-005
 -5.070878182686718E-005
 -6.208285581023665E-005
 -6.192684774489592E-005
 -6.177081795372198E-005
 -6.161473457235423E-005
 -6.145856820304774E-005
 -6.130229161272955E-005
 -6.114587943409938E-005
 -6.098930786972318E-005
 -6.083255439894160E-005
 -6.067559748753879E-005
 -6.051841630000541E-005
 -6.036099041429685E-005
 -6.020329953889651E-005
 -6.004532323207623E-005
 -5.988704062317597E-005
 -5.972843013574905E-005
 -5.956946921237823E-005
 -5.941013404100642E-005
 -5.925039928260320E-005
 -5.909023779995248E-005
 -5.892962038738576E-005
 -5.876851550125194E-005
 -5.860688899093475E-005
 -5.844470383017949E-005
 -5.828191984855347E-005
 -5.811849346278195E-005
 -5.795437740778749E-005
 -5.778952046715550E-005
 -5.762386720284086E-005
 -5.745735768386332E-005
 -5.728992721376566E-005
 -5.712150605661120E-005
 -5.695201916124409E-005
 -5.678138588360266E-005
 -5.660951970686274E-005
 -5.643632795910016E-005
 -5.626171152829506E-005
 -5.608556457437320E-005
 -5.590777423807685E-005
 -5.572822034637430E-005
 -5.554677511418246E-005
 -5.536330284212335E-005
 -5.517765961006645E-005
 -5.498969296618175E-005
 -5.479924161127942E-005
 -5.460613507809604E-005
 -5.441019340534013E-005
 -5.421122680617437E-005
 -5.400903533087054E-005
 -5.380340852337635E-005
 -6.585439236585507E-005
 -6.568730872830067E-005
 -6.552023222769630E-005
 -6.535313415036224E-005
 -6.518598827202667E-005
 -6.501877052254875E-005
 -6.485145865477740E-005
 -6.468403191745015E-005
 -6.451647073194326E-005
 -6.434875637275577E-005
 -6.418087065152546E-005
 -6.401279560444898E-005
 -6.384451318282923E-005
 -6.367600494666541E-005
 -6.350725176100260E-005
 -6.333823349485116E-005
 -6.316892872248659E-005
 -6.299931442686757E-005
 -6.282936570496755E-005
 -6.265905547476959E-005
 -6.248835418371880E-005
 -6.231722951830434E-005
 -6.214564611464933E-005
 -6.197356526973351E-005
 -6.180094465306067E-005
 -6.162773801848618E-005
 -6.145389491596311E-005
 -6.127936040289863E-005
 -6.110407475490529E-005
 -6.092797317562781E-005
 -6.075098550541358E-005
 -6.057303592850688E-005
 -6.039404267853455E-005
 -6.021391774198590E-005
 -6.003256655939364E-005
 -5.984988772395973E-005
 -5.966577267732909E-005
 -5.948010540223040E-005
 -5.929276211171015E-005
 -5.910361093465296E-005
 -5.891251159734202E-005
 -5.871931510071652E-005
 -5.852386339309386E-005
 -5.832598903805104E-005
 -5.812551487713713E-005
 -5.792225368720059E-005
 -5.771600783197681E-005
 -5.750656890767511E-005
 -5.729371738226009E-005
 -5.707722222813962E-005
 -6.985360207666363E-005
 -6.967419391029674E-005
 -6.949482685705170E-005
 -6.931547712059585E-005
 -6.913612334492364E-005
 -6.895674624356979E-005
 -6.877732823433639E-005
 -6.859785307936016E-005
 -6.841830553030541E-005
 -6.823867097847107E-005
 -6.805893510956779E-005
 -6.787908356296989E-005
 -6.769910159515094E-005
 -6.751897374707687E-005
 -6.733868351529982E-005
 -6.715821302645471E-005
 -6.697754271489813E-005
 -6.679665100323772E-005
 -6.661551398539938E-005
 -6.643410511199073E-005
 -6.625239487764866E-005
 -6.607035051006777E-005
 -6.588793566038146E-005
 -6.570511009465626E-005
 -6.552182938607962E-005
 -6.533804460763453E-005
 -6.515370202485970E-005
 -6.496874278845353E-005
 -6.478310262631525E-005
 -6.459671153479026E-005
 -6.440949346873153E-005
 -6.422136603008324E-005
 -6.403224015467082E-005
 -6.384201979684663E-005
 -6.365060161169816E-005
 -6.345787463447712E-005
 -6.326371995693652E-005
 -6.306801040024166E-005
 -6.287061018414225E-005
 -6.267137459209871E-005
 -6.247014963200116E-005
 -6.226677169221081E-005
 -6.206106719257027E-005
 -6.185285223008476E-005
 -6.164193221892784E-005
 -6.142810152450429E-005
 -6.121114309120542E-005
 -6.099082806355450E-005
 -6.076691540045617E-005
 -6.053915148219220E-005
 -7.409431771008150E-005
 -7.390111079320615E-005
 -7.370798795055970E-005
 -7.351493240694807E-005
 -7.332192967878456E-005
 -7.312896716637273E-005
 -7.293603375339351E-005
 -7.274311941328572E-005
 -7.255021482229128E-005
 -7.235731097880384E-005
 -7.216439882880166E-005
 -7.197146889698268E-005
 -7.177851092330680E-005
 -7.158551350460616E-005
 -7.139246374096594E-005
 -7.119934688645066E-005
 -7.100614600389558E-005
 -7.081284162336207E-005
 -7.061941140394957E-005
 -7.042582979849065E-005
 -7.023206772089394E-005
 -7.003809221565458E-005
 -6.984386612920449E-005
 -6.964934778272051E-005
 -6.945449064599369E-005
 -6.925924301199636E-005
 -6.906354767175804E-005
 -6.886734158915601E-005
 -6.867055557527009E-005
 -6.847311396188154E-005
 -6.827493427376083E-005
 -6.807592689936453E-005
 -6.787599475953632E-005
 -6.767503297387621E-005
 -6.747292852435611E-005
 -6.726955991586469E-005
 -6.706479683324718E-005
 -6.685849979452909E-005
 -6.665051979991711E-005
 -6.644069797622827E-005
 -6.622886521640104E-005
 -6.601484181369835E-005
 -6.579843709028491E-005
 -6.557944901977918E-005
 -6.535766384348491E-005
 -6.513285567991427E-005
 -6.490478612725567E-005
 -6.467320385848818E-005
 -6.443784420876132E-005
 -6.419842875469066E-005
 -7.859109528560729E-005
 -7.838234996958477E-005
 -7.817374644725532E-005
 -7.796527741021523E-005
 -7.775693755900446E-005
 -7.754872315820726E-005
 -7.734063160069182E-005
 -7.713266098066416E-005
 -7.692480967514026E-005
 -7.671707593343306E-005
 -7.650945747427197E-005
 -7.630195109012099E-005
 -7.609455225831332E-005
 -7.588725475848505E-005
 -7.568005029599857E-005
 -7.547292813078997E-005
 -7.526587471127922E-005
 -7.505887331283353E-005
 -7.485190368038179E-005
 -7.464494167466367E-005
 -7.443795892169309E-005
 -7.423092246497214E-005
 -7.402379441995212E-005
 -7.381653163034355E-005
 -7.360908532575488E-005
 -7.340140078021621E-005
 -7.319341697114038E-005
 -7.298506623825886E-005
 -7.277627394202977E-005
 -7.256695812114976E-005
 -7.235702914864324E-005
 -7.214638938610407E-005
 -7.193493283566088E-005
 -7.172254478920735E-005
 -7.150910147445596E-005
 -7.129446969741983E-005
 -7.107850648082401E-005
 -7.086105869811650E-005
 -7.064196270256681E-005
 -7.042104395111087E-005
 -7.019811662249781E-005
 -6.997298322934030E-005
 -6.974543422367347E-005
 -6.951524759564834E-005
 -6.928218846492233E-005
 -6.904600866443328E-005
 -6.880644631612045E-005
 -6.856322539824174E-005
 -6.831605530395930E-005
 -6.806463039073682E-005
 -8.335918308388041E-005
 -8.313285008475988E-005
 -8.290673964099089E-005
 -8.268085668137245E-005
 -8.245520768545002E-005
 -8.222980020271292E-005
 -8.200464238331695E-005
 -8.177974251976692E-005
 -8.155510859912969E-005
 -8.133074786513837E-005
 -8.110666638979329E-005
 -8.088286865382101E-005
 -8.065935713545802E-005
 -8.043613190705104E-005
 -8.021319023885645E-005
 -7.999052620952017E-005
 -7.976813032263338E-005
 -7.954598912882707E-005
 -7.932408485281321E-005
 -7.910239502481202E-005
 -7.888089211578542E-005
 -7.865954317592565E-005
 -7.843830947579315E-005
 -7.821714614958156E-005
 -7.799600183992416E-005
 -7.777481834367252E-005
 -7.755353025811171E-005
 -7.733206462704971E-005
 -7.711034058623647E-005
 -7.688826900757057E-005
 -7.666575214157672E-005
 -7.644268325756519E-005
 -7.621894628104917E-005
 -7.599441542779249E-005
 -7.576895483410214E-005
 -7.554241818270282E-005
 -7.531464832389312E-005
 -7.508547689132534E-005
 -7.485472391202383E-005
 -7.462219741016503E-005
 -7.438769300410685E-005
 -7.415099349627440E-005
 -7.391186845540159E-005
 -7.367007379075402E-005
 -7.342535131781811E-005
 -7.317742831510228E-005
 -7.292601707163935E-005
 -7.267081442472446E-005
 -7.241150128753814E-005
 -7.214774216628237E-005
 -8.841446344170120E-005
 -8.816813631255696E-005
 -8.792214707668402E-005
 -8.767651594716315E-005
 -8.743126400437051E-005
 -8.718641268294251E-005
 -8.694198327286444E-005
 -8.669799643408834E-005
 -8.645447172396216E-005
 -8.621142713678551E-005
 -8.596887865481034E-005
 -8.572683981000647E-005
 -8.548532125581165E-005
 -8.524433034824656E-005
 -8.500387073563011E-005
 -8.476394195618050E-005
 -8.452453904283486E-005
 -8.428565213451021E-005
 -8.404726609316137E-005
 -8.380936012586501E-005
 -8.357190741129448E-005
 -8.333487472981539E-005
 -8.309822209657702E-005
 -8.286190239684074E-005
 -8.262586102292909E-005
 -8.239003551208918E-005
 -8.215435518457789E-005
 -8.191874078137352E-005
 -8.168310410079751E-005
 -8.144734763344171E-005
 -8.121136419477589E-005
 -8.097503655477048E-005
 -8.073823706395009E-005
 -8.050082727530461E-005
 -8.026265756137080E-005
 -8.002356672604050E-005
 -7.978338161037380E-005
 -7.954191669198109E-005
 -7.929897367736657E-005
 -7.905434108667985E-005
 -7.880779383042074E-005
 -7.855909277750348E-005
 -7.830798431422554E-005
 -7.805419989363643E-005
 -7.779745557483416E-005
 -7.753745155172142E-005
 -7.727387167074313E-005
 -7.700638293721093E-005
 -7.673463500972301E-005
 -7.645825968232101E-005
 -9.377336036514705E-005
 -9.350422588942127E-005
 -9.323559488972431E-005
 -9.296750609634154E-005
 -9.269999814015130E-005
 -9.243310901391577E-005
 -9.216687555075727E-005
 -9.190133291890582E-005
 -9.163651413184326E-005
 -9.137244957298701E-005
 -9.110916653394527E-005
 -9.084668876552155E-005
 -9.058503604051987E-005
 -9.032422372746277E-005
 -9.006426237435924E-005
 -8.980515730158705E-005
 -8.954690820301021E-005
 -8.928950875448929E-005
 -8.903294622884255E-005
 -8.877720111645986E-005
 -8.852224675064409E-005
 -8.826804893689047E-005
 -8.801456558520413E-005
 -8.776174634466592E-005
 -8.750953223942516E-005
 -8.725785530526869E-005
 -8.700663822602078E-005
 -8.675579396896703E-005
 -8.650522541852945E-005
 -8.625482500742767E-005
 -8.600447434459663E-005
 -8.575404383914487E-005
 -8.550339231957647E-005
 -8.525236664763919E-005
 -8.500080132609137E-005
 -8.474851809969036E-005
 -8.449532554876825E-005
 -8.424101867476397E-005
 -8.398537847703536E-005
 -8.372817152040563E-005
 -8.346914949278674E-005
 -8.320804875232797E-005
 -8.294458986354090E-005
 -8.267847712179453E-005
 -8.240939806571605E-005
 -8.213702297691019E-005
 -8.186100436656776E-005
 -8.158097644839565E-005
 -8.129655459745706E-005
 -8.100733479445674E-005
 -9.945270516240416E-005
 -9.915749356753637E-005
 -9.886302211708745E-005
 -9.856935132998893E-005
 -9.827654030929305E-005
 -9.798464618841495E-005
 -9.769372359779183E-005
 -9.740382415086549E-005
 -9.711499594819366E-005
 -9.682728309857595E-005
 -9.654072525606748E-005
 -9.625535717169396E-005
 -9.597120825881149E-005
 -9.568830217091578E-005
 -9.540665639084454E-005
 -9.512628183021953E-005
 -9.484718243808690E-005
 -9.456935481762227E-005
 -9.429278784987461E-005
 -9.401746232345700E-005
 -9.374335056916577E-005
 -9.347041609850514E-005
 -9.319861324508682E-005
 -9.292788680789911E-005
 -9.265817169555027E-005
 -9.238939257038512E-005
 -9.212146349167047E-005
 -9.185428755682654E-005
 -9.158775653985273E-005
 -9.132175052602692E-005
 -9.105613754202111E-005
 -9.079077318058887E-005
 -9.052550021897542E-005
 -9.026014823023670E-005
 -8.999453318670470E-005
 -8.972845705477084E-005
 -8.946170738028015E-005
 -8.919405686378607E-005
 -8.892526292491377E-005
 -8.865506725520399E-005
 -8.838319535870467E-005
 -8.810935607965812E-005
 -8.783324111668418E-005
 -8.755452452280304E-005
 -8.727286219071063E-005
 -8.698789132274208E-005
 -8.669922988494001E-005
 -8.640647604471531E-005
 -8.610920759158017E-005
 -8.580698134041725E-005
 -1.054695516179184E-004
 -1.051444893331428E-004
 -1.048205021539980E-004
 -1.044976754773166E-004
 -1.041760915436178E-004
 -1.038558288838804E-004
 -1.035369617901510E-004
 -1.032195598086386E-004
 -1.029036872536927E-004
 -1.025894027413611E-004
 -1.022767587409954E-004
 -1.019658011435503E-004
 -1.016565688451474E-004
 -1.013490933445284E-004
 -1.010433983530215E-004
 -1.007394994156664E-004
 -1.004374035421696E-004
 -1.001371088464092E-004
 -9.983860419313572E-005
 -9.954186885064860E-005
 -9.924687214819443E-005
 -9.895357313685532E-005
 -9.866192025270273E-005
 -9.837185098109959E-005
 -9.808329152092478E-005
 -9.779615644765847E-005
 -9.751034837414434E-005
 -9.722575760804739E-005
 -9.694226180483311E-005
 -9.665972561533073E-005
 -9.637800032683024E-005
 -9.609692349673160E-005
 -9.581631857777186E-005
 -9.553599453394523E-005
 -9.525574544613813E-005
 -9.497535010663641E-005
 -9.469457160165095E-005
 -9.441315688097035E-005
 -9.413083631397849E-005
 -9.384732323122617E-005
 -9.356231345079556E-005
 -9.327548478871022E-005
 -9.298649655267903E-005
 -9.269498901846090E-005
 -9.240058288823830E-005
 -9.210287873027764E-005
 -9.180145639928980E-005
 -9.149587443693388E-005
 -9.118566945181147E-005
 -9.087035547847279E-005
 -1.118409318126948E-004
 -1.114817005025814E-004
 -1.111240124695866E-004
 -1.107679805821447E-004
 -1.104137123075099E-004
 -1.100613091808663E-004
 -1.097108663017779E-004
 -1.093624718560514E-004
 -1.090162066612937E-004
 -1.086721437343025E-004
 -1.083303478785722E-004
 -1.079908752901290E-004
 -1.076537731799920E-004
 -1.073190794116128E-004
 -1.069868221515616E-004
 -1.066570195318951E-004
 -1.063296793225634E-004
 -1.060047986123136E-004
 -1.056823634965327E-004
 -1.053623487705416E-004
 -1.050447176268650E-004
 -1.047294213550043E-004
 -1.044163990423530E-004
 -1.041055772748450E-004
 -1.037968698359982E-004
 -1.034901774030214E-004
 -1.031853872387718E-004
 -1.028823728781867E-004
 -1.025809938081345E-004
 -1.022810951393343E-004
 -1.019825072693071E-004
 -1.016850455351952E-004
 -1.013885098553048E-004
 -1.010926843584120E-004
 -1.007973369996729E-004
 -1.005022191622607E-004
 -1.002070652436331E-004
 -9.991159222556047E-005
 -9.961549922697733E-005
 -9.931846703874870E-005
 -9.902015763950736E-005
 -9.872021369171984E-005
 -9.841825801718996E-005
 -9.811389305119635E-005
 -9.780670027453360E-005
 -9.749623962273039E-005
 -9.718204887176679E-005
 -9.686364299958124E-005
 -9.654051352277927E-005
 -9.621212780792762E-005
 -1.185835436846015E-004
 -1.181852504922361E-004
 -1.177891460598094E-004
 -1.173953723973110E-004
 -1.170040632803062E-004
 -1.166153437707869E-004
 -1.162293297685046E-004
 -1.158461275905115E-004
 -1.154658335766390E-004
 -1.150885337187956E-004
 -1.147143033118553E-004
 -1.143432066241063E-004
 -1.139752965850719E-004
 -1.136106144888286E-004
 -1.132491897106898E-004
 -1.128910394354505E-004
 -1.125361683951870E-004
 -1.121845686148489E-004
 -1.118362191637908E-004
 -1.114910859114878E-004
 -1.111491212857516E-004
 -1.108102640317228E-004
 -1.104744389700668E-004
 -1.101415567527117E-004
 -1.098115136146956E-004
 -1.094841911204824E-004
 -1.091594559033987E-004
 -1.088371593967040E-004
 -1.085171375549301E-004
 -1.081992105641527E-004
 -1.078831825398800E-004
 -1.075688412112605E-004
 -1.072559575904414E-004
 -1.069442856258162E-004
 -1.066335618380352E-004
 -1.063235049376277E-004
 -1.060138154231677E-004
 -1.057041751588967E-004
 -1.053942469307823E-004
 -1.050836739800333E-004
 -1.047720795130836E-004
 -1.044590661871282E-004
 -1.041442155702928E-004
 -1.038270875756078E-004
 -1.035072198678863E-004
 -1.031841272427539E-004
 -1.028573009770395E-004
 -1.025262081497577E-004
 -1.021902909329909E-004
 -1.018489658520074E-004
 -1.257133619929969E-004
 -1.252705273258642E-004
 -1.248307590612916E-004
 -1.243942285297768E-004
 -1.239610953226562E-004
 -1.235315069030227E-004
 -1.231055982496781E-004
 -1.226834915313689E-004
 -1.222652958085690E-004
 -1.218511067602316E-004
 -1.214410064328355E-004
 -1.210350630092929E-004
 -1.206333305952505E-004
 -1.202358490203287E-004
 -1.198426436520815E-004
 -1.194537252202905E-004
 -1.190690896494984E-004
 -1.186887178975715E-004
 -1.183125757982193E-004
 -1.179406139054942E-004
 -1.175727673382322E-004
 -1.172089556225868E-004
 -1.168490825307986E-004
 -1.164930359143684E-004
 -1.161406875299036E-004
 -1.157918928560057E-004
 -1.154464908994446E-004
 -1.151043039891299E-004
 -1.147651375562835E-004
 -1.144287798993196E-004
 -1.140950019319919E-004
 -1.137635569133958E-004
 -1.134341801584423E-004
 -1.131065887274931E-004
 -1.127804810938732E-004
 -1.124555367879920E-004
 -1.121314160168854E-004
 -1.118077592579949E-004
 -1.114841868260442E-004
 -1.111602984119192E-004
 -1.108356725924691E-004
 -1.105098663102139E-004
 -1.101824143219367E-004
 -1.098528286152201E-004
 -1.095205977919403E-004
 -1.091851864178916E-004
 -1.088460343376013E-004
 -1.085025559535356E-004
 -1.081541394688887E-004
 -1.078001460931661E-004
 -1.332451657103077E-004
 -1.327517364861384E-004
 -1.322625506536002E-004
 -1.317778068194212E-004
 -1.312976875990006E-004
 -1.308223593661073E-004
 -1.303519720370901E-004
 -1.298866588862614E-004
 -1.294265363892868E-004
 -1.289717040913817E-004
 -1.285222444973574E-004
 -1.280782229805366E-004
 -1.276396877076302E-004
 -1.272066695769205E-004
 -1.267791821669575E-004
 -1.263572216932488E-004
 -1.259407669703712E-004
 -1.255297793770977E-004
 -1.251242028222153E-004
 -1.247239637086674E-004
 -1.243289708939138E-004
 -1.239391156443445E-004
 -1.235542715816502E-004
 -1.231742946192052E-004
 -1.227990228865410E-004
 -1.224282766399854E-004
 -1.220618581577422E-004
 -1.216995516176155E-004
 -1.213411229557207E-004
 -1.209863197045187E-004
 -1.206348708086178E-004
 -1.202864864167994E-004
 -1.199408576487826E-004
 -1.195976563352799E-004
 -1.192565347299649E-004
 -1.189171251919765E-004
 -1.185790398376629E-004
 -1.182418701602632E-004
 -1.179051866163168E-004
 -1.175685381775755E-004
 -1.172314518472648E-004
 -1.168934321395254E-004
 -1.165539605209869E-004
 -1.162124948133359E-004
 -1.158684685559152E-004
 -1.155212903272762E-004
 -1.151703430247548E-004
 -1.148149831011015E-004
 -1.144545397572828E-004
 -1.140883140905324E-004
 -1.411919772436418E-004
 -1.406413752507390E-004
 -1.400965740323698E-004
 -1.395577942804784E-004
 -1.390252356363250E-004
 -1.384990766394046E-004
 -1.379794747105525E-004
 -1.374665661654172E-004
 -1.369604662544847E-004
 -1.364612692260679E-004
 -1.359690484087247E-004
 -1.354838563097840E-004
 -1.350057247266395E-004
 -1.345346648677521E-004
 -1.340706674802742E-004
 -1.336137029814260E-004
 -1.331637215907756E-004
 -1.327206534607575E-004
 -1.322844088028302E-004
 -1.318548780066996E-004
 -1.314319317503228E-004
 -1.310154210982644E-004
 -1.306051775862036E-004
 -1.302010132894848E-004
 -1.298027208735729E-004
 -1.294100736244709E-004
 -1.290228254571232E-004
 -1.286407109000087E-004
 -1.282634450540616E-004
 -1.278907235242329E-004
 -1.275222223219978E-004
 -1.271575977371923E-004
 -1.267964861775841E-004
 -1.264385039746959E-004
 -1.260832471543502E-004
 -1.257302911705368E-004
 -1.253791906011779E-004
 -1.250294788044479E-004
 -1.246806675343318E-004
 -1.243322465140658E-004
 -1.239836829663004E-004
 -1.236344210986628E-004
 -1.232838815435744E-004
 -1.229314607511232E-004
 -1.225765303338592E-004
 -1.222184363623887E-004
 -1.218564986106480E-004
 -1.214900097498565E-004
 -1.211182344900352E-004
 -1.207404086681259E-004
 -1.495644125421081E-004
 -1.489496293997297E-004
 -1.483426810364860E-004
 -1.477438007521936E-004
 -1.471531948980050E-004
 -1.465710430976984E-004
 -1.459974985003251E-004
 -1.454326880597685E-004
 -1.448767128368864E-004
 -1.443296483201003E-004
 -1.437915447605983E-004
 -1.432624275182389E-004
 -1.427422974145761E-004
 -1.422311310895896E-004
 -1.417288813586839E-004
 -1.412354775668856E-004
 -1.407508259371029E-004
 -1.402748099095953E-004
 -1.398072904698401E-004
 -1.393481064621194E-004
 -1.388970748862831E-004
 -1.384539911752525E-004
 -1.380186294509118E-004
 -1.375907427561344E-004
 -1.371700632607933E-004
 -1.367563024397211E-004
 -1.363491512205901E-004
 -1.359482800997987E-004
 -1.355533392245772E-004
 -1.351639584394797E-004
 -1.347797472955696E-004
 -1.344002950206526E-004
 -1.340251704489140E-004
 -1.336539219084398E-004
 -1.332860770650648E-004
 -1.329211427210983E-004
 -1.325586045674695E-004
 -1.321979268878775E-004
 -1.318385522135498E-004
 -1.314799009273269E-004
 -1.311213708156321E-004
 -1.307623365670963E-004
 -1.304021492165117E-004
 -1.300401355328743E-004
 -1.296755973502101E-004
 -1.293078108400150E-004
 -1.289360257240329E-004
 -1.285594644261817E-004
 -1.281773211624689E-004
 -1.277887609676598E-004
 -1.583699463172318E-004
 -1.576836983514507E-004
 -1.570079081341412E-004
 -1.563428064327296E-004
 -1.556885903420714E-004
 -1.550454238647223E-004
 -1.544134385160643E-004
 -1.537927339492861E-004
 -1.531833785954397E-004
 -1.525854103140208E-004
 -1.519988370497919E-004
 -1.514236374916443E-004
 -1.508597617296819E-004
 -1.503071319067059E-004
 -1.497656428606422E-004
 -1.492351627545114E-004
 -1.487155336907494E-004
 -1.482065723068742E-004
 -1.477080703495865E-004
 -1.472197952246148E-004
 -1.467414905196574E-004
 -1.462728764980157E-004
 -1.458136505604935E-004
 -1.453634876734071E-004
 -1.449220407604942E-004
 -1.444889410567490E-004
 -1.440637984221857E-004
 -1.436462016137014E-004
 -1.432357185132109E-004
 -1.428318963103444E-004
 -1.424342616380542E-004
 -1.420423206594661E-004
 -1.416555591044695E-004
 -1.412734422544970E-004
 -1.408954148739930E-004
 -1.405209010871294E-004
 -1.401493041983332E-004
 -1.397800064552411E-004
 -1.394123687526187E-004
 -1.390457302759788E-004
 -1.386794080833934E-004
 -1.383126966242734E-004
 -1.379448671936611E-004
 -1.375751673207126E-004
 -1.372028200900475E-004
 -1.368270233945635E-004
 -1.364469491183753E-004
 -1.360617422485416E-004
 -1.356705199141763E-004
 -1.352723703516371E-004
 -1.676121035037145E-004
 -1.668470615423655E-004
 -1.660958180331040E-004
 -1.653585787806183E-004
 -1.646355084444337E-004
 -1.639267315779955E-004
 -1.632323336811484E-004
 -1.625523622606742E-004
 -1.618868278936768E-004
 -1.612357052889490E-004
 -1.605989343417935E-004
 -1.599764211779243E-004
 -1.593680391823562E-004
 -1.587736300095389E-004
 -1.581930045710385E-004
 -1.576259439974309E-004
 -1.570722005711852E-004
 -1.565314986276116E-004
 -1.560035354209632E-004
 -1.554879819531222E-004
 -1.549844837623711E-004
 -1.544926616699220E-004
 -1.540121124819091E-004
 -1.535424096449232E-004
 -1.530831038529944E-004
 -1.526337236041822E-004
 -1.521937757050680E-004
 -1.517627457213658E-004
 -1.513400983731428E-004
 -1.509252778729808E-004
 -1.505177082057000E-004
 -1.501167933481064E-004
 -1.497219174274112E-004
 -1.493324448169093E-004
 -1.489477201675552E-004
 -1.485670683741429E-004
 -1.481897944746715E-004
 -1.478151834816836E-004
 -1.474425001441228E-004
 -1.470709886384524E-004
 -1.466998721876556E-004
 -1.463283526067582E-004
 -1.459556097734699E-004
 -1.455808010225423E-004
 -1.452030604624161E-004
 -1.448214982126594E-004
 -1.444351995607428E-004
 -1.440432240366005E-004
 -1.436446044034020E-004
 -1.432383455630254E-004
 -1.772895968323288E-004
 -1.764387072743362E-004
 -1.756058191888683E-004
 -1.747910818181608E-004
 -1.739945952048022E-004
 -1.732164118014545E-004
 -1.724565380762060E-004
 -1.717149361078207E-004
 -1.709915251656094E-004
 -1.702861832688398E-004
 -1.695987487211674E-004
 -1.689290216157071E-004
 -1.682767653066939E-004
 -1.676417078440983E-004
 -1.670235433676962E-004
 -1.664219334573404E-004
 -1.658365084365836E-004
 -1.652668686268476E-004
 -1.647125855496215E-004
 -1.641732030743790E-004
 -1.636482385100221E-004
 -1.631371836379060E-004
 -1.626395056845410E-004
 -1.621546482323062E-004
 -1.616820320665712E-004
 -1.612210559576981E-004
 -1.607710973766070E-004
 -1.603315131424823E-004
 -1.599016400014698E-004
 -1.594807951351041E-004
 -1.590682765973572E-004
 -1.586633636791245E-004
 -1.582653171991207E-004
 -1.578733797200490E-004
 -1.574867756889623E-004
 -1.571047115007344E-004
 -1.567263754834947E-004
 -1.563509378049301E-004
 -1.559775502982422E-004
 -1.556053462065631E-004
 -1.552334398445939E-004
 -1.548609261761039E-004
 -1.544868803059738E-004
 -1.541103568853471E-004
 -1.537303894283645E-004
 -1.533459895389657E-004
 -1.529561460461031E-004
 -1.525598240456790E-004
 -1.521559638474485E-004
 -1.517434798249631E-004
 -1.873954409192732E-004
 -1.864523551908579E-004
 -1.855324947603477E-004
 -1.846359094225184E-004
 -1.837625914227523E-004
 -1.829124777587448E-004
 -1.820854524516964E-004
 -1.812813487814784E-004
 -1.804999514804570E-004
 -1.797409988812331E-004
 -1.790041850138412E-004
 -1.782891616485256E-004
 -1.775955402802619E-004
 -1.769228940518840E-004
 -1.762707596127277E-004
 -1.756386389101569E-004
 -1.750260009114292E-004
 -1.744322832538993E-004
 -1.738568938215026E-004
 -1.732992122457958E-004
 -1.727585913301052E-004
 -1.722343583953482E-004
 -1.717258165463390E-004
 -1.712322458575327E-004
 -1.707529044772661E-004
 -1.702870296495981E-004
 -1.698338386530551E-004
 -1.693925296555365E-004
 -1.689622824847475E-004
 -1.685422593135914E-004
 -1.681316052598835E-004
 -1.677294488998259E-004
 -1.673349026946911E-004
 -1.669470633300669E-004
 -1.665650119670595E-004
 -1.661878144047485E-004
 -1.658145211531806E-004
 -1.654441674160871E-004
 -1.650757729824706E-004
 -1.647083420260561E-004
 -1.643408628116081E-004
 -1.639723073069079E-004
 -1.636016306991804E-004
 -1.632277708145165E-004
 -1.628496474389058E-004
 -1.624661615391592E-004
 -1.620761943820167E-004
 -1.616786065496502E-004
 -1.612722368492953E-004
 -1.608559011153334E-004
 -1.979160852388705E-004
 -1.968757145888918E-004
 -1.958649826224691E-004
 -1.948837832033870E-004
 -1.939319444431281E-004
 -1.930092318204321E-004
 -1.921153512341927E-004
 -1.912499519845876E-004
 -1.904126296776656E-004
 -1.896029290491594E-004
 -1.888203467039762E-004
 -1.880643337679113E-004
 -1.873342984487965E-004
 -1.866296085046597E-004
 -1.859495936166962E-004
 -1.852935476652902E-004
 -1.846607309076447E-004
 -1.840503720557688E-004
 -1.834616702538640E-004
 -1.828937969544565E-004
 -1.823458976926429E-004
 -1.818170937582107E-004
 -1.813064837653761E-004
 -1.808131451201042E-004
 -1.803361353850761E-004
 -1.798744935424249E-004
 -1.794272411544532E-004
 -1.789933834226218E-004
 -1.785719101450309E-004
 -1.781617965727366E-004
 -1.777620041651758E-004
 -1.773714812449023E-004
 -1.769891635519131E-004
 -1.766139746976691E-004
 -1.762448265188195E-004
 -1.758806193307408E-004
 -1.755202420805749E-004
 -1.751625723996700E-004
 -1.748064765549015E-004
 -1.744508092983997E-004
 -1.740944136150026E-004
 -1.737361203664731E-004
 -1.733747478315450E-004
 -1.730091011405258E-004
 -1.726379716030251E-004
 -1.722601359271825E-004
 -1.718743553286769E-004
 -1.714793745271840E-004
 -1.710739206287639E-004
 -1.706567018904411E-004
 -2.088306209052038E-004
 -2.076898320324615E-004
 -2.065864579465985E-004
 -2.055201640574480E-004
 -2.044905426036356E-004
 -2.034971167136456E-004
 -2.025393443517586E-004
 -2.016166221448468E-004
 -2.007282890862114E-004
 -1.998736301136449E-004
 -1.990518795591243E-004
 -1.982622244681960E-004
 -1.975038077875393E-004
 -1.967757314195587E-004
 -1.960770591433786E-004
 -1.954068194018390E-004
 -1.947640079544465E-004
 -1.941475903966478E-004
 -1.935565045458654E-004
 -1.929896626951312E-004
 -1.924459537352064E-004
 -1.919242451464720E-004
 -1.914233848617276E-004
 -1.909422030014055E-004
 -1.904795134827024E-004
 -1.900341155041142E-004
 -1.896047949071037E-004
 -1.891903254164138E-004
 -1.887894697606743E-004
 -1.884009806749428E-004
 -1.880236017865874E-004
 -1.876560683860390E-004
 -1.872971080837506E-004
 -1.869454413545211E-004
 -1.865997819703588E-004
 -1.862588373227231E-004
 -1.859213086349489E-004
 -1.855858910653365E-004
 -1.852512737013354E-004
 -1.849161394448084E-004
 -1.845791647883331E-004
 -1.842390194821732E-004
 -1.838943660911018E-004
 -1.835438594403438E-004
 -1.831861459492966E-004
 -1.828198628514732E-004
 -1.824436372988740E-004
 -1.820560853491935E-004
 -1.816558108312466E-004
 -1.812414040903800E-004
 -2.201101277787535E-004
 -2.188685916173156E-004
 -2.176737779964691E-004
 -2.165250328462460E-004
 -2.154216231661460E-004
 -2.143627421390815E-004
 -2.133475140673120E-004
 -2.123749991282086E-004
 -2.114441979479530E-004
 -2.105540559921041E-004
 -2.097034677724778E-004
 -2.088912808704220E-004
 -2.081162997768475E-004
 -2.073772895501588E-004
 -2.066729792932046E-004
 -2.060020654512451E-004
 -2.053632149327993E-004
 -2.047550680558681E-004
 -2.041762413221285E-004
 -2.036253300219746E-004
 -2.031009106734305E-004
 -2.026015432982287E-004
 -2.021257735383018E-004
 -2.016721346162148E-004
 -2.012391491429829E-004
 -2.008253307768597E-004
 -2.004291857365321E-004
 -2.000492141724023E-004
 -1.996839113991834E-004
 -1.993317689933525E-004
 -1.989912757586253E-004
 -1.986609185625165E-004
 -1.983391830470090E-004
 -1.980245542159914E-004
 -1.977155169019922E-004
 -1.974105561145302E-004
 -1.971081572719529E-004
 -1.968068063186976E-004
 -1.965049897290662E-004
 -1.962011943988521E-004
 -1.958939074255235E-004
 -1.955816157767933E-004
 -1.952628058485608E-004
 -1.949359629107050E-004
 -1.945995704404183E-004
 -1.942521093419965E-004
 -1.938920570509554E-004
 -1.935178865188234E-004
 -1.931280650833915E-004
 -1.927210532046157E-004
 -2.317172364129270E-004
 -2.303784371619221E-004
 -2.290973526380058E-004
 -2.278728974202633E-004
 -2.267039042152141E-004
 -2.255891301096332E-004
 -2.245272625664039E-004
 -2.235169251637721E-004
 -2.225566830788678E-004
 -2.216450483172971E-004
 -2.207804846909767E-004
 -2.199614125470452E-004
 -2.191862132511957E-004
 -2.184532334292089E-004
 -2.177607889708660E-004
 -2.171071688008275E-004
 -2.164906384214003E-004
 -2.159094432324195E-004
 -2.153618116336256E-004
 -2.148459579152946E-004
 -2.143600849428999E-004
 -2.139023866418579E-004
 -2.134710502883558E-004
 -2.130642586124619E-004
 -2.126801917197130E-004
 -2.123170288372439E-004
 -2.119729498906759E-004
 -2.116461369177199E-004
 -2.113347753244434E-004
 -2.110370549899261E-004
 -2.107511712249270E-004
 -2.104753255898113E-004
 -2.102077265769764E-004
 -2.099465901623798E-004
 -2.096901402309285E-004
 -2.094366088794585E-004
 -2.091842366016990E-004
 -2.089312723575680E-004
 -2.086759735309925E-004
 -2.084166057775570E-004
 -2.081514427640689E-004
 -2.078787658033118E-004
 -2.075968633810281E-004
 -2.073040305796675E-004
 -2.069985683964968E-004
 -2.066787829544791E-004
 -2.063429846064284E-004
 -2.059894869345780E-004
 -2.056166056172749E-004
 -2.052226572209953E-004
 -2.436059796862086E-004
 -2.421783836781814E-004
 -2.408212999400719E-004
 -2.395330769382342E-004
 -2.383119826223097E-004
 -2.371562118623240E-004
 -2.360638935319328E-004
 -2.350330972420565E-004
 -2.340618397294531E-004
 -2.331480909058119E-004
 -2.322897795731413E-004
 -2.314847988122762E-004
 -2.307310110511854E-004
 -2.300262528208882E-004
 -2.293683392066252E-004
 -2.287550680026971E-004
 -2.281842235793725E-004
 -2.276535804709685E-004
 -2.271609066938790E-004
 -2.267039668041090E-004
 -2.262805247035502E-004
 -2.258883462047048E-004
 -2.255252013633440E-004
 -2.251888665888556E-004
 -2.248771265418291E-004
 -2.245877758285456E-004
 -2.243186205017681E-004
 -2.240674793772408E-004
 -2.238321851750152E-004
 -2.236105854945567E-004
 -2.234005436322560E-004
 -2.231999392497891E-004
 -2.230066689010860E-004
 -2.228186464259828E-004
 -2.226338032169067E-004
 -2.224500883665621E-004
 -2.222654687007643E-004
 -2.220779287052255E-004
 -2.218854703469285E-004
 -2.216861127987873E-004
 -2.214778920702122E-004
 -2.212588605404614E-004
 -2.210270864117725E-004
 -2.207806530666494E-004
 -2.205176583396915E-004
 -2.202362137067185E-004
 -2.199344433812648E-004
 -2.196104833062384E-004
 -2.192624801253819E-004
 -2.188885899061652E-004
 -2.557219957369817E-004
 -2.542203702570472E-004
 -2.528039291565955E-004
 -2.514702955773053E-004
 -2.502170196357977E-004
 -2.490415870325380E-004
 -2.479414271915832E-004
 -2.469139209401465E-004
 -2.459564077373604E-004
 -2.450661924623839E-004
 -2.442405517725830E-004
 -2.434767400427929E-004
 -2.427719948973631E-004
 -2.421235423470632E-004
 -2.415286015432037E-004
 -2.409843891617896E-004
 -2.404881234308230E-004
 -2.400370278140678E-004
 -2.396283343649118E-004
 -2.392592867640804E-004
 -2.389271430551132E-004
 -2.386291780916863E-004
 -2.383626857107971E-004
 -2.381249806459215E-004
 -2.379134001942241E-004
 -2.377253056517421E-004
 -2.375580835304231E-004
 -2.374091465705432E-004
 -2.372759345620651E-004
 -2.371559149877496E-004
 -2.370465835012189E-004
 -2.369454642516090E-004
 -2.368501100677597E-004
 -2.367581025115544E-004
 -2.366670518140629E-004
 -2.365745967000486E-004
 -2.364784041176901E-004
 -2.363761688705717E-004
 -2.362656131765430E-004
 -2.361444861434281E-004
 -2.360105631740365E-004
 -2.358616453269115E-004
 -2.356955585813488E-004
 -2.355101530799775E-004
 -2.353033023094408E-004
 -2.350729022104693E-004
 -2.348168702579973E-004
 -2.345331445314024E-004
 -2.342196824786299E-004
 -2.338744601879878E-004
 -2.680031092721093E-004
 -2.664499710947964E-004
 -2.649985572857256E-004
 -2.636455810853124E-004
 -2.623876985562959E-004
 -2.612215182786255E-004
 -2.601436104413931E-004
 -2.591505153463445E-004
 -2.582387513379314E-004
 -2.574048221756566E-004
 -2.566452238646575E-004
 -2.559564509612771E-004
 -2.553350023703116E-004
 -2.547773866516469E-004
 -2.542801268537500E-004
 -2.538397648923979E-004
 -2.534528654929481E-004
 -2.531160197149258E-004
 -2.528258480779885E-004
 -2.525790033083697E-004
 -2.523721727253401E-004
 -2.522020802870499E-004
 -2.520654883154849E-004
 -2.519591989200640E-004
 -2.518800551395696E-004
 -2.518249418218123E-004
 -2.517907862604591E-004
 -2.517745586082532E-004
 -2.517732720852252E-004
 -2.517839830011184E-004
 -2.518037906087103E-004
 -2.518298368079632E-004
 -2.518593057144180E-004
 -2.518894231144374E-004
 -2.519174558126727E-004
 -2.519407109034538E-004
 -2.519565349533096E-004
 -2.519623131507924E-004
 -2.519554683731200E-004
 -2.519334602487258E-004
 -2.518937841951849E-004
 -2.518339703709450E-004
 -2.517515827579983E-004
 -2.516442181004998E-004
 -2.515095048851002E-004
 -2.513451024000775E-004
 -2.511486997008314E-004
 -2.509180144635008E-004
 -2.506507927097516E-004
 -2.503448064497578E-004
 -2.803802537370734E-004
 -2.788074185277722E-004
 -2.773546044247744E-004
 -2.760174046143751E-004
 -2.747913819289031E-004
 -2.736720794588559E-004
 -2.726550304093753E-004
 -2.717357672223606E-004
 -2.709098299852863E-004
 -2.701727741481661E-004
 -2.695201775706965E-004
 -2.689476469221017E-004
 -2.684508234564564E-004
 -2.680253881869438E-004
 -2.676670664827014E-004
 -2.673716321125734E-004
 -2.671349107602137E-004
 -2.669527830355998E-004
 -2.668211870082918E-004
 -2.667361202879236E-004
 -2.666936416779942E-004
 -2.666898724289778E-004
 -2.667209971170311E-004
 -2.667832641748427E-004
 -2.668729861008411E-004
 -2.669865393736331E-004
 -2.671203640978861E-004
 -2.672709634072610E-004
 -2.674349026519401E-004
 -2.676088083933014E-004
 -2.677893672368028E-004
 -2.679733245185657E-004
 -2.681574828834070E-004
 -2.683387007547956E-004
 -2.685138907576772E-004
 -2.686800180531139E-004
 -2.688340987057603E-004
 -2.689731979430769E-004
 -2.690944285610882E-004
 -2.691949492256760E-004
 -2.692719628253438E-004
 -2.693227151202120E-004
 -2.693444929193271E-004
 -2.693346229165433E-004
 -2.692904704173261E-004
 -2.692094378555600E-004
 -2.690889638428810E-004
 -2.689265226229149E-004
 -2.687196206578040E-004
 -2.684658009248113E-004
 -2.927785957317548E-004
 -2.912287972603844E-004
 -2.898188247856239E-004
 -2.885429160635952E-004
 -2.873953193525731E-004
 -2.863703046871413E-004
 -2.854621742279429E-004
 -2.846652717111531E-004
 -2.839739910252127E-004
 -2.833827839426515E-004
 -2.828861670349326E-004
 -2.824787277990224E-004
 -2.821551300247422E-004
 -2.819101184328817E-004
 -2.817385226141253E-004
 -2.816352602998184E-004
 -2.815953399960185E-004
 -2.816138630126683E-004
 -2.816860249204667E-004
 -2.818071164682436E-004
 -2.819725239944278E-004
 -2.821777293663284E-004
 -2.824183094814739E-004
 -2.826899353655240E-004
 -2.829883709019445E-004
 -2.833094712272554E-004
 -2.836491808279050E-004
 -2.840035313756165E-004
 -2.843686393308097E-004
 -2.847407033598233E-004
 -2.851160015792305E-004
 -2.854908886959600E-004
 -2.858617930258833E-004
 -2.862252135078941E-004
 -2.865777166018328E-004
 -2.869159333344188E-004
 -2.872365561477361E-004
 -2.875363361761476E-004
 -2.878120800887187E-004
 -2.880606475676067E-004
 -2.882789488223885E-004
 -2.884639414174873E-004
 -2.886126293120460E-004
 -2.887220597129849E-004
 -2.887893210560393E-004
 -2.888115424239263E-004
 -2.887858913311640E-004
 -2.887095710210085E-004
 -2.885798281363686E-004
 -2.883939330739027E-004
 -3.051185889226427E-004
 -3.036471481905485E-004
 -3.023364219744895E-004
 -3.011790325383703E-004
 -3.001676711124977E-004
 -2.992951095098232E-004
 -2.985542106131740E-004
 -2.979379377744436E-004
 -2.974393631581487E-004
 -2.970516750610200E-004
 -2.967681842442157E-004
 -2.965823293118837E-004
 -2.964876811739779E-004
 -2.964779466286881E-004
 -2.965469711033750E-004
 -2.966887405915985E-004
 -2.968973828253420E-004
 -2.971671677222904E-004
 -2.974925071481231E-004
 -2.978679540349466E-004
 -2.982882008972148E-004
 -2.987480777872607E-004
 -2.992425497335636E-004
 -2.997667137053182E-004
 -3.003157951462061E-004
 -3.008851441267017E-004
 -3.014702311557454E-004
 -3.020666426927237E-004
 -3.026700764262807E-004
 -3.032763363269747E-004
 -3.038813275985725E-004
 -3.044810514428378E-004
 -3.050715998761865E-004
 -3.056491503333962E-004
 -3.062099606396612E-004
 -3.067503635242008E-004
 -3.072667621178215E-004
 -3.077556242457727E-004
 -3.082134788868717E-004
 -3.086369107943781E-004
 -3.090225559930684E-004
 -3.093671005235757E-004
 -3.096672718994180E-004
 -3.099198405300545E-004
 -3.101216172535361E-004
 -3.102694464620362E-004
 -3.103602075493681E-004
 -3.103908182996269E-004
 -3.103582041162023E-004
 -3.102593665729476E-004
 -3.173165460299407E-004
 -3.159931022240245E-004
 -3.148516974163852E-004
 -3.138830538212125E-004
 -3.130780430779859E-004
 -3.124276977749568E-004
 -3.119232216408338E-004
 -3.115559984143428E-004
 -3.113175994328654E-004
 -3.111997899902618E-004
 -3.111945345004154E-004
 -3.112940005183705E-004
 -3.114905616578052E-004
 -3.117767994570932E-004
 -3.121455042374341E-004
 -3.125896750020954E-004
 -3.131025184244602E-004
 -3.136774469724164E-004
 -3.143080762174220E-004
 -3.149882213765527E-004
 -3.157118931367064E-004
 -3.164732928104400E-004
 -3.172668068726639E-004
 -3.180870009292805E-004
 -3.189286131741073E-004
 -3.197865473723588E-004
 -3.206558654472565E-004
 -3.215317797388527E-004
 -3.224096449205030E-004
 -3.232849497788524E-004
 -3.241533086362322E-004
 -3.250104529765032E-004
 -3.258522226108009E-004
 -3.266745575943513E-004
 -3.274734889618776E-004
 -3.282451316112914E-004
 -3.289856741766615E-004
 -3.296913742941216E-004
 -3.303585468680725E-004
 -3.309835608805773E-004
 -3.315628335529511E-004
 -3.320928148264779E-004
 -3.325700007640453E-004
 -3.329909094523406E-004
 -3.333520770666283E-004
 -3.336500731883436E-004
 -3.338814835424974E-004
 -3.340428912440692E-004
 -3.341309777489512E-004
 -3.341422732745337E-004
 -3.292842504966407E-004
 -3.281946192683814E-004
 -3.273078523171455E-004
 -3.266124627638441E-004
 -3.260972211811232E-004
 -3.257511665893445E-004
 -3.255636157043459E-004
 -3.255241705878593E-004
 -3.256227247618329E-004
 -3.258494678174479E-004
 -3.261948886058740E-004
 -3.266497770466614E-004
 -3.272052246433374E-004
 -3.278526237487092E-004
 -3.285836656552644E-004
 -3.293903375666453E-004
 -3.302649185103014E-004
 -3.311999742511998E-004
 -3.321883512622049E-004
 -3.332231698053656E-004
 -3.342978161757125E-004
 -3.354059341577901E-004
 -3.365414157489660E-004
 -3.376983911980883E-004
 -3.388712183971164E-004
 -3.400544717317221E-004
 -3.412429303573276E-004
 -3.424315659445940E-004
 -3.436155302275529E-004
 -3.447901418857328E-004
 -3.459508738657461E-004
 -3.470933393585842E-004
 -3.482132793018377E-004
 -3.493065472492110E-004
 -3.503690991289997E-004
 -3.513969757056145E-004
 -3.523862973788124E-004
 -3.533332402056444E-004
 -3.542340397923190E-004
 -3.550849643813833E-004
 -3.558823034424789E-004
 -3.566223921245107E-004
 -3.573015314970998E-004
 -3.579160585519837E-004
 -3.584623303929216E-004
 -3.589366406132605E-004
 -3.593352764966281E-004
 -3.596545761557967E-004
 -3.598905725327457E-004
 -3.600398751159106E-004
 -3.409272797158702E-004
 -3.401755590638926E-004
 -3.396457087853213E-004
 -3.393237009825464E-004
 -3.391959090503379E-004
 -3.392491168047652E-004
 -3.394705258288832E-004
 -3.398477608101614E-004
 -3.403688729234254E-004
 -3.410223414624312E-004
 -3.417970737189902E-004
 -3.426824033183943E-004
 -3.436680870041203E-004
 -3.447443000464265E-004
 -3.459016303195188E-004
 -3.471310711533261E-004
 -3.484240130430831E-004
 -3.497722342860625E-004
 -3.511678906164739E-004
 -3.526035039002169E-004
 -3.540719499457410E-004
 -3.555664454756491E-004
 -3.570805342798367E-004
 -3.586080725894428E-004
 -3.601432137357448E-004
 -3.616803919289231E-004
 -3.632143055348089E-004
 -3.647398998135194E-004
 -3.662523482004468E-004
 -3.677470342174352E-004
 -3.692195303490641E-004
 -3.706655809409760E-004
 -3.720810785717290E-004
 -3.734620499390915E-004
 -3.748046238912775E-004
 -3.761050280741304E-004
 -3.773595409985508E-004
 -3.785645164884086E-004
 -3.797163066588927E-004
 -3.808113050055102E-004
 -3.818459238427540E-004
 -3.828164539752641E-004
 -3.837193144966644E-004
 -3.845507313291357E-004
 -3.853067924964180E-004
 -3.859837474820025E-004
 -3.865777279670965E-004
 -3.870845061076903E-004
 -3.875007291691704E-004
 -3.878208425230754E-004
 -3.521422822748769E-004
 -3.518533166337682E-004
 -3.518015477697901E-004
 -3.519700642419078E-004
 -3.523425453508570E-004
 -3.529032679014806E-004
 -3.536371093426359E-004
 -3.545295484307382E-004
 -3.555666637976058E-004
 -3.567351302101257E-004
 -3.580222130798784E-004
 -3.594157609458230E-004
 -3.609041965030244E-004
 -3.624765060377557E-004
 -3.641222275894834E-004
 -3.658314379213462E-004
 -3.675947384145919E-004
 -3.694032400258752E-004
 -3.712485473963711E-004
 -3.731227421919277E-004
 -3.750183657288620E-004
 -3.769284009397744E-004
 -3.788462537587906E-004
 -3.807657338696283E-004
 -3.826810346585762E-004
 -3.845867129593193E-004
 -3.864776671077170E-004
 -3.883491138419569E-004
 -3.901965671548136E-004
 -3.920158111224315E-004
 -3.938028801946847E-004
 -3.955540210724257E-004
 -3.972656771413989E-004
 -3.989344354832569E-004
 -4.005570386429782E-004
 -4.021302871418751E-004
 -4.036511103312972E-004
 -4.051163691049005E-004
 -4.065230409455854E-004
 -4.078679578239862E-004
 -4.091478298386455E-004
 -4.103596633715996E-004
 -4.114997436373636E-004
 -4.125647987011686E-004
 -4.135515975166545E-004
 -4.144557570684612E-004
 -4.152729221785250E-004
 -4.159996891511038E-004
 -4.166291477006284E-004
 -4.171613740891469E-004
 -3.628146006966629E-004
 -3.631367001600147E-004
 -3.637050087065169E-004
 -3.644994097447165E-004
 -3.655006324175075E-004
 -3.666902471866323E-004
 -3.680506612816294E-004
 -3.695651113674666E-004
 -3.712176527795126E-004
 -3.729931469778636E-004
 -3.748772459795620E-004
 -3.768563758373475E-004
 -3.789177178378640E-004
 -3.810491887900966E-004
 -3.832394200221554E-004
 -3.854777354871054E-004
 -3.877541292540413E-004
 -3.900592424917346E-004
 -3.923843401546635E-004
 -3.947212875359269E-004
 -3.970625268305999E-004
 -3.994010537425549E-004
 -4.017303940179130E-004
 -4.040445802153444E-004
 -4.063381291085439E-004
 -4.086060173983562E-004
 -4.108436609239227E-004
 -4.130468933089938E-004
 -4.152119332405210E-004
 -4.173353700838989E-004
 -4.194141167227541E-004
 -4.214454232489515E-004
 -4.234267929613240E-004
 -4.253560289919354E-004
 -4.272310325872961E-004
 -4.290500075503725E-004
 -4.308110182656880E-004
 -4.325125405720211E-004
 -4.341525864922331E-004
 -4.357295060218404E-004
 -4.372416363182444E-004
 -4.386856984110635E-004
 -4.400604893357184E-004
 -4.413623381900961E-004
 -4.425869021008837E-004
 -4.437333245072569E-004
 -4.447989965159066E-004
 -4.457759039127704E-004
 -4.466671621146449E-004
 -4.474519125284741E-004
 -3.728192040161565E-004
 -3.739264184408706E-004
 -3.752787998395788E-004
 -3.768528269054637E-004
 -3.786261437926638E-004
 -3.805775539427773E-004
 -3.826870001838441E-004
 -3.849355399470622E-004
 -3.873053198785190E-004
 -3.897795454884770E-004
 -3.923424523374982E-004
 -3.949792719606852E-004
 -3.976761990834601E-004
 -4.004203562833309E-004
 -4.031997586773539E-004
 -4.060032784904853E-004
 -4.088206095011248E-004
 -4.116422319735910E-004
 -4.144593782449517E-004
 -4.172639992141881E-004
 -4.200487319993573E-004
 -4.228068692821377E-004
 -4.255323310304837E-004
 -4.282196374561649E-004
 -4.308638821863290E-004
 -4.334607138627126E-004
 -4.360063063697238E-004
 -4.384973367535436E-004
 -4.409310027771408E-004
 -4.433049648523049E-004
 -4.456174034240490E-004
 -4.478668480601069E-004
 -4.500523798962983E-004
 -4.521733184553590E-004
 -4.542297944145049E-004
 -4.562217497017706E-004
 -4.581503752575696E-004
 -4.600158134527459E-004
 -4.618200988571618E-004
 -4.635637866840426E-004
 -4.652470610316996E-004
 -4.668747535203897E-004
 -4.684421247776660E-004
 -4.699517715639760E-004
 -4.714057666175938E-004
 -4.727916713450558E-004
 -4.741043111074556E-004
 -4.753586364608971E-004
 -4.765255598050271E-004
 -4.776468099165344E-004
 -3.820290920947548E-004
 -3.841211472275094E-004
 -3.864421319132185E-004
 -3.889651382634533E-004
 -3.916648856801553E-004
 -3.945176480401213E-004
 -3.975012058215254E-004
 -4.005948017389256E-004
 -4.037790862802563E-004
 -4.070360706084384E-004
 -4.103490629327822E-004
 -4.137026175901019E-004
 -4.170824734685265E-004
 -4.204754982032928E-004
 -4.238696307753419E-004
 -4.272538241357133E-004
 -4.306179897747424E-004
 -4.339529436225894E-004
 -4.372503540928437E-004
 -4.405026926633904E-004
 -4.437031871827581E-004
 -4.468457773397677E-004
 -4.499250718725426E-004
 -4.529363135731026E-004
 -4.558753550661301E-004
 -4.587386160580186E-004
 -4.615230963077351E-004
 -4.642263601304740E-004
 -4.668464036991211E-004
 -4.693818397340551E-004
 -4.718316617406782E-004
 -4.741958365795950E-004
 -4.764744459389801E-004
 -4.786688514565033E-004
 -4.807796347679394E-004
 -4.828104606573614E-004
 -4.847624681775485E-004
 -4.866425007035517E-004
 -4.884519938091416E-004
 -4.901993178130952E-004
 -4.918948934910021E-004
 -4.935338676945960E-004
 -4.951473193676635E-004
 -4.967361373468317E-004
 -4.982997259572586E-004
 -4.998783406715218E-004
 -5.014673871004151E-004
 -5.029784790044041E-004
 -5.044957101332123E-004
 -5.059043170958346E-004
 -3.903344027036639E-004
 -3.936309545574041E-004
 -3.971180302755553E-004
 -4.007660412095008E-004
 -4.045474183896661E-004
 -4.084366261749011E-004
 -4.124100933040034E-004
 -4.164461138447413E-004
 -4.205247675943403E-004
 -4.246278003412988E-004
 -4.287385631874976E-004
 -4.328418978195548E-004
 -4.369240607537058E-004
 -4.409726266777769E-004
 -4.449763984067872E-004
 -4.489253219261952E-004
 -4.528104006937546E-004
 -4.566236132367353E-004
 -4.603578333706807E-004
 -4.640067540207815E-004
 -4.675648162796519E-004
 -4.710271468058466E-004
 -4.743895038103441E-004
 -4.776482108146853E-004
 -4.808000779362846E-004
 -4.838424218339534E-004
 -4.867729092607523E-004
 -4.895895763758749E-004
 -4.922912413403314E-004
 -4.948767062349883E-004
 -4.973456420925558E-004
 -4.996965905838509E-004
 -5.019306151285438E-004
 -5.040469159338789E-004
 -5.060502745111784E-004
 -5.079364736396103E-004
 -5.097149050025693E-004
 -5.113796457495980E-004
 -5.129508638343491E-004
 -5.144285042830610E-004
 -5.158098939223365E-004
 -5.171472162626734E-004
 -5.183644552062827E-004
 -5.195123500684685E-004
 -5.206636458194767E-004
 -5.217836359922639E-004
 -5.230267895585663E-004
 -5.248134495887897E-004
 -5.267918491008085E-004
 -5.290426321375710E-004
 -3.976709422825986E-004
 -4.023945529880707E-004
 -4.072401519390227E-004
 -4.121763375743987E-004
 -4.171747392781903E-004
 -4.222096138385209E-004
 -4.272576322019519E-004
 -4.322977590198852E-004
 -4.373110710271470E-004
 -4.422807349670839E-004
 -4.471917489135318E-004
 -4.520308945626075E-004
 -4.567865415223379E-004
 -4.614485325193192E-004
 -4.660080589180093E-004
 -4.704575255617078E-004
 -4.747904305753589E-004
 -4.790012479674617E-004
 -4.830853161761479E-004
 -4.870387295605581E-004
 -4.908582288925461E-004
 -4.945410864536045E-004
 -4.980849967137005E-004
 -5.014880450592142E-004
 -5.047487234319898E-004
 -5.078655868149283E-004
 -5.108375983762449E-004
 -5.136637735284448E-004
 -5.163417267257353E-004
 -5.188709174901000E-004
 -5.212491800650266E-004
 -5.234794978991496E-004
 -5.255554827885418E-004
 -5.274795960034514E-004
 -5.292378359021894E-004
 -5.308555243595054E-004
 -5.323064220094717E-004
 -5.336157101661848E-004
 -5.347122026269042E-004
 -5.356100600354763E-004
 -5.363588274630655E-004
 -5.368567781716091E-004
 -5.374879202331270E-004
 -5.381365685299709E-004
 -5.385489569069919E-004
 -5.387197523394875E-004
 -5.379868137914759E-004
 -5.350476673650760E-004
 -5.257215209486793E-004
 -5.125990587728868E-004
 -4.040465195306079E-004
 -4.103907823517983E-004
 -4.167468969412995E-004
 -4.230858781144895E-004
 -4.293812094698175E-004
 -4.356092838988269E-004
 -4.417494728589151E-004
 -4.477839277054403E-004
 -4.536975567034601E-004
 -4.594773483412604E-004
 -4.651126265631586E-004
 -4.705944904685387E-004
 -4.759158432613893E-004
 -4.810711510165537E-004
 -4.860562306655115E-004
 -4.908681055467145E-004
 -4.955048312285168E-004
 -4.999653346751494E-004
 -5.042492586316402E-004
 -5.083568239574734E-004
 -5.122887192980771E-004
 -5.160460153617972E-004
 -5.196300434215166E-004
 -5.230420231185720E-004
 -5.262826703884694E-004
 -5.293532421662549E-004
 -5.322539724424949E-004
 -5.349852467906340E-004
 -5.375516917875621E-004
 -5.399487944200456E-004
 -5.421770872571368E-004
 -5.442196418405027E-004
 -5.460983776062879E-004
 -5.477965278950587E-004
 -5.493449555163428E-004
 -5.506150924314205E-004
 -5.516932529118844E-004
 -5.525182840197474E-004
 -5.533951345292656E-004
 -5.542707289727698E-004
 -5.548377846508014E-004
 -5.551663319677371E-004
 -5.536078773501154E-004
 -5.504858327751470E-004
 -5.396218215218592E-004
 -5.277392837950446E-004
 -5.146888424884075E-004
 -4.985821926475712E-004
 -4.813888887679343E-004
 -4.638877994233844E-004
 -4.095487592198590E-004
 -4.176161192371679E-004
 -4.255406623599340E-004
 -4.332942649511063E-004
 -4.408551244189508E-004
 -4.482062745691539E-004
 -4.553344369810976E-004
 -4.622294233833199E-004
 -4.688829808837595E-004
 -4.752903154948768E-004
 -4.814480389879882E-004
 -4.873553613944314E-004
 -4.930130260114861E-004
 -4.984232076702884E-004
 -5.035894270855401E-004
 -5.085162246734889E-004
 -5.132089617234307E-004
 -5.176736079828716E-004
 -5.219165500904531E-004
 -5.259443836262692E-004
 -5.297636792254848E-004
 -5.333807783611705E-004
 -5.368018385399367E-004
 -5.400336582032804E-004
 -5.430841275556855E-004
 -5.459572495726616E-004
 -5.486584952027164E-004
 -5.511901534852759E-004
 -5.535396346619501E-004
 -5.557306238890003E-004
 -5.577608694232303E-004
 -5.596755411596674E-004
 -5.613551978248603E-004
 -5.628494997461974E-004
 -5.640780092363643E-004
 -5.655761856139960E-004
 -5.669373787115729E-004
 -5.680890520336540E-004
 -5.675886832477654E-004
 -5.650393066450642E-004
 -5.543727878746063E-004
 -5.438600692736382E-004
 -5.312441067189072E-004
 -5.166932795350434E-004
 -5.006381474112494E-004
 -4.846678976132101E-004
 -4.687585846096172E-004
 -4.528405541866874E-004
 -4.368781776691730E-004
 -4.210157832561416E-004
 -4.142854485719394E-004
 -4.240283276489578E-004
 -4.333945830820390E-004
 -4.423791056746986E-004
 -4.509774568642716E-004
 -4.591856283800187E-004
 -4.670012505122233E-004
 -4.744247703142317E-004
 -4.814628932970876E-004
 -4.881214236238305E-004
 -4.944118761181788E-004
 -5.003452441805134E-004
 -5.059345465609856E-004
 -5.111941758831685E-004
 -5.161389224055947E-004
 -5.207840365745668E-004
 -5.251449855137034E-004
 -5.292373563009334E-004
 -5.330767317316863E-004
 -5.366786187658637E-004
 -5.400583980018695E-004
 -5.432310394535916E-004
 -5.462099848556111E-004
 -5.490041843051758E-004
 -5.516178694328050E-004
 -5.540700292380348E-004
 -5.563722366772650E-004
 -5.585422692688186E-004
 -5.606340290323982E-004
 -5.625487612171175E-004
 -5.643075608432411E-004
 -5.658021253625786E-004
 -5.675615888972952E-004
 -5.693160858632744E-004
 -5.710703807235706E-004
 -5.704496177961611E-004
 -5.622505640858934E-004
 -5.529267220957391E-004
 -5.416943120397739E-004
 -5.281418954235904E-004
 -5.129308709616461E-004
 -4.976832326826325E-004
 -4.822847791666803E-004
 -4.671408915603906E-004
 -4.524489288826642E-004
 -4.375086756748161E-004
 -4.233743016586884E-004
 -4.102979780415275E-004
 -4.003507108368177E-004
 -3.920676738321931E-004
 -4.183436203108742E-004
 -4.293277178374433E-004
 -4.396973972906518E-004
 -4.494426473875321E-004
 -4.585568278603310E-004
 -4.670472461466421E-004
 -4.749358835774136E-004
 -4.822530315366333E-004
 -4.890204029834292E-004
 -4.952751846789312E-004
 -5.010412817379910E-004
 -5.063518355626057E-004
 -5.112381548672161E-004
 -5.157294512103153E-004
 -5.198553306178387E-004
 -5.236446258158380E-004
 -5.271253226973843E-004
 -5.303240492027498E-004
 -5.332658961360703E-004
 -5.359743802669471E-004
 -5.384716675710473E-004
 -5.407797695532562E-004
 -5.429238434305041E-004
 -5.449387519243476E-004
 -5.468639316427981E-004
 -5.486701629466449E-004
 -5.503537166718412E-004
 -5.519006827592968E-004
 -5.532092256715381E-004
 -5.547529398445208E-004
 -5.564045681181981E-004
 -5.583472970192868E-004
 -5.561427968520886E-004
 -5.482470281218902E-004
 -5.401999890552829E-004
 -5.287582820737349E-004
 -5.147420500838434E-004
 -4.998843114691512E-004
 -4.843258376399882E-004
 -4.681779252459278E-004
 -4.520560982895247E-004
 -4.358306442808354E-004
 -4.200363756466554E-004
 -4.038726659341370E-004
 -3.893485502860399E-004
 -3.795229183434440E-004
 -3.817316389172390E-004
 -3.841885010688206E-004
 -3.897700570440754E-004
 -3.967893006398856E-004
 -4.212005543553842E-004
 -4.328367586053630E-004
 -4.433678500412014E-004
 -4.528309147623133E-004
 -4.613307460974570E-004
 -4.689723834399313E-004
 -4.758254304151515E-004
 -4.819350627628214E-004
 -4.873829168496219E-004
 -4.921943737288526E-004
 -4.964500387649195E-004
 -5.001943049265244E-004
 -5.034737073614469E-004
 -5.063410752623159E-004
 -5.088447617954187E-004
 -5.110307446185373E-004
 -5.129411873706892E-004
 -5.146150726590211E-004
 -5.160878715981662E-004
 -5.173908382289052E-004
 -5.185498539464770E-004
 -5.195822481899152E-004
 -5.204903635731878E-004
 -5.212519137242769E-004
 -5.218456751518114E-004
 -5.225077721031405E-004
 -5.233342607189988E-004
 -5.243742727398766E-004
 -5.256169663372958E-004
 -5.214098162883609E-004
 -5.155875482274389E-004
 -5.094503291223734E-004
 -4.998425571836974E-004
 -4.877176016609253E-004
 -4.744398557742728E-004
 -4.597897158899110E-004
 -4.442184486394917E-004
 -4.275813602037410E-004
 -4.100785791734770E-004
 -3.919228179390066E-004
 -3.731736511474568E-004
 -3.540895211273922E-004
 -3.345567338148840E-004
 -3.282140417849154E-004
 -3.302566382383949E-004
 -3.371179321158990E-004
 -3.463279296991289E-004
 -3.553950883088794E-004
 -3.643186378705653E-004
 -3.727259470720712E-004
 -4.237069759621972E-004
 -4.331435471951836E-004
 -4.411723976055749E-004
 -4.481896681099009E-004
 -4.542515400555306E-004
 -4.593143614616348E-004
 -4.634348192198018E-004
 -4.667590256593099E-004
 -4.692940686877365E-004
 -4.712538701860515E-004
 -4.726197789873786E-004
 -4.735048525461468E-004
 -4.740170457524721E-004
 -4.742236692405221E-004
 -4.741866969929702E-004
 -4.739558687481247E-004
 -4.735759311903299E-004
 -4.730861110631594E-004
 -4.725228310578087E-004
 -4.719232893575510E-004
 -4.713286914526235E-004
 -4.707902614548537E-004
 -4.703772371322151E-004
 -4.699958089633399E-004
 -4.684631892389702E-004
 -4.655059657346253E-004
 -4.616271729463397E-004
 -4.575127172541948E-004
 -4.529800165808468E-004
 -4.454848437479902E-004
 -4.362397951898432E-004
 -4.258462288293908E-004
 -4.141567380604699E-004
 -4.012939350235650E-004
 -3.871346062906703E-004
 -3.718226280751905E-004
 -3.552828945942212E-004
 -3.375137871804689E-004
 -3.184016357881647E-004
 -2.978365843487096E-004
 -2.757451861607773E-004
 -2.523559054641622E-004
 -2.382944142844455E-004
 -2.455194747516090E-004
 -2.537468249222388E-004
 -2.633071155601437E-004
 -2.734276158932484E-004
 -2.837645487908127E-004
 -2.936617303646441E-004
 -3.034451662523695E-004
 -4.143676171175879E-004
 -4.192701030052440E-004
 -4.236414521629334E-004
 -4.263283707059555E-004
 -4.273762672164758E-004
 -4.273669006803972E-004
 -4.265627699729372E-004
 -4.248808399591368E-004
 -4.227302648826251E-004
 -4.190173855731691E-004
 -4.153350807688068E-004
 -4.117522285375006E-004
 -4.082340041213473E-004
 -4.048228314660074E-004
 -4.015148519704312E-004
 -3.983122262378704E-004
 -3.951933592635856E-004
 -3.921312777941383E-004
 -3.890969660421472E-004
 -3.860580077011465E-004
 -3.829784961778662E-004
 -3.798137248301975E-004
 -3.765088785694181E-004
 -3.729762536851640E-004
 -3.690550899306371E-004
 -3.639522130485062E-004
 -3.576009045329592E-004
 -3.505012666900710E-004
 -3.425154686639208E-004
 -3.336289710234384E-004
 -3.236731994989410E-004
 -3.126946591024433E-004
 -3.007601766919861E-004
 -2.878286742168304E-004
 -2.738719827883326E-004
 -2.587848745295678E-004
 -2.424838405875264E-004
 -2.248154880079953E-004
 -2.056598198434857E-004
 -1.848593587239968E-004
 -1.622135276108167E-004
 -1.377593696680745E-004
 -1.219363324188386E-004
 -1.174943027277806E-004
 -1.256236120185109E-004
 -1.359981835255474E-004
 -1.471369508045168E-004
 -1.601972023465109E-004
 -1.745428718715637E-004
 -1.880256737004283E-004
 -3.856656255324996E-004
 -3.823494716776543E-004
 -3.749818316217238E-004
 -3.642752085404568E-004
 -3.517967331188919E-004
 -3.391730310201125E-004
 -3.273128505198598E-004
 -3.163885371606458E-004
 -3.061141155867252E-004
 -2.985694122711355E-004
 -2.916415115126956E-004
 -2.851211836469091E-004
 -2.792503318724135E-004
 -2.738952021728113E-004
 -2.690042241461650E-004
 -2.644109616072996E-004
 -2.600248458320435E-004
 -2.557682625706811E-004
 -2.515643930136721E-004
 -2.473293917636196E-004
 -2.429689214262254E-004
 -2.383939153067415E-004
 -2.335072194681371E-004
 -2.282171575258077E-004
 -2.224729019138931E-004
 -2.161176256536356E-004
 -2.090503275211351E-004
 -2.012563932867190E-004
 -1.927498445640719E-004
 -1.835392295944773E-004
 -1.736302119747954E-004
 -1.629546669546691E-004
 -1.514515051482068E-004
 -1.390785284638262E-004
 -1.257765213992897E-004
 -1.115067351295562E-004
 -9.620067925110367E-005
 -7.977171169843276E-005
 -6.208612231642862E-005
 -4.300098698388489E-005
 -2.237577206008289E-005
 -6.509186388394351E-008
  2.358929575869237E-005
  4.352302538731205E-005
  4.976972954300769E-005
  5.201636299910544E-005
  4.364116069864430E-005
  2.989357491484169E-005
  9.520923539907205E-006
 -1.923466685401552E-005
 -3.584037035666451E-004
 -3.116580889415029E-004
 -2.738677757968189E-004
 -2.428452608537921E-004
 -2.171248385419048E-004
 -1.944782171142296E-004
 -1.640795405203320E-004
 -1.345639312498364E-004
 -1.111072003055132E-004
 -9.242202892268276E-005
 -8.134749974862854E-005
 -7.624220133411303E-005
 -7.164199633576458E-005
 -6.745772751933721E-005
 -6.362891792971241E-005
 -6.004198245542068E-005
 -5.662940773138331E-005
 -5.325075042335885E-005
 -4.980802592624191E-005
 -4.622111801780858E-005
 -4.240698225953558E-005
 -3.828776848546861E-005
 -3.379834756508914E-005
 -2.887667570516596E-005
 -2.347114521982010E-005
 -1.754095169461813E-005
 -1.105421575948518E-005
 -3.974549390521763E-006
  3.738851446985258E-006
  1.212419247966960E-005
  2.121793538267450E-005
  3.105769697186017E-005
  4.167773585348036E-005
  5.311769679175830E-005
  6.542773873834175E-005
  7.866608983530306E-005
  9.287207979169386E-005
  1.081504684262556E-004
  1.245966565167313E-004
  1.423417498037422E-004
  1.615674436222606E-004
  1.824875545255395E-004
  2.053563554776089E-004
  2.304780313550853E-004
  2.586933386143038E-004
  2.875999738908841E-004
  2.812822190834201E-004
  2.691110362445083E-004
  2.488245371721551E-004
  2.167581018843015E-004
SCALARS elementIsPlast double 
LOOKUP_TABLE default
  0.000000000000000E+000
  0.000000000000000E+000
  0.000000000000000E+000
  0.000000000000000E+000
  0.000000000000000E+000
  0.000000000000000E+000
  0.000000000000000E+000
  0.000000000000000E+000
  0.000000000000000E+000
  0.000000000000000E+000
  0.000000000000000E+000
  0.000000000000000E+000
  0.000000000000000E+000
  0.000000000000000E+000
  0.000000000000000E+000
  0.000000000000000E+000
  0.000000000000000E+000
  0.000000000000000E+000
  0.000000000000000E+000
  0.000000000000000E+000
  0.000000000000000E+000
  0.000000000000000E+000
  0.000000000000000E+000
  0.000000000000000E+000
  0.000000000000000E+000
  0.000000000000000E+000
  0.000000000000000E+000
  0.000000000000000E+000
  0.000000000000000E+000
  0.000000000000000E+000
  0.000000000000000E+000
  0.000000000000000E+000
  0.000000000000000E+000
  0.000000000000000E+000
  0.000000000000000E+000
  0.000000000000000E+000
  0.000000000000000E+000
  0.000000000000000E+000
  0.000000000000000E+000
  0.000000000000000E+000
  0.000000000000000E+000
  0.000000000000000E+000
  0.000000000000000E+000
  0.000000000000000E+000
  0.000000000000000E+000
  0.000000000000000E+000
  0.000000000000000E+000
  0.000000000000000E+000
  0.000000000000000E+000
  0.000000000000000E+000
  0.000000000000000E+000
  0.000000000000000E+000
  0.000000000000000E+000
  0.000000000000000E+000
  0.000000000000000E+000
  0.000000000000000E+000
  0.000000000000000E+000
  0.000000000000000E+000
  0.000000000000000E+000
  0.000000000000000E+000
  0.000000000000000E+000
  0.000000000000000E+000
  0.000000000000000E+000
  0.000000000000000E+000
  0.000000000000000E+000
  0.000000000000000E+000
  0.000000000000000E+000
  0.000000000000000E+000
  0.000000000000000E+000
  0.000000000000000E+000
  0.000000000000000E+000
  0.000000000000000E+000
  0.000000000000000E+000
  0.000000000000000E+000
  0.000000000000000E+000
  0.000000000000000E+000
  0.000000000000000E+000
  0.000000000000000E+000
  0.000000000000000E+000
  0.000000000000000E+000
  0.000000000000000E+000
  0.000000000000000E+000
  0.000000000000000E+000
  0.000000000000000E+000
  0.000000000000000E+000
  0.000000000000000E+000
  0.000000000000000E+000
  0.000000000000000E+000
  0.000000000000000E+000
  0.000000000000000E+000
  0.000000000000000E+000
  0.000000000000000E+000
  0.000000000000000E+000
  0.000000000000000E+000
  0.000000000000000E+000
  0.000000000000000E+000
  0.000000000000000E+000
  0.000000000000000E+000
  0.000000000000000E+000
  0.000000000000000E+000
  0.000000000000000E+000
  0.000000000000000E+000
  0.000000000000000E+000
  0.000000000000000E+000
  0.000000000000000E+000
  0.000000000000000E+000
  0.000000000000000E+000
  0.000000000000000E+000
  0.000000000000000E+000
  0.000000000000000E+000
  0.000000000000000E+000
  0.000000000000000E+000
  0.000000000000000E+000
  0.000000000000000E+000
  0.000000000000000E+000
  0.000000000000000E+000
  0.000000000000000E+000
  0.000000000000000E+000
  0.000000000000000E+000
  0.000000000000000E+000
  0.000000000000000E+000
  0.000000000000000E+000
  0.000000000000000E+000
  0.000000000000000E+000
  0.000000000000000E+000
  0.000000000000000E+000
  0.000000000000000E+000
  0.000000000000000E+000
  0.000000000000000E+000
  0.000000000000000E+000
  0.000000000000000E+000
  0.000000000000000E+000
  0.000000000000000E+000
  0.000000000000000E+000
  0.000000000000000E+000
  0.000000000000000E+000
  0.000000000000000E+000
  0.000000000000000E+000
  0.000000000000000E+000
  0.000000000000000E+000
  0.000000000000000E+000
  0.000000000000000E+000
  0.000000000000000E+000
  0.000000000000000E+000
  0.000000000000000E+000
  0.000000000000000E+000
  0.000000000000000E+000
  0.000000000000000E+000
  0.000000000000000E+000
  0.000000000000000E+000
  0.000000000000000E+000
  0.000000000000000E+000
  0.000000000000000E+000
  0.000000000000000E+000
  0.000000000000000E+000
  0.000000000000000E+000
  0.000000000000000E+000
  0.000000000000000E+000
  0.000000000000000E+000
  0.000000000000000E+000
  0.000000000000000E+000
  0.000000000000000E+000
  0.000000000000000E+000
  0.000000000000000E+000
  0.000000000000000E+000
  0.000000000000000E+000
  0.000000000000000E+000
  0.000000000000000E+000
  0.000000000000000E+000
  0.000000000000000E+000
  0.000000000000000E+000
  0.000000000000000E+000
  0.000000000000000E+000
  0.000000000000000E+000
  0.000000000000000E+000
  0.000000000000000E+000
  0.000000000000000E+000
  0.000000000000000E+000
  0.000000000000000E+000
  0.000000000000000E+000
  0.000000000000000E+000
  0.000000000000000E+000
  0.000000000000000E+000
  0.000000000000000E+000
  0.000000000000000E+000
  0.000000000000000E+000
  0.000000000000000E+000
  0.000000000000000E+000
  0.000000000000000E+000
  0.000000000000000E+000
  0.000000000000000E+000
  0.000000000000000E+000
  0.000000000000000E+000
  0.000000000000000E+000
  0.000000000000000E+000
  0.000000000000000E+000
  0.000000000000000E+000
  0.000000000000000E+000
  0.000000000000000E+000
  0.000000000000000E+000
  0.000000000000000E+000
  0.000000000000000E+000
  0.000000000000000E+000
  0.000000000000000E+000
  0.000000000000000E+000
  0.000000000000000E+000
  0.000000000000000E+000
  0.000000000000000E+000
  0.000000000000000E+000
  0.000000000000000E+000
  0.000000000000000E+000
  0.000000000000000E+000
  0.000000000000000E+000
  0.000000000000000E+000
  0.000000000000000E+000
  0.000000000000000E+000
  0.000000000000000E+000
  0.000000000000000E+000
  0.000000000000000E+000
  0.000000000000000E+000
  0.000000000000000E+000
  0.000000000000000E+000
  0.000000000000000E+000
  0.000000000000000E+000
  0.000000000000000E+000
  0.000000000000000E+000
  0.000000000000000E+000
  0.000000000000000E+000
  0.000000000000000E+000
  0.000000000000000E+000
  0.000000000000000E+000
  0.000000000000000E+000
  0.000000000000000E+000
  0.000000000000000E+000
  0.000000000000000E+000
  0.000000000000000E+000
  0.000000000000000E+000
  0.000000000000000E+000
  0.000000000000000E+000
  0.000000000000000E+000
  0.000000000000000E+000
  0.000000000000000E+000
  0.000000000000000E+000
  0.000000000000000E+000
  0.000000000000000E+000
  0.000000000000000E+000
  0.000000000000000E+000
  0.000000000000000E+000
  0.000000000000000E+000
  0.000000000000000E+000
  0.000000000000000E+000
  0.000000000000000E+000
  0.000000000000000E+000
  0.000000000000000E+000
  0.000000000000000E+000
  0.000000000000000E+000
  0.000000000000000E+000
  0.000000000000000E+000
  0.000000000000000E+000
  0.000000000000000E+000
  0.000000000000000E+000
  0.000000000000000E+000
  0.000000000000000E+000
  0.000000000000000E+000
  0.000000000000000E+000
  0.000000000000000E+000
  0.000000000000000E+000
  0.000000000000000E+000
  0.000000000000000E+000
  0.000000000000000E+000
  0.000000000000000E+000
  0.000000000000000E+000
  0.000000000000000E+000
  0.000000000000000E+000
  0.000000000000000E+000
  0.000000000000000E+000
  0.000000000000000E+000
  0.000000000000000E+000
  0.000000000000000E+000
  0.000000000000000E+000
  0.000000000000000E+000
  0.000000000000000E+000
  0.000000000000000E+000
  0.000000000000000E+000
  0.000000000000000E+000
  0.000000000000000E+000
  0.000000000000000E+000
  0.000000000000000E+000
  0.000000000000000E+000
  0.000000000000000E+000
  0.000000000000000E+000
  0.000000000000000E+000
  0.000000000000000E+000
  0.000000000000000E+000
  0.000000000000000E+000
  0.000000000000000E+000
  0.000000000000000E+000
  0.000000000000000E+000
  0.000000000000000E+000
  0.000000000000000E+000
  0.000000000000000E+000
  0.000000000000000E+000
  0.000000000000000E+000
  0.000000000000000E+000
  0.000000000000000E+000
  0.000000000000000E+000
  0.000000000000000E+000
  0.000000000000000E+000
  0.000000000000000E+000
  0.000000000000000E+000
  0.000000000000000E+000
  0.000000000000000E+000
  0.000000000000000E+000
  0.000000000000000E+000
  0.000000000000000E+000
  0.000000000000000E+000
  0.000000000000000E+000
  0.000000000000000E+000
  0.000000000000000E+000
  0.000000000000000E+000
  0.000000000000000E+000
  0.000000000000000E+000
  0.000000000000000E+000
  0.000000000000000E+000
  0.000000000000000E+000
  0.000000000000000E+000
  0.000000000000000E+000
  0.000000000000000E+000
  0.000000000000000E+000
  0.000000000000000E+000
  0.000000000000000E+000
  0.000000000000000E+000
  0.000000000000000E+000
  0.000000000000000E+000
  0.000000000000000E+000
  0.000000000000000E+000
  0.000000000000000E+000
  0.000000000000000E+000
  0.000000000000000E+000
  0.000000000000000E+000
  0.000000000000000E+000
  0.000000000000000E+000
  0.000000000000000E+000
  0.000000000000000E+000
  0.000000000000000E+000
  0.000000000000000E+000
  0.000000000000000E+000
  0.000000000000000E+000
  0.000000000000000E+000
  0.000000000000000E+000
  0.000000000000000E+000
  0.000000000000000E+000
  0.000000000000000E+000
  0.000000000000000E+000
  0.000000000000000E+000
  0.000000000000000E+000
  0.000000000000000E+000
  0.000000000000000E+000
  0.000000000000000E+000
  0.000000000000000E+000
  0.000000000000000E+000
  0.000000000000000E+000
  0.000000000000000E+000
  0.000000000000000E+000
  0.000000000000000E+000
  0.000000000000000E+000
  0.000000000000000E+000
  0.000000000000000E+000
  0.000000000000000E+000
  0.000000000000000E+000
  0.000000000000000E+000
  0.000000000000000E+000
  0.000000000000000E+000
  0.000000000000000E+000
  0.000000000000000E+000
  0.000000000000000E+000
  0.000000000000000E+000
  0.000000000000000E+000
  0.000000000000000E+000
  0.000000000000000E+000
  0.000000000000000E+000
  0.000000000000000E+000
  0.000000000000000E+000
  0.000000000000000E+000
  0.000000000000000E+000
  0.000000000000000E+000
  0.000000000000000E+000
  0.000000000000000E+000
  0.000000000000000E+000
  0.000000000000000E+000
  0.000000000000000E+000
  0.000000000000000E+000
  0.000000000000000E+000
  0.000000000000000E+000
  0.000000000000000E+000
  0.000000000000000E+000
  0.000000000000000E+000
  0.000000000000000E+000
  0.000000000000000E+000
  0.000000000000000E+000
  0.000000000000000E+000
  0.000000000000000E+000
  0.000000000000000E+000
  0.000000000000000E+000
  0.000000000000000E+000
  0.000000000000000E+000
  0.000000000000000E+000
  0.000000000000000E+000
  0.000000000000000E+000
  0.000000000000000E+000
  0.000000000000000E+000
  0.000000000000000E+000
  0.000000000000000E+000
  0.000000000000000E+000
  0.000000000000000E+000
  0.000000000000000E+000
  0.000000000000000E+000
  0.000000000000000E+000
  0.000000000000000E+000
  0.000000000000000E+000
  0.000000000000000E+000
  0.000000000000000E+000
  0.000000000000000E+000
  0.000000000000000E+000
  0.000000000000000E+000
  0.000000000000000E+000
  0.000000000000000E+000
  0.000000000000000E+000
  0.000000000000000E+000
  0.000000000000000E+000
  0.000000000000000E+000
  0.000000000000000E+000
  0.000000000000000E+000
  0.000000000000000E+000
  0.000000000000000E+000
  0.000000000000000E+000
  0.000000000000000E+000
  0.000000000000000E+000
  0.000000000000000E+000
  0.000000000000000E+000
  0.000000000000000E+000
  0.000000000000000E+000
  0.000000000000000E+000
  0.000000000000000E+000
  0.000000000000000E+000
  0.000000000000000E+000
  0.000000000000000E+000
  0.000000000000000E+000
  0.000000000000000E+000
  0.000000000000000E+000
  0.000000000000000E+000
  0.000000000000000E+000
  0.000000000000000E+000
  0.000000000000000E+000
  0.000000000000000E+000
  0.000000000000000E+000
  0.000000000000000E+000
  0.000000000000000E+000
  0.000000000000000E+000
  0.000000000000000E+000
  0.000000000000000E+000
  0.000000000000000E+000
  0.000000000000000E+000
  0.000000000000000E+000
  0.000000000000000E+000
  0.000000000000000E+000
  0.000000000000000E+000
  0.000000000000000E+000
  0.000000000000000E+000
  0.000000000000000E+000
  0.000000000000000E+000
  0.000000000000000E+000
  0.000000000000000E+000
  0.000000000000000E+000
  0.000000000000000E+000
  0.000000000000000E+000
  0.000000000000000E+000
  0.000000000000000E+000
  0.000000000000000E+000
  0.000000000000000E+000
  0.000000000000000E+000
  0.000000000000000E+000
  0.000000000000000E+000
  0.000000000000000E+000
  0.000000000000000E+000
  0.000000000000000E+000
  0.000000000000000E+000
  0.000000000000000E+000
  0.000000000000000E+000
  0.000000000000000E+000
  0.000000000000000E+000
  0.000000000000000E+000
  0.000000000000000E+000
  0.000000000000000E+000
  0.000000000000000E+000
  0.000000000000000E+000
  0.000000000000000E+000
  0.000000000000000E+000
  0.000000000000000E+000
  0.000000000000000E+000
  0.000000000000000E+000
  0.000000000000000E+000
  0.000000000000000E+000
  0.000000000000000E+000
  0.000000000000000E+000
  0.000000000000000E+000
  0.000000000000000E+000
  0.000000000000000E+000
  0.000000000000000E+000
  0.000000000000000E+000
  0.000000000000000E+000
  0.000000000000000E+000
  0.000000000000000E+000
  0.000000000000000E+000
  0.000000000000000E+000
  0.000000000000000E+000
  0.000000000000000E+000
  0.000000000000000E+000
  0.000000000000000E+000
  0.000000000000000E+000
  0.000000000000000E+000
  0.000000000000000E+000
  0.000000000000000E+000
  0.000000000000000E+000
  0.000000000000000E+000
  0.000000000000000E+000
  0.000000000000000E+000
  0.000000000000000E+000
  0.000000000000000E+000
  0.000000000000000E+000
  0.000000000000000E+000
  0.000000000000000E+000
  0.000000000000000E+000
  0.000000000000000E+000
  0.000000000000000E+000
  0.000000000000000E+000
  0.000000000000000E+000
  0.000000000000000E+000
  0.000000000000000E+000
  0.000000000000000E+000
  0.000000000000000E+000
  0.000000000000000E+000
  0.000000000000000E+000
  0.000000000000000E+000
  0.000000000000000E+000
  0.000000000000000E+000
  0.000000000000000E+000
  0.000000000000000E+000
  0.000000000000000E+000
  0.000000000000000E+000
  0.000000000000000E+000
  0.000000000000000E+000
  0.000000000000000E+000
  0.000000000000000E+000
  0.000000000000000E+000
  0.000000000000000E+000
  0.000000000000000E+000
  0.000000000000000E+000
  0.000000000000000E+000
  0.000000000000000E+000
  0.000000000000000E+000
  0.000000000000000E+000
  0.000000000000000E+000
  0.000000000000000E+000
  0.000000000000000E+000
  0.000000000000000E+000
  0.000000000000000E+000
  0.000000000000000E+000
  0.000000000000000E+000
  0.000000000000000E+000
  0.000000000000000E+000
  0.000000000000000E+000
  0.000000000000000E+000
  0.000000000000000E+000
  0.000000000000000E+000
  0.000000000000000E+000
  0.000000000000000E+000
  0.000000000000000E+000
  0.000000000000000E+000
  0.000000000000000E+000
  0.000000000000000E+000
  0.000000000000000E+000
  0.000000000000000E+000
  0.000000000000000E+000
  0.000000000000000E+000
  0.000000000000000E+000
  0.000000000000000E+000
  0.000000000000000E+000
  0.000000000000000E+000
  0.000000000000000E+000
  0.000000000000000E+000
  0.000000000000000E+000
  0.000000000000000E+000
  0.000000000000000E+000
  0.000000000000000E+000
  0.000000000000000E+000
  0.000000000000000E+000
  0.000000000000000E+000
  0.000000000000000E+000
  0.000000000000000E+000
  0.000000000000000E+000
  0.000000000000000E+000
  0.000000000000000E+000
  0.000000000000000E+000
  0.000000000000000E+000
  0.000000000000000E+000
  0.000000000000000E+000
  0.000000000000000E+000
  0.000000000000000E+000
  0.000000000000000E+000
  0.000000000000000E+000
  0.000000000000000E+000
  0.000000000000000E+000
  0.000000000000000E+000
  0.000000000000000E+000
  0.000000000000000E+000
  0.000000000000000E+000
  0.000000000000000E+000
  0.000000000000000E+000
  0.000000000000000E+000
  0.000000000000000E+000
  0.000000000000000E+000
  0.000000000000000E+000
  0.000000000000000E+000
  0.000000000000000E+000
  0.000000000000000E+000
  0.000000000000000E+000
  0.000000000000000E+000
  0.000000000000000E+000
  0.000000000000000E+000
  0.000000000000000E+000
  0.000000000000000E+000
  0.000000000000000E+000
  0.000000000000000E+000
  0.000000000000000E+000
  0.000000000000000E+000
  0.000000000000000E+000
  0.000000000000000E+000
  0.000000000000000E+000
  0.000000000000000E+000
  0.000000000000000E+000
  0.000000000000000E+000
  0.000000000000000E+000
  0.000000000000000E+000
  0.000000000000000E+000
  0.000000000000000E+000
  0.000000000000000E+000
  0.000000000000000E+000
  0.000000000000000E+000
  0.000000000000000E+000
  0.000000000000000E+000
  0.000000000000000E+000
  0.000000000000000E+000
  0.000000000000000E+000
  0.000000000000000E+000
  0.000000000000000E+000
  0.000000000000000E+000
  0.000000000000000E+000
  0.000000000000000E+000
  0.000000000000000E+000
  0.000000000000000E+000
  0.000000000000000E+000
  0.000000000000000E+000
  0.000000000000000E+000
  0.000000000000000E+000
  0.000000000000000E+000
  0.000000000000000E+000
  0.000000000000000E+000
  0.000000000000000E+000
  0.000000000000000E+000
  0.000000000000000E+000
  0.000000000000000E+000
  0.000000000000000E+000
  0.000000000000000E+000
  0.000000000000000E+000
  0.000000000000000E+000
  0.000000000000000E+000
  0.000000000000000E+000
  0.000000000000000E+000
  0.000000000000000E+000
  0.000000000000000E+000
  0.000000000000000E+000
  0.000000000000000E+000
  0.000000000000000E+000
  0.000000000000000E+000
  0.000000000000000E+000
  0.000000000000000E+000
  0.000000000000000E+000
  0.000000000000000E+000
  0.000000000000000E+000
  0.000000000000000E+000
  0.000000000000000E+000
  0.000000000000000E+000
  0.000000000000000E+000
  0.000000000000000E+000
  0.000000000000000E+000
  0.000000000000000E+000
  0.000000000000000E+000
  0.000000000000000E+000
  0.000000000000000E+000
  0.000000000000000E+000
  0.000000000000000E+000
  0.000000000000000E+000
  0.000000000000000E+000
  0.000000000000000E+000
  0.000000000000000E+000
  0.000000000000000E+000
  0.000000000000000E+000
  0.000000000000000E+000
  0.000000000000000E+000
  0.000000000000000E+000
  0.000000000000000E+000
  0.000000000000000E+000
  0.000000000000000E+000
  0.000000000000000E+000
  0.000000000000000E+000
  0.000000000000000E+000
  0.000000000000000E+000
  0.000000000000000E+000
  0.000000000000000E+000
  0.000000000000000E+000
  0.000000000000000E+000
  0.000000000000000E+000
  0.000000000000000E+000
  0.000000000000000E+000
  0.000000000000000E+000
  0.000000000000000E+000
  0.000000000000000E+000
  0.000000000000000E+000
  0.000000000000000E+000
  0.000000000000000E+000
  0.000000000000000E+000
  0.000000000000000E+000
  0.000000000000000E+000
  0.000000000000000E+000
  0.000000000000000E+000
  0.000000000000000E+000
  0.000000000000000E+000
  0.000000000000000E+000
  0.000000000000000E+000
  0.000000000000000E+000
  0.000000000000000E+000
  0.000000000000000E+000
  0.000000000000000E+000
  0.000000000000000E+000
  0.000000000000000E+000
  0.000000000000000E+000
  0.000000000000000E+000
  0.000000000000000E+000
  0.000000000000000E+000
  0.000000000000000E+000
  0.000000000000000E+000
  0.000000000000000E+000
  0.000000000000000E+000
  0.000000000000000E+000
  0.000000000000000E+000
  0.000000000000000E+000
  0.000000000000000E+000
  0.000000000000000E+000
  0.000000000000000E+000
  0.000000000000000E+000
  0.000000000000000E+000
  0.000000000000000E+000
  0.000000000000000E+000
  0.000000000000000E+000
  0.000000000000000E+000
  0.000000000000000E+000
  0.000000000000000E+000
  0.000000000000000E+000
  0.000000000000000E+000
  0.000000000000000E+000
  0.000000000000000E+000
  0.000000000000000E+000
  0.000000000000000E+000
  0.000000000000000E+000
  0.000000000000000E+000
  0.000000000000000E+000
  0.000000000000000E+000
  0.000000000000000E+000
  0.000000000000000E+000
  0.000000000000000E+000
  0.000000000000000E+000
  0.000000000000000E+000
  0.000000000000000E+000
  0.000000000000000E+000
  0.000000000000000E+000
  0.000000000000000E+000
  0.000000000000000E+000
  0.000000000000000E+000
  0.000000000000000E+000
  0.000000000000000E+000
  0.000000000000000E+000
  0.000000000000000E+000
  0.000000000000000E+000
  0.000000000000000E+000
  0.000000000000000E+000
  0.000000000000000E+000
  0.000000000000000E+000
  0.000000000000000E+000
  0.000000000000000E+000
  0.000000000000000E+000
  0.000000000000000E+000
  0.000000000000000E+000
  0.000000000000000E+000
  0.000000000000000E+000
  0.000000000000000E+000
  0.000000000000000E+000
  0.000000000000000E+000
  0.000000000000000E+000
  0.000000000000000E+000
  0.000000000000000E+000
  0.000000000000000E+000
  0.000000000000000E+000
  0.000000000000000E+000
  0.000000000000000E+000
  0.000000000000000E+000
  0.000000000000000E+000
  0.000000000000000E+000
  0.000000000000000E+000
  0.000000000000000E+000
  0.000000000000000E+000
  0.000000000000000E+000
  0.000000000000000E+000
  0.000000000000000E+000
  0.000000000000000E+000
  0.000000000000000E+000
  0.000000000000000E+000
  0.000000000000000E+000
  0.000000000000000E+000
  0.000000000000000E+000
  0.000000000000000E+000
  0.000000000000000E+000
  0.000000000000000E+000
  0.000000000000000E+000
  0.000000000000000E+000
  0.000000000000000E+000
  0.000000000000000E+000
  0.000000000000000E+000
  0.000000000000000E+000
  0.000000000000000E+000
  0.000000000000000E+000
  0.000000000000000E+000
  0.000000000000000E+000
  0.000000000000000E+000
  0.000000000000000E+000
  0.000000000000000E+000
  0.000000000000000E+000
  0.000000000000000E+000
  0.000000000000000E+000
  0.000000000000000E+000
  0.000000000000000E+000
  0.000000000000000E+000
  0.000000000000000E+000
  0.000000000000000E+000
  0.000000000000000E+000
  0.000000000000000E+000
  0.000000000000000E+000
  0.000000000000000E+000
  0.000000000000000E+000
  0.000000000000000E+000
  0.000000000000000E+000
  0.000000000000000E+000
  0.000000000000000E+000
  0.000000000000000E+000
  0.000000000000000E+000
  0.000000000000000E+000
  0.000000000000000E+000
  0.000000000000000E+000
  0.000000000000000E+000
  0.000000000000000E+000
  0.000000000000000E+000
  0.000000000000000E+000
  0.000000000000000E+000
  0.000000000000000E+000
  0.000000000000000E+000
  0.000000000000000E+000
  0.000000000000000E+000
  0.000000000000000E+000
  0.000000000000000E+000
  0.000000000000000E+000
  0.000000000000000E+000
  0.000000000000000E+000
  0.000000000000000E+000
  0.000000000000000E+000
  0.000000000000000E+000
  0.000000000000000E+000
  0.000000000000000E+000
  0.000000000000000E+000
  0.000000000000000E+000
  0.000000000000000E+000
  0.000000000000000E+000
  0.000000000000000E+000
  0.000000000000000E+000
  0.000000000000000E+000
  0.000000000000000E+000
  0.000000000000000E+000
  0.000000000000000E+000
  0.000000000000000E+000
  0.000000000000000E+000
  0.000000000000000E+000
  0.000000000000000E+000
  0.000000000000000E+000
  0.000000000000000E+000
  0.000000000000000E+000
  0.000000000000000E+000
  0.000000000000000E+000
  0.000000000000000E+000
  0.000000000000000E+000
  0.000000000000000E+000
  0.000000000000000E+000
  0.000000000000000E+000
  0.000000000000000E+000
  0.000000000000000E+000
  0.000000000000000E+000
  0.000000000000000E+000
  0.000000000000000E+000
  0.000000000000000E+000
  0.000000000000000E+000
  0.000000000000000E+000
  0.000000000000000E+000
  0.000000000000000E+000
  0.000000000000000E+000
  0.000000000000000E+000
  0.000000000000000E+000
  0.000000000000000E+000
  0.000000000000000E+000
  0.000000000000000E+000
  0.000000000000000E+000
  0.000000000000000E+000
  0.000000000000000E+000
  0.000000000000000E+000
  0.000000000000000E+000
  0.000000000000000E+000
  0.000000000000000E+000
  0.000000000000000E+000
  0.000000000000000E+000
  0.000000000000000E+000
  0.000000000000000E+000
  0.000000000000000E+000
  0.000000000000000E+000
  0.000000000000000E+000
  0.000000000000000E+000
  0.000000000000000E+000
  0.000000000000000E+000
  0.000000000000000E+000
  0.000000000000000E+000
  0.000000000000000E+000
  0.000000000000000E+000
  0.000000000000000E+000
  0.000000000000000E+000
  0.000000000000000E+000
  0.000000000000000E+000
  0.000000000000000E+000
  0.000000000000000E+000
  0.000000000000000E+000
  0.000000000000000E+000
  0.000000000000000E+000
  0.000000000000000E+000
  0.000000000000000E+000
  0.000000000000000E+000
  0.000000000000000E+000
  0.000000000000000E+000
  0.000000000000000E+000
  0.000000000000000E+000
  0.000000000000000E+000
  0.000000000000000E+000
  0.000000000000000E+000
  0.000000000000000E+000
  0.000000000000000E+000
  0.000000000000000E+000
  0.000000000000000E+000
  0.000000000000000E+000
  0.000000000000000E+000
  0.000000000000000E+000
  0.000000000000000E+000
  0.000000000000000E+000
  0.000000000000000E+000
  0.000000000000000E+000
  0.000000000000000E+000
  0.000000000000000E+000
  0.000000000000000E+000
  0.000000000000000E+000
  0.000000000000000E+000
  0.000000000000000E+000
  0.000000000000000E+000
  0.000000000000000E+000
  0.000000000000000E+000
  0.000000000000000E+000
  0.000000000000000E+000
  0.000000000000000E+000
  0.000000000000000E+000
  0.000000000000000E+000
  0.000000000000000E+000
  0.000000000000000E+000
  0.000000000000000E+000
  0.000000000000000E+000
  0.000000000000000E+000
  0.000000000000000E+000
  0.000000000000000E+000
  0.000000000000000E+000
  0.000000000000000E+000
  0.000000000000000E+000
  0.000000000000000E+000
  0.000000000000000E+000
  0.000000000000000E+000
  0.000000000000000E+000
  0.000000000000000E+000
  0.000000000000000E+000
  0.000000000000000E+000
  0.000000000000000E+000
  0.000000000000000E+000
  0.000000000000000E+000
  0.000000000000000E+000
  0.000000000000000E+000
  0.000000000000000E+000
  0.000000000000000E+000
  0.000000000000000E+000
  0.000000000000000E+000
  0.000000000000000E+000
  0.000000000000000E+000
  0.000000000000000E+000
  0.000000000000000E+000
  0.000000000000000E+000
  0.000000000000000E+000
  0.000000000000000E+000
  0.000000000000000E+000
  0.000000000000000E+000
  0.000000000000000E+000
  0.000000000000000E+000
  0.000000000000000E+000
  0.000000000000000E+000
  0.000000000000000E+000
  0.000000000000000E+000
  0.000000000000000E+000
  0.000000000000000E+000
  0.000000000000000E+000
  0.000000000000000E+000
  0.000000000000000E+000
  0.000000000000000E+000
  0.000000000000000E+000
  0.000000000000000E+000
  0.000000000000000E+000
  0.000000000000000E+000
  0.000000000000000E+000
  0.000000000000000E+000
  0.000000000000000E+000
  0.000000000000000E+000
  0.000000000000000E+000
  0.000000000000000E+000
  0.000000000000000E+000
  0.000000000000000E+000
  0.000000000000000E+000
  0.000000000000000E+000
  0.000000000000000E+000
  0.000000000000000E+000
  0.000000000000000E+000
  0.000000000000000E+000
  0.000000000000000E+000
  0.000000000000000E+000
  0.000000000000000E+000
  0.000000000000000E+000
  0.000000000000000E+000
  0.000000000000000E+000
  0.000000000000000E+000
  0.000000000000000E+000
  0.000000000000000E+000
  0.000000000000000E+000
  0.000000000000000E+000
  0.000000000000000E+000
  0.000000000000000E+000
  0.000000000000000E+000
  0.000000000000000E+000
  0.000000000000000E+000
  0.000000000000000E+000
  0.000000000000000E+000
  0.000000000000000E+000
  0.000000000000000E+000
  0.000000000000000E+000
  0.000000000000000E+000
  0.000000000000000E+000
  0.000000000000000E+000
  0.000000000000000E+000
  0.000000000000000E+000
  0.000000000000000E+000
  0.000000000000000E+000
  0.000000000000000E+000
  0.000000000000000E+000
  0.000000000000000E+000
  0.000000000000000E+000
  0.000000000000000E+000
  0.000000000000000E+000
  0.000000000000000E+000
  0.000000000000000E+000
  0.000000000000000E+000
  0.000000000000000E+000
  0.000000000000000E+000
  0.000000000000000E+000
  0.000000000000000E+000
  0.000000000000000E+000
  0.000000000000000E+000
  0.000000000000000E+000
  0.000000000000000E+000
  0.000000000000000E+000
  0.000000000000000E+000
  0.000000000000000E+000
  0.000000000000000E+000
  0.000000000000000E+000
  0.000000000000000E+000
  0.000000000000000E+000
  0.000000000000000E+000
  0.000000000000000E+000
  0.000000000000000E+000
  0.000000000000000E+000
  0.000000000000000E+000
  0.000000000000000E+000
  0.000000000000000E+000
  0.000000000000000E+000
  0.000000000000000E+000
  0.000000000000000E+000
  0.000000000000000E+000
  0.000000000000000E+000
  0.000000000000000E+000
  0.000000000000000E+000
  0.000000000000000E+000
  0.000000000000000E+000
  0.000000000000000E+000
  0.000000000000000E+000
  0.000000000000000E+000
  0.000000000000000E+000
  0.000000000000000E+000
  0.000000000000000E+000
  0.000000000000000E+000
  0.000000000000000E+000
  0.000000000000000E+000
  0.000000000000000E+000
  0.000000000000000E+000
  0.000000000000000E+000
  0.000000000000000E+000
  0.000000000000000E+000
  0.000000000000000E+000
  0.000000000000000E+000
  0.000000000000000E+000
  0.000000000000000E+000
  0.000000000000000E+000
  0.000000000000000E+000
  0.000000000000000E+000
  0.000000000000000E+000
  0.000000000000000E+000
  0.000000000000000E+000
  0.000000000000000E+000
  0.000000000000000E+000
  0.000000000000000E+000
  0.000000000000000E+000
  0.000000000000000E+000
  0.000000000000000E+000
  0.000000000000000E+000
  0.000000000000000E+000
  0.000000000000000E+000
  0.000000000000000E+000
  0.000000000000000E+000
  0.000000000000000E+000
  0.000000000000000E+000
  0.000000000000000E+000
  0.000000000000000E+000
  0.000000000000000E+000
  0.000000000000000E+000
  0.000000000000000E+000
  0.000000000000000E+000
  0.000000000000000E+000
  0.000000000000000E+000
  0.000000000000000E+000
  0.000000000000000E+000
  0.000000000000000E+000
  0.000000000000000E+000
  0.000000000000000E+000
  0.000000000000000E+000
  0.000000000000000E+000
  0.000000000000000E+000
  0.000000000000000E+000
  0.000000000000000E+000
  0.000000000000000E+000
  0.000000000000000E+000
  0.000000000000000E+000
  0.000000000000000E+000
  0.000000000000000E+000
  0.000000000000000E+000
  0.000000000000000E+000
  0.000000000000000E+000
  0.000000000000000E+000
  0.000000000000000E+000
  0.000000000000000E+000
  0.000000000000000E+000
  0.000000000000000E+000
  0.000000000000000E+000
  0.000000000000000E+000
  0.000000000000000E+000
  0.000000000000000E+000
  0.000000000000000E+000
  0.000000000000000E+000
  0.000000000000000E+000
  0.000000000000000E+000
  0.000000000000000E+000
  0.000000000000000E+000
  0.000000000000000E+000
  0.000000000000000E+000
  0.000000000000000E+000
  0.000000000000000E+000
  0.000000000000000E+000
  0.000000000000000E+000
  0.000000000000000E+000
  0.000000000000000E+000
  0.000000000000000E+000
  0.000000000000000E+000
  0.000000000000000E+000
  0.000000000000000E+000
  0.000000000000000E+000
  0.000000000000000E+000
  0.000000000000000E+000
  0.000000000000000E+000
  0.000000000000000E+000
  0.000000000000000E+000
  0.000000000000000E+000
  0.000000000000000E+000
  0.000000000000000E+000
  0.000000000000000E+000
  0.000000000000000E+000
  0.000000000000000E+000
  0.000000000000000E+000
  0.000000000000000E+000
  0.000000000000000E+000
  0.000000000000000E+000
  0.000000000000000E+000
  0.000000000000000E+000
  0.000000000000000E+000
  0.000000000000000E+000
  0.000000000000000E+000
  0.000000000000000E+000
  0.000000000000000E+000
  0.000000000000000E+000
  0.000000000000000E+000
  0.000000000000000E+000
  0.000000000000000E+000
  0.000000000000000E+000
  0.000000000000000E+000
  0.000000000000000E+000
  0.000000000000000E+000
  0.000000000000000E+000
  0.000000000000000E+000
  0.000000000000000E+000
  0.000000000000000E+000
  0.000000000000000E+000
  0.000000000000000E+000
  0.000000000000000E+000
  0.000000000000000E+000
  0.000000000000000E+000
  0.000000000000000E+000
  0.000000000000000E+000
  0.000000000000000E+000
  0.000000000000000E+000
  0.000000000000000E+000
  0.000000000000000E+000
  0.000000000000000E+000
  0.000000000000000E+000
  0.000000000000000E+000
  0.000000000000000E+000
  0.000000000000000E+000
  0.000000000000000E+000
  0.000000000000000E+000
  0.000000000000000E+000
  0.000000000000000E+000
  0.000000000000000E+000
  0.000000000000000E+000
  0.000000000000000E+000
  0.000000000000000E+000
  0.000000000000000E+000
  0.000000000000000E+000
  0.000000000000000E+000
  0.000000000000000E+000
  0.000000000000000E+000
  0.000000000000000E+000
  0.000000000000000E+000
  0.000000000000000E+000
  0.000000000000000E+000
  0.000000000000000E+000
  0.000000000000000E+000
  0.000000000000000E+000
  0.000000000000000E+000
  0.000000000000000E+000
  0.000000000000000E+000
  0.000000000000000E+000
  0.000000000000000E+000
  0.000000000000000E+000
  0.000000000000000E+000
  0.000000000000000E+000
  0.000000000000000E+000
  0.000000000000000E+000
  0.000000000000000E+000
  0.000000000000000E+000
  0.000000000000000E+000
  0.000000000000000E+000
  0.000000000000000E+000
  0.000000000000000E+000
  0.000000000000000E+000
  0.000000000000000E+000
  0.000000000000000E+000
  0.000000000000000E+000
  0.000000000000000E+000
  0.000000000000000E+000
  0.000000000000000E+000
  0.000000000000000E+000
  0.000000000000000E+000
  0.000000000000000E+000
  0.000000000000000E+000
  0.000000000000000E+000
  0.000000000000000E+000
  0.000000000000000E+000
  0.000000000000000E+000
  0.000000000000000E+000
  0.000000000000000E+000
  0.000000000000000E+000
  0.000000000000000E+000
  0.000000000000000E+000
  0.000000000000000E+000
  0.000000000000000E+000
  0.000000000000000E+000
  0.000000000000000E+000
  0.000000000000000E+000
  0.000000000000000E+000
  0.000000000000000E+000
  0.000000000000000E+000
  0.000000000000000E+000
  0.000000000000000E+000
  0.000000000000000E+000
  0.000000000000000E+000
  0.000000000000000E+000
  0.000000000000000E+000
  0.000000000000000E+000
  0.000000000000000E+000
  0.000000000000000E+000
  0.000000000000000E+000
  0.000000000000000E+000
  0.000000000000000E+000
  0.000000000000000E+000
  0.000000000000000E+000
  0.000000000000000E+000
  0.000000000000000E+000
  0.000000000000000E+000
  0.000000000000000E+000
  0.000000000000000E+000
  0.000000000000000E+000
  0.000000000000000E+000
  0.000000000000000E+000
  0.000000000000000E+000
  0.000000000000000E+000
  0.000000000000000E+000
  0.000000000000000E+000
  0.000000000000000E+000
  0.000000000000000E+000
  0.000000000000000E+000
  0.000000000000000E+000
  0.000000000000000E+000
  0.000000000000000E+000
  0.000000000000000E+000
  0.000000000000000E+000
  0.000000000000000E+000
  0.000000000000000E+000
  0.000000000000000E+000
  0.000000000000000E+000
  0.000000000000000E+000
  0.000000000000000E+000
  0.000000000000000E+000
  0.000000000000000E+000
  0.000000000000000E+000
  0.000000000000000E+000
  0.000000000000000E+000
  0.000000000000000E+000
  0.000000000000000E+000
  0.000000000000000E+000
  0.000000000000000E+000
  0.000000000000000E+000
  0.000000000000000E+000
  0.000000000000000E+000
  0.000000000000000E+000
  0.000000000000000E+000
  0.000000000000000E+000
  0.000000000000000E+000
  0.000000000000000E+000
  0.000000000000000E+000
  0.000000000000000E+000
  0.000000000000000E+000
  0.000000000000000E+000
  0.000000000000000E+000
  0.000000000000000E+000
  0.000000000000000E+000
  0.000000000000000E+000
  0.000000000000000E+000
  0.000000000000000E+000
  0.000000000000000E+000
  0.000000000000000E+000
  0.000000000000000E+000
  0.000000000000000E+000
  0.000000000000000E+000
  0.000000000000000E+000
  0.000000000000000E+000
  0.000000000000000E+000
  0.000000000000000E+000
  0.000000000000000E+000
  0.000000000000000E+000
  0.000000000000000E+000
  0.000000000000000E+000
  0.000000000000000E+000
  0.000000000000000E+000
  0.000000000000000E+000
  0.000000000000000E+000
  0.000000000000000E+000
  0.000000000000000E+000
  0.000000000000000E+000
  0.000000000000000E+000
  0.000000000000000E+000
  0.000000000000000E+000
  0.000000000000000E+000
  0.000000000000000E+000
  0.000000000000000E+000
  0.000000000000000E+000
  0.000000000000000E+000
  0.000000000000000E+000
  0.000000000000000E+000
  0.000000000000000E+000
  0.000000000000000E+000
  0.000000000000000E+000
  0.000000000000000E+000
  0.000000000000000E+000
  0.000000000000000E+000
  0.000000000000000E+000
  0.000000000000000E+000
  0.000000000000000E+000
  0.000000000000000E+000
  0.000000000000000E+000
  0.000000000000000E+000
  0.000000000000000E+000
  0.000000000000000E+000
  0.000000000000000E+000
  0.000000000000000E+000
  0.000000000000000E+000
  0.000000000000000E+000
  0.000000000000000E+000
  0.000000000000000E+000
  0.000000000000000E+000
  0.000000000000000E+000
  0.000000000000000E+000
  0.000000000000000E+000
  0.000000000000000E+000
  0.000000000000000E+000
  0.000000000000000E+000
  0.000000000000000E+000
  0.000000000000000E+000
  0.000000000000000E+000
  0.000000000000000E+000
  0.000000000000000E+000
  0.000000000000000E+000
  0.000000000000000E+000
  0.000000000000000E+000
  0.000000000000000E+000
  0.000000000000000E+000
  0.000000000000000E+000
  0.000000000000000E+000
  0.000000000000000E+000
  0.000000000000000E+000
  0.000000000000000E+000
  0.000000000000000E+000
  0.000000000000000E+000
  0.000000000000000E+000
  0.000000000000000E+000
  0.000000000000000E+000
  0.000000000000000E+000
  0.000000000000000E+000
  0.000000000000000E+000
  0.000000000000000E+000
  0.000000000000000E+000
  0.000000000000000E+000
  0.000000000000000E+000
  0.000000000000000E+000
  0.000000000000000E+000
  0.000000000000000E+000
  0.000000000000000E+000
  0.000000000000000E+000
  0.000000000000000E+000
  0.000000000000000E+000
  0.000000000000000E+000
  0.000000000000000E+000
  0.000000000000000E+000
  0.000000000000000E+000
  0.000000000000000E+000
  0.000000000000000E+000
  0.000000000000000E+000
  0.000000000000000E+000
  0.000000000000000E+000
  0.000000000000000E+000
  0.000000000000000E+000
  0.000000000000000E+000
  0.000000000000000E+000
  0.000000000000000E+000
  0.000000000000000E+000
  0.000000000000000E+000
  0.000000000000000E+000
  0.000000000000000E+000
  0.000000000000000E+000
  0.000000000000000E+000
  0.000000000000000E+000
  0.000000000000000E+000
  0.000000000000000E+000
  0.000000000000000E+000
  0.000000000000000E+000
  0.000000000000000E+000
  0.000000000000000E+000
  0.000000000000000E+000
  0.000000000000000E+000
  0.000000000000000E+000
  0.000000000000000E+000
  0.000000000000000E+000
  0.000000000000000E+000
  0.000000000000000E+000
  0.000000000000000E+000
  0.000000000000000E+000
  0.000000000000000E+000
  0.000000000000000E+000
  0.000000000000000E+000
  0.000000000000000E+000
  0.000000000000000E+000
  0.000000000000000E+000
  0.000000000000000E+000
  0.000000000000000E+000
  0.000000000000000E+000
  0.000000000000000E+000
  0.000000000000000E+000
  0.000000000000000E+000
  0.000000000000000E+000
  0.000000000000000E+000
  0.000000000000000E+000
  0.000000000000000E+000
  0.000000000000000E+000
  0.000000000000000E+000
  0.000000000000000E+000
  0.000000000000000E+000
  0.000000000000000E+000
  0.000000000000000E+000
  0.000000000000000E+000
  0.000000000000000E+000
  0.000000000000000E+000
  0.000000000000000E+000
  0.000000000000000E+000
  0.000000000000000E+000
  0.000000000000000E+000
  0.000000000000000E+000
  0.000000000000000E+000
  0.000000000000000E+000
  0.000000000000000E+000
  0.000000000000000E+000
  0.000000000000000E+000
  0.000000000000000E+000
  0.000000000000000E+000
  0.000000000000000E+000
  0.000000000000000E+000
  0.000000000000000E+000
  0.000000000000000E+000
  0.000000000000000E+000
  0.000000000000000E+000
  0.000000000000000E+000
  0.000000000000000E+000
  0.000000000000000E+000
  0.000000000000000E+000
  0.000000000000000E+000
  0.000000000000000E+000
  0.000000000000000E+000
  0.000000000000000E+000
  0.000000000000000E+000
  0.000000000000000E+000
  0.000000000000000E+000
  0.000000000000000E+000
  0.000000000000000E+000
  0.000000000000000E+000
  0.000000000000000E+000
  0.000000000000000E+000
  0.000000000000000E+000
  0.000000000000000E+000
  0.000000000000000E+000
  0.000000000000000E+000
  0.000000000000000E+000
  0.000000000000000E+000
  0.000000000000000E+000
  0.000000000000000E+000
  0.000000000000000E+000
  0.000000000000000E+000
  0.000000000000000E+000
  0.000000000000000E+000
  0.000000000000000E+000
  0.000000000000000E+000
  0.000000000000000E+000
  0.000000000000000E+000
  0.000000000000000E+000
  0.000000000000000E+000
  0.000000000000000E+000
  0.000000000000000E+000
  0.000000000000000E+000
  0.000000000000000E+000
  0.000000000000000E+000
  0.000000000000000E+000
  0.000000000000000E+000
  0.000000000000000E+000
  0.000000000000000E+000
  0.000000000000000E+000
  0.000000000000000E+000
  0.000000000000000E+000
  0.000000000000000E+000
  0.000000000000000E+000
  0.000000000000000E+000
  0.000000000000000E+000
  0.000000000000000E+000
  0.000000000000000E+000
  0.000000000000000E+000
  0.000000000000000E+000
  0.000000000000000E+000
  0.000000000000000E+000
  0.000000000000000E+000
  0.000000000000000E+000
  0.000000000000000E+000
  0.000000000000000E+000
  0.000000000000000E+000
  0.000000000000000E+000
  0.000000000000000E+000
  0.000000000000000E+000
  0.000000000000000E+000
  0.000000000000000E+000
  0.000000000000000E+000
  0.000000000000000E+000
  0.000000000000000E+000
  0.000000000000000E+000
  0.000000000000000E+000
  0.000000000000000E+000
  0.000000000000000E+000
  0.000000000000000E+000
  0.000000000000000E+000
  0.000000000000000E+000
  0.000000000000000E+000
  0.000000000000000E+000
  0.000000000000000E+000
  0.000000000000000E+000
  0.000000000000000E+000
  0.000000000000000E+000
  0.000000000000000E+000
  0.000000000000000E+000
  0.000000000000000E+000
  0.000000000000000E+000
  0.000000000000000E+000
  0.000000000000000E+000
  0.000000000000000E+000
  0.000000000000000E+000
  0.000000000000000E+000
  0.000000000000000E+000
  0.000000000000000E+000
  0.000000000000000E+000
  0.000000000000000E+000
  0.000000000000000E+000
  0.000000000000000E+000
  0.000000000000000E+000
  0.000000000000000E+000
  0.000000000000000E+000
  0.000000000000000E+000
  0.000000000000000E+000
  0.000000000000000E+000
  0.000000000000000E+000
  0.000000000000000E+000
  0.000000000000000E+000
  0.000000000000000E+000
  0.000000000000000E+000
  0.000000000000000E+000
  0.000000000000000E+000
  0.000000000000000E+000
  0.000000000000000E+000
  0.000000000000000E+000
  0.000000000000000E+000
  0.000000000000000E+000
  0.000000000000000E+000
  0.000000000000000E+000
  0.000000000000000E+000
  0.000000000000000E+000
  0.000000000000000E+000
  0.000000000000000E+000
  0.000000000000000E+000
  0.000000000000000E+000
  0.000000000000000E+000
  0.000000000000000E+000
  0.000000000000000E+000
  0.000000000000000E+000
  0.000000000000000E+000
  0.000000000000000E+000
  0.000000000000000E+000
  0.000000000000000E+000
  0.000000000000000E+000
  0.000000000000000E+000
  0.000000000000000E+000
  0.000000000000000E+000
  0.000000000000000E+000
  0.000000000000000E+000
  0.000000000000000E+000
  0.000000000000000E+000
  0.000000000000000E+000
  0.000000000000000E+000
  0.000000000000000E+000
  0.000000000000000E+000
  0.000000000000000E+000
  0.000000000000000E+000
  0.000000000000000E+000
  0.000000000000000E+000
  0.000000000000000E+000
  0.000000000000000E+000
  0.000000000000000E+000
  0.000000000000000E+000
  0.000000000000000E+000
  0.000000000000000E+000
  0.000000000000000E+000
  0.000000000000000E+000
  0.000000000000000E+000
  0.000000000000000E+000
  0.000000000000000E+000
  0.000000000000000E+000
  0.000000000000000E+000
  0.000000000000000E+000
  0.000000000000000E+000
  0.000000000000000E+000
  0.000000000000000E+000
  0.000000000000000E+000
  0.000000000000000E+000
  0.000000000000000E+000
  0.000000000000000E+000
  0.000000000000000E+000
  0.000000000000000E+000
  0.000000000000000E+000
  0.000000000000000E+000
  0.000000000000000E+000
  0.000000000000000E+000
  0.000000000000000E+000
  0.000000000000000E+000
  0.000000000000000E+000
  0.000000000000000E+000
  0.000000000000000E+000
  0.000000000000000E+000
  0.000000000000000E+000
  0.000000000000000E+000
  0.000000000000000E+000
  0.000000000000000E+000
  0.000000000000000E+000
  0.000000000000000E+000
  0.000000000000000E+000
  0.000000000000000E+000
  0.000000000000000E+000
  0.000000000000000E+000
  0.000000000000000E+000
  0.000000000000000E+000
  0.000000000000000E+000
  0.000000000000000E+000
  0.000000000000000E+000
  0.000000000000000E+000
  0.000000000000000E+000
  0.000000000000000E+000
  0.000000000000000E+000
  0.000000000000000E+000
  0.000000000000000E+000
  0.000000000000000E+000
  0.000000000000000E+000
  0.000000000000000E+000
  0.000000000000000E+000
  0.000000000000000E+000
  0.000000000000000E+000
  0.000000000000000E+000
  0.000000000000000E+000
  0.000000000000000E+000
  0.000000000000000E+000
  0.000000000000000E+000
  0.000000000000000E+000
  0.000000000000000E+000
  0.000000000000000E+000
  0.000000000000000E+000
  0.000000000000000E+000
  0.000000000000000E+000
  0.000000000000000E+000
  0.000000000000000E+000
  0.000000000000000E+000
  0.000000000000000E+000
  0.000000000000000E+000
  0.000000000000000E+000
  0.000000000000000E+000
  0.000000000000000E+000
  0.000000000000000E+000
  0.000000000000000E+000
  0.000000000000000E+000
  0.000000000000000E+000
  0.000000000000000E+000
  0.000000000000000E+000
  0.000000000000000E+000
  0.000000000000000E+000
  0.000000000000000E+000
  0.000000000000000E+000
  0.000000000000000E+000
  0.000000000000000E+000
  0.000000000000000E+000
  0.000000000000000E+000
  0.000000000000000E+000
  0.000000000000000E+000
  0.000000000000000E+000
  0.000000000000000E+000
  0.000000000000000E+000
  0.000000000000000E+000
  0.000000000000000E+000
  0.000000000000000E+000
  0.000000000000000E+000
  0.000000000000000E+000
  0.000000000000000E+000
  0.000000000000000E+000
  0.000000000000000E+000
  0.000000000000000E+000
  0.000000000000000E+000
  0.000000000000000E+000
  0.000000000000000E+000
  0.000000000000000E+000
  0.000000000000000E+000
  0.000000000000000E+000
  0.000000000000000E+000
  0.000000000000000E+000
  0.000000000000000E+000
  0.000000000000000E+000
  0.000000000000000E+000
  0.000000000000000E+000
  0.000000000000000E+000
  0.000000000000000E+000
  0.000000000000000E+000
  0.000000000000000E+000
  0.000000000000000E+000
  0.000000000000000E+000
  0.000000000000000E+000
  0.000000000000000E+000
  0.000000000000000E+000
  0.000000000000000E+000
  0.000000000000000E+000
  0.000000000000000E+000
  0.000000000000000E+000
  0.000000000000000E+000
  0.000000000000000E+000
  0.000000000000000E+000
  0.000000000000000E+000
  0.000000000000000E+000
  0.000000000000000E+000
  0.000000000000000E+000
  0.000000000000000E+000
  0.000000000000000E+000
  0.000000000000000E+000
  0.000000000000000E+000
  0.000000000000000E+000
  0.000000000000000E+000
  0.000000000000000E+000
  0.000000000000000E+000
  0.000000000000000E+000
  0.000000000000000E+000
  0.000000000000000E+000
  0.000000000000000E+000
  0.000000000000000E+000
  0.000000000000000E+000
  0.000000000000000E+000
  0.000000000000000E+000
  0.000000000000000E+000
  0.000000000000000E+000
  0.000000000000000E+000
  0.000000000000000E+000
  0.000000000000000E+000
  0.000000000000000E+000
  0.000000000000000E+000
  0.000000000000000E+000
  0.000000000000000E+000
  0.000000000000000E+000
  0.000000000000000E+000
  0.000000000000000E+000
  0.000000000000000E+000
  0.000000000000000E+000
  0.000000000000000E+000
  0.000000000000000E+000
  0.000000000000000E+000
  0.000000000000000E+000
  0.000000000000000E+000
  0.000000000000000E+000
  0.000000000000000E+000
  0.000000000000000E+000
  0.000000000000000E+000
  0.000000000000000E+000
  0.000000000000000E+000
  0.000000000000000E+000
  0.000000000000000E+000
  0.000000000000000E+000
  0.000000000000000E+000
  0.000000000000000E+000
  0.000000000000000E+000
  0.000000000000000E+000
  0.000000000000000E+000
  0.000000000000000E+000
  0.000000000000000E+000
  0.000000000000000E+000
  0.000000000000000E+000
  0.000000000000000E+000
  0.000000000000000E+000
  0.000000000000000E+000
  0.000000000000000E+000
  0.000000000000000E+000
  0.000000000000000E+000
  0.000000000000000E+000
  0.000000000000000E+000
  0.000000000000000E+000
  0.000000000000000E+000
  0.000000000000000E+000
  0.000000000000000E+000
  0.000000000000000E+000
  0.000000000000000E+000
  0.000000000000000E+000
  0.000000000000000E+000
  0.000000000000000E+000
  0.000000000000000E+000
  0.000000000000000E+000
  0.000000000000000E+000
  0.000000000000000E+000
  0.000000000000000E+000
  0.000000000000000E+000
  0.000000000000000E+000
  0.000000000000000E+000
  0.000000000000000E+000
  0.000000000000000E+000
  0.000000000000000E+000
  0.000000000000000E+000
  0.000000000000000E+000
  0.000000000000000E+000
  0.000000000000000E+000
  0.000000000000000E+000
  0.000000000000000E+000
  0.000000000000000E+000
  0.000000000000000E+000
  0.000000000000000E+000
  0.000000000000000E+000
  0.000000000000000E+000
  0.000000000000000E+000
  0.000000000000000E+000
  0.000000000000000E+000
  0.000000000000000E+000
  0.000000000000000E+000
  0.000000000000000E+000
  0.000000000000000E+000
  0.000000000000000E+000
  0.000000000000000E+000
  0.000000000000000E+000
  0.000000000000000E+000
  0.000000000000000E+000
  0.000000000000000E+000
  0.000000000000000E+000
  0.000000000000000E+000
  0.000000000000000E+000
  0.000000000000000E+000
  0.000000000000000E+000
  0.000000000000000E+000
  0.000000000000000E+000
  0.000000000000000E+000
  0.000000000000000E+000
  0.000000000000000E+000
  0.000000000000000E+000
  0.000000000000000E+000
  0.000000000000000E+000
  0.000000000000000E+000
  0.000000000000000E+000
  0.000000000000000E+000
  0.000000000000000E+000
  0.000000000000000E+000
  0.000000000000000E+000
  0.000000000000000E+000
  0.000000000000000E+000
  0.000000000000000E+000
  0.000000000000000E+000
  0.000000000000000E+000
  0.000000000000000E+000
  0.000000000000000E+000
  0.000000000000000E+000
  0.000000000000000E+000
  0.000000000000000E+000
  0.000000000000000E+000
  0.000000000000000E+000
  0.000000000000000E+000
  0.000000000000000E+000
  0.000000000000000E+000
  0.000000000000000E+000
  0.000000000000000E+000
  0.000000000000000E+000
  0.000000000000000E+000
  0.000000000000000E+000
  0.000000000000000E+000
  0.000000000000000E+000
  0.000000000000000E+000
  0.000000000000000E+000
  0.000000000000000E+000
  0.000000000000000E+000
  0.000000000000000E+000
  0.000000000000000E+000
  0.000000000000000E+000
  0.000000000000000E+000
  0.000000000000000E+000
  0.000000000000000E+000
  0.000000000000000E+000
  0.000000000000000E+000
  0.000000000000000E+000
  0.000000000000000E+000
  0.000000000000000E+000
  0.000000000000000E+000
  0.000000000000000E+000
  0.000000000000000E+000
  0.000000000000000E+000
  0.000000000000000E+000
  0.000000000000000E+000
  0.000000000000000E+000
  0.000000000000000E+000
  0.000000000000000E+000
  0.000000000000000E+000
  0.000000000000000E+000
  0.000000000000000E+000
  0.000000000000000E+000
  0.000000000000000E+000
  0.000000000000000E+000
  0.000000000000000E+000
  0.000000000000000E+000
  0.000000000000000E+000
  0.000000000000000E+000
  0.000000000000000E+000
  0.000000000000000E+000
  0.000000000000000E+000
  0.000000000000000E+000
  0.000000000000000E+000
  0.000000000000000E+000
  0.000000000000000E+000
  0.000000000000000E+000
  0.000000000000000E+000
  0.000000000000000E+000
  0.000000000000000E+000
  0.000000000000000E+000
  0.000000000000000E+000
  0.000000000000000E+000
  0.000000000000000E+000
  0.000000000000000E+000
  0.000000000000000E+000
  0.000000000000000E+000
  0.000000000000000E+000
  0.000000000000000E+000
  0.000000000000000E+000
  0.000000000000000E+000
  0.000000000000000E+000
  0.000000000000000E+000
  0.000000000000000E+000
  0.000000000000000E+000
  0.000000000000000E+000
  0.000000000000000E+000
  0.000000000000000E+000
  0.000000000000000E+000
  0.000000000000000E+000
  0.000000000000000E+000
  0.000000000000000E+000
  0.000000000000000E+000
  0.000000000000000E+000
  0.000000000000000E+000
  0.000000000000000E+000
  0.000000000000000E+000
  0.000000000000000E+000
  0.000000000000000E+000
  0.000000000000000E+000
  0.000000000000000E+000
  0.000000000000000E+000
  0.000000000000000E+000
  0.000000000000000E+000
  0.000000000000000E+000
  0.000000000000000E+000
  0.000000000000000E+000
  0.000000000000000E+000
  0.000000000000000E+000
  0.000000000000000E+000
  0.000000000000000E+000
  0.000000000000000E+000
  0.000000000000000E+000
  0.000000000000000E+000
  0.000000000000000E+000
  0.000000000000000E+000
  0.000000000000000E+000
  0.000000000000000E+000
  0.000000000000000E+000
  0.000000000000000E+000
  0.000000000000000E+000
  0.000000000000000E+000
  0.000000000000000E+000
  0.000000000000000E+000
  0.000000000000000E+000
  0.000000000000000E+000
  0.000000000000000E+000
  0.000000000000000E+000
  0.000000000000000E+000
  0.000000000000000E+000
  0.000000000000000E+000
  0.000000000000000E+000
  0.000000000000000E+000
  0.000000000000000E+000
  0.000000000000000E+000
  0.000000000000000E+000
  0.000000000000000E+000
  0.000000000000000E+000
  0.000000000000000E+000
  0.000000000000000E+000
  0.000000000000000E+000
  0.000000000000000E+000
  0.000000000000000E+000
  0.000000000000000E+000
  0.000000000000000E+000
  0.000000000000000E+000
  0.000000000000000E+000
  0.000000000000000E+000
  0.000000000000000E+000
  0.000000000000000E+000
  0.000000000000000E+000
  0.000000000000000E+000
  0.000000000000000E+000
  0.000000000000000E+000
  0.000000000000000E+000
  0.000000000000000E+000
  0.000000000000000E+000
  0.000000000000000E+000
  0.000000000000000E+000
  0.000000000000000E+000
  0.000000000000000E+000
  0.000000000000000E+000
  0.000000000000000E+000
  0.000000000000000E+000
  0.000000000000000E+000
  0.000000000000000E+000
  0.000000000000000E+000
  0.000000000000000E+000
  0.000000000000000E+000
  0.000000000000000E+000
  0.000000000000000E+000
  0.000000000000000E+000
  0.000000000000000E+000
  0.000000000000000E+000
  0.000000000000000E+000
  0.000000000000000E+000
  0.000000000000000E+000
  0.000000000000000E+000
  0.000000000000000E+000
  0.000000000000000E+000
  0.000000000000000E+000
  0.000000000000000E+000
  0.000000000000000E+000
  0.000000000000000E+000
  0.000000000000000E+000
  0.000000000000000E+000
  0.000000000000000E+000
  0.000000000000000E+000
  0.000000000000000E+000
  0.000000000000000E+000
  0.000000000000000E+000
  0.000000000000000E+000
  0.000000000000000E+000
  0.000000000000000E+000
  0.000000000000000E+000
  0.000000000000000E+000
  0.000000000000000E+000
  0.000000000000000E+000
  0.000000000000000E+000
  0.000000000000000E+000
  0.000000000000000E+000
  0.000000000000000E+000
  0.000000000000000E+000
  0.000000000000000E+000
  0.000000000000000E+000
  0.000000000000000E+000
  0.000000000000000E+000
  0.000000000000000E+000
  0.000000000000000E+000
  0.000000000000000E+000
  0.000000000000000E+000
  0.000000000000000E+000
  0.000000000000000E+000
  0.000000000000000E+000
  0.000000000000000E+000
  0.000000000000000E+000
  0.000000000000000E+000
  0.000000000000000E+000
  0.000000000000000E+000
  0.000000000000000E+000
  0.000000000000000E+000
  0.000000000000000E+000
  0.000000000000000E+000
  0.000000000000000E+000
  0.000000000000000E+000
  0.000000000000000E+000
  0.000000000000000E+000
  0.000000000000000E+000
  0.000000000000000E+000
  0.000000000000000E+000
  0.000000000000000E+000
  0.000000000000000E+000
  0.000000000000000E+000
  0.000000000000000E+000
  0.000000000000000E+000
  0.000000000000000E+000
  0.000000000000000E+000
  0.000000000000000E+000
  0.000000000000000E+000
  0.000000000000000E+000
  0.000000000000000E+000
  0.000000000000000E+000
  0.000000000000000E+000
  0.000000000000000E+000
  0.000000000000000E+000
  0.000000000000000E+000
  0.000000000000000E+000
  0.000000000000000E+000
  0.000000000000000E+000
  0.000000000000000E+000
  0.000000000000000E+000
  0.000000000000000E+000
  0.000000000000000E+000
  0.000000000000000E+000
  0.000000000000000E+000
  0.000000000000000E+000
  0.000000000000000E+000
  0.000000000000000E+000
  0.000000000000000E+000
  0.000000000000000E+000
  0.000000000000000E+000
  0.000000000000000E+000
  0.000000000000000E+000
  0.000000000000000E+000
  0.000000000000000E+000
  0.000000000000000E+000
  0.000000000000000E+000
  0.000000000000000E+000
  0.000000000000000E+000
  0.000000000000000E+000
  0.000000000000000E+000
  0.000000000000000E+000
  0.000000000000000E+000
  0.000000000000000E+000
  0.000000000000000E+000
  0.000000000000000E+000
  0.000000000000000E+000
  0.000000000000000E+000
  0.000000000000000E+000
  0.000000000000000E+000
  0.000000000000000E+000
  0.000000000000000E+000
  0.000000000000000E+000
  0.000000000000000E+000
  0.000000000000000E+000
  0.000000000000000E+000
  0.000000000000000E+000
  0.000000000000000E+000
  0.000000000000000E+000
  0.000000000000000E+000
  0.000000000000000E+000
  0.000000000000000E+000
  0.000000000000000E+000
  0.000000000000000E+000
  0.000000000000000E+000
  0.000000000000000E+000
  0.000000000000000E+000
  0.000000000000000E+000
  0.000000000000000E+000
  0.000000000000000E+000
  0.000000000000000E+000
  0.000000000000000E+000
  0.000000000000000E+000
  0.000000000000000E+000
  0.000000000000000E+000
  0.000000000000000E+000
  0.000000000000000E+000
  0.000000000000000E+000
  0.000000000000000E+000
  0.000000000000000E+000
  0.000000000000000E+000
  0.000000000000000E+000
  0.000000000000000E+000
  0.000000000000000E+000
  0.000000000000000E+000
  0.000000000000000E+000
  0.000000000000000E+000
  0.000000000000000E+000
  0.000000000000000E+000
  0.000000000000000E+000
  0.000000000000000E+000
  0.000000000000000E+000
  0.000000000000000E+000
  0.000000000000000E+000
  0.000000000000000E+000
  0.000000000000000E+000
  0.000000000000000E+000
  0.000000000000000E+000
  0.000000000000000E+000
  0.000000000000000E+000
  0.000000000000000E+000
  0.000000000000000E+000
  0.000000000000000E+000
  0.000000000000000E+000
  0.000000000000000E+000
  0.000000000000000E+000
  0.000000000000000E+000
  0.000000000000000E+000
  0.000000000000000E+000
  0.000000000000000E+000
  0.000000000000000E+000
  0.000000000000000E+000
  0.000000000000000E+000
  0.000000000000000E+000
  0.000000000000000E+000
  0.000000000000000E+000
  0.000000000000000E+000
  0.000000000000000E+000
  0.000000000000000E+000
  0.000000000000000E+000
  0.000000000000000E+000
  0.000000000000000E+000
  0.000000000000000E+000
  0.000000000000000E+000
  0.000000000000000E+000
  0.000000000000000E+000
  0.000000000000000E+000
  0.000000000000000E+000
  0.000000000000000E+000
  0.000000000000000E+000
  0.000000000000000E+000
  0.000000000000000E+000
  0.000000000000000E+000
  0.000000000000000E+000
  0.000000000000000E+000
  0.000000000000000E+000
  0.000000000000000E+000
  0.000000000000000E+000
  0.000000000000000E+000
  0.000000000000000E+000
  0.000000000000000E+000
  0.000000000000000E+000
  0.000000000000000E+000
  0.000000000000000E+000
  0.000000000000000E+000
  0.000000000000000E+000
  0.000000000000000E+000
  0.000000000000000E+000
  0.000000000000000E+000
  0.000000000000000E+000
  0.000000000000000E+000
  0.000000000000000E+000
  0.000000000000000E+000
  0.000000000000000E+000
  0.000000000000000E+000
  0.000000000000000E+000
  0.000000000000000E+000
  0.000000000000000E+000
  0.000000000000000E+000
  0.000000000000000E+000
  0.000000000000000E+000
  0.000000000000000E+000
  0.000000000000000E+000
  0.000000000000000E+000
  0.000000000000000E+000
  0.000000000000000E+000
  0.000000000000000E+000
  0.000000000000000E+000
  0.000000000000000E+000
  0.000000000000000E+000
  0.000000000000000E+000
  0.000000000000000E+000
  0.000000000000000E+000
  0.000000000000000E+000
  0.000000000000000E+000
  0.000000000000000E+000
  0.000000000000000E+000
  0.000000000000000E+000
  0.000000000000000E+000
  0.000000000000000E+000
  0.000000000000000E+000
  0.000000000000000E+000
  0.000000000000000E+000
  0.000000000000000E+000
  0.000000000000000E+000
  0.000000000000000E+000
  0.000000000000000E+000
  0.000000000000000E+000
  0.000000000000000E+000
  0.000000000000000E+000
  0.000000000000000E+000
  0.000000000000000E+000
  0.000000000000000E+000
  0.000000000000000E+000
  0.000000000000000E+000
  0.000000000000000E+000
  0.000000000000000E+000
  0.000000000000000E+000
  0.000000000000000E+000
  0.000000000000000E+000
  0.000000000000000E+000
  0.000000000000000E+000
  0.000000000000000E+000
  0.000000000000000E+000
  0.000000000000000E+000
  0.000000000000000E+000
  0.000000000000000E+000
  0.000000000000000E+000
  0.000000000000000E+000
  0.000000000000000E+000
  0.000000000000000E+000
  0.000000000000000E+000
  0.000000000000000E+000
  0.000000000000000E+000
  0.000000000000000E+000
  0.000000000000000E+000
  0.000000000000000E+000
  0.000000000000000E+000
  0.000000000000000E+000
  0.000000000000000E+000
  0.000000000000000E+000
  0.000000000000000E+000
  0.000000000000000E+000
  0.000000000000000E+000
  0.000000000000000E+000
  0.000000000000000E+000
  0.000000000000000E+000
  0.000000000000000E+000
  0.000000000000000E+000
  0.000000000000000E+000
  0.000000000000000E+000
  0.000000000000000E+000
  0.000000000000000E+000
  0.000000000000000E+000
  0.000000000000000E+000
  0.000000000000000E+000
  0.000000000000000E+000
  0.000000000000000E+000
  0.000000000000000E+000
  0.000000000000000E+000
  0.000000000000000E+000
  0.000000000000000E+000
  0.000000000000000E+000
  0.000000000000000E+000
  0.000000000000000E+000
  0.000000000000000E+000
  0.000000000000000E+000
  0.000000000000000E+000
  0.000000000000000E+000
  0.000000000000000E+000
  0.000000000000000E+000
  0.000000000000000E+000
  0.000000000000000E+000
  0.000000000000000E+000
  0.000000000000000E+000
  0.000000000000000E+000
  0.000000000000000E+000
  0.000000000000000E+000
  0.000000000000000E+000
  0.000000000000000E+000
  0.000000000000000E+000
  0.000000000000000E+000
  0.000000000000000E+000
  0.000000000000000E+000
  0.000000000000000E+000
  0.000000000000000E+000
  0.000000000000000E+000
  0.000000000000000E+000
  0.000000000000000E+000
  0.000000000000000E+000
  0.000000000000000E+000
  0.000000000000000E+000
  0.000000000000000E+000
  0.000000000000000E+000
  0.000000000000000E+000
  0.000000000000000E+000
  0.000000000000000E+000
  0.000000000000000E+000
  0.000000000000000E+000
  0.000000000000000E+000
  0.000000000000000E+000
  0.000000000000000E+000
  0.000000000000000E+000
  0.000000000000000E+000
  0.000000000000000E+000
  0.000000000000000E+000
  0.000000000000000E+000
  0.000000000000000E+000
  0.000000000000000E+000
  0.000000000000000E+000
  0.000000000000000E+000
  0.000000000000000E+000
  0.000000000000000E+000
  0.000000000000000E+000
  0.000000000000000E+000
  0.000000000000000E+000
  0.000000000000000E+000
  0.000000000000000E+000
  0.000000000000000E+000
  0.000000000000000E+000
  0.000000000000000E+000
  0.000000000000000E+000
  0.000000000000000E+000
  0.000000000000000E+000
  0.000000000000000E+000
  0.000000000000000E+000
  0.000000000000000E+000
  0.000000000000000E+000
  0.000000000000000E+000
  0.000000000000000E+000
  0.000000000000000E+000
  0.000000000000000E+000
  0.000000000000000E+000
  0.000000000000000E+000
  0.000000000000000E+000
  0.000000000000000E+000
  0.000000000000000E+000
  0.000000000000000E+000
  0.000000000000000E+000
  0.000000000000000E+000
  0.000000000000000E+000
  0.000000000000000E+000
  0.000000000000000E+000
  0.000000000000000E+000
  0.000000000000000E+000
  0.000000000000000E+000
  0.000000000000000E+000
  0.000000000000000E+000
  0.000000000000000E+000
  0.000000000000000E+000
  0.000000000000000E+000
  0.000000000000000E+000
  0.000000000000000E+000
  0.000000000000000E+000
  0.000000000000000E+000
  0.000000000000000E+000
  0.000000000000000E+000
  0.000000000000000E+000
  0.000000000000000E+000
  0.000000000000000E+000
  0.000000000000000E+000
  0.000000000000000E+000
  0.000000000000000E+000
  0.000000000000000E+000
  0.000000000000000E+000
  0.000000000000000E+000
  0.000000000000000E+000
  0.000000000000000E+000
  0.000000000000000E+000
  0.000000000000000E+000
  0.000000000000000E+000
  0.000000000000000E+000
  0.000000000000000E+000
  0.000000000000000E+000
  0.000000000000000E+000
  0.000000000000000E+000
  0.000000000000000E+000
  0.000000000000000E+000
  0.000000000000000E+000
  0.000000000000000E+000
  0.000000000000000E+000
  0.000000000000000E+000
  0.000000000000000E+000
  0.000000000000000E+000
  0.000000000000000E+000
  0.000000000000000E+000
  0.000000000000000E+000
  0.000000000000000E+000
  0.000000000000000E+000
  0.000000000000000E+000
  0.000000000000000E+000
  0.000000000000000E+000
  0.000000000000000E+000
  0.000000000000000E+000
  0.000000000000000E+000
  0.000000000000000E+000
  0.000000000000000E+000
  0.000000000000000E+000
  0.000000000000000E+000
  0.000000000000000E+000
  0.000000000000000E+000
  0.000000000000000E+000
  0.000000000000000E+000
  0.000000000000000E+000
  0.000000000000000E+000
  0.000000000000000E+000
  0.000000000000000E+000
  0.000000000000000E+000
  0.000000000000000E+000
  0.000000000000000E+000
  0.000000000000000E+000
  0.000000000000000E+000
  0.000000000000000E+000
  0.000000000000000E+000
  0.000000000000000E+000
  0.000000000000000E+000
  0.000000000000000E+000
  0.000000000000000E+000
  0.000000000000000E+000
  0.000000000000000E+000
  0.000000000000000E+000
  0.000000000000000E+000
  0.000000000000000E+000
  0.000000000000000E+000
  0.000000000000000E+000
  0.000000000000000E+000
  0.000000000000000E+000
  0.000000000000000E+000
  0.000000000000000E+000
  0.000000000000000E+000
  0.000000000000000E+000
  0.000000000000000E+000
  0.000000000000000E+000
  0.000000000000000E+000
  0.000000000000000E+000
  0.000000000000000E+000
  0.000000000000000E+000
  0.000000000000000E+000
  0.000000000000000E+000
  0.000000000000000E+000
  0.000000000000000E+000
  0.000000000000000E+000
  0.000000000000000E+000
  0.000000000000000E+000
  0.000000000000000E+000
  0.000000000000000E+000
  0.000000000000000E+000
  0.000000000000000E+000
  0.000000000000000E+000
  0.000000000000000E+000
  0.000000000000000E+000
  0.000000000000000E+000
  0.000000000000000E+000
  0.000000000000000E+000
  0.000000000000000E+000
  0.000000000000000E+000
  0.000000000000000E+000
  0.000000000000000E+000
  0.000000000000000E+000
  0.000000000000000E+000
  0.000000000000000E+000
  0.000000000000000E+000
  0.000000000000000E+000
  0.000000000000000E+000
  0.000000000000000E+000
  0.000000000000000E+000
  0.000000000000000E+000
  0.000000000000000E+000
  0.000000000000000E+000
  0.000000000000000E+000
  0.000000000000000E+000
  0.000000000000000E+000
  0.000000000000000E+000
  0.000000000000000E+000
  0.000000000000000E+000
  0.000000000000000E+000
  0.000000000000000E+000
  0.000000000000000E+000
  0.000000000000000E+000
  0.000000000000000E+000
  0.000000000000000E+000
  0.000000000000000E+000
  0.000000000000000E+000
  0.000000000000000E+000
  0.000000000000000E+000
  0.000000000000000E+000
  0.000000000000000E+000
  0.000000000000000E+000
  0.000000000000000E+000
  0.000000000000000E+000
  0.000000000000000E+000
  0.000000000000000E+000
  0.000000000000000E+000
  0.000000000000000E+000
  0.000000000000000E+000
  0.000000000000000E+000
  0.000000000000000E+000
  0.000000000000000E+000
  0.000000000000000E+000
  0.000000000000000E+000
  0.000000000000000E+000
  0.000000000000000E+000
  0.000000000000000E+000
  0.000000000000000E+000
  0.000000000000000E+000
  0.000000000000000E+000
  0.000000000000000E+000
  0.000000000000000E+000
  0.000000000000000E+000
  0.000000000000000E+000
  0.000000000000000E+000
  0.000000000000000E+000
  0.000000000000000E+000
  0.000000000000000E+000
  0.000000000000000E+000
  0.000000000000000E+000
  0.000000000000000E+000
  0.000000000000000E+000
  0.000000000000000E+000
  0.000000000000000E+000
  0.000000000000000E+000
  0.000000000000000E+000
  0.000000000000000E+000
  0.000000000000000E+000
  0.000000000000000E+000
  0.000000000000000E+000
  0.000000000000000E+000
  0.000000000000000E+000
  0.000000000000000E+000
  0.000000000000000E+000
  0.000000000000000E+000
  0.000000000000000E+000
  0.000000000000000E+000
  0.000000000000000E+000
  0.000000000000000E+000
  0.000000000000000E+000
  0.000000000000000E+000
  0.000000000000000E+000
  0.000000000000000E+000
  0.000000000000000E+000
  0.000000000000000E+000
  0.000000000000000E+000
  0.000000000000000E+000
  0.000000000000000E+000
  0.000000000000000E+000
  0.000000000000000E+000
  0.000000000000000E+000
  0.000000000000000E+000
  0.000000000000000E+000
  0.000000000000000E+000
  0.000000000000000E+000
  0.000000000000000E+000
  0.000000000000000E+000
  0.000000000000000E+000
  0.000000000000000E+000
  0.000000000000000E+000
  0.000000000000000E+000
  0.000000000000000E+000
  0.000000000000000E+000
  0.000000000000000E+000
  0.000000000000000E+000
  0.000000000000000E+000
  0.000000000000000E+000
  0.000000000000000E+000
  0.000000000000000E+000
  0.000000000000000E+000
  0.000000000000000E+000
  0.000000000000000E+000
  0.000000000000000E+000
  0.000000000000000E+000
  0.000000000000000E+000
  0.000000000000000E+000
  0.000000000000000E+000
  0.000000000000000E+000
  0.000000000000000E+000
  0.000000000000000E+000
  0.000000000000000E+000
  0.000000000000000E+000
  0.000000000000000E+000
  0.000000000000000E+000
  0.000000000000000E+000
  0.000000000000000E+000
  0.000000000000000E+000
  0.000000000000000E+000
  0.000000000000000E+000
  0.000000000000000E+000
  0.000000000000000E+000
  0.000000000000000E+000
  0.000000000000000E+000
  0.000000000000000E+000
  0.000000000000000E+000
  0.000000000000000E+000
  0.000000000000000E+000
  0.000000000000000E+000
  0.000000000000000E+000
  0.000000000000000E+000
  0.000000000000000E+000
  0.000000000000000E+000
  0.000000000000000E+000
  0.000000000000000E+000
  0.000000000000000E+000
  0.000000000000000E+000
  0.000000000000000E+000
  0.000000000000000E+000
  0.000000000000000E+000
  0.000000000000000E+000
  0.000000000000000E+000
  0.000000000000000E+000
  0.000000000000000E+000
  0.000000000000000E+000
  0.000000000000000E+000
  0.000000000000000E+000
  0.000000000000000E+000
  0.000000000000000E+000
  0.000000000000000E+000
  0.000000000000000E+000
  0.000000000000000E+000
  0.000000000000000E+000
  0.000000000000000E+000
  0.000000000000000E+000
  0.000000000000000E+000
  0.000000000000000E+000
  0.000000000000000E+000
  0.000000000000000E+000
  0.000000000000000E+000
  0.000000000000000E+000
  0.000000000000000E+000
  0.000000000000000E+000
  0.000000000000000E+000
  0.000000000000000E+000
  0.000000000000000E+000
  0.000000000000000E+000
  0.000000000000000E+000
  0.000000000000000E+000
  0.000000000000000E+000
  0.000000000000000E+000
  0.000000000000000E+000
  0.000000000000000E+000
  0.000000000000000E+000
  0.000000000000000E+000
  0.000000000000000E+000
  0.000000000000000E+000
  0.000000000000000E+000
  0.000000000000000E+000
  0.000000000000000E+000
  0.000000000000000E+000
  0.000000000000000E+000
  0.000000000000000E+000
  0.000000000000000E+000
  0.000000000000000E+000
  0.000000000000000E+000
  0.000000000000000E+000
  0.000000000000000E+000
  0.000000000000000E+000
  0.000000000000000E+000
  0.000000000000000E+000
  0.000000000000000E+000
  0.000000000000000E+000
  0.000000000000000E+000
  0.000000000000000E+000
  0.000000000000000E+000
  0.000000000000000E+000
  0.000000000000000E+000
  0.000000000000000E+000
  0.000000000000000E+000
  0.000000000000000E+000
  0.000000000000000E+000
  0.000000000000000E+000
  0.000000000000000E+000
  0.000000000000000E+000
  0.000000000000000E+000
  0.000000000000000E+000
  0.000000000000000E+000
  0.000000000000000E+000
  0.000000000000000E+000
  0.000000000000000E+000
  0.000000000000000E+000
  0.000000000000000E+000
  0.000000000000000E+000
  0.000000000000000E+000
  0.000000000000000E+000
  0.000000000000000E+000
  0.000000000000000E+000
  0.000000000000000E+000
  0.000000000000000E+000
  0.000000000000000E+000
  0.000000000000000E+000
  0.000000000000000E+000
  0.000000000000000E+000
  0.000000000000000E+000
  0.000000000000000E+000
  0.000000000000000E+000
  0.000000000000000E+000
  0.000000000000000E+000
  0.000000000000000E+000
  0.000000000000000E+000
  0.000000000000000E+000
  0.000000000000000E+000
  0.000000000000000E+000
  0.000000000000000E+000
  0.000000000000000E+000
  0.000000000000000E+000
  0.000000000000000E+000
  0.000000000000000E+000
  0.000000000000000E+000
  0.000000000000000E+000
  0.000000000000000E+000
  0.000000000000000E+000
  0.000000000000000E+000
  0.000000000000000E+000
  0.000000000000000E+000
  0.000000000000000E+000
  0.000000000000000E+000
  0.000000000000000E+000
  0.000000000000000E+000
  0.000000000000000E+000
  0.000000000000000E+000
  0.000000000000000E+000
  0.000000000000000E+000
  0.000000000000000E+000
  0.000000000000000E+000
  0.000000000000000E+000
  0.000000000000000E+000
  0.000000000000000E+000
  0.000000000000000E+000
  0.000000000000000E+000
  0.000000000000000E+000
  0.000000000000000E+000
  0.000000000000000E+000
  0.000000000000000E+000
  0.000000000000000E+000
  0.000000000000000E+000
  0.000000000000000E+000
  0.000000000000000E+000
  0.000000000000000E+000
  0.000000000000000E+000
  0.000000000000000E+000
  0.000000000000000E+000
  0.000000000000000E+000
  0.000000000000000E+000
  0.000000000000000E+000
  0.000000000000000E+000
  0.000000000000000E+000
  0.000000000000000E+000
  0.000000000000000E+000
  0.000000000000000E+000
  0.000000000000000E+000
  0.000000000000000E+000
  0.000000000000000E+000
  0.000000000000000E+000
  0.000000000000000E+000
  0.000000000000000E+000
  0.000000000000000E+000
  0.000000000000000E+000
  0.000000000000000E+000
  0.000000000000000E+000
  0.000000000000000E+000
  0.000000000000000E+000
  0.000000000000000E+000
  0.000000000000000E+000
  0.000000000000000E+000
  0.000000000000000E+000
  0.000000000000000E+000
  0.000000000000000E+000
  0.000000000000000E+000
  0.000000000000000E+000
  0.000000000000000E+000
  0.000000000000000E+000
  0.000000000000000E+000
  0.000000000000000E+000
  0.000000000000000E+000
  0.000000000000000E+000
  0.000000000000000E+000
  0.000000000000000E+000
  0.000000000000000E+000
  0.000000000000000E+000
  0.000000000000000E+000
  0.000000000000000E+000
  0.000000000000000E+000
  0.000000000000000E+000
  0.000000000000000E+000
  0.000000000000000E+000
  0.000000000000000E+000
  0.000000000000000E+000
  0.000000000000000E+000
  0.000000000000000E+000
  0.000000000000000E+000
  0.000000000000000E+000
  0.000000000000000E+000
  0.000000000000000E+000
  0.000000000000000E+000
  0.000000000000000E+000
  0.000000000000000E+000
  0.000000000000000E+000
  0.000000000000000E+000
  0.000000000000000E+000
  0.000000000000000E+000
  0.000000000000000E+000
  0.000000000000000E+000
  0.000000000000000E+000
  0.000000000000000E+000
  0.000000000000000E+000
  0.000000000000000E+000
  0.000000000000000E+000
  0.000000000000000E+000
  0.000000000000000E+000
  0.000000000000000E+000
  0.000000000000000E+000
  0.000000000000000E+000
  0.000000000000000E+000
  0.000000000000000E+000
  0.000000000000000E+000
  0.000000000000000E+000
  0.000000000000000E+000
  0.000000000000000E+000
  0.000000000000000E+000
  0.000000000000000E+000
  0.000000000000000E+000
  0.000000000000000E+000
  0.000000000000000E+000
  0.000000000000000E+000
  0.000000000000000E+000
  0.000000000000000E+000
  0.000000000000000E+000
  0.000000000000000E+000
  0.000000000000000E+000
  0.000000000000000E+000
  0.000000000000000E+000
  0.000000000000000E+000
  0.000000000000000E+000
  0.000000000000000E+000
  0.000000000000000E+000
  0.000000000000000E+000
  0.000000000000000E+000
  0.000000000000000E+000
  0.000000000000000E+000
  0.000000000000000E+000
  0.000000000000000E+000
  0.000000000000000E+000
  0.000000000000000E+000
  0.000000000000000E+000
  0.000000000000000E+000
  0.000000000000000E+000
  0.000000000000000E+000
  0.000000000000000E+000
  0.000000000000000E+000
  0.000000000000000E+000
  0.000000000000000E+000
  0.000000000000000E+000
  0.000000000000000E+000
  0.000000000000000E+000
  0.000000000000000E+000
  0.000000000000000E+000
  0.000000000000000E+000
  0.000000000000000E+000
  0.000000000000000E+000
  0.000000000000000E+000
  0.000000000000000E+000
  0.000000000000000E+000
  0.000000000000000E+000
  0.000000000000000E+000
  0.000000000000000E+000
  0.000000000000000E+000
  0.000000000000000E+000
  0.000000000000000E+000
  0.000000000000000E+000
  0.000000000000000E+000
  0.000000000000000E+000
  0.000000000000000E+000
  0.000000000000000E+000
  0.000000000000000E+000
  0.000000000000000E+000
  0.000000000000000E+000
  0.000000000000000E+000
  0.000000000000000E+000
  0.000000000000000E+000
  0.000000000000000E+000
  0.000000000000000E+000
  0.000000000000000E+000
  0.000000000000000E+000
  0.000000000000000E+000
  0.000000000000000E+000
  0.000000000000000E+000
  0.000000000000000E+000
  0.000000000000000E+000
  0.000000000000000E+000
  0.000000000000000E+000
  0.000000000000000E+000
  0.000000000000000E+000
  0.000000000000000E+000
  0.000000000000000E+000
  0.000000000000000E+000
  0.000000000000000E+000
  0.000000000000000E+000
  0.000000000000000E+000
  0.000000000000000E+000
  0.000000000000000E+000
  0.000000000000000E+000
  0.000000000000000E+000
  0.000000000000000E+000
  0.000000000000000E+000
  0.000000000000000E+000
  0.000000000000000E+000
  0.000000000000000E+000
  0.000000000000000E+000
  0.000000000000000E+000
  0.000000000000000E+000
  0.000000000000000E+000
  0.000000000000000E+000
  0.000000000000000E+000
  0.000000000000000E+000
  0.000000000000000E+000
  0.000000000000000E+000
  0.000000000000000E+000
  0.000000000000000E+000
  0.000000000000000E+000
  0.000000000000000E+000
  0.000000000000000E+000
  0.000000000000000E+000
  0.000000000000000E+000
  0.000000000000000E+000
  0.000000000000000E+000
  0.000000000000000E+000
  0.000000000000000E+000
  0.000000000000000E+000
  0.000000000000000E+000
  0.000000000000000E+000
  0.000000000000000E+000
  0.000000000000000E+000
  0.000000000000000E+000
  0.000000000000000E+000
  0.000000000000000E+000
  0.000000000000000E+000
  0.000000000000000E+000
  0.000000000000000E+000
  0.000000000000000E+000
  0.000000000000000E+000
  0.000000000000000E+000
  0.000000000000000E+000
  0.000000000000000E+000
  0.000000000000000E+000
  0.000000000000000E+000
  0.000000000000000E+000
  0.000000000000000E+000
  0.000000000000000E+000
  0.000000000000000E+000
  0.000000000000000E+000
  0.000000000000000E+000
  0.000000000000000E+000
  0.000000000000000E+000
  0.000000000000000E+000
  0.000000000000000E+000
  0.000000000000000E+000
  0.000000000000000E+000
  0.000000000000000E+000
  0.000000000000000E+000
  0.000000000000000E+000
  0.000000000000000E+000
  0.000000000000000E+000
  0.000000000000000E+000
  0.000000000000000E+000
  0.000000000000000E+000
  0.000000000000000E+000
  0.000000000000000E+000
  0.000000000000000E+000
  0.000000000000000E+000
  0.000000000000000E+000
  0.000000000000000E+000
  0.000000000000000E+000
  0.000000000000000E+000
  0.000000000000000E+000
  0.000000000000000E+000
  0.000000000000000E+000
  0.000000000000000E+000
  0.000000000000000E+000
  0.000000000000000E+000
  0.000000000000000E+000
  0.000000000000000E+000
  0.000000000000000E+000
  0.000000000000000E+000
  0.000000000000000E+000
  0.000000000000000E+000
  0.000000000000000E+000
  0.000000000000000E+000
  0.000000000000000E+000
  0.000000000000000E+000
  0.000000000000000E+000
  0.000000000000000E+000
  0.000000000000000E+000
  0.000000000000000E+000
  0.000000000000000E+000
  0.000000000000000E+000
  0.000000000000000E+000
  0.000000000000000E+000
  0.000000000000000E+000
  0.000000000000000E+000
  0.000000000000000E+000
  0.000000000000000E+000
  0.000000000000000E+000
  0.000000000000000E+000
  0.000000000000000E+000
  0.000000000000000E+000
  0.000000000000000E+000
  0.000000000000000E+000
  0.000000000000000E+000
  0.000000000000000E+000
  0.000000000000000E+000
  0.000000000000000E+000
  0.000000000000000E+000
  0.000000000000000E+000
  0.000000000000000E+000
  0.000000000000000E+000
  0.000000000000000E+000
  0.000000000000000E+000
  0.000000000000000E+000
  0.000000000000000E+000
  0.000000000000000E+000
  0.000000000000000E+000
  0.000000000000000E+000
  0.000000000000000E+000
  0.000000000000000E+000
  0.000000000000000E+000
  0.000000000000000E+000
  0.000000000000000E+000
  0.000000000000000E+000
  0.000000000000000E+000
  0.000000000000000E+000
  0.000000000000000E+000
  0.000000000000000E+000
  0.000000000000000E+000
  0.000000000000000E+000
  0.000000000000000E+000
  0.000000000000000E+000
  0.000000000000000E+000
  0.000000000000000E+000
  0.000000000000000E+000
  0.000000000000000E+000
  0.000000000000000E+000
  0.000000000000000E+000
  0.000000000000000E+000
  0.000000000000000E+000
  0.000000000000000E+000
  0.000000000000000E+000
  0.000000000000000E+000
  0.000000000000000E+000
  0.000000000000000E+000
  0.000000000000000E+000
  0.000000000000000E+000
  0.000000000000000E+000
  0.000000000000000E+000
  0.000000000000000E+000
  0.000000000000000E+000
  0.000000000000000E+000
  0.000000000000000E+000
  0.000000000000000E+000
  0.000000000000000E+000
  0.000000000000000E+000
  0.000000000000000E+000
  0.000000000000000E+000
  0.000000000000000E+000
  0.000000000000000E+000
  0.000000000000000E+000
  0.000000000000000E+000
  0.000000000000000E+000
  0.000000000000000E+000
  0.000000000000000E+000
  0.000000000000000E+000
  0.000000000000000E+000
  0.000000000000000E+000
  0.000000000000000E+000
  0.000000000000000E+000
  0.000000000000000E+000
  0.000000000000000E+000
  0.000000000000000E+000
  0.000000000000000E+000
  0.000000000000000E+000
  0.000000000000000E+000
  0.000000000000000E+000
  0.000000000000000E+000
  0.000000000000000E+000
  0.000000000000000E+000
  0.000000000000000E+000
  0.000000000000000E+000
  0.000000000000000E+000
  0.000000000000000E+000
  0.000000000000000E+000
  0.000000000000000E+000
  0.000000000000000E+000
  0.000000000000000E+000
  0.000000000000000E+000
  0.000000000000000E+000
  0.000000000000000E+000
  0.000000000000000E+000
  0.000000000000000E+000
  0.000000000000000E+000
  0.000000000000000E+000
  0.000000000000000E+000
  0.000000000000000E+000
  0.000000000000000E+000
  0.000000000000000E+000
  0.000000000000000E+000
  0.000000000000000E+000
  0.000000000000000E+000
  0.000000000000000E+000
  0.000000000000000E+000
  0.000000000000000E+000
  0.000000000000000E+000
  0.000000000000000E+000
  0.000000000000000E+000
  0.000000000000000E+000
  0.000000000000000E+000
  0.000000000000000E+000
  0.000000000000000E+000
  0.000000000000000E+000
  0.000000000000000E+000
  0.000000000000000E+000
  0.000000000000000E+000
  0.000000000000000E+000
  0.000000000000000E+000
  0.000000000000000E+000
  0.000000000000000E+000
  0.000000000000000E+000
  0.000000000000000E+000
  0.000000000000000E+000
  0.000000000000000E+000
  0.000000000000000E+000
  0.000000000000000E+000
  0.000000000000000E+000
  0.000000000000000E+000
  0.000000000000000E+000
  0.000000000000000E+000
  0.000000000000000E+000
  0.000000000000000E+000
  0.000000000000000E+000
  0.000000000000000E+000
  0.000000000000000E+000
  0.000000000000000E+000
  0.000000000000000E+000
  0.000000000000000E+000
  0.000000000000000E+000
  0.000000000000000E+000
  0.000000000000000E+000
  0.000000000000000E+000
  0.000000000000000E+000
  0.000000000000000E+000
  0.000000000000000E+000
  0.000000000000000E+000
  0.000000000000000E+000
  0.000000000000000E+000
  0.000000000000000E+000
  0.000000000000000E+000
  0.000000000000000E+000
  0.000000000000000E+000
  0.000000000000000E+000
  0.000000000000000E+000
  0.000000000000000E+000
  0.000000000000000E+000
  0.000000000000000E+000
  0.000000000000000E+000
  0.000000000000000E+000
  0.000000000000000E+000
  0.000000000000000E+000
  0.000000000000000E+000
  0.000000000000000E+000
  0.000000000000000E+000
  0.000000000000000E+000
  0.000000000000000E+000
  0.000000000000000E+000
  0.000000000000000E+000
  0.000000000000000E+000
  0.000000000000000E+000
  0.000000000000000E+000
  0.000000000000000E+000
  0.000000000000000E+000
  0.000000000000000E+000
  0.000000000000000E+000
  0.000000000000000E+000
  0.000000000000000E+000
  0.000000000000000E+000
  0.000000000000000E+000
  0.000000000000000E+000
  0.000000000000000E+000
  0.000000000000000E+000
  0.000000000000000E+000
  0.000000000000000E+000
  0.000000000000000E+000
  0.000000000000000E+000
  0.000000000000000E+000
  0.000000000000000E+000
  0.000000000000000E+000
  0.000000000000000E+000
  0.000000000000000E+000
  0.000000000000000E+000
  0.000000000000000E+000
  0.000000000000000E+000
  0.000000000000000E+000
  0.000000000000000E+000
  0.000000000000000E+000
  0.000000000000000E+000
  0.000000000000000E+000
  0.000000000000000E+000
  0.000000000000000E+000
  0.000000000000000E+000
  0.000000000000000E+000
  0.000000000000000E+000
  0.000000000000000E+000
  0.000000000000000E+000
  0.000000000000000E+000
  0.000000000000000E+000
  0.000000000000000E+000
  0.000000000000000E+000
  0.000000000000000E+000
  0.000000000000000E+000
  0.000000000000000E+000
  0.000000000000000E+000
  0.000000000000000E+000
  0.000000000000000E+000
  0.000000000000000E+000
  0.000000000000000E+000
  0.000000000000000E+000
  0.000000000000000E+000
  0.000000000000000E+000
  0.000000000000000E+000
  0.000000000000000E+000
  0.000000000000000E+000
  0.000000000000000E+000
  0.000000000000000E+000
  0.000000000000000E+000
  0.000000000000000E+000
  0.000000000000000E+000
  0.000000000000000E+000
  0.000000000000000E+000
  0.000000000000000E+000
  0.000000000000000E+000
  0.000000000000000E+000
  0.000000000000000E+000
  0.000000000000000E+000
  0.000000000000000E+000
  0.000000000000000E+000
  0.000000000000000E+000
  0.000000000000000E+000
  0.000000000000000E+000
  0.000000000000000E+000
  0.000000000000000E+000
  0.000000000000000E+000
  0.000000000000000E+000
  0.000000000000000E+000
  0.000000000000000E+000
  0.000000000000000E+000
  0.000000000000000E+000
  0.000000000000000E+000
  0.000000000000000E+000
  0.000000000000000E+000
  0.000000000000000E+000
  0.000000000000000E+000
  0.000000000000000E+000
  0.000000000000000E+000
  0.000000000000000E+000
  0.000000000000000E+000
  0.000000000000000E+000
  0.000000000000000E+000
  0.000000000000000E+000
  0.000000000000000E+000
  0.000000000000000E+000
  0.000000000000000E+000
  0.000000000000000E+000
  0.000000000000000E+000
  0.000000000000000E+000
  0.000000000000000E+000
  0.000000000000000E+000
  0.000000000000000E+000
  0.000000000000000E+000
  0.000000000000000E+000
  0.000000000000000E+000
  0.000000000000000E+000
  0.000000000000000E+000
  0.000000000000000E+000
  0.000000000000000E+000
  0.000000000000000E+000
  0.000000000000000E+000
  0.000000000000000E+000
  0.000000000000000E+000
  0.000000000000000E+000
  0.000000000000000E+000
  0.000000000000000E+000
  0.000000000000000E+000
  0.000000000000000E+000
  0.000000000000000E+000
  0.000000000000000E+000
  0.000000000000000E+000
  0.000000000000000E+000
  0.000000000000000E+000
  0.000000000000000E+000
  0.000000000000000E+000
  0.000000000000000E+000
  0.000000000000000E+000
  0.000000000000000E+000
  0.000000000000000E+000
  0.000000000000000E+000
  0.000000000000000E+000
  0.000000000000000E+000
  0.000000000000000E+000
  0.000000000000000E+000
  0.000000000000000E+000
  0.000000000000000E+000
  0.000000000000000E+000
  0.000000000000000E+000
  0.000000000000000E+000
  0.000000000000000E+000
  0.000000000000000E+000
  0.000000000000000E+000
  0.000000000000000E+000
  0.000000000000000E+000
  0.000000000000000E+000
  0.000000000000000E+000
  0.000000000000000E+000
  0.000000000000000E+000
  0.000000000000000E+000
  0.000000000000000E+000
  0.000000000000000E+000
  0.000000000000000E+000
  0.000000000000000E+000
  0.000000000000000E+000
  0.000000000000000E+000
  0.000000000000000E+000
  0.000000000000000E+000
  0.000000000000000E+000
  0.000000000000000E+000
  0.000000000000000E+000
  0.000000000000000E+000
  0.000000000000000E+000
  0.000000000000000E+000
  0.000000000000000E+000
  0.000000000000000E+000
  0.000000000000000E+000
  0.000000000000000E+000
  0.000000000000000E+000
  0.000000000000000E+000
  0.000000000000000E+000
  0.000000000000000E+000
  0.000000000000000E+000
  0.000000000000000E+000
  0.000000000000000E+000
  0.000000000000000E+000
  0.000000000000000E+000
  0.000000000000000E+000
  0.000000000000000E+000
  0.000000000000000E+000
  0.000000000000000E+000
  0.000000000000000E+000
  0.000000000000000E+000
  0.000000000000000E+000
  0.000000000000000E+000
  0.000000000000000E+000
  0.000000000000000E+000
  0.000000000000000E+000
  0.000000000000000E+000
  0.000000000000000E+000
  0.000000000000000E+000
  0.000000000000000E+000
  0.000000000000000E+000
  0.000000000000000E+000
  0.000000000000000E+000
  0.000000000000000E+000
  0.000000000000000E+000
  0.000000000000000E+000
  0.000000000000000E+000
  0.000000000000000E+000
  0.000000000000000E+000
  0.000000000000000E+000
  0.000000000000000E+000
  0.000000000000000E+000
  0.000000000000000E+000
  0.000000000000000E+000
  0.000000000000000E+000
  0.000000000000000E+000
  0.000000000000000E+000
  0.000000000000000E+000
  0.000000000000000E+000
  0.000000000000000E+000
  0.000000000000000E+000
  0.000000000000000E+000
  0.000000000000000E+000
  0.000000000000000E+000
  0.000000000000000E+000
  0.000000000000000E+000
  0.000000000000000E+000
  0.000000000000000E+000
  0.000000000000000E+000
  0.000000000000000E+000
  0.000000000000000E+000
  0.000000000000000E+000
  0.000000000000000E+000
  0.000000000000000E+000
  0.000000000000000E+000
  0.000000000000000E+000
  0.000000000000000E+000
  0.000000000000000E+000
  0.000000000000000E+000
  0.000000000000000E+000
  0.000000000000000E+000
  0.000000000000000E+000
  0.000000000000000E+000
  0.000000000000000E+000
  0.000000000000000E+000
  0.000000000000000E+000
  0.000000000000000E+000
  0.000000000000000E+000
  0.000000000000000E+000
  0.000000000000000E+000
  0.000000000000000E+000
  0.000000000000000E+000
  0.000000000000000E+000
  0.000000000000000E+000
  0.000000000000000E+000
  0.000000000000000E+000
  0.000000000000000E+000
  0.000000000000000E+000
  0.000000000000000E+000
  0.000000000000000E+000
  0.000000000000000E+000
  0.000000000000000E+000
  0.000000000000000E+000
  0.000000000000000E+000
  0.000000000000000E+000
  0.000000000000000E+000
  0.000000000000000E+000
  0.000000000000000E+000
  0.000000000000000E+000
  0.000000000000000E+000
  0.000000000000000E+000
  0.000000000000000E+000
  0.000000000000000E+000
  0.000000000000000E+000
  0.000000000000000E+000
  0.000000000000000E+000
  0.000000000000000E+000
  0.000000000000000E+000
  0.000000000000000E+000
  0.000000000000000E+000
  0.000000000000000E+000
  0.000000000000000E+000
  0.000000000000000E+000
  0.000000000000000E+000
  0.000000000000000E+000
  0.000000000000000E+000
  0.000000000000000E+000
  0.000000000000000E+000
  0.000000000000000E+000
  0.000000000000000E+000
  0.000000000000000E+000
  0.000000000000000E+000
  0.000000000000000E+000
  0.000000000000000E+000
  0.000000000000000E+000
  0.000000000000000E+000
  0.000000000000000E+000
  0.000000000000000E+000
  0.000000000000000E+000
  0.000000000000000E+000
  0.000000000000000E+000
  0.000000000000000E+000
  0.000000000000000E+000
  0.000000000000000E+000
  0.000000000000000E+000
  0.000000000000000E+000
  0.000000000000000E+000
  0.000000000000000E+000
  0.000000000000000E+000
  0.000000000000000E+000
  0.000000000000000E+000
  0.000000000000000E+000
  0.000000000000000E+000
  0.000000000000000E+000
  0.000000000000000E+000
  0.000000000000000E+000
  0.000000000000000E+000
  0.000000000000000E+000
  0.000000000000000E+000
  0.000000000000000E+000
  0.000000000000000E+000
  0.000000000000000E+000
  0.000000000000000E+000
  0.000000000000000E+000
  0.000000000000000E+000
  0.000000000000000E+000
  0.000000000000000E+000
  0.000000000000000E+000
  0.000000000000000E+000
  0.000000000000000E+000
  0.000000000000000E+000
  0.000000000000000E+000
  0.000000000000000E+000
  0.000000000000000E+000
  0.000000000000000E+000
  0.000000000000000E+000
  0.000000000000000E+000
  0.000000000000000E+000
  0.000000000000000E+000
  0.000000000000000E+000
  0.000000000000000E+000
  0.000000000000000E+000
  0.000000000000000E+000
  0.000000000000000E+000
  0.000000000000000E+000
  0.000000000000000E+000
  0.000000000000000E+000
  0.000000000000000E+000
  0.000000000000000E+000
  0.000000000000000E+000
  0.000000000000000E+000
  0.000000000000000E+000
  0.000000000000000E+000
  0.000000000000000E+000
  0.000000000000000E+000
  0.000000000000000E+000
  0.000000000000000E+000
  0.000000000000000E+000
  0.000000000000000E+000
  0.000000000000000E+000
  0.000000000000000E+000
  0.000000000000000E+000
  0.000000000000000E+000
  0.000000000000000E+000
  0.000000000000000E+000
  0.000000000000000E+000
  0.000000000000000E+000
  0.000000000000000E+000
  0.000000000000000E+000
  0.000000000000000E+000
  0.000000000000000E+000
  0.000000000000000E+000
  0.000000000000000E+000
  0.000000000000000E+000
  0.000000000000000E+000
  0.000000000000000E+000
  0.000000000000000E+000
  0.000000000000000E+000
  0.000000000000000E+000
  0.000000000000000E+000
  0.000000000000000E+000
  0.000000000000000E+000
  0.000000000000000E+000
  0.000000000000000E+000
  0.000000000000000E+000
  0.000000000000000E+000
  0.000000000000000E+000
  0.000000000000000E+000
  0.000000000000000E+000
  0.000000000000000E+000
  0.000000000000000E+000
  0.000000000000000E+000
  0.000000000000000E+000
  0.000000000000000E+000
  0.000000000000000E+000
  0.000000000000000E+000
  0.000000000000000E+000
  0.000000000000000E+000
  0.000000000000000E+000
  0.000000000000000E+000
  0.000000000000000E+000
  0.000000000000000E+000
  0.000000000000000E+000
  0.000000000000000E+000
  0.000000000000000E+000
  0.000000000000000E+000
  0.000000000000000E+000
  0.000000000000000E+000
  0.000000000000000E+000
  0.000000000000000E+000
  0.000000000000000E+000
  0.000000000000000E+000
  0.000000000000000E+000
  0.000000000000000E+000
  0.000000000000000E+000
  0.000000000000000E+000
  0.000000000000000E+000
  0.000000000000000E+000
  0.000000000000000E+000
  0.000000000000000E+000
  0.000000000000000E+000
  0.000000000000000E+000
  0.000000000000000E+000
  0.000000000000000E+000
  0.000000000000000E+000
  0.000000000000000E+000
  0.000000000000000E+000
  0.000000000000000E+000
  0.000000000000000E+000
  0.000000000000000E+000
  0.000000000000000E+000
  0.000000000000000E+000
  0.000000000000000E+000
  0.000000000000000E+000
  0.000000000000000E+000
  0.000000000000000E+000
  0.000000000000000E+000
  0.000000000000000E+000
  0.000000000000000E+000
  0.000000000000000E+000
  0.000000000000000E+000
  0.000000000000000E+000
  0.000000000000000E+000
  0.000000000000000E+000
  0.000000000000000E+000
  0.000000000000000E+000
  0.000000000000000E+000
  0.000000000000000E+000
  0.000000000000000E+000
  0.000000000000000E+000
  0.000000000000000E+000
  0.000000000000000E+000
  0.000000000000000E+000
  0.000000000000000E+000
  0.000000000000000E+000
  0.000000000000000E+000
  0.000000000000000E+000
  0.000000000000000E+000
  0.000000000000000E+000
  0.000000000000000E+000
  0.000000000000000E+000
  0.000000000000000E+000
  0.000000000000000E+000
  0.000000000000000E+000
  0.000000000000000E+000
  0.000000000000000E+000
  0.000000000000000E+000
  0.000000000000000E+000
  0.000000000000000E+000
  0.000000000000000E+000
  0.000000000000000E+000
  0.000000000000000E+000
  0.000000000000000E+000
  0.000000000000000E+000
  0.000000000000000E+000
  0.000000000000000E+000
  0.000000000000000E+000
  0.000000000000000E+000
  0.000000000000000E+000
  0.000000000000000E+000
  0.000000000000000E+000
  0.000000000000000E+000
  0.000000000000000E+000
  0.000000000000000E+000
  0.000000000000000E+000
  0.000000000000000E+000
  0.000000000000000E+000
  0.000000000000000E+000
  0.000000000000000E+000
  0.000000000000000E+000
  0.000000000000000E+000
  0.000000000000000E+000
  0.000000000000000E+000
  0.000000000000000E+000
  0.000000000000000E+000
  0.000000000000000E+000
  0.000000000000000E+000
  0.000000000000000E+000
  0.000000000000000E+000
  0.000000000000000E+000
  0.000000000000000E+000
  0.000000000000000E+000
  0.000000000000000E+000
  0.000000000000000E+000
  0.000000000000000E+000
  0.000000000000000E+000
  0.000000000000000E+000
  0.000000000000000E+000
  0.000000000000000E+000
  0.000000000000000E+000
  0.000000000000000E+000
  0.000000000000000E+000
  0.000000000000000E+000
  0.000000000000000E+000
  0.000000000000000E+000
  0.000000000000000E+000
  0.000000000000000E+000
  0.000000000000000E+000
  0.000000000000000E+000
  0.000000000000000E+000
  0.000000000000000E+000
  0.000000000000000E+000
  0.000000000000000E+000
  0.000000000000000E+000
  0.000000000000000E+000
  0.000000000000000E+000
  0.000000000000000E+000
  0.000000000000000E+000
  0.000000000000000E+000
  0.000000000000000E+000
  0.000000000000000E+000
  0.000000000000000E+000
  0.000000000000000E+000
  0.000000000000000E+000
  0.000000000000000E+000
  0.000000000000000E+000
  0.000000000000000E+000
  0.000000000000000E+000
  0.000000000000000E+000
  0.000000000000000E+000
  0.000000000000000E+000
  0.000000000000000E+000
  0.000000000000000E+000
  0.000000000000000E+000
  0.000000000000000E+000
  0.000000000000000E+000
  0.000000000000000E+000
  0.000000000000000E+000
  0.000000000000000E+000
  0.000000000000000E+000
  0.000000000000000E+000
  0.000000000000000E+000
  0.000000000000000E+000
  0.000000000000000E+000
  0.000000000000000E+000
  0.000000000000000E+000
  0.000000000000000E+000
  0.000000000000000E+000
  0.000000000000000E+000
  0.000000000000000E+000
  0.000000000000000E+000
  0.000000000000000E+000
  0.000000000000000E+000
  0.000000000000000E+000
  0.000000000000000E+000
  0.000000000000000E+000
  0.000000000000000E+000
  0.000000000000000E+000
  0.000000000000000E+000
  0.000000000000000E+000
  0.000000000000000E+000
  0.000000000000000E+000
  0.000000000000000E+000
  0.000000000000000E+000
  0.000000000000000E+000
  0.000000000000000E+000
  0.000000000000000E+000
  0.000000000000000E+000
  0.000000000000000E+000
  0.000000000000000E+000
  0.000000000000000E+000
  0.000000000000000E+000
  0.000000000000000E+000
  0.000000000000000E+000
  0.000000000000000E+000
  0.000000000000000E+000
  0.000000000000000E+000
  0.000000000000000E+000
  0.000000000000000E+000
  0.000000000000000E+000
  0.000000000000000E+000
  0.000000000000000E+000
  0.000000000000000E+000
  0.000000000000000E+000
  0.000000000000000E+000
  0.000000000000000E+000
  0.000000000000000E+000
  0.000000000000000E+000
  0.000000000000000E+000
  0.000000000000000E+000
  0.000000000000000E+000
  0.000000000000000E+000
  0.000000000000000E+000
  0.000000000000000E+000
  0.000000000000000E+000
  0.000000000000000E+000
  0.000000000000000E+000
  0.000000000000000E+000
  0.000000000000000E+000
  0.000000000000000E+000
  0.000000000000000E+000
  0.000000000000000E+000
  0.000000000000000E+000
  0.000000000000000E+000
  0.000000000000000E+000
  0.000000000000000E+000
  0.000000000000000E+000
  0.000000000000000E+000
  0.000000000000000E+000
  0.000000000000000E+000
  0.000000000000000E+000
  0.000000000000000E+000
  0.000000000000000E+000
  0.000000000000000E+000
  0.000000000000000E+000
  0.000000000000000E+000
  0.000000000000000E+000
  0.000000000000000E+000
  0.000000000000000E+000
  0.000000000000000E+000
  0.000000000000000E+000
  0.000000000000000E+000
  0.000000000000000E+000
  0.000000000000000E+000
  0.000000000000000E+000
  0.000000000000000E+000
  0.000000000000000E+000
  0.000000000000000E+000
  0.000000000000000E+000
  0.000000000000000E+000
  0.000000000000000E+000
  0.000000000000000E+000
  0.000000000000000E+000
  0.000000000000000E+000
  0.000000000000000E+000
  0.000000000000000E+000
  0.000000000000000E+000
  0.000000000000000E+000
  0.000000000000000E+000
  0.000000000000000E+000
  0.000000000000000E+000
  0.000000000000000E+000
  0.000000000000000E+000
  0.000000000000000E+000
  0.000000000000000E+000
  0.000000000000000E+000
  0.000000000000000E+000
  0.000000000000000E+000
  0.000000000000000E+000
  0.000000000000000E+000
  0.000000000000000E+000
  0.000000000000000E+000
  0.000000000000000E+000
  0.000000000000000E+000
  0.000000000000000E+000
  0.000000000000000E+000
  0.000000000000000E+000
  0.000000000000000E+000
  0.000000000000000E+000
  0.000000000000000E+000
  0.000000000000000E+000
  0.000000000000000E+000
  0.000000000000000E+000
  0.000000000000000E+000
  0.000000000000000E+000
  0.000000000000000E+000
  0.000000000000000E+000
  0.000000000000000E+000
  0.000000000000000E+000
  0.000000000000000E+000
  0.000000000000000E+000
  0.000000000000000E+000
  0.000000000000000E+000
  0.000000000000000E+000
  0.000000000000000E+000
  0.000000000000000E+000
  0.000000000000000E+000
  0.000000000000000E+000
  0.000000000000000E+000
  0.000000000000000E+000
  0.000000000000000E+000
  0.000000000000000E+000
  0.000000000000000E+000
  0.000000000000000E+000
  0.000000000000000E+000
  0.000000000000000E+000
  0.000000000000000E+000
  0.000000000000000E+000
  0.000000000000000E+000
  0.000000000000000E+000
  0.000000000000000E+000
  0.000000000000000E+000
  0.000000000000000E+000
  0.000000000000000E+000
  0.000000000000000E+000
  0.000000000000000E+000
  0.000000000000000E+000
  0.000000000000000E+000
  0.000000000000000E+000
  0.000000000000000E+000
  0.000000000000000E+000
  0.000000000000000E+000
  0.000000000000000E+000
  0.000000000000000E+000
  0.000000000000000E+000
  0.000000000000000E+000
  0.000000000000000E+000
  0.000000000000000E+000
  0.000000000000000E+000
  0.000000000000000E+000
  0.000000000000000E+000
  0.000000000000000E+000
  0.000000000000000E+000
  0.000000000000000E+000
  0.000000000000000E+000
  0.000000000000000E+000
  0.000000000000000E+000
  0.000000000000000E+000
  0.000000000000000E+000
  0.000000000000000E+000
  0.000000000000000E+000
  0.000000000000000E+000
  0.000000000000000E+000
  0.000000000000000E+000
  0.000000000000000E+000
  0.000000000000000E+000
  0.000000000000000E+000
  0.000000000000000E+000
  0.000000000000000E+000
  0.000000000000000E+000
  0.000000000000000E+000
  0.000000000000000E+000
  0.000000000000000E+000
  0.000000000000000E+000
  0.000000000000000E+000
  0.000000000000000E+000
  0.000000000000000E+000
  0.000000000000000E+000
  0.000000000000000E+000
  0.000000000000000E+000
  0.000000000000000E+000
  0.000000000000000E+000
  0.000000000000000E+000
  0.000000000000000E+000
  0.000000000000000E+000
  0.000000000000000E+000
  0.000000000000000E+000
  0.000000000000000E+000
  0.000000000000000E+000
  0.000000000000000E+000
  0.000000000000000E+000
  0.000000000000000E+000
  0.000000000000000E+000
  0.000000000000000E+000
  0.000000000000000E+000
  0.000000000000000E+000
  0.000000000000000E+000
  0.000000000000000E+000
  0.000000000000000E+000
  0.000000000000000E+000
  0.000000000000000E+000
  0.000000000000000E+000
  0.000000000000000E+000
  0.000000000000000E+000
  0.000000000000000E+000
  0.000000000000000E+000
  0.000000000000000E+000
  0.000000000000000E+000
  0.000000000000000E+000
  0.000000000000000E+000
  0.000000000000000E+000
  0.000000000000000E+000
  0.000000000000000E+000
  0.000000000000000E+000
  0.000000000000000E+000
  0.000000000000000E+000
  0.000000000000000E+000
  0.000000000000000E+000
  0.000000000000000E+000
  0.000000000000000E+000
  0.000000000000000E+000
  0.000000000000000E+000
  0.000000000000000E+000
  0.000000000000000E+000
  0.000000000000000E+000
  0.000000000000000E+000
  0.000000000000000E+000
  0.000000000000000E+000
  0.000000000000000E+000
  0.000000000000000E+000
  0.000000000000000E+000
  0.000000000000000E+000
  0.000000000000000E+000
  0.000000000000000E+000
  0.000000000000000E+000
  0.000000000000000E+000
  0.000000000000000E+000
  0.000000000000000E+000
  0.000000000000000E+000
  0.000000000000000E+000
  0.000000000000000E+000
  0.000000000000000E+000
  0.000000000000000E+000
  0.000000000000000E+000
  0.000000000000000E+000
  0.000000000000000E+000
  0.000000000000000E+000
  0.000000000000000E+000
  0.000000000000000E+000
  0.000000000000000E+000
  0.000000000000000E+000
  0.000000000000000E+000
  0.000000000000000E+000
  0.000000000000000E+000
  0.000000000000000E+000
  0.000000000000000E+000
  0.000000000000000E+000
  0.000000000000000E+000
  0.000000000000000E+000
  0.000000000000000E+000
  0.000000000000000E+000
  0.000000000000000E+000
  0.000000000000000E+000
  0.000000000000000E+000
  0.000000000000000E+000
  0.000000000000000E+000
  0.000000000000000E+000
  0.000000000000000E+000
  0.000000000000000E+000
  0.000000000000000E+000
  0.000000000000000E+000
  0.000000000000000E+000
  0.000000000000000E+000
  0.000000000000000E+000
  0.000000000000000E+000
  0.000000000000000E+000
  0.000000000000000E+000
  0.000000000000000E+000
  0.000000000000000E+000
  0.000000000000000E+000
  0.000000000000000E+000
  0.000000000000000E+000
  0.000000000000000E+000
  0.000000000000000E+000
  0.000000000000000E+000
  0.000000000000000E+000
  0.000000000000000E+000
  0.000000000000000E+000
  0.000000000000000E+000
  0.000000000000000E+000
  0.000000000000000E+000
  0.000000000000000E+000
  0.000000000000000E+000
  0.000000000000000E+000
  0.000000000000000E+000
  0.000000000000000E+000
  0.000000000000000E+000
  0.000000000000000E+000
  0.000000000000000E+000
  0.000000000000000E+000
  0.000000000000000E+000
  0.000000000000000E+000
  0.000000000000000E+000
  0.000000000000000E+000
  0.000000000000000E+000
  0.000000000000000E+000
  0.000000000000000E+000
  0.000000000000000E+000
  0.000000000000000E+000
  0.000000000000000E+000
  0.000000000000000E+000
  0.000000000000000E+000
  0.000000000000000E+000
  0.000000000000000E+000
  0.000000000000000E+000
  0.000000000000000E+000
  0.000000000000000E+000
  0.000000000000000E+000
  0.000000000000000E+000
  0.000000000000000E+000
  0.000000000000000E+000
  0.000000000000000E+000
  0.000000000000000E+000
  0.000000000000000E+000
  0.000000000000000E+000
  0.000000000000000E+000
  0.000000000000000E+000
  0.000000000000000E+000
  0.000000000000000E+000
  0.000000000000000E+000
  0.000000000000000E+000
  0.000000000000000E+000
  0.000000000000000E+000
  0.000000000000000E+000
  0.000000000000000E+000
  0.000000000000000E+000
  0.000000000000000E+000
  0.000000000000000E+000
  0.000000000000000E+000
  0.000000000000000E+000
  0.000000000000000E+000
  0.000000000000000E+000
  0.000000000000000E+000
  0.000000000000000E+000
  0.000000000000000E+000
  0.000000000000000E+000
  0.000000000000000E+000
  0.000000000000000E+000
  0.000000000000000E+000
  0.000000000000000E+000
  0.000000000000000E+000
  0.000000000000000E+000
  0.000000000000000E+000
  0.000000000000000E+000
  0.000000000000000E+000
  0.000000000000000E+000
  0.000000000000000E+000
  0.000000000000000E+000
  0.000000000000000E+000
  0.000000000000000E+000
  0.000000000000000E+000
  0.000000000000000E+000
  0.000000000000000E+000
  0.000000000000000E+000
  0.000000000000000E+000
  0.000000000000000E+000
  0.000000000000000E+000
  0.000000000000000E+000
  0.000000000000000E+000
  0.000000000000000E+000
  0.000000000000000E+000
  0.000000000000000E+000
  0.000000000000000E+000
  0.000000000000000E+000
  0.000000000000000E+000
  0.000000000000000E+000
  0.000000000000000E+000
  0.000000000000000E+000
  0.000000000000000E+000
  0.000000000000000E+000
  0.000000000000000E+000
  0.000000000000000E+000
  0.000000000000000E+000
  0.000000000000000E+000
  0.000000000000000E+000
  0.000000000000000E+000
  0.000000000000000E+000
  0.000000000000000E+000
  0.000000000000000E+000
  0.000000000000000E+000
  0.000000000000000E+000
  0.000000000000000E+000
  0.000000000000000E+000
  0.000000000000000E+000
  0.000000000000000E+000
  0.000000000000000E+000
  0.000000000000000E+000
  0.000000000000000E+000
  0.000000000000000E+000
  0.000000000000000E+000
  0.000000000000000E+000
  0.000000000000000E+000
  0.000000000000000E+000
  0.000000000000000E+000
  0.000000000000000E+000
  0.000000000000000E+000
  0.000000000000000E+000
  0.000000000000000E+000
  0.000000000000000E+000
  0.000000000000000E+000
  0.000000000000000E+000
  0.000000000000000E+000
  0.000000000000000E+000
  0.000000000000000E+000
  0.000000000000000E+000
  0.000000000000000E+000
  0.000000000000000E+000
  0.000000000000000E+000
  0.000000000000000E+000
  0.000000000000000E+000
  0.000000000000000E+000
  0.000000000000000E+000
  0.000000000000000E+000
  0.000000000000000E+000
  0.000000000000000E+000
  0.000000000000000E+000
  0.000000000000000E+000
  0.000000000000000E+000
  0.000000000000000E+000
  0.000000000000000E+000
  0.000000000000000E+000
  0.000000000000000E+000
  0.000000000000000E+000
  0.000000000000000E+000
  0.000000000000000E+000
  0.000000000000000E+000
  0.000000000000000E+000
  0.000000000000000E+000
  0.000000000000000E+000
  0.000000000000000E+000
  0.000000000000000E+000
  0.000000000000000E+000
  0.000000000000000E+000
  0.000000000000000E+000
  0.000000000000000E+000
  0.000000000000000E+000
  0.000000000000000E+000
  0.000000000000000E+000
  0.000000000000000E+000
  0.000000000000000E+000
  0.000000000000000E+000
  0.000000000000000E+000
  0.000000000000000E+000
  0.000000000000000E+000
  0.000000000000000E+000
  0.000000000000000E+000
  0.000000000000000E+000
  0.000000000000000E+000
  0.000000000000000E+000
  0.000000000000000E+000
  0.000000000000000E+000
  0.000000000000000E+000
  0.000000000000000E+000
  0.000000000000000E+000
  0.000000000000000E+000
  0.000000000000000E+000
  0.000000000000000E+000
  0.000000000000000E+000
  0.000000000000000E+000
  0.000000000000000E+000
  0.000000000000000E+000
  0.000000000000000E+000
  0.000000000000000E+000
  0.000000000000000E+000
  0.000000000000000E+000
  0.000000000000000E+000
  0.000000000000000E+000
  0.000000000000000E+000
  0.000000000000000E+000
  0.000000000000000E+000
  0.000000000000000E+000
  0.000000000000000E+000
  0.000000000000000E+000
  0.000000000000000E+000
  0.000000000000000E+000
  0.000000000000000E+000
  0.000000000000000E+000
  0.000000000000000E+000
  0.000000000000000E+000
  0.000000000000000E+000
  0.000000000000000E+000
  0.000000000000000E+000
  0.000000000000000E+000
  0.000000000000000E+000
  0.000000000000000E+000
  0.000000000000000E+000
  0.000000000000000E+000
  0.000000000000000E+000
  0.000000000000000E+000
  0.000000000000000E+000
  0.000000000000000E+000
  0.000000000000000E+000
  0.000000000000000E+000
  0.000000000000000E+000
  0.000000000000000E+000
  0.000000000000000E+000
  0.000000000000000E+000
  0.000000000000000E+000
  0.000000000000000E+000
  0.000000000000000E+000
  0.000000000000000E+000
  0.000000000000000E+000
  0.000000000000000E+000
  0.000000000000000E+000
  0.000000000000000E+000
  0.000000000000000E+000
  0.000000000000000E+000
  0.000000000000000E+000
  0.000000000000000E+000
  0.000000000000000E+000
  0.000000000000000E+000
  0.000000000000000E+000
  0.000000000000000E+000
  0.000000000000000E+000
  0.000000000000000E+000
  0.000000000000000E+000
  0.000000000000000E+000
  0.000000000000000E+000
  0.000000000000000E+000
  0.000000000000000E+000
  0.000000000000000E+000
  0.000000000000000E+000
  0.000000000000000E+000
  0.000000000000000E+000
  0.000000000000000E+000
  0.000000000000000E+000
  0.000000000000000E+000
  0.000000000000000E+000
  0.000000000000000E+000
  0.000000000000000E+000
  0.000000000000000E+000
  0.000000000000000E+000
  0.000000000000000E+000
  0.000000000000000E+000
  0.000000000000000E+000
  0.000000000000000E+000
  0.000000000000000E+000
  0.000000000000000E+000
  0.000000000000000E+000
  0.000000000000000E+000
  0.000000000000000E+000
  0.000000000000000E+000
  0.000000000000000E+000
  0.000000000000000E+000
  0.000000000000000E+000
  0.000000000000000E+000
  0.000000000000000E+000
  0.000000000000000E+000
  0.000000000000000E+000
  0.000000000000000E+000
  0.000000000000000E+000
  0.000000000000000E+000
  0.000000000000000E+000
  0.000000000000000E+000
  0.000000000000000E+000
  0.000000000000000E+000
  0.000000000000000E+000
  0.000000000000000E+000
  0.000000000000000E+000
  0.000000000000000E+000
  0.000000000000000E+000
  0.000000000000000E+000
  0.000000000000000E+000
  0.000000000000000E+000
  0.000000000000000E+000
  0.000000000000000E+000
  0.000000000000000E+000
  0.000000000000000E+000
  0.000000000000000E+000
  0.000000000000000E+000
  0.000000000000000E+000
  0.000000000000000E+000
  0.000000000000000E+000
  0.000000000000000E+000
  0.000000000000000E+000
  0.000000000000000E+000
  0.000000000000000E+000
  0.000000000000000E+000
  0.000000000000000E+000
  0.000000000000000E+000
  0.000000000000000E+000
  0.000000000000000E+000
  0.000000000000000E+000
  0.000000000000000E+000
  0.000000000000000E+000
  0.000000000000000E+000
  0.000000000000000E+000
  0.000000000000000E+000
  0.000000000000000E+000
  0.000000000000000E+000
  0.000000000000000E+000
  0.000000000000000E+000
  0.000000000000000E+000
  0.000000000000000E+000
  0.000000000000000E+000
  0.000000000000000E+000
  0.000000000000000E+000
  0.000000000000000E+000
  0.000000000000000E+000
  0.000000000000000E+000
  0.000000000000000E+000
  0.000000000000000E+000
  0.000000000000000E+000
  0.000000000000000E+000
  0.000000000000000E+000
  0.000000000000000E+000
  0.000000000000000E+000
  0.000000000000000E+000
  0.000000000000000E+000
  0.000000000000000E+000
  0.000000000000000E+000
  0.000000000000000E+000
  0.000000000000000E+000
  0.000000000000000E+000
  0.000000000000000E+000
  0.000000000000000E+000
  0.000000000000000E+000
  0.000000000000000E+000
  0.000000000000000E+000
  0.000000000000000E+000
  0.000000000000000E+000
  0.000000000000000E+000
  0.000000000000000E+000
  0.000000000000000E+000
   1.00000000000000     
   1.00000000000000     
  0.000000000000000E+000
  0.000000000000000E+000
  0.000000000000000E+000
  0.000000000000000E+000
  0.000000000000000E+000
  0.000000000000000E+000
  0.000000000000000E+000
  0.000000000000000E+000
  0.000000000000000E+000
  0.000000000000000E+000
  0.000000000000000E+000
  0.000000000000000E+000
  0.000000000000000E+000
  0.000000000000000E+000
  0.000000000000000E+000
  0.000000000000000E+000
  0.000000000000000E+000
  0.000000000000000E+000
  0.000000000000000E+000
  0.000000000000000E+000
  0.000000000000000E+000
  0.000000000000000E+000
  0.000000000000000E+000
  0.000000000000000E+000
  0.000000000000000E+000
  0.000000000000000E+000
  0.000000000000000E+000
  0.000000000000000E+000
  0.000000000000000E+000
  0.000000000000000E+000
  0.000000000000000E+000
  0.000000000000000E+000
  0.000000000000000E+000
  0.000000000000000E+000
  0.000000000000000E+000
  0.000000000000000E+000
  0.000000000000000E+000
  0.000000000000000E+000
  0.000000000000000E+000
  0.000000000000000E+000
  0.000000000000000E+000
  0.000000000000000E+000
  0.000000000000000E+000
   1.00000000000000     
   1.00000000000000     
   1.00000000000000     
   1.00000000000000     
   1.00000000000000     
   1.00000000000000     
   1.00000000000000     
  0.000000000000000E+000
  0.000000000000000E+000
  0.000000000000000E+000
  0.000000000000000E+000
  0.000000000000000E+000
  0.000000000000000E+000
  0.000000000000000E+000
  0.000000000000000E+000
  0.000000000000000E+000
  0.000000000000000E+000
  0.000000000000000E+000
  0.000000000000000E+000
  0.000000000000000E+000
  0.000000000000000E+000
  0.000000000000000E+000
  0.000000000000000E+000
  0.000000000000000E+000
  0.000000000000000E+000
  0.000000000000000E+000
  0.000000000000000E+000
  0.000000000000000E+000
  0.000000000000000E+000
  0.000000000000000E+000
  0.000000000000000E+000
  0.000000000000000E+000
  0.000000000000000E+000
  0.000000000000000E+000
  0.000000000000000E+000
  0.000000000000000E+000
  0.000000000000000E+000
  0.000000000000000E+000
  0.000000000000000E+000
  0.000000000000000E+000
  0.000000000000000E+000
  0.000000000000000E+000
  0.000000000000000E+000
  0.000000000000000E+000
  0.000000000000000E+000
  0.000000000000000E+000
   1.00000000000000     
   1.00000000000000     
   1.00000000000000     
   1.00000000000000     
   1.00000000000000     
   1.00000000000000     
   1.00000000000000     
   1.00000000000000     
   1.00000000000000     
   1.00000000000000     
   1.00000000000000     
  0.000000000000000E+000
  0.000000000000000E+000
  0.000000000000000E+000
  0.000000000000000E+000
  0.000000000000000E+000
  0.000000000000000E+000
  0.000000000000000E+000
  0.000000000000000E+000
  0.000000000000000E+000
  0.000000000000000E+000
  0.000000000000000E+000
  0.000000000000000E+000
  0.000000000000000E+000
  0.000000000000000E+000
  0.000000000000000E+000
  0.000000000000000E+000
  0.000000000000000E+000
  0.000000000000000E+000
  0.000000000000000E+000
  0.000000000000000E+000
  0.000000000000000E+000
  0.000000000000000E+000
  0.000000000000000E+000
  0.000000000000000E+000
  0.000000000000000E+000
  0.000000000000000E+000
  0.000000000000000E+000
  0.000000000000000E+000
  0.000000000000000E+000
  0.000000000000000E+000
  0.000000000000000E+000
  0.000000000000000E+000
  0.000000000000000E+000
  0.000000000000000E+000
  0.000000000000000E+000
   1.00000000000000     
   1.00000000000000     
   1.00000000000000     
   1.00000000000000     
   1.00000000000000     
   1.00000000000000     
   1.00000000000000     
   1.00000000000000     
   1.00000000000000     
   1.00000000000000     
   1.00000000000000     
   1.00000000000000     
   1.00000000000000     
   1.00000000000000     
   1.00000000000000     
  0.000000000000000E+000
  0.000000000000000E+000
  0.000000000000000E+000
  0.000000000000000E+000
  0.000000000000000E+000
  0.000000000000000E+000
  0.000000000000000E+000
  0.000000000000000E+000
  0.000000000000000E+000
  0.000000000000000E+000
  0.000000000000000E+000
  0.000000000000000E+000
  0.000000000000000E+000
  0.000000000000000E+000
  0.000000000000000E+000
  0.000000000000000E+000
  0.000000000000000E+000
  0.000000000000000E+000
  0.000000000000000E+000
  0.000000000000000E+000
  0.000000000000000E+000
  0.000000000000000E+000
  0.000000000000000E+000
  0.000000000000000E+000
  0.000000000000000E+000
  0.000000000000000E+000
  0.000000000000000E+000
  0.000000000000000E+000
  0.000000000000000E+000
  0.000000000000000E+000
  0.000000000000000E+000
  0.000000000000000E+000
   1.00000000000000     
   1.00000000000000     
   1.00000000000000     
   1.00000000000000     
   1.00000000000000     
   1.00000000000000     
   1.00000000000000     
   1.00000000000000     
   1.00000000000000     
   1.00000000000000     
   1.00000000000000     
   1.00000000000000     
   1.00000000000000     
   1.00000000000000     
   1.00000000000000     
   1.00000000000000     
   1.00000000000000     
   1.00000000000000     
  0.000000000000000E+000
  0.000000000000000E+000
  0.000000000000000E+000
  0.000000000000000E+000
  0.000000000000000E+000
  0.000000000000000E+000
  0.000000000000000E+000
  0.000000000000000E+000
  0.000000000000000E+000
  0.000000000000000E+000
  0.000000000000000E+000
  0.000000000000000E+000
  0.000000000000000E+000
  0.000000000000000E+000
  0.000000000000000E+000
  0.000000000000000E+000
  0.000000000000000E+000
  0.000000000000000E+000
  0.000000000000000E+000
  0.000000000000000E+000
  0.000000000000000E+000
  0.000000000000000E+000
  0.000000000000000E+000
  0.000000000000000E+000
  0.000000000000000E+000
  0.000000000000000E+000
  0.000000000000000E+000
  0.000000000000000E+000
   1.00000000000000     
   1.00000000000000     
   1.00000000000000     
   1.00000000000000     
   1.00000000000000     
   1.00000000000000     
   1.00000000000000     
   1.00000000000000     
   1.00000000000000     
   1.00000000000000     
   1.00000000000000     
   1.00000000000000     
   1.00000000000000     
   1.00000000000000     
   1.00000000000000     
   1.00000000000000     
   1.00000000000000     
   1.00000000000000     
   1.00000000000000     
   1.00000000000000     
   1.00000000000000     
   1.00000000000000     
  0.000000000000000E+000
  0.000000000000000E+000
  0.000000000000000E+000
  0.000000000000000E+000
  0.000000000000000E+000
  0.000000000000000E+000
  0.000000000000000E+000
  0.000000000000000E+000
  0.000000000000000E+000
  0.000000000000000E+000
  0.000000000000000E+000
  0.000000000000000E+000
  0.000000000000000E+000
  0.000000000000000E+000
  0.000000000000000E+000
  0.000000000000000E+000
  0.000000000000000E+000
  0.000000000000000E+000
  0.000000000000000E+000
  0.000000000000000E+000
  0.000000000000000E+000
  0.000000000000000E+000
  0.000000000000000E+000
   1.00000000000000     
   1.00000000000000     
   1.00000000000000     
   1.00000000000000     
   1.00000000000000     
   1.00000000000000     
   1.00000000000000     
   1.00000000000000     
   1.00000000000000     
   1.00000000000000     
   1.00000000000000     
   1.00000000000000     
   1.00000000000000     
   1.00000000000000     
   1.00000000000000     
   1.00000000000000     
   1.00000000000000     
   1.00000000000000     
   1.00000000000000     
   1.00000000000000     
   1.00000000000000     
   1.00000000000000     
   1.00000000000000     
   1.00000000000000     
   1.00000000000000     
   1.00000000000000     
   1.00000000000000     
  0.000000000000000E+000
  0.000000000000000E+000
  0.000000000000000E+000
  0.000000000000000E+000
  0.000000000000000E+000
  0.000000000000000E+000
  0.000000000000000E+000
  0.000000000000000E+000
   1.00000000000000     
   1.00000000000000     
   1.00000000000000     
   1.00000000000000     
   1.00000000000000     
   1.00000000000000     
   1.00000000000000     
   1.00000000000000     
   1.00000000000000     
   1.00000000000000     
   1.00000000000000     
   1.00000000000000     
   1.00000000000000     
   1.00000000000000     
   1.00000000000000     
   1.00000000000000     
   1.00000000000000     
   1.00000000000000     
   1.00000000000000     
   1.00000000000000     
   1.00000000000000     
   1.00000000000000     
   1.00000000000000     
   1.00000000000000     
   1.00000000000000     
   1.00000000000000     
   1.00000000000000     
   1.00000000000000     
   1.00000000000000     
   1.00000000000000     
   1.00000000000000     
   1.00000000000000     
   1.00000000000000     
   1.00000000000000     
   1.00000000000000     
   1.00000000000000     
   1.00000000000000     
   1.00000000000000     
   1.00000000000000     
   1.00000000000000     
   1.00000000000000     
   1.00000000000000     
   1.00000000000000     
   1.00000000000000     
   1.00000000000000     
   1.00000000000000     
   1.00000000000000     
   1.00000000000000     
   1.00000000000000     
   1.00000000000000     
   1.00000000000000     
   1.00000000000000     
   1.00000000000000     
   1.00000000000000     
   1.00000000000000     
   1.00000000000000     
   1.00000000000000     
   1.00000000000000     
   1.00000000000000     
   1.00000000000000     
   1.00000000000000     
   1.00000000000000     
   1.00000000000000     
   1.00000000000000     
   1.00000000000000     
   1.00000000000000     
   1.00000000000000     
   1.00000000000000     
   1.00000000000000     
   1.00000000000000     
   1.00000000000000     
   1.00000000000000     
   1.00000000000000     
   1.00000000000000     
   1.00000000000000     
   1.00000000000000     
   1.00000000000000     
   1.00000000000000     
   1.00000000000000     
   1.00000000000000     
   1.00000000000000     
   1.00000000000000     
   1.00000000000000     
   1.00000000000000     
   1.00000000000000     
   1.00000000000000     
   1.00000000000000     
   1.00000000000000     
   1.00000000000000     
   1.00000000000000     
   1.00000000000000     
   1.00000000000000     
  0.000000000000000E+000
  0.000000000000000E+000
  0.000000000000000E+000
  0.000000000000000E+000
  0.000000000000000E+000
   1.00000000000000     
   1.00000000000000     
   1.00000000000000     
   1.00000000000000     
   1.00000000000000     
   1.00000000000000     
   1.00000000000000     
   1.00000000000000     
   1.00000000000000     
   1.00000000000000     
   1.00000000000000     
   1.00000000000000     
   1.00000000000000     
   1.00000000000000     
   1.00000000000000     
   1.00000000000000     
   1.00000000000000     
   1.00000000000000     
   1.00000000000000     
   1.00000000000000     
   1.00000000000000     
   1.00000000000000     
   1.00000000000000     
   1.00000000000000     
   1.00000000000000     
   1.00000000000000     
   1.00000000000000     
   1.00000000000000     
   1.00000000000000     
   1.00000000000000     
   1.00000000000000     
   1.00000000000000     
   1.00000000000000     
   1.00000000000000     
   1.00000000000000     
   1.00000000000000     
   1.00000000000000     
   1.00000000000000     
   1.00000000000000     
   1.00000000000000     
   1.00000000000000     
   1.00000000000000     
   1.00000000000000     
   1.00000000000000     
   1.00000000000000     
