# vtk DataFile Version 3.0
vtk output
ASCII
DATASET UNSTRUCTURED_GRID
POINTS      5151 double 
  0.00000000E+00  1.00000000E+02  0.00000000E+00
  0.00000000E+00  9.80000000E+01  0.00000000E+00
  0.00000000E+00  9.60000000E+01  0.00000000E+00
  0.00000000E+00  9.40000000E+01  0.00000000E+00
  0.00000000E+00  9.20000000E+01  0.00000000E+00
  0.00000000E+00  9.00000000E+01  0.00000000E+00
  0.00000000E+00  8.80000000E+01  0.00000000E+00
  0.00000000E+00  8.60000000E+01  0.00000000E+00
  0.00000000E+00  8.40000000E+01  0.00000000E+00
  0.00000000E+00  8.20000000E+01  0.00000000E+00
  0.00000000E+00  8.00000000E+01  0.00000000E+00
  0.00000000E+00  7.80000000E+01  0.00000000E+00
  0.00000000E+00  7.60000000E+01  0.00000000E+00
  0.00000000E+00  7.40000000E+01  0.00000000E+00
  0.00000000E+00  7.20000000E+01  0.00000000E+00
  0.00000000E+00  7.00000000E+01  0.00000000E+00
  0.00000000E+00  6.80000000E+01  0.00000000E+00
  0.00000000E+00  6.60000000E+01  0.00000000E+00
  0.00000000E+00  6.40000000E+01  0.00000000E+00
  0.00000000E+00  6.20000000E+01  0.00000000E+00
  0.00000000E+00  6.00000000E+01  0.00000000E+00
  0.00000000E+00  5.80000000E+01  0.00000000E+00
  0.00000000E+00  5.60000000E+01  0.00000000E+00
  0.00000000E+00  5.40000000E+01  0.00000000E+00
  0.00000000E+00  5.20000000E+01  0.00000000E+00
  0.00000000E+00  5.00000000E+01  0.00000000E+00
  0.00000000E+00  4.80000000E+01  0.00000000E+00
  0.00000000E+00  4.60000000E+01  0.00000000E+00
  0.00000000E+00  4.40000000E+01  0.00000000E+00
  0.00000000E+00  4.20000000E+01  0.00000000E+00
  0.00000000E+00  4.00000000E+01  0.00000000E+00
  0.00000000E+00  3.80000000E+01  0.00000000E+00
  0.00000000E+00  3.60000000E+01  0.00000000E+00
  0.00000000E+00  3.40000000E+01  0.00000000E+00
  0.00000000E+00  3.20000000E+01  0.00000000E+00
  0.00000000E+00  3.00000000E+01  0.00000000E+00
  0.00000000E+00  2.80000000E+01  0.00000000E+00
  0.00000000E+00  2.60000000E+01  0.00000000E+00
  0.00000000E+00  2.40000000E+01  0.00000000E+00
  0.00000000E+00  2.20000000E+01  0.00000000E+00
  0.00000000E+00  2.00000000E+01  0.00000000E+00
  0.00000000E+00  1.80000000E+01  0.00000000E+00
  0.00000000E+00  1.60000000E+01  0.00000000E+00
  0.00000000E+00  1.40000000E+01  0.00000000E+00
  0.00000000E+00  1.20000000E+01  0.00000000E+00
  0.00000000E+00  1.00000000E+01  0.00000000E+00
  0.00000000E+00  8.00000000E+00  0.00000000E+00
  0.00000000E+00  6.00000000E+00  0.00000000E+00
  0.00000000E+00  4.00000000E+00  0.00000000E+00
  0.00000000E+00  2.00000000E+00  0.00000000E+00
  0.00000000E+00 -3.33066907E-14  0.00000000E+00
  1.00000000E+01  1.00000000E+02  0.00000000E+00
  1.00000000E+01  9.80000000E+01  0.00000000E+00
  1.00000000E+01  9.60000000E+01  0.00000000E+00
  1.00000000E+01  9.40000000E+01  0.00000000E+00
  1.00000000E+01  9.20000000E+01  0.00000000E+00
  1.00000000E+01  9.00000000E+01  0.00000000E+00
  1.00000000E+01  8.80000000E+01  0.00000000E+00
  1.00000000E+01  8.60000000E+01  0.00000000E+00
  1.00000000E+01  8.40000000E+01  0.00000000E+00
  1.00000000E+01  8.20000000E+01  0.00000000E+00
  1.00000000E+01  8.00000000E+01  0.00000000E+00
  1.00000000E+01  7.80000000E+01  0.00000000E+00
  1.00000000E+01  7.60000000E+01  0.00000000E+00
  1.00000000E+01  7.40000000E+01  0.00000000E+00
  1.00000000E+01  7.20000000E+01  0.00000000E+00
  1.00000000E+01  7.00000000E+01  0.00000000E+00
  1.00000000E+01  6.80000000E+01  0.00000000E+00
  1.00000000E+01  6.60000000E+01  0.00000000E+00
  1.00000000E+01  6.40000000E+01  0.00000000E+00
  1.00000000E+01  6.20000000E+01  0.00000000E+00
  1.00000000E+01  6.00000000E+01  0.00000000E+00
  1.00000000E+01  5.80000000E+01  0.00000000E+00
  1.00000000E+01  5.60000000E+01  0.00000000E+00
  1.00000000E+01  5.40000000E+01  0.00000000E+00
  1.00000000E+01  5.20000000E+01  0.00000000E+00
  1.00000000E+01  5.00000000E+01  0.00000000E+00
  1.00000000E+01  4.80000000E+01  0.00000000E+00
  1.00000000E+01  4.60000000E+01  0.00000000E+00
  1.00000000E+01  4.40000000E+01  0.00000000E+00
  1.00000000E+01  4.20000000E+01  0.00000000E+00
  1.00000000E+01  4.00000000E+01  0.00000000E+00
  1.00000000E+01  3.80000000E+01  0.00000000E+00
  1.00000000E+01  3.60000000E+01  0.00000000E+00
  1.00000000E+01  3.40000000E+01  0.00000000E+00
  1.00000000E+01  3.20000000E+01  0.00000000E+00
  1.00000000E+01  3.00000000E+01  0.00000000E+00
  1.00000000E+01  2.80000000E+01  0.00000000E+00
  1.00000000E+01  2.60000000E+01  0.00000000E+00
  1.00000000E+01  2.40000000E+01  0.00000000E+00
  1.00000000E+01  2.20000000E+01  0.00000000E+00
  1.00000000E+01  2.00000000E+01  0.00000000E+00
  1.00000000E+01  1.80000000E+01  0.00000000E+00
  1.00000000E+01  1.60000000E+01  0.00000000E+00
  1.00000000E+01  1.40000000E+01  0.00000000E+00
  1.00000000E+01  1.20000000E+01  0.00000000E+00
  1.00000000E+01  1.00000000E+01  0.00000000E+00
  1.00000000E+01  8.00000000E+00  0.00000000E+00
  1.00000000E+01  6.00000000E+00  0.00000000E+00
  1.00000000E+01  4.00000000E+00  0.00000000E+00
  1.00000000E+01  2.00000000E+00  0.00000000E+00
  1.00000000E+01 -3.33066907E-14  0.00000000E+00
  2.00000000E+01  1.00000000E+02  0.00000000E+00
  2.00000000E+01  9.80000000E+01  0.00000000E+00
  2.00000000E+01  9.60000000E+01  0.00000000E+00
  2.00000000E+01  9.40000000E+01  0.00000000E+00
  2.00000000E+01  9.20000000E+01  0.00000000E+00
  2.00000000E+01  9.00000000E+01  0.00000000E+00
  2.00000000E+01  8.80000000E+01  0.00000000E+00
  2.00000000E+01  8.60000000E+01  0.00000000E+00
  2.00000000E+01  8.40000000E+01  0.00000000E+00
  2.00000000E+01  8.20000000E+01  0.00000000E+00
  2.00000000E+01  8.00000000E+01  0.00000000E+00
  2.00000000E+01  7.80000000E+01  0.00000000E+00
  2.00000000E+01  7.60000000E+01  0.00000000E+00
  2.00000000E+01  7.40000000E+01  0.00000000E+00
  2.00000000E+01  7.20000000E+01  0.00000000E+00
  2.00000000E+01  7.00000000E+01  0.00000000E+00
  2.00000000E+01  6.80000000E+01  0.00000000E+00
  2.00000000E+01  6.60000000E+01  0.00000000E+00
  2.00000000E+01  6.40000000E+01  0.00000000E+00
  2.00000000E+01  6.20000000E+01  0.00000000E+00
  2.00000000E+01  6.00000000E+01  0.00000000E+00
  2.00000000E+01  5.80000000E+01  0.00000000E+00
  2.00000000E+01  5.60000000E+01  0.00000000E+00
  2.00000000E+01  5.40000000E+01  0.00000000E+00
  2.00000000E+01  5.20000000E+01  0.00000000E+00
  2.00000000E+01  5.00000000E+01  0.00000000E+00
  2.00000000E+01  4.80000000E+01  0.00000000E+00
  2.00000000E+01  4.60000000E+01  0.00000000E+00
  2.00000000E+01  4.40000000E+01  0.00000000E+00
  2.00000000E+01  4.20000000E+01  0.00000000E+00
  2.00000000E+01  4.00000000E+01  0.00000000E+00
  2.00000000E+01  3.80000000E+01  0.00000000E+00
  2.00000000E+01  3.60000000E+01  0.00000000E+00
  2.00000000E+01  3.40000000E+01  0.00000000E+00
  2.00000000E+01  3.20000000E+01  0.00000000E+00
  2.00000000E+01  3.00000000E+01  0.00000000E+00
  2.00000000E+01  2.80000000E+01  0.00000000E+00
  2.00000000E+01  2.60000000E+01  0.00000000E+00
  2.00000000E+01  2.40000000E+01  0.00000000E+00
  2.00000000E+01  2.20000000E+01  0.00000000E+00
  2.00000000E+01  2.00000000E+01  0.00000000E+00
  2.00000000E+01  1.80000000E+01  0.00000000E+00
  2.00000000E+01  1.60000000E+01  0.00000000E+00
  2.00000000E+01  1.40000000E+01  0.00000000E+00
  2.00000000E+01  1.20000000E+01  0.00000000E+00
  2.00000000E+01  1.00000000E+01  0.00000000E+00
  2.00000000E+01  8.00000000E+00  0.00000000E+00
  2.00000000E+01  6.00000000E+00  0.00000000E+00
  2.00000000E+01  4.00000000E+00  0.00000000E+00
  2.00000000E+01  2.00000000E+00  0.00000000E+00
  2.00000000E+01 -3.33066907E-14  0.00000000E+00
  3.00000000E+01  1.00000000E+02  0.00000000E+00
  3.00000000E+01  9.80000000E+01  0.00000000E+00
  3.00000000E+01  9.60000000E+01  0.00000000E+00
  3.00000000E+01  9.40000000E+01  0.00000000E+00
  3.00000000E+01  9.20000000E+01  0.00000000E+00
  3.00000000E+01  9.00000000E+01  0.00000000E+00
  3.00000000E+01  8.80000000E+01  0.00000000E+00
  3.00000000E+01  8.60000000E+01  0.00000000E+00
  3.00000000E+01  8.40000000E+01  0.00000000E+00
  3.00000000E+01  8.20000000E+01  0.00000000E+00
  3.00000000E+01  8.00000000E+01  0.00000000E+00
  3.00000000E+01  7.80000000E+01  0.00000000E+00
  3.00000000E+01  7.60000000E+01  0.00000000E+00
  3.00000000E+01  7.40000000E+01  0.00000000E+00
  3.00000000E+01  7.20000000E+01  0.00000000E+00
  3.00000000E+01  7.00000000E+01  0.00000000E+00
  3.00000000E+01  6.80000000E+01  0.00000000E+00
  3.00000000E+01  6.60000000E+01  0.00000000E+00
  3.00000000E+01  6.40000000E+01  0.00000000E+00
  3.00000000E+01  6.20000000E+01  0.00000000E+00
  3.00000000E+01  6.00000000E+01  0.00000000E+00
  3.00000000E+01  5.80000000E+01  0.00000000E+00
  3.00000000E+01  5.60000000E+01  0.00000000E+00
  3.00000000E+01  5.40000000E+01  0.00000000E+00
  3.00000000E+01  5.20000000E+01  0.00000000E+00
  3.00000000E+01  5.00000000E+01  0.00000000E+00
  3.00000000E+01  4.80000000E+01  0.00000000E+00
  3.00000000E+01  4.60000000E+01  0.00000000E+00
  3.00000000E+01  4.40000000E+01  0.00000000E+00
  3.00000000E+01  4.20000000E+01  0.00000000E+00
  3.00000000E+01  4.00000000E+01  0.00000000E+00
  3.00000000E+01  3.80000000E+01  0.00000000E+00
  3.00000000E+01  3.60000000E+01  0.00000000E+00
  3.00000000E+01  3.40000000E+01  0.00000000E+00
  3.00000000E+01  3.20000000E+01  0.00000000E+00
  3.00000000E+01  3.00000000E+01  0.00000000E+00
  3.00000000E+01  2.80000000E+01  0.00000000E+00
  3.00000000E+01  2.60000000E+01  0.00000000E+00
  3.00000000E+01  2.40000000E+01  0.00000000E+00
  3.00000000E+01  2.20000000E+01  0.00000000E+00
  3.00000000E+01  2.00000000E+01  0.00000000E+00
  3.00000000E+01  1.80000000E+01  0.00000000E+00
  3.00000000E+01  1.60000000E+01  0.00000000E+00
  3.00000000E+01  1.40000000E+01  0.00000000E+00
  3.00000000E+01  1.20000000E+01  0.00000000E+00
  3.00000000E+01  1.00000000E+01  0.00000000E+00
  3.00000000E+01  8.00000000E+00  0.00000000E+00
  3.00000000E+01  6.00000000E+00  0.00000000E+00
  3.00000000E+01  4.00000000E+00  0.00000000E+00
  3.00000000E+01  2.00000000E+00  0.00000000E+00
  3.00000000E+01 -3.33066907E-14  0.00000000E+00
  4.00000000E+01  1.00000000E+02  0.00000000E+00
  4.00000000E+01  9.80000000E+01  0.00000000E+00
  4.00000000E+01  9.60000000E+01  0.00000000E+00
  4.00000000E+01  9.40000000E+01  0.00000000E+00
  4.00000000E+01  9.20000000E+01  0.00000000E+00
  4.00000000E+01  9.00000000E+01  0.00000000E+00
  4.00000000E+01  8.80000000E+01  0.00000000E+00
  4.00000000E+01  8.60000000E+01  0.00000000E+00
  4.00000000E+01  8.40000000E+01  0.00000000E+00
  4.00000000E+01  8.20000000E+01  0.00000000E+00
  4.00000000E+01  8.00000000E+01  0.00000000E+00
  4.00000000E+01  7.80000000E+01  0.00000000E+00
  4.00000000E+01  7.60000000E+01  0.00000000E+00
  4.00000000E+01  7.40000000E+01  0.00000000E+00
  4.00000000E+01  7.20000000E+01  0.00000000E+00
  4.00000000E+01  7.00000000E+01  0.00000000E+00
  4.00000000E+01  6.80000000E+01  0.00000000E+00
  4.00000000E+01  6.60000000E+01  0.00000000E+00
  4.00000000E+01  6.40000000E+01  0.00000000E+00
  4.00000000E+01  6.20000000E+01  0.00000000E+00
  4.00000000E+01  6.00000000E+01  0.00000000E+00
  4.00000000E+01  5.80000000E+01  0.00000000E+00
  4.00000000E+01  5.60000000E+01  0.00000000E+00
  4.00000000E+01  5.40000000E+01  0.00000000E+00
  4.00000000E+01  5.20000000E+01  0.00000000E+00
  4.00000000E+01  5.00000000E+01  0.00000000E+00
  4.00000000E+01  4.80000000E+01  0.00000000E+00
  4.00000000E+01  4.60000000E+01  0.00000000E+00
  4.00000000E+01  4.40000000E+01  0.00000000E+00
  4.00000000E+01  4.20000000E+01  0.00000000E+00
  4.00000000E+01  4.00000000E+01  0.00000000E+00
  4.00000000E+01  3.80000000E+01  0.00000000E+00
  4.00000000E+01  3.60000000E+01  0.00000000E+00
  4.00000000E+01  3.40000000E+01  0.00000000E+00
  4.00000000E+01  3.20000000E+01  0.00000000E+00
  4.00000000E+01  3.00000000E+01  0.00000000E+00
  4.00000000E+01  2.80000000E+01  0.00000000E+00
  4.00000000E+01  2.60000000E+01  0.00000000E+00
  4.00000000E+01  2.40000000E+01  0.00000000E+00
  4.00000000E+01  2.20000000E+01  0.00000000E+00
  4.00000000E+01  2.00000000E+01  0.00000000E+00
  4.00000000E+01  1.80000000E+01  0.00000000E+00
  4.00000000E+01  1.60000000E+01  0.00000000E+00
  4.00000000E+01  1.40000000E+01  0.00000000E+00
  4.00000000E+01  1.20000000E+01  0.00000000E+00
  4.00000000E+01  1.00000000E+01  0.00000000E+00
  4.00000000E+01  8.00000000E+00  0.00000000E+00
  4.00000000E+01  6.00000000E+00  0.00000000E+00
  4.00000000E+01  4.00000000E+00  0.00000000E+00
  4.00000000E+01  2.00000000E+00  0.00000000E+00
  4.00000000E+01 -3.33066907E-14  0.00000000E+00
  5.00000000E+01  1.00000000E+02  0.00000000E+00
  5.00000000E+01  9.80000000E+01  0.00000000E+00
  5.00000000E+01  9.60000000E+01  0.00000000E+00
  5.00000000E+01  9.40000000E+01  0.00000000E+00
  5.00000000E+01  9.20000000E+01  0.00000000E+00
  5.00000000E+01  9.00000000E+01  0.00000000E+00
  5.00000000E+01  8.80000000E+01  0.00000000E+00
  5.00000000E+01  8.60000000E+01  0.00000000E+00
  5.00000000E+01  8.40000000E+01  0.00000000E+00
  5.00000000E+01  8.20000000E+01  0.00000000E+00
  5.00000000E+01  8.00000000E+01  0.00000000E+00
  5.00000000E+01  7.80000000E+01  0.00000000E+00
  5.00000000E+01  7.60000000E+01  0.00000000E+00
  5.00000000E+01  7.40000000E+01  0.00000000E+00
  5.00000000E+01  7.20000000E+01  0.00000000E+00
  5.00000000E+01  7.00000000E+01  0.00000000E+00
  5.00000000E+01  6.80000000E+01  0.00000000E+00
  5.00000000E+01  6.60000000E+01  0.00000000E+00
  5.00000000E+01  6.40000000E+01  0.00000000E+00
  5.00000000E+01  6.20000000E+01  0.00000000E+00
  5.00000000E+01  6.00000000E+01  0.00000000E+00
  5.00000000E+01  5.80000000E+01  0.00000000E+00
  5.00000000E+01  5.60000000E+01  0.00000000E+00
  5.00000000E+01  5.40000000E+01  0.00000000E+00
  5.00000000E+01  5.20000000E+01  0.00000000E+00
  5.00000000E+01  5.00000000E+01  0.00000000E+00
  5.00000000E+01  4.80000000E+01  0.00000000E+00
  5.00000000E+01  4.60000000E+01  0.00000000E+00
  5.00000000E+01  4.40000000E+01  0.00000000E+00
  5.00000000E+01  4.20000000E+01  0.00000000E+00
  5.00000000E+01  4.00000000E+01  0.00000000E+00
  5.00000000E+01  3.80000000E+01  0.00000000E+00
  5.00000000E+01  3.60000000E+01  0.00000000E+00
  5.00000000E+01  3.40000000E+01  0.00000000E+00
  5.00000000E+01  3.20000000E+01  0.00000000E+00
  5.00000000E+01  3.00000000E+01  0.00000000E+00
  5.00000000E+01  2.80000000E+01  0.00000000E+00
  5.00000000E+01  2.60000000E+01  0.00000000E+00
  5.00000000E+01  2.40000000E+01  0.00000000E+00
  5.00000000E+01  2.20000000E+01  0.00000000E+00
  5.00000000E+01  2.00000000E+01  0.00000000E+00
  5.00000000E+01  1.80000000E+01  0.00000000E+00
  5.00000000E+01  1.60000000E+01  0.00000000E+00
  5.00000000E+01  1.40000000E+01  0.00000000E+00
  5.00000000E+01  1.20000000E+01  0.00000000E+00
  5.00000000E+01  1.00000000E+01  0.00000000E+00
  5.00000000E+01  8.00000000E+00  0.00000000E+00
  5.00000000E+01  6.00000000E+00  0.00000000E+00
  5.00000000E+01  4.00000000E+00  0.00000000E+00
  5.00000000E+01  2.00000000E+00  0.00000000E+00
  5.00000000E+01 -3.33066907E-14  0.00000000E+00
  6.00000000E+01  1.00000000E+02  0.00000000E+00
  6.00000000E+01  9.80000000E+01  0.00000000E+00
  6.00000000E+01  9.60000000E+01  0.00000000E+00
  6.00000000E+01  9.40000000E+01  0.00000000E+00
  6.00000000E+01  9.20000000E+01  0.00000000E+00
  6.00000000E+01  9.00000000E+01  0.00000000E+00
  6.00000000E+01  8.80000000E+01  0.00000000E+00
  6.00000000E+01  8.60000000E+01  0.00000000E+00
  6.00000000E+01  8.40000000E+01  0.00000000E+00
  6.00000000E+01  8.20000000E+01  0.00000000E+00
  6.00000000E+01  8.00000000E+01  0.00000000E+00
  6.00000000E+01  7.80000000E+01  0.00000000E+00
  6.00000000E+01  7.60000000E+01  0.00000000E+00
  6.00000000E+01  7.40000000E+01  0.00000000E+00
  6.00000000E+01  7.20000000E+01  0.00000000E+00
  6.00000000E+01  7.00000000E+01  0.00000000E+00
  6.00000000E+01  6.80000000E+01  0.00000000E+00
  6.00000000E+01  6.60000000E+01  0.00000000E+00
  6.00000000E+01  6.40000000E+01  0.00000000E+00
  6.00000000E+01  6.20000000E+01  0.00000000E+00
  6.00000000E+01  6.00000000E+01  0.00000000E+00
  6.00000000E+01  5.80000000E+01  0.00000000E+00
  6.00000000E+01  5.60000000E+01  0.00000000E+00
  6.00000000E+01  5.40000000E+01  0.00000000E+00
  6.00000000E+01  5.20000000E+01  0.00000000E+00
  6.00000000E+01  5.00000000E+01  0.00000000E+00
  6.00000000E+01  4.80000000E+01  0.00000000E+00
  6.00000000E+01  4.60000000E+01  0.00000000E+00
  6.00000000E+01  4.40000000E+01  0.00000000E+00
  6.00000000E+01  4.20000000E+01  0.00000000E+00
  6.00000000E+01  4.00000000E+01  0.00000000E+00
  6.00000000E+01  3.80000000E+01  0.00000000E+00
  6.00000000E+01  3.60000000E+01  0.00000000E+00
  6.00000000E+01  3.40000000E+01  0.00000000E+00
  6.00000000E+01  3.20000000E+01  0.00000000E+00
  6.00000000E+01  3.00000000E+01  0.00000000E+00
  6.00000000E+01  2.80000000E+01  0.00000000E+00
  6.00000000E+01  2.60000000E+01  0.00000000E+00
  6.00000000E+01  2.40000000E+01  0.00000000E+00
  6.00000000E+01  2.20000000E+01  0.00000000E+00
  6.00000000E+01  2.00000000E+01  0.00000000E+00
  6.00000000E+01  1.80000000E+01  0.00000000E+00
  6.00000000E+01  1.60000000E+01  0.00000000E+00
  6.00000000E+01  1.40000000E+01  0.00000000E+00
  6.00000000E+01  1.20000000E+01  0.00000000E+00
  6.00000000E+01  1.00000000E+01  0.00000000E+00
  6.00000000E+01  8.00000000E+00  0.00000000E+00
  6.00000000E+01  6.00000000E+00  0.00000000E+00
  6.00000000E+01  4.00000000E+00  0.00000000E+00
  6.00000000E+01  2.00000000E+00  0.00000000E+00
  6.00000000E+01 -3.33066907E-14  0.00000000E+00
  7.00000000E+01  1.00000000E+02  0.00000000E+00
  7.00000000E+01  9.80000000E+01  0.00000000E+00
  7.00000000E+01  9.60000000E+01  0.00000000E+00
  7.00000000E+01  9.40000000E+01  0.00000000E+00
  7.00000000E+01  9.20000000E+01  0.00000000E+00
  7.00000000E+01  9.00000000E+01  0.00000000E+00
  7.00000000E+01  8.80000000E+01  0.00000000E+00
  7.00000000E+01  8.60000000E+01  0.00000000E+00
  7.00000000E+01  8.40000000E+01  0.00000000E+00
  7.00000000E+01  8.20000000E+01  0.00000000E+00
  7.00000000E+01  8.00000000E+01  0.00000000E+00
  7.00000000E+01  7.80000000E+01  0.00000000E+00
  7.00000000E+01  7.60000000E+01  0.00000000E+00
  7.00000000E+01  7.40000000E+01  0.00000000E+00
  7.00000000E+01  7.20000000E+01  0.00000000E+00
  7.00000000E+01  7.00000000E+01  0.00000000E+00
  7.00000000E+01  6.80000000E+01  0.00000000E+00
  7.00000000E+01  6.60000000E+01  0.00000000E+00
  7.00000000E+01  6.40000000E+01  0.00000000E+00
  7.00000000E+01  6.20000000E+01  0.00000000E+00
  7.00000000E+01  6.00000000E+01  0.00000000E+00
  7.00000000E+01  5.80000000E+01  0.00000000E+00
  7.00000000E+01  5.60000000E+01  0.00000000E+00
  7.00000000E+01  5.40000000E+01  0.00000000E+00
  7.00000000E+01  5.20000000E+01  0.00000000E+00
  7.00000000E+01  5.00000000E+01  0.00000000E+00
  7.00000000E+01  4.80000000E+01  0.00000000E+00
  7.00000000E+01  4.60000000E+01  0.00000000E+00
  7.00000000E+01  4.40000000E+01  0.00000000E+00
  7.00000000E+01  4.20000000E+01  0.00000000E+00
  7.00000000E+01  4.00000000E+01  0.00000000E+00
  7.00000000E+01  3.80000000E+01  0.00000000E+00
  7.00000000E+01  3.60000000E+01  0.00000000E+00
  7.00000000E+01  3.40000000E+01  0.00000000E+00
  7.00000000E+01  3.20000000E+01  0.00000000E+00
  7.00000000E+01  3.00000000E+01  0.00000000E+00
  7.00000000E+01  2.80000000E+01  0.00000000E+00
  7.00000000E+01  2.60000000E+01  0.00000000E+00
  7.00000000E+01  2.40000000E+01  0.00000000E+00
  7.00000000E+01  2.20000000E+01  0.00000000E+00
  7.00000000E+01  2.00000000E+01  0.00000000E+00
  7.00000000E+01  1.80000000E+01  0.00000000E+00
  7.00000000E+01  1.60000000E+01  0.00000000E+00
  7.00000000E+01  1.40000000E+01  0.00000000E+00
  7.00000000E+01  1.20000000E+01  0.00000000E+00
  7.00000000E+01  1.00000000E+01  0.00000000E+00
  7.00000000E+01  8.00000000E+00  0.00000000E+00
  7.00000000E+01  6.00000000E+00  0.00000000E+00
  7.00000000E+01  4.00000000E+00  0.00000000E+00
  7.00000000E+01  2.00000000E+00  0.00000000E+00
  7.00000000E+01 -3.33066907E-14  0.00000000E+00
  8.00000000E+01  1.00000000E+02  0.00000000E+00
  8.00000000E+01  9.80000000E+01  0.00000000E+00
  8.00000000E+01  9.60000000E+01  0.00000000E+00
  8.00000000E+01  9.40000000E+01  0.00000000E+00
  8.00000000E+01  9.20000000E+01  0.00000000E+00
  8.00000000E+01  9.00000000E+01  0.00000000E+00
  8.00000000E+01  8.80000000E+01  0.00000000E+00
  8.00000000E+01  8.60000000E+01  0.00000000E+00
  8.00000000E+01  8.40000000E+01  0.00000000E+00
  8.00000000E+01  8.20000000E+01  0.00000000E+00
  8.00000000E+01  8.00000000E+01  0.00000000E+00
  8.00000000E+01  7.80000000E+01  0.00000000E+00
  8.00000000E+01  7.60000000E+01  0.00000000E+00
  8.00000000E+01  7.40000000E+01  0.00000000E+00
  8.00000000E+01  7.20000000E+01  0.00000000E+00
  8.00000000E+01  7.00000000E+01  0.00000000E+00
  8.00000000E+01  6.80000000E+01  0.00000000E+00
  8.00000000E+01  6.60000000E+01  0.00000000E+00
  8.00000000E+01  6.40000000E+01  0.00000000E+00
  8.00000000E+01  6.20000000E+01  0.00000000E+00
  8.00000000E+01  6.00000000E+01  0.00000000E+00
  8.00000000E+01  5.80000000E+01  0.00000000E+00
  8.00000000E+01  5.60000000E+01  0.00000000E+00
  8.00000000E+01  5.40000000E+01  0.00000000E+00
  8.00000000E+01  5.20000000E+01  0.00000000E+00
  8.00000000E+01  5.00000000E+01  0.00000000E+00
  8.00000000E+01  4.80000000E+01  0.00000000E+00
  8.00000000E+01  4.60000000E+01  0.00000000E+00
  8.00000000E+01  4.40000000E+01  0.00000000E+00
  8.00000000E+01  4.20000000E+01  0.00000000E+00
  8.00000000E+01  4.00000000E+01  0.00000000E+00
  8.00000000E+01  3.80000000E+01  0.00000000E+00
  8.00000000E+01  3.60000000E+01  0.00000000E+00
  8.00000000E+01  3.40000000E+01  0.00000000E+00
  8.00000000E+01  3.20000000E+01  0.00000000E+00
  8.00000000E+01  3.00000000E+01  0.00000000E+00
  8.00000000E+01  2.80000000E+01  0.00000000E+00
  8.00000000E+01  2.60000000E+01  0.00000000E+00
  8.00000000E+01  2.40000000E+01  0.00000000E+00
  8.00000000E+01  2.20000000E+01  0.00000000E+00
  8.00000000E+01  2.00000000E+01  0.00000000E+00
  8.00000000E+01  1.80000000E+01  0.00000000E+00
  8.00000000E+01  1.60000000E+01  0.00000000E+00
  8.00000000E+01  1.40000000E+01  0.00000000E+00
  8.00000000E+01  1.20000000E+01  0.00000000E+00
  8.00000000E+01  1.00000000E+01  0.00000000E+00
  8.00000000E+01  8.00000000E+00  0.00000000E+00
  8.00000000E+01  6.00000000E+00  0.00000000E+00
  8.00000000E+01  4.00000000E+00  0.00000000E+00
  8.00000000E+01  2.00000000E+00  0.00000000E+00
  8.00000000E+01 -3.33066907E-14  0.00000000E+00
  9.00000000E+01  1.00000000E+02  0.00000000E+00
  9.00000000E+01  9.80000000E+01  0.00000000E+00
  9.00000000E+01  9.60000000E+01  0.00000000E+00
  9.00000000E+01  9.40000000E+01  0.00000000E+00
  9.00000000E+01  9.20000000E+01  0.00000000E+00
  9.00000000E+01  9.00000000E+01  0.00000000E+00
  9.00000000E+01  8.80000000E+01  0.00000000E+00
  9.00000000E+01  8.60000000E+01  0.00000000E+00
  9.00000000E+01  8.40000000E+01  0.00000000E+00
  9.00000000E+01  8.20000000E+01  0.00000000E+00
  9.00000000E+01  8.00000000E+01  0.00000000E+00
  9.00000000E+01  7.80000000E+01  0.00000000E+00
  9.00000000E+01  7.60000000E+01  0.00000000E+00
  9.00000000E+01  7.40000000E+01  0.00000000E+00
  9.00000000E+01  7.20000000E+01  0.00000000E+00
  9.00000000E+01  7.00000000E+01  0.00000000E+00
  9.00000000E+01  6.80000000E+01  0.00000000E+00
  9.00000000E+01  6.60000000E+01  0.00000000E+00
  9.00000000E+01  6.40000000E+01  0.00000000E+00
  9.00000000E+01  6.20000000E+01  0.00000000E+00
  9.00000000E+01  6.00000000E+01  0.00000000E+00
  9.00000000E+01  5.80000000E+01  0.00000000E+00
  9.00000000E+01  5.60000000E+01  0.00000000E+00
  9.00000000E+01  5.40000000E+01  0.00000000E+00
  9.00000000E+01  5.20000000E+01  0.00000000E+00
  9.00000000E+01  5.00000000E+01  0.00000000E+00
  9.00000000E+01  4.80000000E+01  0.00000000E+00
  9.00000000E+01  4.60000000E+01  0.00000000E+00
  9.00000000E+01  4.40000000E+01  0.00000000E+00
  9.00000000E+01  4.20000000E+01  0.00000000E+00
  9.00000000E+01  4.00000000E+01  0.00000000E+00
  9.00000000E+01  3.80000000E+01  0.00000000E+00
  9.00000000E+01  3.60000000E+01  0.00000000E+00
  9.00000000E+01  3.40000000E+01  0.00000000E+00
  9.00000000E+01  3.20000000E+01  0.00000000E+00
  9.00000000E+01  3.00000000E+01  0.00000000E+00
  9.00000000E+01  2.80000000E+01  0.00000000E+00
  9.00000000E+01  2.60000000E+01  0.00000000E+00
  9.00000000E+01  2.40000000E+01  0.00000000E+00
  9.00000000E+01  2.20000000E+01  0.00000000E+00
  9.00000000E+01  2.00000000E+01  0.00000000E+00
  9.00000000E+01  1.80000000E+01  0.00000000E+00
  9.00000000E+01  1.60000000E+01  0.00000000E+00
  9.00000000E+01  1.40000000E+01  0.00000000E+00
  9.00000000E+01  1.20000000E+01  0.00000000E+00
  9.00000000E+01  1.00000000E+01  0.00000000E+00
  9.00000000E+01  8.00000000E+00  0.00000000E+00
  9.00000000E+01  6.00000000E+00  0.00000000E+00
  9.00000000E+01  4.00000000E+00  0.00000000E+00
  9.00000000E+01  2.00000000E+00  0.00000000E+00
  9.00000000E+01 -3.33066907E-14  0.00000000E+00
  1.00000000E+02  1.00000000E+02  0.00000000E+00
  1.00000000E+02  9.80000000E+01  0.00000000E+00
  1.00000000E+02  9.60000000E+01  0.00000000E+00
  1.00000000E+02  9.40000000E+01  0.00000000E+00
  1.00000000E+02  9.20000000E+01  0.00000000E+00
  1.00000000E+02  9.00000000E+01  0.00000000E+00
  1.00000000E+02  8.80000000E+01  0.00000000E+00
  1.00000000E+02  8.60000000E+01  0.00000000E+00
  1.00000000E+02  8.40000000E+01  0.00000000E+00
  1.00000000E+02  8.20000000E+01  0.00000000E+00
  1.00000000E+02  8.00000000E+01  0.00000000E+00
  1.00000000E+02  7.80000000E+01  0.00000000E+00
  1.00000000E+02  7.60000000E+01  0.00000000E+00
  1.00000000E+02  7.40000000E+01  0.00000000E+00
  1.00000000E+02  7.20000000E+01  0.00000000E+00
  1.00000000E+02  7.00000000E+01  0.00000000E+00
  1.00000000E+02  6.80000000E+01  0.00000000E+00
  1.00000000E+02  6.60000000E+01  0.00000000E+00
  1.00000000E+02  6.40000000E+01  0.00000000E+00
  1.00000000E+02  6.20000000E+01  0.00000000E+00
  1.00000000E+02  6.00000000E+01  0.00000000E+00
  1.00000000E+02  5.80000000E+01  0.00000000E+00
  1.00000000E+02  5.60000000E+01  0.00000000E+00
  1.00000000E+02  5.40000000E+01  0.00000000E+00
  1.00000000E+02  5.20000000E+01  0.00000000E+00
  1.00000000E+02  5.00000000E+01  0.00000000E+00
  1.00000000E+02  4.80000000E+01  0.00000000E+00
  1.00000000E+02  4.60000000E+01  0.00000000E+00
  1.00000000E+02  4.40000000E+01  0.00000000E+00
  1.00000000E+02  4.20000000E+01  0.00000000E+00
  1.00000000E+02  4.00000000E+01  0.00000000E+00
  1.00000000E+02  3.80000000E+01  0.00000000E+00
  1.00000000E+02  3.60000000E+01  0.00000000E+00
  1.00000000E+02  3.40000000E+01  0.00000000E+00
  1.00000000E+02  3.20000000E+01  0.00000000E+00
  1.00000000E+02  3.00000000E+01  0.00000000E+00
  1.00000000E+02  2.80000000E+01  0.00000000E+00
  1.00000000E+02  2.60000000E+01  0.00000000E+00
  1.00000000E+02  2.40000000E+01  0.00000000E+00
  1.00000000E+02  2.20000000E+01  0.00000000E+00
  1.00000000E+02  2.00000000E+01  0.00000000E+00
  1.00000000E+02  1.80000000E+01  0.00000000E+00
  1.00000000E+02  1.60000000E+01  0.00000000E+00
  1.00000000E+02  1.40000000E+01  0.00000000E+00
  1.00000000E+02  1.20000000E+01  0.00000000E+00
  1.00000000E+02  1.00000000E+01  0.00000000E+00
  1.00000000E+02  8.00000000E+00  0.00000000E+00
  1.00000000E+02  6.00000000E+00  0.00000000E+00
  1.00000000E+02  4.00000000E+00  0.00000000E+00
  1.00000000E+02  2.00000000E+00  0.00000000E+00
  1.00000000E+02 -3.33066907E-14  0.00000000E+00
  1.10000000E+02  1.00000000E+02  0.00000000E+00
  1.10000000E+02  9.80000000E+01  0.00000000E+00
  1.10000000E+02  9.60000000E+01  0.00000000E+00
  1.10000000E+02  9.40000000E+01  0.00000000E+00
  1.10000000E+02  9.20000000E+01  0.00000000E+00
  1.10000000E+02  9.00000000E+01  0.00000000E+00
  1.10000000E+02  8.80000000E+01  0.00000000E+00
  1.10000000E+02  8.60000000E+01  0.00000000E+00
  1.10000000E+02  8.40000000E+01  0.00000000E+00
  1.10000000E+02  8.20000000E+01  0.00000000E+00
  1.10000000E+02  8.00000000E+01  0.00000000E+00
  1.10000000E+02  7.80000000E+01  0.00000000E+00
  1.10000000E+02  7.60000000E+01  0.00000000E+00
  1.10000000E+02  7.40000000E+01  0.00000000E+00
  1.10000000E+02  7.20000000E+01  0.00000000E+00
  1.10000000E+02  7.00000000E+01  0.00000000E+00
  1.10000000E+02  6.80000000E+01  0.00000000E+00
  1.10000000E+02  6.60000000E+01  0.00000000E+00
  1.10000000E+02  6.40000000E+01  0.00000000E+00
  1.10000000E+02  6.20000000E+01  0.00000000E+00
  1.10000000E+02  6.00000000E+01  0.00000000E+00
  1.10000000E+02  5.80000000E+01  0.00000000E+00
  1.10000000E+02  5.60000000E+01  0.00000000E+00
  1.10000000E+02  5.40000000E+01  0.00000000E+00
  1.10000000E+02  5.20000000E+01  0.00000000E+00
  1.10000000E+02  5.00000000E+01  0.00000000E+00
  1.10000000E+02  4.80000000E+01  0.00000000E+00
  1.10000000E+02  4.60000000E+01  0.00000000E+00
  1.10000000E+02  4.40000000E+01  0.00000000E+00
  1.10000000E+02  4.20000000E+01  0.00000000E+00
  1.10000000E+02  4.00000000E+01  0.00000000E+00
  1.10000000E+02  3.80000000E+01  0.00000000E+00
  1.10000000E+02  3.60000000E+01  0.00000000E+00
  1.10000000E+02  3.40000000E+01  0.00000000E+00
  1.10000000E+02  3.20000000E+01  0.00000000E+00
  1.10000000E+02  3.00000000E+01  0.00000000E+00
  1.10000000E+02  2.80000000E+01  0.00000000E+00
  1.10000000E+02  2.60000000E+01  0.00000000E+00
  1.10000000E+02  2.40000000E+01  0.00000000E+00
  1.10000000E+02  2.20000000E+01  0.00000000E+00
  1.10000000E+02  2.00000000E+01  0.00000000E+00
  1.10000000E+02  1.80000000E+01  0.00000000E+00
  1.10000000E+02  1.60000000E+01  0.00000000E+00
  1.10000000E+02  1.40000000E+01  0.00000000E+00
  1.10000000E+02  1.20000000E+01  0.00000000E+00
  1.10000000E+02  1.00000000E+01  0.00000000E+00
  1.10000000E+02  8.00000000E+00  0.00000000E+00
  1.10000000E+02  6.00000000E+00  0.00000000E+00
  1.10000000E+02  4.00000000E+00  0.00000000E+00
  1.10000000E+02  2.00000000E+00  0.00000000E+00
  1.10000000E+02 -3.33066907E-14  0.00000000E+00
  1.20000000E+02  1.00000000E+02  0.00000000E+00
  1.20000000E+02  9.80000000E+01  0.00000000E+00
  1.20000000E+02  9.60000000E+01  0.00000000E+00
  1.20000000E+02  9.40000000E+01  0.00000000E+00
  1.20000000E+02  9.20000000E+01  0.00000000E+00
  1.20000000E+02  9.00000000E+01  0.00000000E+00
  1.20000000E+02  8.80000000E+01  0.00000000E+00
  1.20000000E+02  8.60000000E+01  0.00000000E+00
  1.20000000E+02  8.40000000E+01  0.00000000E+00
  1.20000000E+02  8.20000000E+01  0.00000000E+00
  1.20000000E+02  8.00000000E+01  0.00000000E+00
  1.20000000E+02  7.80000000E+01  0.00000000E+00
  1.20000000E+02  7.60000000E+01  0.00000000E+00
  1.20000000E+02  7.40000000E+01  0.00000000E+00
  1.20000000E+02  7.20000000E+01  0.00000000E+00
  1.20000000E+02  7.00000000E+01  0.00000000E+00
  1.20000000E+02  6.80000000E+01  0.00000000E+00
  1.20000000E+02  6.60000000E+01  0.00000000E+00
  1.20000000E+02  6.40000000E+01  0.00000000E+00
  1.20000000E+02  6.20000000E+01  0.00000000E+00
  1.20000000E+02  6.00000000E+01  0.00000000E+00
  1.20000000E+02  5.80000000E+01  0.00000000E+00
  1.20000000E+02  5.60000000E+01  0.00000000E+00
  1.20000000E+02  5.40000000E+01  0.00000000E+00
  1.20000000E+02  5.20000000E+01  0.00000000E+00
  1.20000000E+02  5.00000000E+01  0.00000000E+00
  1.20000000E+02  4.80000000E+01  0.00000000E+00
  1.20000000E+02  4.60000000E+01  0.00000000E+00
  1.20000000E+02  4.40000000E+01  0.00000000E+00
  1.20000000E+02  4.20000000E+01  0.00000000E+00
  1.20000000E+02  4.00000000E+01  0.00000000E+00
  1.20000000E+02  3.80000000E+01  0.00000000E+00
  1.20000000E+02  3.60000000E+01  0.00000000E+00
  1.20000000E+02  3.40000000E+01  0.00000000E+00
  1.20000000E+02  3.20000000E+01  0.00000000E+00
  1.20000000E+02  3.00000000E+01  0.00000000E+00
  1.20000000E+02  2.80000000E+01  0.00000000E+00
  1.20000000E+02  2.60000000E+01  0.00000000E+00
  1.20000000E+02  2.40000000E+01  0.00000000E+00
  1.20000000E+02  2.20000000E+01  0.00000000E+00
  1.20000000E+02  2.00000000E+01  0.00000000E+00
  1.20000000E+02  1.80000000E+01  0.00000000E+00
  1.20000000E+02  1.60000000E+01  0.00000000E+00
  1.20000000E+02  1.40000000E+01  0.00000000E+00
  1.20000000E+02  1.20000000E+01  0.00000000E+00
  1.20000000E+02  1.00000000E+01  0.00000000E+00
  1.20000000E+02  8.00000000E+00  0.00000000E+00
  1.20000000E+02  6.00000000E+00  0.00000000E+00
  1.20000000E+02  4.00000000E+00  0.00000000E+00
  1.20000000E+02  2.00000000E+00  0.00000000E+00
  1.20000000E+02 -3.33066907E-14  0.00000000E+00
  1.30000000E+02  1.00000000E+02  0.00000000E+00
  1.30000000E+02  9.80000000E+01  0.00000000E+00
  1.30000000E+02  9.60000000E+01  0.00000000E+00
  1.30000000E+02  9.40000000E+01  0.00000000E+00
  1.30000000E+02  9.20000000E+01  0.00000000E+00
  1.30000000E+02  9.00000000E+01  0.00000000E+00
  1.30000000E+02  8.80000000E+01  0.00000000E+00
  1.30000000E+02  8.60000000E+01  0.00000000E+00
  1.30000000E+02  8.40000000E+01  0.00000000E+00
  1.30000000E+02  8.20000000E+01  0.00000000E+00
  1.30000000E+02  8.00000000E+01  0.00000000E+00
  1.30000000E+02  7.80000000E+01  0.00000000E+00
  1.30000000E+02  7.60000000E+01  0.00000000E+00
  1.30000000E+02  7.40000000E+01  0.00000000E+00
  1.30000000E+02  7.20000000E+01  0.00000000E+00
  1.30000000E+02  7.00000000E+01  0.00000000E+00
  1.30000000E+02  6.80000000E+01  0.00000000E+00
  1.30000000E+02  6.60000000E+01  0.00000000E+00
  1.30000000E+02  6.40000000E+01  0.00000000E+00
  1.30000000E+02  6.20000000E+01  0.00000000E+00
  1.30000000E+02  6.00000000E+01  0.00000000E+00
  1.30000000E+02  5.80000000E+01  0.00000000E+00
  1.30000000E+02  5.60000000E+01  0.00000000E+00
  1.30000000E+02  5.40000000E+01  0.00000000E+00
  1.30000000E+02  5.20000000E+01  0.00000000E+00
  1.30000000E+02  5.00000000E+01  0.00000000E+00
  1.30000000E+02  4.80000000E+01  0.00000000E+00
  1.30000000E+02  4.60000000E+01  0.00000000E+00
  1.30000000E+02  4.40000000E+01  0.00000000E+00
  1.30000000E+02  4.20000000E+01  0.00000000E+00
  1.30000000E+02  4.00000000E+01  0.00000000E+00
  1.30000000E+02  3.80000000E+01  0.00000000E+00
  1.30000000E+02  3.60000000E+01  0.00000000E+00
  1.30000000E+02  3.40000000E+01  0.00000000E+00
  1.30000000E+02  3.20000000E+01  0.00000000E+00
  1.30000000E+02  3.00000000E+01  0.00000000E+00
  1.30000000E+02  2.80000000E+01  0.00000000E+00
  1.30000000E+02  2.60000000E+01  0.00000000E+00
  1.30000000E+02  2.40000000E+01  0.00000000E+00
  1.30000000E+02  2.20000000E+01  0.00000000E+00
  1.30000000E+02  2.00000000E+01  0.00000000E+00
  1.30000000E+02  1.80000000E+01  0.00000000E+00
  1.30000000E+02  1.60000000E+01  0.00000000E+00
  1.30000000E+02  1.40000000E+01  0.00000000E+00
  1.30000000E+02  1.20000000E+01  0.00000000E+00
  1.30000000E+02  1.00000000E+01  0.00000000E+00
  1.30000000E+02  8.00000000E+00  0.00000000E+00
  1.30000000E+02  6.00000000E+00  0.00000000E+00
  1.30000000E+02  4.00000000E+00  0.00000000E+00
  1.30000000E+02  2.00000000E+00  0.00000000E+00
  1.30000000E+02 -3.33066907E-14  0.00000000E+00
  1.40000000E+02  1.00000000E+02  0.00000000E+00
  1.40000000E+02  9.80000000E+01  0.00000000E+00
  1.40000000E+02  9.60000000E+01  0.00000000E+00
  1.40000000E+02  9.40000000E+01  0.00000000E+00
  1.40000000E+02  9.20000000E+01  0.00000000E+00
  1.40000000E+02  9.00000000E+01  0.00000000E+00
  1.40000000E+02  8.80000000E+01  0.00000000E+00
  1.40000000E+02  8.60000000E+01  0.00000000E+00
  1.40000000E+02  8.40000000E+01  0.00000000E+00
  1.40000000E+02  8.20000000E+01  0.00000000E+00
  1.40000000E+02  8.00000000E+01  0.00000000E+00
  1.40000000E+02  7.80000000E+01  0.00000000E+00
  1.40000000E+02  7.60000000E+01  0.00000000E+00
  1.40000000E+02  7.40000000E+01  0.00000000E+00
  1.40000000E+02  7.20000000E+01  0.00000000E+00
  1.40000000E+02  7.00000000E+01  0.00000000E+00
  1.40000000E+02  6.80000000E+01  0.00000000E+00
  1.40000000E+02  6.60000000E+01  0.00000000E+00
  1.40000000E+02  6.40000000E+01  0.00000000E+00
  1.40000000E+02  6.20000000E+01  0.00000000E+00
  1.40000000E+02  6.00000000E+01  0.00000000E+00
  1.40000000E+02  5.80000000E+01  0.00000000E+00
  1.40000000E+02  5.60000000E+01  0.00000000E+00
  1.40000000E+02  5.40000000E+01  0.00000000E+00
  1.40000000E+02  5.20000000E+01  0.00000000E+00
  1.40000000E+02  5.00000000E+01  0.00000000E+00
  1.40000000E+02  4.80000000E+01  0.00000000E+00
  1.40000000E+02  4.60000000E+01  0.00000000E+00
  1.40000000E+02  4.40000000E+01  0.00000000E+00
  1.40000000E+02  4.20000000E+01  0.00000000E+00
  1.40000000E+02  4.00000000E+01  0.00000000E+00
  1.40000000E+02  3.80000000E+01  0.00000000E+00
  1.40000000E+02  3.60000000E+01  0.00000000E+00
  1.40000000E+02  3.40000000E+01  0.00000000E+00
  1.40000000E+02  3.20000000E+01  0.00000000E+00
  1.40000000E+02  3.00000000E+01  0.00000000E+00
  1.40000000E+02  2.80000000E+01  0.00000000E+00
  1.40000000E+02  2.60000000E+01  0.00000000E+00
  1.40000000E+02  2.40000000E+01  0.00000000E+00
  1.40000000E+02  2.20000000E+01  0.00000000E+00
  1.40000000E+02  2.00000000E+01  0.00000000E+00
  1.40000000E+02  1.80000000E+01  0.00000000E+00
  1.40000000E+02  1.60000000E+01  0.00000000E+00
  1.40000000E+02  1.40000000E+01  0.00000000E+00
  1.40000000E+02  1.20000000E+01  0.00000000E+00
  1.40000000E+02  1.00000000E+01  0.00000000E+00
  1.40000000E+02  8.00000000E+00  0.00000000E+00
  1.40000000E+02  6.00000000E+00  0.00000000E+00
  1.40000000E+02  4.00000000E+00  0.00000000E+00
  1.40000000E+02  2.00000000E+00  0.00000000E+00
  1.40000000E+02 -3.33066907E-14  0.00000000E+00
  1.50000000E+02  1.00000000E+02  0.00000000E+00
  1.50000000E+02  9.80000000E+01  0.00000000E+00
  1.50000000E+02  9.60000000E+01  0.00000000E+00
  1.50000000E+02  9.40000000E+01  0.00000000E+00
  1.50000000E+02  9.20000000E+01  0.00000000E+00
  1.50000000E+02  9.00000000E+01  0.00000000E+00
  1.50000000E+02  8.80000000E+01  0.00000000E+00
  1.50000000E+02  8.60000000E+01  0.00000000E+00
  1.50000000E+02  8.40000000E+01  0.00000000E+00
  1.50000000E+02  8.20000000E+01  0.00000000E+00
  1.50000000E+02  8.00000000E+01  0.00000000E+00
  1.50000000E+02  7.80000000E+01  0.00000000E+00
  1.50000000E+02  7.60000000E+01  0.00000000E+00
  1.50000000E+02  7.40000000E+01  0.00000000E+00
  1.50000000E+02  7.20000000E+01  0.00000000E+00
  1.50000000E+02  7.00000000E+01  0.00000000E+00
  1.50000000E+02  6.80000000E+01  0.00000000E+00
  1.50000000E+02  6.60000000E+01  0.00000000E+00
  1.50000000E+02  6.40000000E+01  0.00000000E+00
  1.50000000E+02  6.20000000E+01  0.00000000E+00
  1.50000000E+02  6.00000000E+01  0.00000000E+00
  1.50000000E+02  5.80000000E+01  0.00000000E+00
  1.50000000E+02  5.60000000E+01  0.00000000E+00
  1.50000000E+02  5.40000000E+01  0.00000000E+00
  1.50000000E+02  5.20000000E+01  0.00000000E+00
  1.50000000E+02  5.00000000E+01  0.00000000E+00
  1.50000000E+02  4.80000000E+01  0.00000000E+00
  1.50000000E+02  4.60000000E+01  0.00000000E+00
  1.50000000E+02  4.40000000E+01  0.00000000E+00
  1.50000000E+02  4.20000000E+01  0.00000000E+00
  1.50000000E+02  4.00000000E+01  0.00000000E+00
  1.50000000E+02  3.80000000E+01  0.00000000E+00
  1.50000000E+02  3.60000000E+01  0.00000000E+00
  1.50000000E+02  3.40000000E+01  0.00000000E+00
  1.50000000E+02  3.20000000E+01  0.00000000E+00
  1.50000000E+02  3.00000000E+01  0.00000000E+00
  1.50000000E+02  2.80000000E+01  0.00000000E+00
  1.50000000E+02  2.60000000E+01  0.00000000E+00
  1.50000000E+02  2.40000000E+01  0.00000000E+00
  1.50000000E+02  2.20000000E+01  0.00000000E+00
  1.50000000E+02  2.00000000E+01  0.00000000E+00
  1.50000000E+02  1.80000000E+01  0.00000000E+00
  1.50000000E+02  1.60000000E+01  0.00000000E+00
  1.50000000E+02  1.40000000E+01  0.00000000E+00
  1.50000000E+02  1.20000000E+01  0.00000000E+00
  1.50000000E+02  1.00000000E+01  0.00000000E+00
  1.50000000E+02  8.00000000E+00  0.00000000E+00
  1.50000000E+02  6.00000000E+00  0.00000000E+00
  1.50000000E+02  4.00000000E+00  0.00000000E+00
  1.50000000E+02  2.00000000E+00  0.00000000E+00
  1.50000000E+02 -3.33066907E-14  0.00000000E+00
  1.60000000E+02  1.00000000E+02  0.00000000E+00
  1.60000000E+02  9.80000000E+01  0.00000000E+00
  1.60000000E+02  9.60000000E+01  0.00000000E+00
  1.60000000E+02  9.40000000E+01  0.00000000E+00
  1.60000000E+02  9.20000000E+01  0.00000000E+00
  1.60000000E+02  9.00000000E+01  0.00000000E+00
  1.60000000E+02  8.80000000E+01  0.00000000E+00
  1.60000000E+02  8.60000000E+01  0.00000000E+00
  1.60000000E+02  8.40000000E+01  0.00000000E+00
  1.60000000E+02  8.20000000E+01  0.00000000E+00
  1.60000000E+02  8.00000000E+01  0.00000000E+00
  1.60000000E+02  7.80000000E+01  0.00000000E+00
  1.60000000E+02  7.60000000E+01  0.00000000E+00
  1.60000000E+02  7.40000000E+01  0.00000000E+00
  1.60000000E+02  7.20000000E+01  0.00000000E+00
  1.60000000E+02  7.00000000E+01  0.00000000E+00
  1.60000000E+02  6.80000000E+01  0.00000000E+00
  1.60000000E+02  6.60000000E+01  0.00000000E+00
  1.60000000E+02  6.40000000E+01  0.00000000E+00
  1.60000000E+02  6.20000000E+01  0.00000000E+00
  1.60000000E+02  6.00000000E+01  0.00000000E+00
  1.60000000E+02  5.80000000E+01  0.00000000E+00
  1.60000000E+02  5.60000000E+01  0.00000000E+00
  1.60000000E+02  5.40000000E+01  0.00000000E+00
  1.60000000E+02  5.20000000E+01  0.00000000E+00
  1.60000000E+02  5.00000000E+01  0.00000000E+00
  1.60000000E+02  4.80000000E+01  0.00000000E+00
  1.60000000E+02  4.60000000E+01  0.00000000E+00
  1.60000000E+02  4.40000000E+01  0.00000000E+00
  1.60000000E+02  4.20000000E+01  0.00000000E+00
  1.60000000E+02  4.00000000E+01  0.00000000E+00
  1.60000000E+02  3.80000000E+01  0.00000000E+00
  1.60000000E+02  3.60000000E+01  0.00000000E+00
  1.60000000E+02  3.40000000E+01  0.00000000E+00
  1.60000000E+02  3.20000000E+01  0.00000000E+00
  1.60000000E+02  3.00000000E+01  0.00000000E+00
  1.60000000E+02  2.80000000E+01  0.00000000E+00
  1.60000000E+02  2.60000000E+01  0.00000000E+00
  1.60000000E+02  2.40000000E+01  0.00000000E+00
  1.60000000E+02  2.20000000E+01  0.00000000E+00
  1.60000000E+02  2.00000000E+01  0.00000000E+00
  1.60000000E+02  1.80000000E+01  0.00000000E+00
  1.60000000E+02  1.60000000E+01  0.00000000E+00
  1.60000000E+02  1.40000000E+01  0.00000000E+00
  1.60000000E+02  1.20000000E+01  0.00000000E+00
  1.60000000E+02  1.00000000E+01  0.00000000E+00
  1.60000000E+02  8.00000000E+00  0.00000000E+00
  1.60000000E+02  6.00000000E+00  0.00000000E+00
  1.60000000E+02  4.00000000E+00  0.00000000E+00
  1.60000000E+02  2.00000000E+00  0.00000000E+00
  1.60000000E+02 -3.33066907E-14  0.00000000E+00
  1.70000000E+02  1.00000000E+02  0.00000000E+00
  1.70000000E+02  9.80000000E+01  0.00000000E+00
  1.70000000E+02  9.60000000E+01  0.00000000E+00
  1.70000000E+02  9.40000000E+01  0.00000000E+00
  1.70000000E+02  9.20000000E+01  0.00000000E+00
  1.70000000E+02  9.00000000E+01  0.00000000E+00
  1.70000000E+02  8.80000000E+01  0.00000000E+00
  1.70000000E+02  8.60000000E+01  0.00000000E+00
  1.70000000E+02  8.40000000E+01  0.00000000E+00
  1.70000000E+02  8.20000000E+01  0.00000000E+00
  1.70000000E+02  8.00000000E+01  0.00000000E+00
  1.70000000E+02  7.80000000E+01  0.00000000E+00
  1.70000000E+02  7.60000000E+01  0.00000000E+00
  1.70000000E+02  7.40000000E+01  0.00000000E+00
  1.70000000E+02  7.20000000E+01  0.00000000E+00
  1.70000000E+02  7.00000000E+01  0.00000000E+00
  1.70000000E+02  6.80000000E+01  0.00000000E+00
  1.70000000E+02  6.60000000E+01  0.00000000E+00
  1.70000000E+02  6.40000000E+01  0.00000000E+00
  1.70000000E+02  6.20000000E+01  0.00000000E+00
  1.70000000E+02  6.00000000E+01  0.00000000E+00
  1.70000000E+02  5.80000000E+01  0.00000000E+00
  1.70000000E+02  5.60000000E+01  0.00000000E+00
  1.70000000E+02  5.40000000E+01  0.00000000E+00
  1.70000000E+02  5.20000000E+01  0.00000000E+00
  1.70000000E+02  5.00000000E+01  0.00000000E+00
  1.70000000E+02  4.80000000E+01  0.00000000E+00
  1.70000000E+02  4.60000000E+01  0.00000000E+00
  1.70000000E+02  4.40000000E+01  0.00000000E+00
  1.70000000E+02  4.20000000E+01  0.00000000E+00
  1.70000000E+02  4.00000000E+01  0.00000000E+00
  1.70000000E+02  3.80000000E+01  0.00000000E+00
  1.70000000E+02  3.60000000E+01  0.00000000E+00
  1.70000000E+02  3.40000000E+01  0.00000000E+00
  1.70000000E+02  3.20000000E+01  0.00000000E+00
  1.70000000E+02  3.00000000E+01  0.00000000E+00
  1.70000000E+02  2.80000000E+01  0.00000000E+00
  1.70000000E+02  2.60000000E+01  0.00000000E+00
  1.70000000E+02  2.40000000E+01  0.00000000E+00
  1.70000000E+02  2.20000000E+01  0.00000000E+00
  1.70000000E+02  2.00000000E+01  0.00000000E+00
  1.70000000E+02  1.80000000E+01  0.00000000E+00
  1.70000000E+02  1.60000000E+01  0.00000000E+00
  1.70000000E+02  1.40000000E+01  0.00000000E+00
  1.70000000E+02  1.20000000E+01  0.00000000E+00
  1.70000000E+02  1.00000000E+01  0.00000000E+00
  1.70000000E+02  8.00000000E+00  0.00000000E+00
  1.70000000E+02  6.00000000E+00  0.00000000E+00
  1.70000000E+02  4.00000000E+00  0.00000000E+00
  1.70000000E+02  2.00000000E+00  0.00000000E+00
  1.70000000E+02 -3.33066907E-14  0.00000000E+00
  1.80000000E+02  1.00000000E+02  0.00000000E+00
  1.80000000E+02  9.80000000E+01  0.00000000E+00
  1.80000000E+02  9.60000000E+01  0.00000000E+00
  1.80000000E+02  9.40000000E+01  0.00000000E+00
  1.80000000E+02  9.20000000E+01  0.00000000E+00
  1.80000000E+02  9.00000000E+01  0.00000000E+00
  1.80000000E+02  8.80000000E+01  0.00000000E+00
  1.80000000E+02  8.60000000E+01  0.00000000E+00
  1.80000000E+02  8.40000000E+01  0.00000000E+00
  1.80000000E+02  8.20000000E+01  0.00000000E+00
  1.80000000E+02  8.00000000E+01  0.00000000E+00
  1.80000000E+02  7.80000000E+01  0.00000000E+00
  1.80000000E+02  7.60000000E+01  0.00000000E+00
  1.80000000E+02  7.40000000E+01  0.00000000E+00
  1.80000000E+02  7.20000000E+01  0.00000000E+00
  1.80000000E+02  7.00000000E+01  0.00000000E+00
  1.80000000E+02  6.80000000E+01  0.00000000E+00
  1.80000000E+02  6.60000000E+01  0.00000000E+00
  1.80000000E+02  6.40000000E+01  0.00000000E+00
  1.80000000E+02  6.20000000E+01  0.00000000E+00
  1.80000000E+02  6.00000000E+01  0.00000000E+00
  1.80000000E+02  5.80000000E+01  0.00000000E+00
  1.80000000E+02  5.60000000E+01  0.00000000E+00
  1.80000000E+02  5.40000000E+01  0.00000000E+00
  1.80000000E+02  5.20000000E+01  0.00000000E+00
  1.80000000E+02  5.00000000E+01  0.00000000E+00
  1.80000000E+02  4.80000000E+01  0.00000000E+00
  1.80000000E+02  4.60000000E+01  0.00000000E+00
  1.80000000E+02  4.40000000E+01  0.00000000E+00
  1.80000000E+02  4.20000000E+01  0.00000000E+00
  1.80000000E+02  4.00000000E+01  0.00000000E+00
  1.80000000E+02  3.80000000E+01  0.00000000E+00
  1.80000000E+02  3.60000000E+01  0.00000000E+00
  1.80000000E+02  3.40000000E+01  0.00000000E+00
  1.80000000E+02  3.20000000E+01  0.00000000E+00
  1.80000000E+02  3.00000000E+01  0.00000000E+00
  1.80000000E+02  2.80000000E+01  0.00000000E+00
  1.80000000E+02  2.60000000E+01  0.00000000E+00
  1.80000000E+02  2.40000000E+01  0.00000000E+00
  1.80000000E+02  2.20000000E+01  0.00000000E+00
  1.80000000E+02  2.00000000E+01  0.00000000E+00
  1.80000000E+02  1.80000000E+01  0.00000000E+00
  1.80000000E+02  1.60000000E+01  0.00000000E+00
  1.80000000E+02  1.40000000E+01  0.00000000E+00
  1.80000000E+02  1.20000000E+01  0.00000000E+00
  1.80000000E+02  1.00000000E+01  0.00000000E+00
  1.80000000E+02  8.00000000E+00  0.00000000E+00
  1.80000000E+02  6.00000000E+00  0.00000000E+00
  1.80000000E+02  4.00000000E+00  0.00000000E+00
  1.80000000E+02  2.00000000E+00  0.00000000E+00
  1.80000000E+02 -3.33066907E-14  0.00000000E+00
  1.90000000E+02  1.00000000E+02  0.00000000E+00
  1.90000000E+02  9.80000000E+01  0.00000000E+00
  1.90000000E+02  9.60000000E+01  0.00000000E+00
  1.90000000E+02  9.40000000E+01  0.00000000E+00
  1.90000000E+02  9.20000000E+01  0.00000000E+00
  1.90000000E+02  9.00000000E+01  0.00000000E+00
  1.90000000E+02  8.80000000E+01  0.00000000E+00
  1.90000000E+02  8.60000000E+01  0.00000000E+00
  1.90000000E+02  8.40000000E+01  0.00000000E+00
  1.90000000E+02  8.20000000E+01  0.00000000E+00
  1.90000000E+02  8.00000000E+01  0.00000000E+00
  1.90000000E+02  7.80000000E+01  0.00000000E+00
  1.90000000E+02  7.60000000E+01  0.00000000E+00
  1.90000000E+02  7.40000000E+01  0.00000000E+00
  1.90000000E+02  7.20000000E+01  0.00000000E+00
  1.90000000E+02  7.00000000E+01  0.00000000E+00
  1.90000000E+02  6.80000000E+01  0.00000000E+00
  1.90000000E+02  6.60000000E+01  0.00000000E+00
  1.90000000E+02  6.40000000E+01  0.00000000E+00
  1.90000000E+02  6.20000000E+01  0.00000000E+00
  1.90000000E+02  6.00000000E+01  0.00000000E+00
  1.90000000E+02  5.80000000E+01  0.00000000E+00
  1.90000000E+02  5.60000000E+01  0.00000000E+00
  1.90000000E+02  5.40000000E+01  0.00000000E+00
  1.90000000E+02  5.20000000E+01  0.00000000E+00
  1.90000000E+02  5.00000000E+01  0.00000000E+00
  1.90000000E+02  4.80000000E+01  0.00000000E+00
  1.90000000E+02  4.60000000E+01  0.00000000E+00
  1.90000000E+02  4.40000000E+01  0.00000000E+00
  1.90000000E+02  4.20000000E+01  0.00000000E+00
  1.90000000E+02  4.00000000E+01  0.00000000E+00
  1.90000000E+02  3.80000000E+01  0.00000000E+00
  1.90000000E+02  3.60000000E+01  0.00000000E+00
  1.90000000E+02  3.40000000E+01  0.00000000E+00
  1.90000000E+02  3.20000000E+01  0.00000000E+00
  1.90000000E+02  3.00000000E+01  0.00000000E+00
  1.90000000E+02  2.80000000E+01  0.00000000E+00
  1.90000000E+02  2.60000000E+01  0.00000000E+00
  1.90000000E+02  2.40000000E+01  0.00000000E+00
  1.90000000E+02  2.20000000E+01  0.00000000E+00
  1.90000000E+02  2.00000000E+01  0.00000000E+00
  1.90000000E+02  1.80000000E+01  0.00000000E+00
  1.90000000E+02  1.60000000E+01  0.00000000E+00
  1.90000000E+02  1.40000000E+01  0.00000000E+00
  1.90000000E+02  1.20000000E+01  0.00000000E+00
  1.90000000E+02  1.00000000E+01  0.00000000E+00
  1.90000000E+02  8.00000000E+00  0.00000000E+00
  1.90000000E+02  6.00000000E+00  0.00000000E+00
  1.90000000E+02  4.00000000E+00  0.00000000E+00
  1.90000000E+02  2.00000000E+00  0.00000000E+00
  1.90000000E+02 -3.33066907E-14  0.00000000E+00
  2.00000000E+02  1.00000000E+02  0.00000000E+00
  2.00000000E+02  9.80000000E+01  0.00000000E+00
  2.00000000E+02  9.60000000E+01  0.00000000E+00
  2.00000000E+02  9.40000000E+01  0.00000000E+00
  2.00000000E+02  9.20000000E+01  0.00000000E+00
  2.00000000E+02  9.00000000E+01  0.00000000E+00
  2.00000000E+02  8.80000000E+01  0.00000000E+00
  2.00000000E+02  8.60000000E+01  0.00000000E+00
  2.00000000E+02  8.40000000E+01  0.00000000E+00
  2.00000000E+02  8.20000000E+01  0.00000000E+00
  2.00000000E+02  8.00000000E+01  0.00000000E+00
  2.00000000E+02  7.80000000E+01  0.00000000E+00
  2.00000000E+02  7.60000000E+01  0.00000000E+00
  2.00000000E+02  7.40000000E+01  0.00000000E+00
  2.00000000E+02  7.20000000E+01  0.00000000E+00
  2.00000000E+02  7.00000000E+01  0.00000000E+00
  2.00000000E+02  6.80000000E+01  0.00000000E+00
  2.00000000E+02  6.60000000E+01  0.00000000E+00
  2.00000000E+02  6.40000000E+01  0.00000000E+00
  2.00000000E+02  6.20000000E+01  0.00000000E+00
  2.00000000E+02  6.00000000E+01  0.00000000E+00
  2.00000000E+02  5.80000000E+01  0.00000000E+00
  2.00000000E+02  5.60000000E+01  0.00000000E+00
  2.00000000E+02  5.40000000E+01  0.00000000E+00
  2.00000000E+02  5.20000000E+01  0.00000000E+00
  2.00000000E+02  5.00000000E+01  0.00000000E+00
  2.00000000E+02  4.80000000E+01  0.00000000E+00
  2.00000000E+02  4.60000000E+01  0.00000000E+00
  2.00000000E+02  4.40000000E+01  0.00000000E+00
  2.00000000E+02  4.20000000E+01  0.00000000E+00
  2.00000000E+02  4.00000000E+01  0.00000000E+00
  2.00000000E+02  3.80000000E+01  0.00000000E+00
  2.00000000E+02  3.60000000E+01  0.00000000E+00
  2.00000000E+02  3.40000000E+01  0.00000000E+00
  2.00000000E+02  3.20000000E+01  0.00000000E+00
  2.00000000E+02  3.00000000E+01  0.00000000E+00
  2.00000000E+02  2.80000000E+01  0.00000000E+00
  2.00000000E+02  2.60000000E+01  0.00000000E+00
  2.00000000E+02  2.40000000E+01  0.00000000E+00
  2.00000000E+02  2.20000000E+01  0.00000000E+00
  2.00000000E+02  2.00000000E+01  0.00000000E+00
  2.00000000E+02  1.80000000E+01  0.00000000E+00
  2.00000000E+02  1.60000000E+01  0.00000000E+00
  2.00000000E+02  1.40000000E+01  0.00000000E+00
  2.00000000E+02  1.20000000E+01  0.00000000E+00
  2.00000000E+02  1.00000000E+01  0.00000000E+00
  2.00000000E+02  8.00000000E+00  0.00000000E+00
  2.00000000E+02  6.00000000E+00  0.00000000E+00
  2.00000000E+02  4.00000000E+00  0.00000000E+00
  2.00000000E+02  2.00000000E+00  0.00000000E+00
  2.00000000E+02 -3.33066907E-14  0.00000000E+00
  2.10000000E+02  1.00000000E+02  0.00000000E+00
  2.10000000E+02  9.80000000E+01  0.00000000E+00
  2.10000000E+02  9.60000000E+01  0.00000000E+00
  2.10000000E+02  9.40000000E+01  0.00000000E+00
  2.10000000E+02  9.20000000E+01  0.00000000E+00
  2.10000000E+02  9.00000000E+01  0.00000000E+00
  2.10000000E+02  8.80000000E+01  0.00000000E+00
  2.10000000E+02  8.60000000E+01  0.00000000E+00
  2.10000000E+02  8.40000000E+01  0.00000000E+00
  2.10000000E+02  8.20000000E+01  0.00000000E+00
  2.10000000E+02  8.00000000E+01  0.00000000E+00
  2.10000000E+02  7.80000000E+01  0.00000000E+00
  2.10000000E+02  7.60000000E+01  0.00000000E+00
  2.10000000E+02  7.40000000E+01  0.00000000E+00
  2.10000000E+02  7.20000000E+01  0.00000000E+00
  2.10000000E+02  7.00000000E+01  0.00000000E+00
  2.10000000E+02  6.80000000E+01  0.00000000E+00
  2.10000000E+02  6.60000000E+01  0.00000000E+00
  2.10000000E+02  6.40000000E+01  0.00000000E+00
  2.10000000E+02  6.20000000E+01  0.00000000E+00
  2.10000000E+02  6.00000000E+01  0.00000000E+00
  2.10000000E+02  5.80000000E+01  0.00000000E+00
  2.10000000E+02  5.60000000E+01  0.00000000E+00
  2.10000000E+02  5.40000000E+01  0.00000000E+00
  2.10000000E+02  5.20000000E+01  0.00000000E+00
  2.10000000E+02  5.00000000E+01  0.00000000E+00
  2.10000000E+02  4.80000000E+01  0.00000000E+00
  2.10000000E+02  4.60000000E+01  0.00000000E+00
  2.10000000E+02  4.40000000E+01  0.00000000E+00
  2.10000000E+02  4.20000000E+01  0.00000000E+00
  2.10000000E+02  4.00000000E+01  0.00000000E+00
  2.10000000E+02  3.80000000E+01  0.00000000E+00
  2.10000000E+02  3.60000000E+01  0.00000000E+00
  2.10000000E+02  3.40000000E+01  0.00000000E+00
  2.10000000E+02  3.20000000E+01  0.00000000E+00
  2.10000000E+02  3.00000000E+01  0.00000000E+00
  2.10000000E+02  2.80000000E+01  0.00000000E+00
  2.10000000E+02  2.60000000E+01  0.00000000E+00
  2.10000000E+02  2.40000000E+01  0.00000000E+00
  2.10000000E+02  2.20000000E+01  0.00000000E+00
  2.10000000E+02  2.00000000E+01  0.00000000E+00
  2.10000000E+02  1.80000000E+01  0.00000000E+00
  2.10000000E+02  1.60000000E+01  0.00000000E+00
  2.10000000E+02  1.40000000E+01  0.00000000E+00
  2.10000000E+02  1.20000000E+01  0.00000000E+00
  2.10000000E+02  1.00000000E+01  0.00000000E+00
  2.10000000E+02  8.00000000E+00  0.00000000E+00
  2.10000000E+02  6.00000000E+00  0.00000000E+00
  2.10000000E+02  4.00000000E+00  0.00000000E+00
  2.10000000E+02  2.00000000E+00  0.00000000E+00
  2.10000000E+02 -3.33066907E-14  0.00000000E+00
  2.20000000E+02  1.00000000E+02  0.00000000E+00
  2.20000000E+02  9.80000000E+01  0.00000000E+00
  2.20000000E+02  9.60000000E+01  0.00000000E+00
  2.20000000E+02  9.40000000E+01  0.00000000E+00
  2.20000000E+02  9.20000000E+01  0.00000000E+00
  2.20000000E+02  9.00000000E+01  0.00000000E+00
  2.20000000E+02  8.80000000E+01  0.00000000E+00
  2.20000000E+02  8.60000000E+01  0.00000000E+00
  2.20000000E+02  8.40000000E+01  0.00000000E+00
  2.20000000E+02  8.20000000E+01  0.00000000E+00
  2.20000000E+02  8.00000000E+01  0.00000000E+00
  2.20000000E+02  7.80000000E+01  0.00000000E+00
  2.20000000E+02  7.60000000E+01  0.00000000E+00
  2.20000000E+02  7.40000000E+01  0.00000000E+00
  2.20000000E+02  7.20000000E+01  0.00000000E+00
  2.20000000E+02  7.00000000E+01  0.00000000E+00
  2.20000000E+02  6.80000000E+01  0.00000000E+00
  2.20000000E+02  6.60000000E+01  0.00000000E+00
  2.20000000E+02  6.40000000E+01  0.00000000E+00
  2.20000000E+02  6.20000000E+01  0.00000000E+00
  2.20000000E+02  6.00000000E+01  0.00000000E+00
  2.20000000E+02  5.80000000E+01  0.00000000E+00
  2.20000000E+02  5.60000000E+01  0.00000000E+00
  2.20000000E+02  5.40000000E+01  0.00000000E+00
  2.20000000E+02  5.20000000E+01  0.00000000E+00
  2.20000000E+02  5.00000000E+01  0.00000000E+00
  2.20000000E+02  4.80000000E+01  0.00000000E+00
  2.20000000E+02  4.60000000E+01  0.00000000E+00
  2.20000000E+02  4.40000000E+01  0.00000000E+00
  2.20000000E+02  4.20000000E+01  0.00000000E+00
  2.20000000E+02  4.00000000E+01  0.00000000E+00
  2.20000000E+02  3.80000000E+01  0.00000000E+00
  2.20000000E+02  3.60000000E+01  0.00000000E+00
  2.20000000E+02  3.40000000E+01  0.00000000E+00
  2.20000000E+02  3.20000000E+01  0.00000000E+00
  2.20000000E+02  3.00000000E+01  0.00000000E+00
  2.20000000E+02  2.80000000E+01  0.00000000E+00
  2.20000000E+02  2.60000000E+01  0.00000000E+00
  2.20000000E+02  2.40000000E+01  0.00000000E+00
  2.20000000E+02  2.20000000E+01  0.00000000E+00
  2.20000000E+02  2.00000000E+01  0.00000000E+00
  2.20000000E+02  1.80000000E+01  0.00000000E+00
  2.20000000E+02  1.60000000E+01  0.00000000E+00
  2.20000000E+02  1.40000000E+01  0.00000000E+00
  2.20000000E+02  1.20000000E+01  0.00000000E+00
  2.20000000E+02  1.00000000E+01  0.00000000E+00
  2.20000000E+02  8.00000000E+00  0.00000000E+00
  2.20000000E+02  6.00000000E+00  0.00000000E+00
  2.20000000E+02  4.00000000E+00  0.00000000E+00
  2.20000000E+02  2.00000000E+00  0.00000000E+00
  2.20000000E+02 -3.33066907E-14  0.00000000E+00
  2.30000000E+02  1.00000000E+02  0.00000000E+00
  2.30000000E+02  9.80000000E+01  0.00000000E+00
  2.30000000E+02  9.60000000E+01  0.00000000E+00
  2.30000000E+02  9.40000000E+01  0.00000000E+00
  2.30000000E+02  9.20000000E+01  0.00000000E+00
  2.30000000E+02  9.00000000E+01  0.00000000E+00
  2.30000000E+02  8.80000000E+01  0.00000000E+00
  2.30000000E+02  8.60000000E+01  0.00000000E+00
  2.30000000E+02  8.40000000E+01  0.00000000E+00
  2.30000000E+02  8.20000000E+01  0.00000000E+00
  2.30000000E+02  8.00000000E+01  0.00000000E+00
  2.30000000E+02  7.80000000E+01  0.00000000E+00
  2.30000000E+02  7.60000000E+01  0.00000000E+00
  2.30000000E+02  7.40000000E+01  0.00000000E+00
  2.30000000E+02  7.20000000E+01  0.00000000E+00
  2.30000000E+02  7.00000000E+01  0.00000000E+00
  2.30000000E+02  6.80000000E+01  0.00000000E+00
  2.30000000E+02  6.60000000E+01  0.00000000E+00
  2.30000000E+02  6.40000000E+01  0.00000000E+00
  2.30000000E+02  6.20000000E+01  0.00000000E+00
  2.30000000E+02  6.00000000E+01  0.00000000E+00
  2.30000000E+02  5.80000000E+01  0.00000000E+00
  2.30000000E+02  5.60000000E+01  0.00000000E+00
  2.30000000E+02  5.40000000E+01  0.00000000E+00
  2.30000000E+02  5.20000000E+01  0.00000000E+00
  2.30000000E+02  5.00000000E+01  0.00000000E+00
  2.30000000E+02  4.80000000E+01  0.00000000E+00
  2.30000000E+02  4.60000000E+01  0.00000000E+00
  2.30000000E+02  4.40000000E+01  0.00000000E+00
  2.30000000E+02  4.20000000E+01  0.00000000E+00
  2.30000000E+02  4.00000000E+01  0.00000000E+00
  2.30000000E+02  3.80000000E+01  0.00000000E+00
  2.30000000E+02  3.60000000E+01  0.00000000E+00
  2.30000000E+02  3.40000000E+01  0.00000000E+00
  2.30000000E+02  3.20000000E+01  0.00000000E+00
  2.30000000E+02  3.00000000E+01  0.00000000E+00
  2.30000000E+02  2.80000000E+01  0.00000000E+00
  2.30000000E+02  2.60000000E+01  0.00000000E+00
  2.30000000E+02  2.40000000E+01  0.00000000E+00
  2.30000000E+02  2.20000000E+01  0.00000000E+00
  2.30000000E+02  2.00000000E+01  0.00000000E+00
  2.30000000E+02  1.80000000E+01  0.00000000E+00
  2.30000000E+02  1.60000000E+01  0.00000000E+00
  2.30000000E+02  1.40000000E+01  0.00000000E+00
  2.30000000E+02  1.20000000E+01  0.00000000E+00
  2.30000000E+02  1.00000000E+01  0.00000000E+00
  2.30000000E+02  8.00000000E+00  0.00000000E+00
  2.30000000E+02  6.00000000E+00  0.00000000E+00
  2.30000000E+02  4.00000000E+00  0.00000000E+00
  2.30000000E+02  2.00000000E+00  0.00000000E+00
  2.30000000E+02 -3.33066907E-14  0.00000000E+00
  2.40000000E+02  1.00000000E+02  0.00000000E+00
  2.40000000E+02  9.80000000E+01  0.00000000E+00
  2.40000000E+02  9.60000000E+01  0.00000000E+00
  2.40000000E+02  9.40000000E+01  0.00000000E+00
  2.40000000E+02  9.20000000E+01  0.00000000E+00
  2.40000000E+02  9.00000000E+01  0.00000000E+00
  2.40000000E+02  8.80000000E+01  0.00000000E+00
  2.40000000E+02  8.60000000E+01  0.00000000E+00
  2.40000000E+02  8.40000000E+01  0.00000000E+00
  2.40000000E+02  8.20000000E+01  0.00000000E+00
  2.40000000E+02  8.00000000E+01  0.00000000E+00
  2.40000000E+02  7.80000000E+01  0.00000000E+00
  2.40000000E+02  7.60000000E+01  0.00000000E+00
  2.40000000E+02  7.40000000E+01  0.00000000E+00
  2.40000000E+02  7.20000000E+01  0.00000000E+00
  2.40000000E+02  7.00000000E+01  0.00000000E+00
  2.40000000E+02  6.80000000E+01  0.00000000E+00
  2.40000000E+02  6.60000000E+01  0.00000000E+00
  2.40000000E+02  6.40000000E+01  0.00000000E+00
  2.40000000E+02  6.20000000E+01  0.00000000E+00
  2.40000000E+02  6.00000000E+01  0.00000000E+00
  2.40000000E+02  5.80000000E+01  0.00000000E+00
  2.40000000E+02  5.60000000E+01  0.00000000E+00
  2.40000000E+02  5.40000000E+01  0.00000000E+00
  2.40000000E+02  5.20000000E+01  0.00000000E+00
  2.40000000E+02  5.00000000E+01  0.00000000E+00
  2.40000000E+02  4.80000000E+01  0.00000000E+00
  2.40000000E+02  4.60000000E+01  0.00000000E+00
  2.40000000E+02  4.40000000E+01  0.00000000E+00
  2.40000000E+02  4.20000000E+01  0.00000000E+00
  2.40000000E+02  4.00000000E+01  0.00000000E+00
  2.40000000E+02  3.80000000E+01  0.00000000E+00
  2.40000000E+02  3.60000000E+01  0.00000000E+00
  2.40000000E+02  3.40000000E+01  0.00000000E+00
  2.40000000E+02  3.20000000E+01  0.00000000E+00
  2.40000000E+02  3.00000000E+01  0.00000000E+00
  2.40000000E+02  2.80000000E+01  0.00000000E+00
  2.40000000E+02  2.60000000E+01  0.00000000E+00
  2.40000000E+02  2.40000000E+01  0.00000000E+00
  2.40000000E+02  2.20000000E+01  0.00000000E+00
  2.40000000E+02  2.00000000E+01  0.00000000E+00
  2.40000000E+02  1.80000000E+01  0.00000000E+00
  2.40000000E+02  1.60000000E+01  0.00000000E+00
  2.40000000E+02  1.40000000E+01  0.00000000E+00
  2.40000000E+02  1.20000000E+01  0.00000000E+00
  2.40000000E+02  1.00000000E+01  0.00000000E+00
  2.40000000E+02  8.00000000E+00  0.00000000E+00
  2.40000000E+02  6.00000000E+00  0.00000000E+00
  2.40000000E+02  4.00000000E+00  0.00000000E+00
  2.40000000E+02  2.00000000E+00  0.00000000E+00
  2.40000000E+02 -3.33066907E-14  0.00000000E+00
  2.50000000E+02  1.00000000E+02  0.00000000E+00
  2.50000000E+02  9.80000000E+01  0.00000000E+00
  2.50000000E+02  9.60000000E+01  0.00000000E+00
  2.50000000E+02  9.40000000E+01  0.00000000E+00
  2.50000000E+02  9.20000000E+01  0.00000000E+00
  2.50000000E+02  9.00000000E+01  0.00000000E+00
  2.50000000E+02  8.80000000E+01  0.00000000E+00
  2.50000000E+02  8.60000000E+01  0.00000000E+00
  2.50000000E+02  8.40000000E+01  0.00000000E+00
  2.50000000E+02  8.20000000E+01  0.00000000E+00
  2.50000000E+02  8.00000000E+01  0.00000000E+00
  2.50000000E+02  7.80000000E+01  0.00000000E+00
  2.50000000E+02  7.60000000E+01  0.00000000E+00
  2.50000000E+02  7.40000000E+01  0.00000000E+00
  2.50000000E+02  7.20000000E+01  0.00000000E+00
  2.50000000E+02  7.00000000E+01  0.00000000E+00
  2.50000000E+02  6.80000000E+01  0.00000000E+00
  2.50000000E+02  6.60000000E+01  0.00000000E+00
  2.50000000E+02  6.40000000E+01  0.00000000E+00
  2.50000000E+02  6.20000000E+01  0.00000000E+00
  2.50000000E+02  6.00000000E+01  0.00000000E+00
  2.50000000E+02  5.80000000E+01  0.00000000E+00
  2.50000000E+02  5.60000000E+01  0.00000000E+00
  2.50000000E+02  5.40000000E+01  0.00000000E+00
  2.50000000E+02  5.20000000E+01  0.00000000E+00
  2.50000000E+02  5.00000000E+01  0.00000000E+00
  2.50000000E+02  4.80000000E+01  0.00000000E+00
  2.50000000E+02  4.60000000E+01  0.00000000E+00
  2.50000000E+02  4.40000000E+01  0.00000000E+00
  2.50000000E+02  4.20000000E+01  0.00000000E+00
  2.50000000E+02  4.00000000E+01  0.00000000E+00
  2.50000000E+02  3.80000000E+01  0.00000000E+00
  2.50000000E+02  3.60000000E+01  0.00000000E+00
  2.50000000E+02  3.40000000E+01  0.00000000E+00
  2.50000000E+02  3.20000000E+01  0.00000000E+00
  2.50000000E+02  3.00000000E+01  0.00000000E+00
  2.50000000E+02  2.80000000E+01  0.00000000E+00
  2.50000000E+02  2.60000000E+01  0.00000000E+00
  2.50000000E+02  2.40000000E+01  0.00000000E+00
  2.50000000E+02  2.20000000E+01  0.00000000E+00
  2.50000000E+02  2.00000000E+01  0.00000000E+00
  2.50000000E+02  1.80000000E+01  0.00000000E+00
  2.50000000E+02  1.60000000E+01  0.00000000E+00
  2.50000000E+02  1.40000000E+01  0.00000000E+00
  2.50000000E+02  1.20000000E+01  0.00000000E+00
  2.50000000E+02  1.00000000E+01  0.00000000E+00
  2.50000000E+02  8.00000000E+00  0.00000000E+00
  2.50000000E+02  6.00000000E+00  0.00000000E+00
  2.50000000E+02  4.00000000E+00  0.00000000E+00
  2.50000000E+02  2.00000000E+00  0.00000000E+00
  2.50000000E+02 -3.33066907E-14  0.00000000E+00
  2.60000000E+02  1.00000000E+02  0.00000000E+00
  2.60000000E+02  9.80000000E+01  0.00000000E+00
  2.60000000E+02  9.60000000E+01  0.00000000E+00
  2.60000000E+02  9.40000000E+01  0.00000000E+00
  2.60000000E+02  9.20000000E+01  0.00000000E+00
  2.60000000E+02  9.00000000E+01  0.00000000E+00
  2.60000000E+02  8.80000000E+01  0.00000000E+00
  2.60000000E+02  8.60000000E+01  0.00000000E+00
  2.60000000E+02  8.40000000E+01  0.00000000E+00
  2.60000000E+02  8.20000000E+01  0.00000000E+00
  2.60000000E+02  8.00000000E+01  0.00000000E+00
  2.60000000E+02  7.80000000E+01  0.00000000E+00
  2.60000000E+02  7.60000000E+01  0.00000000E+00
  2.60000000E+02  7.40000000E+01  0.00000000E+00
  2.60000000E+02  7.20000000E+01  0.00000000E+00
  2.60000000E+02  7.00000000E+01  0.00000000E+00
  2.60000000E+02  6.80000000E+01  0.00000000E+00
  2.60000000E+02  6.60000000E+01  0.00000000E+00
  2.60000000E+02  6.40000000E+01  0.00000000E+00
  2.60000000E+02  6.20000000E+01  0.00000000E+00
  2.60000000E+02  6.00000000E+01  0.00000000E+00
  2.60000000E+02  5.80000000E+01  0.00000000E+00
  2.60000000E+02  5.60000000E+01  0.00000000E+00
  2.60000000E+02  5.40000000E+01  0.00000000E+00
  2.60000000E+02  5.20000000E+01  0.00000000E+00
  2.60000000E+02  5.00000000E+01  0.00000000E+00
  2.60000000E+02  4.80000000E+01  0.00000000E+00
  2.60000000E+02  4.60000000E+01  0.00000000E+00
  2.60000000E+02  4.40000000E+01  0.00000000E+00
  2.60000000E+02  4.20000000E+01  0.00000000E+00
  2.60000000E+02  4.00000000E+01  0.00000000E+00
  2.60000000E+02  3.80000000E+01  0.00000000E+00
  2.60000000E+02  3.60000000E+01  0.00000000E+00
  2.60000000E+02  3.40000000E+01  0.00000000E+00
  2.60000000E+02  3.20000000E+01  0.00000000E+00
  2.60000000E+02  3.00000000E+01  0.00000000E+00
  2.60000000E+02  2.80000000E+01  0.00000000E+00
  2.60000000E+02  2.60000000E+01  0.00000000E+00
  2.60000000E+02  2.40000000E+01  0.00000000E+00
  2.60000000E+02  2.20000000E+01  0.00000000E+00
  2.60000000E+02  2.00000000E+01  0.00000000E+00
  2.60000000E+02  1.80000000E+01  0.00000000E+00
  2.60000000E+02  1.60000000E+01  0.00000000E+00
  2.60000000E+02  1.40000000E+01  0.00000000E+00
  2.60000000E+02  1.20000000E+01  0.00000000E+00
  2.60000000E+02  1.00000000E+01  0.00000000E+00
  2.60000000E+02  8.00000000E+00  0.00000000E+00
  2.60000000E+02  6.00000000E+00  0.00000000E+00
  2.60000000E+02  4.00000000E+00  0.00000000E+00
  2.60000000E+02  2.00000000E+00  0.00000000E+00
  2.60000000E+02 -3.33066907E-14  0.00000000E+00
  2.70000000E+02  1.00000000E+02  0.00000000E+00
  2.70000000E+02  9.80000000E+01  0.00000000E+00
  2.70000000E+02  9.60000000E+01  0.00000000E+00
  2.70000000E+02  9.40000000E+01  0.00000000E+00
  2.70000000E+02  9.20000000E+01  0.00000000E+00
  2.70000000E+02  9.00000000E+01  0.00000000E+00
  2.70000000E+02  8.80000000E+01  0.00000000E+00
  2.70000000E+02  8.60000000E+01  0.00000000E+00
  2.70000000E+02  8.40000000E+01  0.00000000E+00
  2.70000000E+02  8.20000000E+01  0.00000000E+00
  2.70000000E+02  8.00000000E+01  0.00000000E+00
  2.70000000E+02  7.80000000E+01  0.00000000E+00
  2.70000000E+02  7.60000000E+01  0.00000000E+00
  2.70000000E+02  7.40000000E+01  0.00000000E+00
  2.70000000E+02  7.20000000E+01  0.00000000E+00
  2.70000000E+02  7.00000000E+01  0.00000000E+00
  2.70000000E+02  6.80000000E+01  0.00000000E+00
  2.70000000E+02  6.60000000E+01  0.00000000E+00
  2.70000000E+02  6.40000000E+01  0.00000000E+00
  2.70000000E+02  6.20000000E+01  0.00000000E+00
  2.70000000E+02  6.00000000E+01  0.00000000E+00
  2.70000000E+02  5.80000000E+01  0.00000000E+00
  2.70000000E+02  5.60000000E+01  0.00000000E+00
  2.70000000E+02  5.40000000E+01  0.00000000E+00
  2.70000000E+02  5.20000000E+01  0.00000000E+00
  2.70000000E+02  5.00000000E+01  0.00000000E+00
  2.70000000E+02  4.80000000E+01  0.00000000E+00
  2.70000000E+02  4.60000000E+01  0.00000000E+00
  2.70000000E+02  4.40000000E+01  0.00000000E+00
  2.70000000E+02  4.20000000E+01  0.00000000E+00
  2.70000000E+02  4.00000000E+01  0.00000000E+00
  2.70000000E+02  3.80000000E+01  0.00000000E+00
  2.70000000E+02  3.60000000E+01  0.00000000E+00
  2.70000000E+02  3.40000000E+01  0.00000000E+00
  2.70000000E+02  3.20000000E+01  0.00000000E+00
  2.70000000E+02  3.00000000E+01  0.00000000E+00
  2.70000000E+02  2.80000000E+01  0.00000000E+00
  2.70000000E+02  2.60000000E+01  0.00000000E+00
  2.70000000E+02  2.40000000E+01  0.00000000E+00
  2.70000000E+02  2.20000000E+01  0.00000000E+00
  2.70000000E+02  2.00000000E+01  0.00000000E+00
  2.70000000E+02  1.80000000E+01  0.00000000E+00
  2.70000000E+02  1.60000000E+01  0.00000000E+00
  2.70000000E+02  1.40000000E+01  0.00000000E+00
  2.70000000E+02  1.20000000E+01  0.00000000E+00
  2.70000000E+02  1.00000000E+01  0.00000000E+00
  2.70000000E+02  8.00000000E+00  0.00000000E+00
  2.70000000E+02  6.00000000E+00  0.00000000E+00
  2.70000000E+02  4.00000000E+00  0.00000000E+00
  2.70000000E+02  2.00000000E+00  0.00000000E+00
  2.70000000E+02 -3.33066907E-14  0.00000000E+00
  2.80000000E+02  1.00000000E+02  0.00000000E+00
  2.80000000E+02  9.80000000E+01  0.00000000E+00
  2.80000000E+02  9.60000000E+01  0.00000000E+00
  2.80000000E+02  9.40000000E+01  0.00000000E+00
  2.80000000E+02  9.20000000E+01  0.00000000E+00
  2.80000000E+02  9.00000000E+01  0.00000000E+00
  2.80000000E+02  8.80000000E+01  0.00000000E+00
  2.80000000E+02  8.60000000E+01  0.00000000E+00
  2.80000000E+02  8.40000000E+01  0.00000000E+00
  2.80000000E+02  8.20000000E+01  0.00000000E+00
  2.80000000E+02  8.00000000E+01  0.00000000E+00
  2.80000000E+02  7.80000000E+01  0.00000000E+00
  2.80000000E+02  7.60000000E+01  0.00000000E+00
  2.80000000E+02  7.40000000E+01  0.00000000E+00
  2.80000000E+02  7.20000000E+01  0.00000000E+00
  2.80000000E+02  7.00000000E+01  0.00000000E+00
  2.80000000E+02  6.80000000E+01  0.00000000E+00
  2.80000000E+02  6.60000000E+01  0.00000000E+00
  2.80000000E+02  6.40000000E+01  0.00000000E+00
  2.80000000E+02  6.20000000E+01  0.00000000E+00
  2.80000000E+02  6.00000000E+01  0.00000000E+00
  2.80000000E+02  5.80000000E+01  0.00000000E+00
  2.80000000E+02  5.60000000E+01  0.00000000E+00
  2.80000000E+02  5.40000000E+01  0.00000000E+00
  2.80000000E+02  5.20000000E+01  0.00000000E+00
  2.80000000E+02  5.00000000E+01  0.00000000E+00
  2.80000000E+02  4.80000000E+01  0.00000000E+00
  2.80000000E+02  4.60000000E+01  0.00000000E+00
  2.80000000E+02  4.40000000E+01  0.00000000E+00
  2.80000000E+02  4.20000000E+01  0.00000000E+00
  2.80000000E+02  4.00000000E+01  0.00000000E+00
  2.80000000E+02  3.80000000E+01  0.00000000E+00
  2.80000000E+02  3.60000000E+01  0.00000000E+00
  2.80000000E+02  3.40000000E+01  0.00000000E+00
  2.80000000E+02  3.20000000E+01  0.00000000E+00
  2.80000000E+02  3.00000000E+01  0.00000000E+00
  2.80000000E+02  2.80000000E+01  0.00000000E+00
  2.80000000E+02  2.60000000E+01  0.00000000E+00
  2.80000000E+02  2.40000000E+01  0.00000000E+00
  2.80000000E+02  2.20000000E+01  0.00000000E+00
  2.80000000E+02  2.00000000E+01  0.00000000E+00
  2.80000000E+02  1.80000000E+01  0.00000000E+00
  2.80000000E+02  1.60000000E+01  0.00000000E+00
  2.80000000E+02  1.40000000E+01  0.00000000E+00
  2.80000000E+02  1.20000000E+01  0.00000000E+00
  2.80000000E+02  1.00000000E+01  0.00000000E+00
  2.80000000E+02  8.00000000E+00  0.00000000E+00
  2.80000000E+02  6.00000000E+00  0.00000000E+00
  2.80000000E+02  4.00000000E+00  0.00000000E+00
  2.80000000E+02  2.00000000E+00  0.00000000E+00
  2.80000000E+02 -3.33066907E-14  0.00000000E+00
  2.90000000E+02  1.00000000E+02  0.00000000E+00
  2.90000000E+02  9.80000000E+01  0.00000000E+00
  2.90000000E+02  9.60000000E+01  0.00000000E+00
  2.90000000E+02  9.40000000E+01  0.00000000E+00
  2.90000000E+02  9.20000000E+01  0.00000000E+00
  2.90000000E+02  9.00000000E+01  0.00000000E+00
  2.90000000E+02  8.80000000E+01  0.00000000E+00
  2.90000000E+02  8.60000000E+01  0.00000000E+00
  2.90000000E+02  8.40000000E+01  0.00000000E+00
  2.90000000E+02  8.20000000E+01  0.00000000E+00
  2.90000000E+02  8.00000000E+01  0.00000000E+00
  2.90000000E+02  7.80000000E+01  0.00000000E+00
  2.90000000E+02  7.60000000E+01  0.00000000E+00
  2.90000000E+02  7.40000000E+01  0.00000000E+00
  2.90000000E+02  7.20000000E+01  0.00000000E+00
  2.90000000E+02  7.00000000E+01  0.00000000E+00
  2.90000000E+02  6.80000000E+01  0.00000000E+00
  2.90000000E+02  6.60000000E+01  0.00000000E+00
  2.90000000E+02  6.40000000E+01  0.00000000E+00
  2.90000000E+02  6.20000000E+01  0.00000000E+00
  2.90000000E+02  6.00000000E+01  0.00000000E+00
  2.90000000E+02  5.80000000E+01  0.00000000E+00
  2.90000000E+02  5.60000000E+01  0.00000000E+00
  2.90000000E+02  5.40000000E+01  0.00000000E+00
  2.90000000E+02  5.20000000E+01  0.00000000E+00
  2.90000000E+02  5.00000000E+01  0.00000000E+00
  2.90000000E+02  4.80000000E+01  0.00000000E+00
  2.90000000E+02  4.60000000E+01  0.00000000E+00
  2.90000000E+02  4.40000000E+01  0.00000000E+00
  2.90000000E+02  4.20000000E+01  0.00000000E+00
  2.90000000E+02  4.00000000E+01  0.00000000E+00
  2.90000000E+02  3.80000000E+01  0.00000000E+00
  2.90000000E+02  3.60000000E+01  0.00000000E+00
  2.90000000E+02  3.40000000E+01  0.00000000E+00
  2.90000000E+02  3.20000000E+01  0.00000000E+00
  2.90000000E+02  3.00000000E+01  0.00000000E+00
  2.90000000E+02  2.80000000E+01  0.00000000E+00
  2.90000000E+02  2.60000000E+01  0.00000000E+00
  2.90000000E+02  2.40000000E+01  0.00000000E+00
  2.90000000E+02  2.20000000E+01  0.00000000E+00
  2.90000000E+02  2.00000000E+01  0.00000000E+00
  2.90000000E+02  1.80000000E+01  0.00000000E+00
  2.90000000E+02  1.60000000E+01  0.00000000E+00
  2.90000000E+02  1.40000000E+01  0.00000000E+00
  2.90000000E+02  1.20000000E+01  0.00000000E+00
  2.90000000E+02  1.00000000E+01  0.00000000E+00
  2.90000000E+02  8.00000000E+00  0.00000000E+00
  2.90000000E+02  6.00000000E+00  0.00000000E+00
  2.90000000E+02  4.00000000E+00  0.00000000E+00
  2.90000000E+02  2.00000000E+00  0.00000000E+00
  2.90000000E+02 -3.33066907E-14  0.00000000E+00
  3.00000000E+02  1.00000000E+02  0.00000000E+00
  3.00000000E+02  9.80000000E+01  0.00000000E+00
  3.00000000E+02  9.60000000E+01  0.00000000E+00
  3.00000000E+02  9.40000000E+01  0.00000000E+00
  3.00000000E+02  9.20000000E+01  0.00000000E+00
  3.00000000E+02  9.00000000E+01  0.00000000E+00
  3.00000000E+02  8.80000000E+01  0.00000000E+00
  3.00000000E+02  8.60000000E+01  0.00000000E+00
  3.00000000E+02  8.40000000E+01  0.00000000E+00
  3.00000000E+02  8.20000000E+01  0.00000000E+00
  3.00000000E+02  8.00000000E+01  0.00000000E+00
  3.00000000E+02  7.80000000E+01  0.00000000E+00
  3.00000000E+02  7.60000000E+01  0.00000000E+00
  3.00000000E+02  7.40000000E+01  0.00000000E+00
  3.00000000E+02  7.20000000E+01  0.00000000E+00
  3.00000000E+02  7.00000000E+01  0.00000000E+00
  3.00000000E+02  6.80000000E+01  0.00000000E+00
  3.00000000E+02  6.60000000E+01  0.00000000E+00
  3.00000000E+02  6.40000000E+01  0.00000000E+00
  3.00000000E+02  6.20000000E+01  0.00000000E+00
  3.00000000E+02  6.00000000E+01  0.00000000E+00
  3.00000000E+02  5.80000000E+01  0.00000000E+00
  3.00000000E+02  5.60000000E+01  0.00000000E+00
  3.00000000E+02  5.40000000E+01  0.00000000E+00
  3.00000000E+02  5.20000000E+01  0.00000000E+00
  3.00000000E+02  5.00000000E+01  0.00000000E+00
  3.00000000E+02  4.80000000E+01  0.00000000E+00
  3.00000000E+02  4.60000000E+01  0.00000000E+00
  3.00000000E+02  4.40000000E+01  0.00000000E+00
  3.00000000E+02  4.20000000E+01  0.00000000E+00
  3.00000000E+02  4.00000000E+01  0.00000000E+00
  3.00000000E+02  3.80000000E+01  0.00000000E+00
  3.00000000E+02  3.60000000E+01  0.00000000E+00
  3.00000000E+02  3.40000000E+01  0.00000000E+00
  3.00000000E+02  3.20000000E+01  0.00000000E+00
  3.00000000E+02  3.00000000E+01  0.00000000E+00
  3.00000000E+02  2.80000000E+01  0.00000000E+00
  3.00000000E+02  2.60000000E+01  0.00000000E+00
  3.00000000E+02  2.40000000E+01  0.00000000E+00
  3.00000000E+02  2.20000000E+01  0.00000000E+00
  3.00000000E+02  2.00000000E+01  0.00000000E+00
  3.00000000E+02  1.80000000E+01  0.00000000E+00
  3.00000000E+02  1.60000000E+01  0.00000000E+00
  3.00000000E+02  1.40000000E+01  0.00000000E+00
  3.00000000E+02  1.20000000E+01  0.00000000E+00
  3.00000000E+02  1.00000000E+01  0.00000000E+00
  3.00000000E+02  8.00000000E+00  0.00000000E+00
  3.00000000E+02  6.00000000E+00  0.00000000E+00
  3.00000000E+02  4.00000000E+00  0.00000000E+00
  3.00000000E+02  2.00000000E+00  0.00000000E+00
  3.00000000E+02 -3.33066907E-14  0.00000000E+00
  3.10000000E+02  1.00000000E+02  0.00000000E+00
  3.10000000E+02  9.80000000E+01  0.00000000E+00
  3.10000000E+02  9.60000000E+01  0.00000000E+00
  3.10000000E+02  9.40000000E+01  0.00000000E+00
  3.10000000E+02  9.20000000E+01  0.00000000E+00
  3.10000000E+02  9.00000000E+01  0.00000000E+00
  3.10000000E+02  8.80000000E+01  0.00000000E+00
  3.10000000E+02  8.60000000E+01  0.00000000E+00
  3.10000000E+02  8.40000000E+01  0.00000000E+00
  3.10000000E+02  8.20000000E+01  0.00000000E+00
  3.10000000E+02  8.00000000E+01  0.00000000E+00
  3.10000000E+02  7.80000000E+01  0.00000000E+00
  3.10000000E+02  7.60000000E+01  0.00000000E+00
  3.10000000E+02  7.40000000E+01  0.00000000E+00
  3.10000000E+02  7.20000000E+01  0.00000000E+00
  3.10000000E+02  7.00000000E+01  0.00000000E+00
  3.10000000E+02  6.80000000E+01  0.00000000E+00
  3.10000000E+02  6.60000000E+01  0.00000000E+00
  3.10000000E+02  6.40000000E+01  0.00000000E+00
  3.10000000E+02  6.20000000E+01  0.00000000E+00
  3.10000000E+02  6.00000000E+01  0.00000000E+00
  3.10000000E+02  5.80000000E+01  0.00000000E+00
  3.10000000E+02  5.60000000E+01  0.00000000E+00
  3.10000000E+02  5.40000000E+01  0.00000000E+00
  3.10000000E+02  5.20000000E+01  0.00000000E+00
  3.10000000E+02  5.00000000E+01  0.00000000E+00
  3.10000000E+02  4.80000000E+01  0.00000000E+00
  3.10000000E+02  4.60000000E+01  0.00000000E+00
  3.10000000E+02  4.40000000E+01  0.00000000E+00
  3.10000000E+02  4.20000000E+01  0.00000000E+00
  3.10000000E+02  4.00000000E+01  0.00000000E+00
  3.10000000E+02  3.80000000E+01  0.00000000E+00
  3.10000000E+02  3.60000000E+01  0.00000000E+00
  3.10000000E+02  3.40000000E+01  0.00000000E+00
  3.10000000E+02  3.20000000E+01  0.00000000E+00
  3.10000000E+02  3.00000000E+01  0.00000000E+00
  3.10000000E+02  2.80000000E+01  0.00000000E+00
  3.10000000E+02  2.60000000E+01  0.00000000E+00
  3.10000000E+02  2.40000000E+01  0.00000000E+00
  3.10000000E+02  2.20000000E+01  0.00000000E+00
  3.10000000E+02  2.00000000E+01  0.00000000E+00
  3.10000000E+02  1.80000000E+01  0.00000000E+00
  3.10000000E+02  1.60000000E+01  0.00000000E+00
  3.10000000E+02  1.40000000E+01  0.00000000E+00
  3.10000000E+02  1.20000000E+01  0.00000000E+00
  3.10000000E+02  1.00000000E+01  0.00000000E+00
  3.10000000E+02  8.00000000E+00  0.00000000E+00
  3.10000000E+02  6.00000000E+00  0.00000000E+00
  3.10000000E+02  4.00000000E+00  0.00000000E+00
  3.10000000E+02  2.00000000E+00  0.00000000E+00
  3.10000000E+02 -3.33066907E-14  0.00000000E+00
  3.20000000E+02  1.00000000E+02  0.00000000E+00
  3.20000000E+02  9.80000000E+01  0.00000000E+00
  3.20000000E+02  9.60000000E+01  0.00000000E+00
  3.20000000E+02  9.40000000E+01  0.00000000E+00
  3.20000000E+02  9.20000000E+01  0.00000000E+00
  3.20000000E+02  9.00000000E+01  0.00000000E+00
  3.20000000E+02  8.80000000E+01  0.00000000E+00
  3.20000000E+02  8.60000000E+01  0.00000000E+00
  3.20000000E+02  8.40000000E+01  0.00000000E+00
  3.20000000E+02  8.20000000E+01  0.00000000E+00
  3.20000000E+02  8.00000000E+01  0.00000000E+00
  3.20000000E+02  7.80000000E+01  0.00000000E+00
  3.20000000E+02  7.60000000E+01  0.00000000E+00
  3.20000000E+02  7.40000000E+01  0.00000000E+00
  3.20000000E+02  7.20000000E+01  0.00000000E+00
  3.20000000E+02  7.00000000E+01  0.00000000E+00
  3.20000000E+02  6.80000000E+01  0.00000000E+00
  3.20000000E+02  6.60000000E+01  0.00000000E+00
  3.20000000E+02  6.40000000E+01  0.00000000E+00
  3.20000000E+02  6.20000000E+01  0.00000000E+00
  3.20000000E+02  6.00000000E+01  0.00000000E+00
  3.20000000E+02  5.80000000E+01  0.00000000E+00
  3.20000000E+02  5.60000000E+01  0.00000000E+00
  3.20000000E+02  5.40000000E+01  0.00000000E+00
  3.20000000E+02  5.20000000E+01  0.00000000E+00
  3.20000000E+02  5.00000000E+01  0.00000000E+00
  3.20000000E+02  4.80000000E+01  0.00000000E+00
  3.20000000E+02  4.60000000E+01  0.00000000E+00
  3.20000000E+02  4.40000000E+01  0.00000000E+00
  3.20000000E+02  4.20000000E+01  0.00000000E+00
  3.20000000E+02  4.00000000E+01  0.00000000E+00
  3.20000000E+02  3.80000000E+01  0.00000000E+00
  3.20000000E+02  3.60000000E+01  0.00000000E+00
  3.20000000E+02  3.40000000E+01  0.00000000E+00
  3.20000000E+02  3.20000000E+01  0.00000000E+00
  3.20000000E+02  3.00000000E+01  0.00000000E+00
  3.20000000E+02  2.80000000E+01  0.00000000E+00
  3.20000000E+02  2.60000000E+01  0.00000000E+00
  3.20000000E+02  2.40000000E+01  0.00000000E+00
  3.20000000E+02  2.20000000E+01  0.00000000E+00
  3.20000000E+02  2.00000000E+01  0.00000000E+00
  3.20000000E+02  1.80000000E+01  0.00000000E+00
  3.20000000E+02  1.60000000E+01  0.00000000E+00
  3.20000000E+02  1.40000000E+01  0.00000000E+00
  3.20000000E+02  1.20000000E+01  0.00000000E+00
  3.20000000E+02  1.00000000E+01  0.00000000E+00
  3.20000000E+02  8.00000000E+00  0.00000000E+00
  3.20000000E+02  6.00000000E+00  0.00000000E+00
  3.20000000E+02  4.00000000E+00  0.00000000E+00
  3.20000000E+02  2.00000000E+00  0.00000000E+00
  3.20000000E+02 -3.33066907E-14  0.00000000E+00
  3.30000000E+02  1.00000000E+02  0.00000000E+00
  3.30000000E+02  9.80000000E+01  0.00000000E+00
  3.30000000E+02  9.60000000E+01  0.00000000E+00
  3.30000000E+02  9.40000000E+01  0.00000000E+00
  3.30000000E+02  9.20000000E+01  0.00000000E+00
  3.30000000E+02  9.00000000E+01  0.00000000E+00
  3.30000000E+02  8.80000000E+01  0.00000000E+00
  3.30000000E+02  8.60000000E+01  0.00000000E+00
  3.30000000E+02  8.40000000E+01  0.00000000E+00
  3.30000000E+02  8.20000000E+01  0.00000000E+00
  3.30000000E+02  8.00000000E+01  0.00000000E+00
  3.30000000E+02  7.80000000E+01  0.00000000E+00
  3.30000000E+02  7.60000000E+01  0.00000000E+00
  3.30000000E+02  7.40000000E+01  0.00000000E+00
  3.30000000E+02  7.20000000E+01  0.00000000E+00
  3.30000000E+02  7.00000000E+01  0.00000000E+00
  3.30000000E+02  6.80000000E+01  0.00000000E+00
  3.30000000E+02  6.60000000E+01  0.00000000E+00
  3.30000000E+02  6.40000000E+01  0.00000000E+00
  3.30000000E+02  6.20000000E+01  0.00000000E+00
  3.30000000E+02  6.00000000E+01  0.00000000E+00
  3.30000000E+02  5.80000000E+01  0.00000000E+00
  3.30000000E+02  5.60000000E+01  0.00000000E+00
  3.30000000E+02  5.40000000E+01  0.00000000E+00
  3.30000000E+02  5.20000000E+01  0.00000000E+00
  3.30000000E+02  5.00000000E+01  0.00000000E+00
  3.30000000E+02  4.80000000E+01  0.00000000E+00
  3.30000000E+02  4.60000000E+01  0.00000000E+00
  3.30000000E+02  4.40000000E+01  0.00000000E+00
  3.30000000E+02  4.20000000E+01  0.00000000E+00
  3.30000000E+02  4.00000000E+01  0.00000000E+00
  3.30000000E+02  3.80000000E+01  0.00000000E+00
  3.30000000E+02  3.60000000E+01  0.00000000E+00
  3.30000000E+02  3.40000000E+01  0.00000000E+00
  3.30000000E+02  3.20000000E+01  0.00000000E+00
  3.30000000E+02  3.00000000E+01  0.00000000E+00
  3.30000000E+02  2.80000000E+01  0.00000000E+00
  3.30000000E+02  2.60000000E+01  0.00000000E+00
  3.30000000E+02  2.40000000E+01  0.00000000E+00
  3.30000000E+02  2.20000000E+01  0.00000000E+00
  3.30000000E+02  2.00000000E+01  0.00000000E+00
  3.30000000E+02  1.80000000E+01  0.00000000E+00
  3.30000000E+02  1.60000000E+01  0.00000000E+00
  3.30000000E+02  1.40000000E+01  0.00000000E+00
  3.30000000E+02  1.20000000E+01  0.00000000E+00
  3.30000000E+02  1.00000000E+01  0.00000000E+00
  3.30000000E+02  8.00000000E+00  0.00000000E+00
  3.30000000E+02  6.00000000E+00  0.00000000E+00
  3.30000000E+02  4.00000000E+00  0.00000000E+00
  3.30000000E+02  2.00000000E+00  0.00000000E+00
  3.30000000E+02 -3.33066907E-14  0.00000000E+00
  3.40000000E+02  1.00000000E+02  0.00000000E+00
  3.40000000E+02  9.80000000E+01  0.00000000E+00
  3.40000000E+02  9.60000000E+01  0.00000000E+00
  3.40000000E+02  9.40000000E+01  0.00000000E+00
  3.40000000E+02  9.20000000E+01  0.00000000E+00
  3.40000000E+02  9.00000000E+01  0.00000000E+00
  3.40000000E+02  8.80000000E+01  0.00000000E+00
  3.40000000E+02  8.60000000E+01  0.00000000E+00
  3.40000000E+02  8.40000000E+01  0.00000000E+00
  3.40000000E+02  8.20000000E+01  0.00000000E+00
  3.40000000E+02  8.00000000E+01  0.00000000E+00
  3.40000000E+02  7.80000000E+01  0.00000000E+00
  3.40000000E+02  7.60000000E+01  0.00000000E+00
  3.40000000E+02  7.40000000E+01  0.00000000E+00
  3.40000000E+02  7.20000000E+01  0.00000000E+00
  3.40000000E+02  7.00000000E+01  0.00000000E+00
  3.40000000E+02  6.80000000E+01  0.00000000E+00
  3.40000000E+02  6.60000000E+01  0.00000000E+00
  3.40000000E+02  6.40000000E+01  0.00000000E+00
  3.40000000E+02  6.20000000E+01  0.00000000E+00
  3.40000000E+02  6.00000000E+01  0.00000000E+00
  3.40000000E+02  5.80000000E+01  0.00000000E+00
  3.40000000E+02  5.60000000E+01  0.00000000E+00
  3.40000000E+02  5.40000000E+01  0.00000000E+00
  3.40000000E+02  5.20000000E+01  0.00000000E+00
  3.40000000E+02  5.00000000E+01  0.00000000E+00
  3.40000000E+02  4.80000000E+01  0.00000000E+00
  3.40000000E+02  4.60000000E+01  0.00000000E+00
  3.40000000E+02  4.40000000E+01  0.00000000E+00
  3.40000000E+02  4.20000000E+01  0.00000000E+00
  3.40000000E+02  4.00000000E+01  0.00000000E+00
  3.40000000E+02  3.80000000E+01  0.00000000E+00
  3.40000000E+02  3.60000000E+01  0.00000000E+00
  3.40000000E+02  3.40000000E+01  0.00000000E+00
  3.40000000E+02  3.20000000E+01  0.00000000E+00
  3.40000000E+02  3.00000000E+01  0.00000000E+00
  3.40000000E+02  2.80000000E+01  0.00000000E+00
  3.40000000E+02  2.60000000E+01  0.00000000E+00
  3.40000000E+02  2.40000000E+01  0.00000000E+00
  3.40000000E+02  2.20000000E+01  0.00000000E+00
  3.40000000E+02  2.00000000E+01  0.00000000E+00
  3.40000000E+02  1.80000000E+01  0.00000000E+00
  3.40000000E+02  1.60000000E+01  0.00000000E+00
  3.40000000E+02  1.40000000E+01  0.00000000E+00
  3.40000000E+02  1.20000000E+01  0.00000000E+00
  3.40000000E+02  1.00000000E+01  0.00000000E+00
  3.40000000E+02  8.00000000E+00  0.00000000E+00
  3.40000000E+02  6.00000000E+00  0.00000000E+00
  3.40000000E+02  4.00000000E+00  0.00000000E+00
  3.40000000E+02  2.00000000E+00  0.00000000E+00
  3.40000000E+02 -3.33066907E-14  0.00000000E+00
  3.50000000E+02  1.00000000E+02  0.00000000E+00
  3.50000000E+02  9.80000000E+01  0.00000000E+00
  3.50000000E+02  9.60000000E+01  0.00000000E+00
  3.50000000E+02  9.40000000E+01  0.00000000E+00
  3.50000000E+02  9.20000000E+01  0.00000000E+00
  3.50000000E+02  9.00000000E+01  0.00000000E+00
  3.50000000E+02  8.80000000E+01  0.00000000E+00
  3.50000000E+02  8.60000000E+01  0.00000000E+00
  3.50000000E+02  8.40000000E+01  0.00000000E+00
  3.50000000E+02  8.20000000E+01  0.00000000E+00
  3.50000000E+02  8.00000000E+01  0.00000000E+00
  3.50000000E+02  7.80000000E+01  0.00000000E+00
  3.50000000E+02  7.60000000E+01  0.00000000E+00
  3.50000000E+02  7.40000000E+01  0.00000000E+00
  3.50000000E+02  7.20000000E+01  0.00000000E+00
  3.50000000E+02  7.00000000E+01  0.00000000E+00
  3.50000000E+02  6.80000000E+01  0.00000000E+00
  3.50000000E+02  6.60000000E+01  0.00000000E+00
  3.50000000E+02  6.40000000E+01  0.00000000E+00
  3.50000000E+02  6.20000000E+01  0.00000000E+00
  3.50000000E+02  6.00000000E+01  0.00000000E+00
  3.50000000E+02  5.80000000E+01  0.00000000E+00
  3.50000000E+02  5.60000000E+01  0.00000000E+00
  3.50000000E+02  5.40000000E+01  0.00000000E+00
  3.50000000E+02  5.20000000E+01  0.00000000E+00
  3.50000000E+02  5.00000000E+01  0.00000000E+00
  3.50000000E+02  4.80000000E+01  0.00000000E+00
  3.50000000E+02  4.60000000E+01  0.00000000E+00
  3.50000000E+02  4.40000000E+01  0.00000000E+00
  3.50000000E+02  4.20000000E+01  0.00000000E+00
  3.50000000E+02  4.00000000E+01  0.00000000E+00
  3.50000000E+02  3.80000000E+01  0.00000000E+00
  3.50000000E+02  3.60000000E+01  0.00000000E+00
  3.50000000E+02  3.40000000E+01  0.00000000E+00
  3.50000000E+02  3.20000000E+01  0.00000000E+00
  3.50000000E+02  3.00000000E+01  0.00000000E+00
  3.50000000E+02  2.80000000E+01  0.00000000E+00
  3.50000000E+02  2.60000000E+01  0.00000000E+00
  3.50000000E+02  2.40000000E+01  0.00000000E+00
  3.50000000E+02  2.20000000E+01  0.00000000E+00
  3.50000000E+02  2.00000000E+01  0.00000000E+00
  3.50000000E+02  1.80000000E+01  0.00000000E+00
  3.50000000E+02  1.60000000E+01  0.00000000E+00
  3.50000000E+02  1.40000000E+01  0.00000000E+00
  3.50000000E+02  1.20000000E+01  0.00000000E+00
  3.50000000E+02  1.00000000E+01  0.00000000E+00
  3.50000000E+02  8.00000000E+00  0.00000000E+00
  3.50000000E+02  6.00000000E+00  0.00000000E+00
  3.50000000E+02  4.00000000E+00  0.00000000E+00
  3.50000000E+02  2.00000000E+00  0.00000000E+00
  3.50000000E+02 -3.33066907E-14  0.00000000E+00
  3.60000000E+02  1.00000000E+02  0.00000000E+00
  3.60000000E+02  9.80000000E+01  0.00000000E+00
  3.60000000E+02  9.60000000E+01  0.00000000E+00
  3.60000000E+02  9.40000000E+01  0.00000000E+00
  3.60000000E+02  9.20000000E+01  0.00000000E+00
  3.60000000E+02  9.00000000E+01  0.00000000E+00
  3.60000000E+02  8.80000000E+01  0.00000000E+00
  3.60000000E+02  8.60000000E+01  0.00000000E+00
  3.60000000E+02  8.40000000E+01  0.00000000E+00
  3.60000000E+02  8.20000000E+01  0.00000000E+00
  3.60000000E+02  8.00000000E+01  0.00000000E+00
  3.60000000E+02  7.80000000E+01  0.00000000E+00
  3.60000000E+02  7.60000000E+01  0.00000000E+00
  3.60000000E+02  7.40000000E+01  0.00000000E+00
  3.60000000E+02  7.20000000E+01  0.00000000E+00
  3.60000000E+02  7.00000000E+01  0.00000000E+00
  3.60000000E+02  6.80000000E+01  0.00000000E+00
  3.60000000E+02  6.60000000E+01  0.00000000E+00
  3.60000000E+02  6.40000000E+01  0.00000000E+00
  3.60000000E+02  6.20000000E+01  0.00000000E+00
  3.60000000E+02  6.00000000E+01  0.00000000E+00
  3.60000000E+02  5.80000000E+01  0.00000000E+00
  3.60000000E+02  5.60000000E+01  0.00000000E+00
  3.60000000E+02  5.40000000E+01  0.00000000E+00
  3.60000000E+02  5.20000000E+01  0.00000000E+00
  3.60000000E+02  5.00000000E+01  0.00000000E+00
  3.60000000E+02  4.80000000E+01  0.00000000E+00
  3.60000000E+02  4.60000000E+01  0.00000000E+00
  3.60000000E+02  4.40000000E+01  0.00000000E+00
  3.60000000E+02  4.20000000E+01  0.00000000E+00
  3.60000000E+02  4.00000000E+01  0.00000000E+00
  3.60000000E+02  3.80000000E+01  0.00000000E+00
  3.60000000E+02  3.60000000E+01  0.00000000E+00
  3.60000000E+02  3.40000000E+01  0.00000000E+00
  3.60000000E+02  3.20000000E+01  0.00000000E+00
  3.60000000E+02  3.00000000E+01  0.00000000E+00
  3.60000000E+02  2.80000000E+01  0.00000000E+00
  3.60000000E+02  2.60000000E+01  0.00000000E+00
  3.60000000E+02  2.40000000E+01  0.00000000E+00
  3.60000000E+02  2.20000000E+01  0.00000000E+00
  3.60000000E+02  2.00000000E+01  0.00000000E+00
  3.60000000E+02  1.80000000E+01  0.00000000E+00
  3.60000000E+02  1.60000000E+01  0.00000000E+00
  3.60000000E+02  1.40000000E+01  0.00000000E+00
  3.60000000E+02  1.20000000E+01  0.00000000E+00
  3.60000000E+02  1.00000000E+01  0.00000000E+00
  3.60000000E+02  8.00000000E+00  0.00000000E+00
  3.60000000E+02  6.00000000E+00  0.00000000E+00
  3.60000000E+02  4.00000000E+00  0.00000000E+00
  3.60000000E+02  2.00000000E+00  0.00000000E+00
  3.60000000E+02 -3.33066907E-14  0.00000000E+00
  3.70000000E+02  1.00000000E+02  0.00000000E+00
  3.70000000E+02  9.80000000E+01  0.00000000E+00
  3.70000000E+02  9.60000000E+01  0.00000000E+00
  3.70000000E+02  9.40000000E+01  0.00000000E+00
  3.70000000E+02  9.20000000E+01  0.00000000E+00
  3.70000000E+02  9.00000000E+01  0.00000000E+00
  3.70000000E+02  8.80000000E+01  0.00000000E+00
  3.70000000E+02  8.60000000E+01  0.00000000E+00
  3.70000000E+02  8.40000000E+01  0.00000000E+00
  3.70000000E+02  8.20000000E+01  0.00000000E+00
  3.70000000E+02  8.00000000E+01  0.00000000E+00
  3.70000000E+02  7.80000000E+01  0.00000000E+00
  3.70000000E+02  7.60000000E+01  0.00000000E+00
  3.70000000E+02  7.40000000E+01  0.00000000E+00
  3.70000000E+02  7.20000000E+01  0.00000000E+00
  3.70000000E+02  7.00000000E+01  0.00000000E+00
  3.70000000E+02  6.80000000E+01  0.00000000E+00
  3.70000000E+02  6.60000000E+01  0.00000000E+00
  3.70000000E+02  6.40000000E+01  0.00000000E+00
  3.70000000E+02  6.20000000E+01  0.00000000E+00
  3.70000000E+02  6.00000000E+01  0.00000000E+00
  3.70000000E+02  5.80000000E+01  0.00000000E+00
  3.70000000E+02  5.60000000E+01  0.00000000E+00
  3.70000000E+02  5.40000000E+01  0.00000000E+00
  3.70000000E+02  5.20000000E+01  0.00000000E+00
  3.70000000E+02  5.00000000E+01  0.00000000E+00
  3.70000000E+02  4.80000000E+01  0.00000000E+00
  3.70000000E+02  4.60000000E+01  0.00000000E+00
  3.70000000E+02  4.40000000E+01  0.00000000E+00
  3.70000000E+02  4.20000000E+01  0.00000000E+00
  3.70000000E+02  4.00000000E+01  0.00000000E+00
  3.70000000E+02  3.80000000E+01  0.00000000E+00
  3.70000000E+02  3.60000000E+01  0.00000000E+00
  3.70000000E+02  3.40000000E+01  0.00000000E+00
  3.70000000E+02  3.20000000E+01  0.00000000E+00
  3.70000000E+02  3.00000000E+01  0.00000000E+00
  3.70000000E+02  2.80000000E+01  0.00000000E+00
  3.70000000E+02  2.60000000E+01  0.00000000E+00
  3.70000000E+02  2.40000000E+01  0.00000000E+00
  3.70000000E+02  2.20000000E+01  0.00000000E+00
  3.70000000E+02  2.00000000E+01  0.00000000E+00
  3.70000000E+02  1.80000000E+01  0.00000000E+00
  3.70000000E+02  1.60000000E+01  0.00000000E+00
  3.70000000E+02  1.40000000E+01  0.00000000E+00
  3.70000000E+02  1.20000000E+01  0.00000000E+00
  3.70000000E+02  1.00000000E+01  0.00000000E+00
  3.70000000E+02  8.00000000E+00  0.00000000E+00
  3.70000000E+02  6.00000000E+00  0.00000000E+00
  3.70000000E+02  4.00000000E+00  0.00000000E+00
  3.70000000E+02  2.00000000E+00  0.00000000E+00
  3.70000000E+02 -3.33066907E-14  0.00000000E+00
  3.80000000E+02  1.00000000E+02  0.00000000E+00
  3.80000000E+02  9.80000000E+01  0.00000000E+00
  3.80000000E+02  9.60000000E+01  0.00000000E+00
  3.80000000E+02  9.40000000E+01  0.00000000E+00
  3.80000000E+02  9.20000000E+01  0.00000000E+00
  3.80000000E+02  9.00000000E+01  0.00000000E+00
  3.80000000E+02  8.80000000E+01  0.00000000E+00
  3.80000000E+02  8.60000000E+01  0.00000000E+00
  3.80000000E+02  8.40000000E+01  0.00000000E+00
  3.80000000E+02  8.20000000E+01  0.00000000E+00
  3.80000000E+02  8.00000000E+01  0.00000000E+00
  3.80000000E+02  7.80000000E+01  0.00000000E+00
  3.80000000E+02  7.60000000E+01  0.00000000E+00
  3.80000000E+02  7.40000000E+01  0.00000000E+00
  3.80000000E+02  7.20000000E+01  0.00000000E+00
  3.80000000E+02  7.00000000E+01  0.00000000E+00
  3.80000000E+02  6.80000000E+01  0.00000000E+00
  3.80000000E+02  6.60000000E+01  0.00000000E+00
  3.80000000E+02  6.40000000E+01  0.00000000E+00
  3.80000000E+02  6.20000000E+01  0.00000000E+00
  3.80000000E+02  6.00000000E+01  0.00000000E+00
  3.80000000E+02  5.80000000E+01  0.00000000E+00
  3.80000000E+02  5.60000000E+01  0.00000000E+00
  3.80000000E+02  5.40000000E+01  0.00000000E+00
  3.80000000E+02  5.20000000E+01  0.00000000E+00
  3.80000000E+02  5.00000000E+01  0.00000000E+00
  3.80000000E+02  4.80000000E+01  0.00000000E+00
  3.80000000E+02  4.60000000E+01  0.00000000E+00
  3.80000000E+02  4.40000000E+01  0.00000000E+00
  3.80000000E+02  4.20000000E+01  0.00000000E+00
  3.80000000E+02  4.00000000E+01  0.00000000E+00
  3.80000000E+02  3.80000000E+01  0.00000000E+00
  3.80000000E+02  3.60000000E+01  0.00000000E+00
  3.80000000E+02  3.40000000E+01  0.00000000E+00
  3.80000000E+02  3.20000000E+01  0.00000000E+00
  3.80000000E+02  3.00000000E+01  0.00000000E+00
  3.80000000E+02  2.80000000E+01  0.00000000E+00
  3.80000000E+02  2.60000000E+01  0.00000000E+00
  3.80000000E+02  2.40000000E+01  0.00000000E+00
  3.80000000E+02  2.20000000E+01  0.00000000E+00
  3.80000000E+02  2.00000000E+01  0.00000000E+00
  3.80000000E+02  1.80000000E+01  0.00000000E+00
  3.80000000E+02  1.60000000E+01  0.00000000E+00
  3.80000000E+02  1.40000000E+01  0.00000000E+00
  3.80000000E+02  1.20000000E+01  0.00000000E+00
  3.80000000E+02  1.00000000E+01  0.00000000E+00
  3.80000000E+02  8.00000000E+00  0.00000000E+00
  3.80000000E+02  6.00000000E+00  0.00000000E+00
  3.80000000E+02  4.00000000E+00  0.00000000E+00
  3.80000000E+02  2.00000000E+00  0.00000000E+00
  3.80000000E+02 -3.33066907E-14  0.00000000E+00
  3.90000000E+02  1.00000000E+02  0.00000000E+00
  3.90000000E+02  9.80000000E+01  0.00000000E+00
  3.90000000E+02  9.60000000E+01  0.00000000E+00
  3.90000000E+02  9.40000000E+01  0.00000000E+00
  3.90000000E+02  9.20000000E+01  0.00000000E+00
  3.90000000E+02  9.00000000E+01  0.00000000E+00
  3.90000000E+02  8.80000000E+01  0.00000000E+00
  3.90000000E+02  8.60000000E+01  0.00000000E+00
  3.90000000E+02  8.40000000E+01  0.00000000E+00
  3.90000000E+02  8.20000000E+01  0.00000000E+00
  3.90000000E+02  8.00000000E+01  0.00000000E+00
  3.90000000E+02  7.80000000E+01  0.00000000E+00
  3.90000000E+02  7.60000000E+01  0.00000000E+00
  3.90000000E+02  7.40000000E+01  0.00000000E+00
  3.90000000E+02  7.20000000E+01  0.00000000E+00
  3.90000000E+02  7.00000000E+01  0.00000000E+00
  3.90000000E+02  6.80000000E+01  0.00000000E+00
  3.90000000E+02  6.60000000E+01  0.00000000E+00
  3.90000000E+02  6.40000000E+01  0.00000000E+00
  3.90000000E+02  6.20000000E+01  0.00000000E+00
  3.90000000E+02  6.00000000E+01  0.00000000E+00
  3.90000000E+02  5.80000000E+01  0.00000000E+00
  3.90000000E+02  5.60000000E+01  0.00000000E+00
  3.90000000E+02  5.40000000E+01  0.00000000E+00
  3.90000000E+02  5.20000000E+01  0.00000000E+00
  3.90000000E+02  5.00000000E+01  0.00000000E+00
  3.90000000E+02  4.80000000E+01  0.00000000E+00
  3.90000000E+02  4.60000000E+01  0.00000000E+00
  3.90000000E+02  4.40000000E+01  0.00000000E+00
  3.90000000E+02  4.20000000E+01  0.00000000E+00
  3.90000000E+02  4.00000000E+01  0.00000000E+00
  3.90000000E+02  3.80000000E+01  0.00000000E+00
  3.90000000E+02  3.60000000E+01  0.00000000E+00
  3.90000000E+02  3.40000000E+01  0.00000000E+00
  3.90000000E+02  3.20000000E+01  0.00000000E+00
  3.90000000E+02  3.00000000E+01  0.00000000E+00
  3.90000000E+02  2.80000000E+01  0.00000000E+00
  3.90000000E+02  2.60000000E+01  0.00000000E+00
  3.90000000E+02  2.40000000E+01  0.00000000E+00
  3.90000000E+02  2.20000000E+01  0.00000000E+00
  3.90000000E+02  2.00000000E+01  0.00000000E+00
  3.90000000E+02  1.80000000E+01  0.00000000E+00
  3.90000000E+02  1.60000000E+01  0.00000000E+00
  3.90000000E+02  1.40000000E+01  0.00000000E+00
  3.90000000E+02  1.20000000E+01  0.00000000E+00
  3.90000000E+02  1.00000000E+01  0.00000000E+00
  3.90000000E+02  8.00000000E+00  0.00000000E+00
  3.90000000E+02  6.00000000E+00  0.00000000E+00
  3.90000000E+02  4.00000000E+00  0.00000000E+00
  3.90000000E+02  2.00000000E+00  0.00000000E+00
  3.90000000E+02 -3.33066907E-14  0.00000000E+00
  4.00000000E+02  1.00000000E+02  0.00000000E+00
  4.00000000E+02  9.80000000E+01  0.00000000E+00
  4.00000000E+02  9.60000000E+01  0.00000000E+00
  4.00000000E+02  9.40000000E+01  0.00000000E+00
  4.00000000E+02  9.20000000E+01  0.00000000E+00
  4.00000000E+02  9.00000000E+01  0.00000000E+00
  4.00000000E+02  8.80000000E+01  0.00000000E+00
  4.00000000E+02  8.60000000E+01  0.00000000E+00
  4.00000000E+02  8.40000000E+01  0.00000000E+00
  4.00000000E+02  8.20000000E+01  0.00000000E+00
  4.00000000E+02  8.00000000E+01  0.00000000E+00
  4.00000000E+02  7.80000000E+01  0.00000000E+00
  4.00000000E+02  7.60000000E+01  0.00000000E+00
  4.00000000E+02  7.40000000E+01  0.00000000E+00
  4.00000000E+02  7.20000000E+01  0.00000000E+00
  4.00000000E+02  7.00000000E+01  0.00000000E+00
  4.00000000E+02  6.80000000E+01  0.00000000E+00
  4.00000000E+02  6.60000000E+01  0.00000000E+00
  4.00000000E+02  6.40000000E+01  0.00000000E+00
  4.00000000E+02  6.20000000E+01  0.00000000E+00
  4.00000000E+02  6.00000000E+01  0.00000000E+00
  4.00000000E+02  5.80000000E+01  0.00000000E+00
  4.00000000E+02  5.60000000E+01  0.00000000E+00
  4.00000000E+02  5.40000000E+01  0.00000000E+00
  4.00000000E+02  5.20000000E+01  0.00000000E+00
  4.00000000E+02  5.00000000E+01  0.00000000E+00
  4.00000000E+02  4.80000000E+01  0.00000000E+00
  4.00000000E+02  4.60000000E+01  0.00000000E+00
  4.00000000E+02  4.40000000E+01  0.00000000E+00
  4.00000000E+02  4.20000000E+01  0.00000000E+00
  4.00000000E+02  4.00000000E+01  0.00000000E+00
  4.00000000E+02  3.80000000E+01  0.00000000E+00
  4.00000000E+02  3.60000000E+01  0.00000000E+00
  4.00000000E+02  3.40000000E+01  0.00000000E+00
  4.00000000E+02  3.20000000E+01  0.00000000E+00
  4.00000000E+02  3.00000000E+01  0.00000000E+00
  4.00000000E+02  2.80000000E+01  0.00000000E+00
  4.00000000E+02  2.60000000E+01  0.00000000E+00
  4.00000000E+02  2.40000000E+01  0.00000000E+00
  4.00000000E+02  2.20000000E+01  0.00000000E+00
  4.00000000E+02  2.00000000E+01  0.00000000E+00
  4.00000000E+02  1.80000000E+01  0.00000000E+00
  4.00000000E+02  1.60000000E+01  0.00000000E+00
  4.00000000E+02  1.40000000E+01  0.00000000E+00
  4.00000000E+02  1.20000000E+01  0.00000000E+00
  4.00000000E+02  1.00000000E+01  0.00000000E+00
  4.00000000E+02  8.00000000E+00  0.00000000E+00
  4.00000000E+02  6.00000000E+00  0.00000000E+00
  4.00000000E+02  4.00000000E+00  0.00000000E+00
  4.00000000E+02  2.00000000E+00  0.00000000E+00
  4.00000000E+02 -3.33066907E-14  0.00000000E+00
  4.10000000E+02  1.00000000E+02  0.00000000E+00
  4.10000000E+02  9.80000000E+01  0.00000000E+00
  4.10000000E+02  9.60000000E+01  0.00000000E+00
  4.10000000E+02  9.40000000E+01  0.00000000E+00
  4.10000000E+02  9.20000000E+01  0.00000000E+00
  4.10000000E+02  9.00000000E+01  0.00000000E+00
  4.10000000E+02  8.80000000E+01  0.00000000E+00
  4.10000000E+02  8.60000000E+01  0.00000000E+00
  4.10000000E+02  8.40000000E+01  0.00000000E+00
  4.10000000E+02  8.20000000E+01  0.00000000E+00
  4.10000000E+02  8.00000000E+01  0.00000000E+00
  4.10000000E+02  7.80000000E+01  0.00000000E+00
  4.10000000E+02  7.60000000E+01  0.00000000E+00
  4.10000000E+02  7.40000000E+01  0.00000000E+00
  4.10000000E+02  7.20000000E+01  0.00000000E+00
  4.10000000E+02  7.00000000E+01  0.00000000E+00
  4.10000000E+02  6.80000000E+01  0.00000000E+00
  4.10000000E+02  6.60000000E+01  0.00000000E+00
  4.10000000E+02  6.40000000E+01  0.00000000E+00
  4.10000000E+02  6.20000000E+01  0.00000000E+00
  4.10000000E+02  6.00000000E+01  0.00000000E+00
  4.10000000E+02  5.80000000E+01  0.00000000E+00
  4.10000000E+02  5.60000000E+01  0.00000000E+00
  4.10000000E+02  5.40000000E+01  0.00000000E+00
  4.10000000E+02  5.20000000E+01  0.00000000E+00
  4.10000000E+02  5.00000000E+01  0.00000000E+00
  4.10000000E+02  4.80000000E+01  0.00000000E+00
  4.10000000E+02  4.60000000E+01  0.00000000E+00
  4.10000000E+02  4.40000000E+01  0.00000000E+00
  4.10000000E+02  4.20000000E+01  0.00000000E+00
  4.10000000E+02  4.00000000E+01  0.00000000E+00
  4.10000000E+02  3.80000000E+01  0.00000000E+00
  4.10000000E+02  3.60000000E+01  0.00000000E+00
  4.10000000E+02  3.40000000E+01  0.00000000E+00
  4.10000000E+02  3.20000000E+01  0.00000000E+00
  4.10000000E+02  3.00000000E+01  0.00000000E+00
  4.10000000E+02  2.80000000E+01  0.00000000E+00
  4.10000000E+02  2.60000000E+01  0.00000000E+00
  4.10000000E+02  2.40000000E+01  0.00000000E+00
  4.10000000E+02  2.20000000E+01  0.00000000E+00
  4.10000000E+02  2.00000000E+01  0.00000000E+00
  4.10000000E+02  1.80000000E+01  0.00000000E+00
  4.10000000E+02  1.60000000E+01  0.00000000E+00
  4.10000000E+02  1.40000000E+01  0.00000000E+00
  4.10000000E+02  1.20000000E+01  0.00000000E+00
  4.10000000E+02  1.00000000E+01  0.00000000E+00
  4.10000000E+02  8.00000000E+00  0.00000000E+00
  4.10000000E+02  6.00000000E+00  0.00000000E+00
  4.10000000E+02  4.00000000E+00  0.00000000E+00
  4.10000000E+02  2.00000000E+00  0.00000000E+00
  4.10000000E+02 -3.33066907E-14  0.00000000E+00
  4.20000000E+02  1.00000000E+02  0.00000000E+00
  4.20000000E+02  9.80000000E+01  0.00000000E+00
  4.20000000E+02  9.60000000E+01  0.00000000E+00
  4.20000000E+02  9.40000000E+01  0.00000000E+00
  4.20000000E+02  9.20000000E+01  0.00000000E+00
  4.20000000E+02  9.00000000E+01  0.00000000E+00
  4.20000000E+02  8.80000000E+01  0.00000000E+00
  4.20000000E+02  8.60000000E+01  0.00000000E+00
  4.20000000E+02  8.40000000E+01  0.00000000E+00
  4.20000000E+02  8.20000000E+01  0.00000000E+00
  4.20000000E+02  8.00000000E+01  0.00000000E+00
  4.20000000E+02  7.80000000E+01  0.00000000E+00
  4.20000000E+02  7.60000000E+01  0.00000000E+00
  4.20000000E+02  7.40000000E+01  0.00000000E+00
  4.20000000E+02  7.20000000E+01  0.00000000E+00
  4.20000000E+02  7.00000000E+01  0.00000000E+00
  4.20000000E+02  6.80000000E+01  0.00000000E+00
  4.20000000E+02  6.60000000E+01  0.00000000E+00
  4.20000000E+02  6.40000000E+01  0.00000000E+00
  4.20000000E+02  6.20000000E+01  0.00000000E+00
  4.20000000E+02  6.00000000E+01  0.00000000E+00
  4.20000000E+02  5.80000000E+01  0.00000000E+00
  4.20000000E+02  5.60000000E+01  0.00000000E+00
  4.20000000E+02  5.40000000E+01  0.00000000E+00
  4.20000000E+02  5.20000000E+01  0.00000000E+00
  4.20000000E+02  5.00000000E+01  0.00000000E+00
  4.20000000E+02  4.80000000E+01  0.00000000E+00
  4.20000000E+02  4.60000000E+01  0.00000000E+00
  4.20000000E+02  4.40000000E+01  0.00000000E+00
  4.20000000E+02  4.20000000E+01  0.00000000E+00
  4.20000000E+02  4.00000000E+01  0.00000000E+00
  4.20000000E+02  3.80000000E+01  0.00000000E+00
  4.20000000E+02  3.60000000E+01  0.00000000E+00
  4.20000000E+02  3.40000000E+01  0.00000000E+00
  4.20000000E+02  3.20000000E+01  0.00000000E+00
  4.20000000E+02  3.00000000E+01  0.00000000E+00
  4.20000000E+02  2.80000000E+01  0.00000000E+00
  4.20000000E+02  2.60000000E+01  0.00000000E+00
  4.20000000E+02  2.40000000E+01  0.00000000E+00
  4.20000000E+02  2.20000000E+01  0.00000000E+00
  4.20000000E+02  2.00000000E+01  0.00000000E+00
  4.20000000E+02  1.80000000E+01  0.00000000E+00
  4.20000000E+02  1.60000000E+01  0.00000000E+00
  4.20000000E+02  1.40000000E+01  0.00000000E+00
  4.20000000E+02  1.20000000E+01  0.00000000E+00
  4.20000000E+02  1.00000000E+01  0.00000000E+00
  4.20000000E+02  8.00000000E+00  0.00000000E+00
  4.20000000E+02  6.00000000E+00  0.00000000E+00
  4.20000000E+02  4.00000000E+00  0.00000000E+00
  4.20000000E+02  2.00000000E+00  0.00000000E+00
  4.20000000E+02 -3.33066907E-14  0.00000000E+00
  4.30000000E+02  1.00000000E+02  0.00000000E+00
  4.30000000E+02  9.80000000E+01  0.00000000E+00
  4.30000000E+02  9.60000000E+01  0.00000000E+00
  4.30000000E+02  9.40000000E+01  0.00000000E+00
  4.30000000E+02  9.20000000E+01  0.00000000E+00
  4.30000000E+02  9.00000000E+01  0.00000000E+00
  4.30000000E+02  8.80000000E+01  0.00000000E+00
  4.30000000E+02  8.60000000E+01  0.00000000E+00
  4.30000000E+02  8.40000000E+01  0.00000000E+00
  4.30000000E+02  8.20000000E+01  0.00000000E+00
  4.30000000E+02  8.00000000E+01  0.00000000E+00
  4.30000000E+02  7.80000000E+01  0.00000000E+00
  4.30000000E+02  7.60000000E+01  0.00000000E+00
  4.30000000E+02  7.40000000E+01  0.00000000E+00
  4.30000000E+02  7.20000000E+01  0.00000000E+00
  4.30000000E+02  7.00000000E+01  0.00000000E+00
  4.30000000E+02  6.80000000E+01  0.00000000E+00
  4.30000000E+02  6.60000000E+01  0.00000000E+00
  4.30000000E+02  6.40000000E+01  0.00000000E+00
  4.30000000E+02  6.20000000E+01  0.00000000E+00
  4.30000000E+02  6.00000000E+01  0.00000000E+00
  4.30000000E+02  5.80000000E+01  0.00000000E+00
  4.30000000E+02  5.60000000E+01  0.00000000E+00
  4.30000000E+02  5.40000000E+01  0.00000000E+00
  4.30000000E+02  5.20000000E+01  0.00000000E+00
  4.30000000E+02  5.00000000E+01  0.00000000E+00
  4.30000000E+02  4.80000000E+01  0.00000000E+00
  4.30000000E+02  4.60000000E+01  0.00000000E+00
  4.30000000E+02  4.40000000E+01  0.00000000E+00
  4.30000000E+02  4.20000000E+01  0.00000000E+00
  4.30000000E+02  4.00000000E+01  0.00000000E+00
  4.30000000E+02  3.80000000E+01  0.00000000E+00
  4.30000000E+02  3.60000000E+01  0.00000000E+00
  4.30000000E+02  3.40000000E+01  0.00000000E+00
  4.30000000E+02  3.20000000E+01  0.00000000E+00
  4.30000000E+02  3.00000000E+01  0.00000000E+00
  4.30000000E+02  2.80000000E+01  0.00000000E+00
  4.30000000E+02  2.60000000E+01  0.00000000E+00
  4.30000000E+02  2.40000000E+01  0.00000000E+00
  4.30000000E+02  2.20000000E+01  0.00000000E+00
  4.30000000E+02  2.00000000E+01  0.00000000E+00
  4.30000000E+02  1.80000000E+01  0.00000000E+00
  4.30000000E+02  1.60000000E+01  0.00000000E+00
  4.30000000E+02  1.40000000E+01  0.00000000E+00
  4.30000000E+02  1.20000000E+01  0.00000000E+00
  4.30000000E+02  1.00000000E+01  0.00000000E+00
  4.30000000E+02  8.00000000E+00  0.00000000E+00
  4.30000000E+02  6.00000000E+00  0.00000000E+00
  4.30000000E+02  4.00000000E+00  0.00000000E+00
  4.30000000E+02  2.00000000E+00  0.00000000E+00
  4.30000000E+02 -3.33066907E-14  0.00000000E+00
  4.40000000E+02  1.00000000E+02  0.00000000E+00
  4.40000000E+02  9.80000000E+01  0.00000000E+00
  4.40000000E+02  9.60000000E+01  0.00000000E+00
  4.40000000E+02  9.40000000E+01  0.00000000E+00
  4.40000000E+02  9.20000000E+01  0.00000000E+00
  4.40000000E+02  9.00000000E+01  0.00000000E+00
  4.40000000E+02  8.80000000E+01  0.00000000E+00
  4.40000000E+02  8.60000000E+01  0.00000000E+00
  4.40000000E+02  8.40000000E+01  0.00000000E+00
  4.40000000E+02  8.20000000E+01  0.00000000E+00
  4.40000000E+02  8.00000000E+01  0.00000000E+00
  4.40000000E+02  7.80000000E+01  0.00000000E+00
  4.40000000E+02  7.60000000E+01  0.00000000E+00
  4.40000000E+02  7.40000000E+01  0.00000000E+00
  4.40000000E+02  7.20000000E+01  0.00000000E+00
  4.40000000E+02  7.00000000E+01  0.00000000E+00
  4.40000000E+02  6.80000000E+01  0.00000000E+00
  4.40000000E+02  6.60000000E+01  0.00000000E+00
  4.40000000E+02  6.40000000E+01  0.00000000E+00
  4.40000000E+02  6.20000000E+01  0.00000000E+00
  4.40000000E+02  6.00000000E+01  0.00000000E+00
  4.40000000E+02  5.80000000E+01  0.00000000E+00
  4.40000000E+02  5.60000000E+01  0.00000000E+00
  4.40000000E+02  5.40000000E+01  0.00000000E+00
  4.40000000E+02  5.20000000E+01  0.00000000E+00
  4.40000000E+02  5.00000000E+01  0.00000000E+00
  4.40000000E+02  4.80000000E+01  0.00000000E+00
  4.40000000E+02  4.60000000E+01  0.00000000E+00
  4.40000000E+02  4.40000000E+01  0.00000000E+00
  4.40000000E+02  4.20000000E+01  0.00000000E+00
  4.40000000E+02  4.00000000E+01  0.00000000E+00
  4.40000000E+02  3.80000000E+01  0.00000000E+00
  4.40000000E+02  3.60000000E+01  0.00000000E+00
  4.40000000E+02  3.40000000E+01  0.00000000E+00
  4.40000000E+02  3.20000000E+01  0.00000000E+00
  4.40000000E+02  3.00000000E+01  0.00000000E+00
  4.40000000E+02  2.80000000E+01  0.00000000E+00
  4.40000000E+02  2.60000000E+01  0.00000000E+00
  4.40000000E+02  2.40000000E+01  0.00000000E+00
  4.40000000E+02  2.20000000E+01  0.00000000E+00
  4.40000000E+02  2.00000000E+01  0.00000000E+00
  4.40000000E+02  1.80000000E+01  0.00000000E+00
  4.40000000E+02  1.60000000E+01  0.00000000E+00
  4.40000000E+02  1.40000000E+01  0.00000000E+00
  4.40000000E+02  1.20000000E+01  0.00000000E+00
  4.40000000E+02  1.00000000E+01  0.00000000E+00
  4.40000000E+02  8.00000000E+00  0.00000000E+00
  4.40000000E+02  6.00000000E+00  0.00000000E+00
  4.40000000E+02  4.00000000E+00  0.00000000E+00
  4.40000000E+02  2.00000000E+00  0.00000000E+00
  4.40000000E+02 -3.33066907E-14  0.00000000E+00
  4.50000000E+02  1.00000000E+02  0.00000000E+00
  4.50000000E+02  9.80000000E+01  0.00000000E+00
  4.50000000E+02  9.60000000E+01  0.00000000E+00
  4.50000000E+02  9.40000000E+01  0.00000000E+00
  4.50000000E+02  9.20000000E+01  0.00000000E+00
  4.50000000E+02  9.00000000E+01  0.00000000E+00
  4.50000000E+02  8.80000000E+01  0.00000000E+00
  4.50000000E+02  8.60000000E+01  0.00000000E+00
  4.50000000E+02  8.40000000E+01  0.00000000E+00
  4.50000000E+02  8.20000000E+01  0.00000000E+00
  4.50000000E+02  8.00000000E+01  0.00000000E+00
  4.50000000E+02  7.80000000E+01  0.00000000E+00
  4.50000000E+02  7.60000000E+01  0.00000000E+00
  4.50000000E+02  7.40000000E+01  0.00000000E+00
  4.50000000E+02  7.20000000E+01  0.00000000E+00
  4.50000000E+02  7.00000000E+01  0.00000000E+00
  4.50000000E+02  6.80000000E+01  0.00000000E+00
  4.50000000E+02  6.60000000E+01  0.00000000E+00
  4.50000000E+02  6.40000000E+01  0.00000000E+00
  4.50000000E+02  6.20000000E+01  0.00000000E+00
  4.50000000E+02  6.00000000E+01  0.00000000E+00
  4.50000000E+02  5.80000000E+01  0.00000000E+00
  4.50000000E+02  5.60000000E+01  0.00000000E+00
  4.50000000E+02  5.40000000E+01  0.00000000E+00
  4.50000000E+02  5.20000000E+01  0.00000000E+00
  4.50000000E+02  5.00000000E+01  0.00000000E+00
  4.50000000E+02  4.80000000E+01  0.00000000E+00
  4.50000000E+02  4.60000000E+01  0.00000000E+00
  4.50000000E+02  4.40000000E+01  0.00000000E+00
  4.50000000E+02  4.20000000E+01  0.00000000E+00
  4.50000000E+02  4.00000000E+01  0.00000000E+00
  4.50000000E+02  3.80000000E+01  0.00000000E+00
  4.50000000E+02  3.60000000E+01  0.00000000E+00
  4.50000000E+02  3.40000000E+01  0.00000000E+00
  4.50000000E+02  3.20000000E+01  0.00000000E+00
  4.50000000E+02  3.00000000E+01  0.00000000E+00
  4.50000000E+02  2.80000000E+01  0.00000000E+00
  4.50000000E+02  2.60000000E+01  0.00000000E+00
  4.50000000E+02  2.40000000E+01  0.00000000E+00
  4.50000000E+02  2.20000000E+01  0.00000000E+00
  4.50000000E+02  2.00000000E+01  0.00000000E+00
  4.50000000E+02  1.80000000E+01  0.00000000E+00
  4.50000000E+02  1.60000000E+01  0.00000000E+00
  4.50000000E+02  1.40000000E+01  0.00000000E+00
  4.50000000E+02  1.20000000E+01  0.00000000E+00
  4.50000000E+02  1.00000000E+01  0.00000000E+00
  4.50000000E+02  8.00000000E+00  0.00000000E+00
  4.50000000E+02  6.00000000E+00  0.00000000E+00
  4.50000000E+02  4.00000000E+00  0.00000000E+00
  4.50000000E+02  2.00000000E+00  0.00000000E+00
  4.50000000E+02 -3.33066907E-14  0.00000000E+00
  4.60000000E+02  1.00000000E+02  0.00000000E+00
  4.60000000E+02  9.80000000E+01  0.00000000E+00
  4.60000000E+02  9.60000000E+01  0.00000000E+00
  4.60000000E+02  9.40000000E+01  0.00000000E+00
  4.60000000E+02  9.20000000E+01  0.00000000E+00
  4.60000000E+02  9.00000000E+01  0.00000000E+00
  4.60000000E+02  8.80000000E+01  0.00000000E+00
  4.60000000E+02  8.60000000E+01  0.00000000E+00
  4.60000000E+02  8.40000000E+01  0.00000000E+00
  4.60000000E+02  8.20000000E+01  0.00000000E+00
  4.60000000E+02  8.00000000E+01  0.00000000E+00
  4.60000000E+02  7.80000000E+01  0.00000000E+00
  4.60000000E+02  7.60000000E+01  0.00000000E+00
  4.60000000E+02  7.40000000E+01  0.00000000E+00
  4.60000000E+02  7.20000000E+01  0.00000000E+00
  4.60000000E+02  7.00000000E+01  0.00000000E+00
  4.60000000E+02  6.80000000E+01  0.00000000E+00
  4.60000000E+02  6.60000000E+01  0.00000000E+00
  4.60000000E+02  6.40000000E+01  0.00000000E+00
  4.60000000E+02  6.20000000E+01  0.00000000E+00
  4.60000000E+02  6.00000000E+01  0.00000000E+00
  4.60000000E+02  5.80000000E+01  0.00000000E+00
  4.60000000E+02  5.60000000E+01  0.00000000E+00
  4.60000000E+02  5.40000000E+01  0.00000000E+00
  4.60000000E+02  5.20000000E+01  0.00000000E+00
  4.60000000E+02  5.00000000E+01  0.00000000E+00
  4.60000000E+02  4.80000000E+01  0.00000000E+00
  4.60000000E+02  4.60000000E+01  0.00000000E+00
  4.60000000E+02  4.40000000E+01  0.00000000E+00
  4.60000000E+02  4.20000000E+01  0.00000000E+00
  4.60000000E+02  4.00000000E+01  0.00000000E+00
  4.60000000E+02  3.80000000E+01  0.00000000E+00
  4.60000000E+02  3.60000000E+01  0.00000000E+00
  4.60000000E+02  3.40000000E+01  0.00000000E+00
  4.60000000E+02  3.20000000E+01  0.00000000E+00
  4.60000000E+02  3.00000000E+01  0.00000000E+00
  4.60000000E+02  2.80000000E+01  0.00000000E+00
  4.60000000E+02  2.60000000E+01  0.00000000E+00
  4.60000000E+02  2.40000000E+01  0.00000000E+00
  4.60000000E+02  2.20000000E+01  0.00000000E+00
  4.60000000E+02  2.00000000E+01  0.00000000E+00
  4.60000000E+02  1.80000000E+01  0.00000000E+00
  4.60000000E+02  1.60000000E+01  0.00000000E+00
  4.60000000E+02  1.40000000E+01  0.00000000E+00
  4.60000000E+02  1.20000000E+01  0.00000000E+00
  4.60000000E+02  1.00000000E+01  0.00000000E+00
  4.60000000E+02  8.00000000E+00  0.00000000E+00
  4.60000000E+02  6.00000000E+00  0.00000000E+00
  4.60000000E+02  4.00000000E+00  0.00000000E+00
  4.60000000E+02  2.00000000E+00  0.00000000E+00
  4.60000000E+02 -3.33066907E-14  0.00000000E+00
  4.70000000E+02  1.00000000E+02  0.00000000E+00
  4.70000000E+02  9.80000000E+01  0.00000000E+00
  4.70000000E+02  9.60000000E+01  0.00000000E+00
  4.70000000E+02  9.40000000E+01  0.00000000E+00
  4.70000000E+02  9.20000000E+01  0.00000000E+00
  4.70000000E+02  9.00000000E+01  0.00000000E+00
  4.70000000E+02  8.80000000E+01  0.00000000E+00
  4.70000000E+02  8.60000000E+01  0.00000000E+00
  4.70000000E+02  8.40000000E+01  0.00000000E+00
  4.70000000E+02  8.20000000E+01  0.00000000E+00
  4.70000000E+02  8.00000000E+01  0.00000000E+00
  4.70000000E+02  7.80000000E+01  0.00000000E+00
  4.70000000E+02  7.60000000E+01  0.00000000E+00
  4.70000000E+02  7.40000000E+01  0.00000000E+00
  4.70000000E+02  7.20000000E+01  0.00000000E+00
  4.70000000E+02  7.00000000E+01  0.00000000E+00
  4.70000000E+02  6.80000000E+01  0.00000000E+00
  4.70000000E+02  6.60000000E+01  0.00000000E+00
  4.70000000E+02  6.40000000E+01  0.00000000E+00
  4.70000000E+02  6.20000000E+01  0.00000000E+00
  4.70000000E+02  6.00000000E+01  0.00000000E+00
  4.70000000E+02  5.80000000E+01  0.00000000E+00
  4.70000000E+02  5.60000000E+01  0.00000000E+00
  4.70000000E+02  5.40000000E+01  0.00000000E+00
  4.70000000E+02  5.20000000E+01  0.00000000E+00
  4.70000000E+02  5.00000000E+01  0.00000000E+00
  4.70000000E+02  4.80000000E+01  0.00000000E+00
  4.70000000E+02  4.60000000E+01  0.00000000E+00
  4.70000000E+02  4.40000000E+01  0.00000000E+00
  4.70000000E+02  4.20000000E+01  0.00000000E+00
  4.70000000E+02  4.00000000E+01  0.00000000E+00
  4.70000000E+02  3.80000000E+01  0.00000000E+00
  4.70000000E+02  3.60000000E+01  0.00000000E+00
  4.70000000E+02  3.40000000E+01  0.00000000E+00
  4.70000000E+02  3.20000000E+01  0.00000000E+00
  4.70000000E+02  3.00000000E+01  0.00000000E+00
  4.70000000E+02  2.80000000E+01  0.00000000E+00
  4.70000000E+02  2.60000000E+01  0.00000000E+00
  4.70000000E+02  2.40000000E+01  0.00000000E+00
  4.70000000E+02  2.20000000E+01  0.00000000E+00
  4.70000000E+02  2.00000000E+01  0.00000000E+00
  4.70000000E+02  1.80000000E+01  0.00000000E+00
  4.70000000E+02  1.60000000E+01  0.00000000E+00
  4.70000000E+02  1.40000000E+01  0.00000000E+00
  4.70000000E+02  1.20000000E+01  0.00000000E+00
  4.70000000E+02  1.00000000E+01  0.00000000E+00
  4.70000000E+02  8.00000000E+00  0.00000000E+00
  4.70000000E+02  6.00000000E+00  0.00000000E+00
  4.70000000E+02  4.00000000E+00  0.00000000E+00
  4.70000000E+02  2.00000000E+00  0.00000000E+00
  4.70000000E+02 -3.33066907E-14  0.00000000E+00
  4.80000000E+02  1.00000000E+02  0.00000000E+00
  4.80000000E+02  9.80000000E+01  0.00000000E+00
  4.80000000E+02  9.60000000E+01  0.00000000E+00
  4.80000000E+02  9.40000000E+01  0.00000000E+00
  4.80000000E+02  9.20000000E+01  0.00000000E+00
  4.80000000E+02  9.00000000E+01  0.00000000E+00
  4.80000000E+02  8.80000000E+01  0.00000000E+00
  4.80000000E+02  8.60000000E+01  0.00000000E+00
  4.80000000E+02  8.40000000E+01  0.00000000E+00
  4.80000000E+02  8.20000000E+01  0.00000000E+00
  4.80000000E+02  8.00000000E+01  0.00000000E+00
  4.80000000E+02  7.80000000E+01  0.00000000E+00
  4.80000000E+02  7.60000000E+01  0.00000000E+00
  4.80000000E+02  7.40000000E+01  0.00000000E+00
  4.80000000E+02  7.20000000E+01  0.00000000E+00
  4.80000000E+02  7.00000000E+01  0.00000000E+00
  4.80000000E+02  6.80000000E+01  0.00000000E+00
  4.80000000E+02  6.60000000E+01  0.00000000E+00
  4.80000000E+02  6.40000000E+01  0.00000000E+00
  4.80000000E+02  6.20000000E+01  0.00000000E+00
  4.80000000E+02  6.00000000E+01  0.00000000E+00
  4.80000000E+02  5.80000000E+01  0.00000000E+00
  4.80000000E+02  5.60000000E+01  0.00000000E+00
  4.80000000E+02  5.40000000E+01  0.00000000E+00
  4.80000000E+02  5.20000000E+01  0.00000000E+00
  4.80000000E+02  5.00000000E+01  0.00000000E+00
  4.80000000E+02  4.80000000E+01  0.00000000E+00
  4.80000000E+02  4.60000000E+01  0.00000000E+00
  4.80000000E+02  4.40000000E+01  0.00000000E+00
  4.80000000E+02  4.20000000E+01  0.00000000E+00
  4.80000000E+02  4.00000000E+01  0.00000000E+00
  4.80000000E+02  3.80000000E+01  0.00000000E+00
  4.80000000E+02  3.60000000E+01  0.00000000E+00
  4.80000000E+02  3.40000000E+01  0.00000000E+00
  4.80000000E+02  3.20000000E+01  0.00000000E+00
  4.80000000E+02  3.00000000E+01  0.00000000E+00
  4.80000000E+02  2.80000000E+01  0.00000000E+00
  4.80000000E+02  2.60000000E+01  0.00000000E+00
  4.80000000E+02  2.40000000E+01  0.00000000E+00
  4.80000000E+02  2.20000000E+01  0.00000000E+00
  4.80000000E+02  2.00000000E+01  0.00000000E+00
  4.80000000E+02  1.80000000E+01  0.00000000E+00
  4.80000000E+02  1.60000000E+01  0.00000000E+00
  4.80000000E+02  1.40000000E+01  0.00000000E+00
  4.80000000E+02  1.20000000E+01  0.00000000E+00
  4.80000000E+02  1.00000000E+01  0.00000000E+00
  4.80000000E+02  8.00000000E+00  0.00000000E+00
  4.80000000E+02  6.00000000E+00  0.00000000E+00
  4.80000000E+02  4.00000000E+00  0.00000000E+00
  4.80000000E+02  2.00000000E+00  0.00000000E+00
  4.80000000E+02 -3.33066907E-14  0.00000000E+00
  4.90000000E+02  1.00000000E+02  0.00000000E+00
  4.90000000E+02  9.80000000E+01  0.00000000E+00
  4.90000000E+02  9.60000000E+01  0.00000000E+00
  4.90000000E+02  9.40000000E+01  0.00000000E+00
  4.90000000E+02  9.20000000E+01  0.00000000E+00
  4.90000000E+02  9.00000000E+01  0.00000000E+00
  4.90000000E+02  8.80000000E+01  0.00000000E+00
  4.90000000E+02  8.60000000E+01  0.00000000E+00
  4.90000000E+02  8.40000000E+01  0.00000000E+00
  4.90000000E+02  8.20000000E+01  0.00000000E+00
  4.90000000E+02  8.00000000E+01  0.00000000E+00
  4.90000000E+02  7.80000000E+01  0.00000000E+00
  4.90000000E+02  7.60000000E+01  0.00000000E+00
  4.90000000E+02  7.40000000E+01  0.00000000E+00
  4.90000000E+02  7.20000000E+01  0.00000000E+00
  4.90000000E+02  7.00000000E+01  0.00000000E+00
  4.90000000E+02  6.80000000E+01  0.00000000E+00
  4.90000000E+02  6.60000000E+01  0.00000000E+00
  4.90000000E+02  6.40000000E+01  0.00000000E+00
  4.90000000E+02  6.20000000E+01  0.00000000E+00
  4.90000000E+02  6.00000000E+01  0.00000000E+00
  4.90000000E+02  5.80000000E+01  0.00000000E+00
  4.90000000E+02  5.60000000E+01  0.00000000E+00
  4.90000000E+02  5.40000000E+01  0.00000000E+00
  4.90000000E+02  5.20000000E+01  0.00000000E+00
  4.90000000E+02  5.00000000E+01  0.00000000E+00
  4.90000000E+02  4.80000000E+01  0.00000000E+00
  4.90000000E+02  4.60000000E+01  0.00000000E+00
  4.90000000E+02  4.40000000E+01  0.00000000E+00
  4.90000000E+02  4.20000000E+01  0.00000000E+00
  4.90000000E+02  4.00000000E+01  0.00000000E+00
  4.90000000E+02  3.80000000E+01  0.00000000E+00
  4.90000000E+02  3.60000000E+01  0.00000000E+00
  4.90000000E+02  3.40000000E+01  0.00000000E+00
  4.90000000E+02  3.20000000E+01  0.00000000E+00
  4.90000000E+02  3.00000000E+01  0.00000000E+00
  4.90000000E+02  2.80000000E+01  0.00000000E+00
  4.90000000E+02  2.60000000E+01  0.00000000E+00
  4.90000000E+02  2.40000000E+01  0.00000000E+00
  4.90000000E+02  2.20000000E+01  0.00000000E+00
  4.90000000E+02  2.00000000E+01  0.00000000E+00
  4.90000000E+02  1.80000000E+01  0.00000000E+00
  4.90000000E+02  1.60000000E+01  0.00000000E+00
  4.90000000E+02  1.40000000E+01  0.00000000E+00
  4.90000000E+02  1.20000000E+01  0.00000000E+00
  4.90000000E+02  1.00000000E+01  0.00000000E+00
  4.90000000E+02  8.00000000E+00  0.00000000E+00
  4.90000000E+02  6.00000000E+00  0.00000000E+00
  4.90000000E+02  4.00000000E+00  0.00000000E+00
  4.90000000E+02  2.00000000E+00  0.00000000E+00
  4.90000000E+02 -3.33066907E-14  0.00000000E+00
  5.00000000E+02  1.00000000E+02  0.00000000E+00
  5.00000000E+02  9.80000000E+01  0.00000000E+00
  5.00000000E+02  9.60000000E+01  0.00000000E+00
  5.00000000E+02  9.40000000E+01  0.00000000E+00
  5.00000000E+02  9.20000000E+01  0.00000000E+00
  5.00000000E+02  9.00000000E+01  0.00000000E+00
  5.00000000E+02  8.80000000E+01  0.00000000E+00
  5.00000000E+02  8.60000000E+01  0.00000000E+00
  5.00000000E+02  8.40000000E+01  0.00000000E+00
  5.00000000E+02  8.20000000E+01  0.00000000E+00
  5.00000000E+02  8.00000000E+01  0.00000000E+00
  5.00000000E+02  7.80000000E+01  0.00000000E+00
  5.00000000E+02  7.60000000E+01  0.00000000E+00
  5.00000000E+02  7.40000000E+01  0.00000000E+00
  5.00000000E+02  7.20000000E+01  0.00000000E+00
  5.00000000E+02  7.00000000E+01  0.00000000E+00
  5.00000000E+02  6.80000000E+01  0.00000000E+00
  5.00000000E+02  6.60000000E+01  0.00000000E+00
  5.00000000E+02  6.40000000E+01  0.00000000E+00
  5.00000000E+02  6.20000000E+01  0.00000000E+00
  5.00000000E+02  6.00000000E+01  0.00000000E+00
  5.00000000E+02  5.80000000E+01  0.00000000E+00
  5.00000000E+02  5.60000000E+01  0.00000000E+00
  5.00000000E+02  5.40000000E+01  0.00000000E+00
  5.00000000E+02  5.20000000E+01  0.00000000E+00
  5.00000000E+02  5.00000000E+01  0.00000000E+00
  5.00000000E+02  4.80000000E+01  0.00000000E+00
  5.00000000E+02  4.60000000E+01  0.00000000E+00
  5.00000000E+02  4.40000000E+01  0.00000000E+00
  5.00000000E+02  4.20000000E+01  0.00000000E+00
  5.00000000E+02  4.00000000E+01  0.00000000E+00
  5.00000000E+02  3.80000000E+01  0.00000000E+00
  5.00000000E+02  3.60000000E+01  0.00000000E+00
  5.00000000E+02  3.40000000E+01  0.00000000E+00
  5.00000000E+02  3.20000000E+01  0.00000000E+00
  5.00000000E+02  3.00000000E+01  0.00000000E+00
  5.00000000E+02  2.80000000E+01  0.00000000E+00
  5.00000000E+02  2.60000000E+01  0.00000000E+00
  5.00000000E+02  2.40000000E+01  0.00000000E+00
  5.00000000E+02  2.20000000E+01  0.00000000E+00
  5.00000000E+02  2.00000000E+01  0.00000000E+00
  5.00000000E+02  1.80000000E+01  0.00000000E+00
  5.00000000E+02  1.60000000E+01  0.00000000E+00
  5.00000000E+02  1.40000000E+01  0.00000000E+00
  5.00000000E+02  1.20000000E+01  0.00000000E+00
  5.00000000E+02  1.00000000E+01  0.00000000E+00
  5.00000000E+02  8.00000000E+00  0.00000000E+00
  5.00000000E+02  6.00000000E+00  0.00000000E+00
  5.00000000E+02  4.00000000E+00  0.00000000E+00
  5.00000000E+02  2.00000000E+00  0.00000000E+00
  5.00000000E+02 -3.33066907E-14  0.00000000E+00
  5.10000000E+02  1.00000000E+02  0.00000000E+00
  5.10000000E+02  9.80000000E+01  0.00000000E+00
  5.10000000E+02  9.60000000E+01  0.00000000E+00
  5.10000000E+02  9.40000000E+01  0.00000000E+00
  5.10000000E+02  9.20000000E+01  0.00000000E+00
  5.10000000E+02  9.00000000E+01  0.00000000E+00
  5.10000000E+02  8.80000000E+01  0.00000000E+00
  5.10000000E+02  8.60000000E+01  0.00000000E+00
  5.10000000E+02  8.40000000E+01  0.00000000E+00
  5.10000000E+02  8.20000000E+01  0.00000000E+00
  5.10000000E+02  8.00000000E+01  0.00000000E+00
  5.10000000E+02  7.80000000E+01  0.00000000E+00
  5.10000000E+02  7.60000000E+01  0.00000000E+00
  5.10000000E+02  7.40000000E+01  0.00000000E+00
  5.10000000E+02  7.20000000E+01  0.00000000E+00
  5.10000000E+02  7.00000000E+01  0.00000000E+00
  5.10000000E+02  6.80000000E+01  0.00000000E+00
  5.10000000E+02  6.60000000E+01  0.00000000E+00
  5.10000000E+02  6.40000000E+01  0.00000000E+00
  5.10000000E+02  6.20000000E+01  0.00000000E+00
  5.10000000E+02  6.00000000E+01  0.00000000E+00
  5.10000000E+02  5.80000000E+01  0.00000000E+00
  5.10000000E+02  5.60000000E+01  0.00000000E+00
  5.10000000E+02  5.40000000E+01  0.00000000E+00
  5.10000000E+02  5.20000000E+01  0.00000000E+00
  5.10000000E+02  5.00000000E+01  0.00000000E+00
  5.10000000E+02  4.80000000E+01  0.00000000E+00
  5.10000000E+02  4.60000000E+01  0.00000000E+00
  5.10000000E+02  4.40000000E+01  0.00000000E+00
  5.10000000E+02  4.20000000E+01  0.00000000E+00
  5.10000000E+02  4.00000000E+01  0.00000000E+00
  5.10000000E+02  3.80000000E+01  0.00000000E+00
  5.10000000E+02  3.60000000E+01  0.00000000E+00
  5.10000000E+02  3.40000000E+01  0.00000000E+00
  5.10000000E+02  3.20000000E+01  0.00000000E+00
  5.10000000E+02  3.00000000E+01  0.00000000E+00
  5.10000000E+02  2.80000000E+01  0.00000000E+00
  5.10000000E+02  2.60000000E+01  0.00000000E+00
  5.10000000E+02  2.40000000E+01  0.00000000E+00
  5.10000000E+02  2.20000000E+01  0.00000000E+00
  5.10000000E+02  2.00000000E+01  0.00000000E+00
  5.10000000E+02  1.80000000E+01  0.00000000E+00
  5.10000000E+02  1.60000000E+01  0.00000000E+00
  5.10000000E+02  1.40000000E+01  0.00000000E+00
  5.10000000E+02  1.20000000E+01  0.00000000E+00
  5.10000000E+02  1.00000000E+01  0.00000000E+00
  5.10000000E+02  8.00000000E+00  0.00000000E+00
  5.10000000E+02  6.00000000E+00  0.00000000E+00
  5.10000000E+02  4.00000000E+00  0.00000000E+00
  5.10000000E+02  2.00000000E+00  0.00000000E+00
  5.10000000E+02 -3.33066907E-14  0.00000000E+00
  5.20000000E+02  1.00000000E+02  0.00000000E+00
  5.20000000E+02  9.80000000E+01  0.00000000E+00
  5.20000000E+02  9.60000000E+01  0.00000000E+00
  5.20000000E+02  9.40000000E+01  0.00000000E+00
  5.20000000E+02  9.20000000E+01  0.00000000E+00
  5.20000000E+02  9.00000000E+01  0.00000000E+00
  5.20000000E+02  8.80000000E+01  0.00000000E+00
  5.20000000E+02  8.60000000E+01  0.00000000E+00
  5.20000000E+02  8.40000000E+01  0.00000000E+00
  5.20000000E+02  8.20000000E+01  0.00000000E+00
  5.20000000E+02  8.00000000E+01  0.00000000E+00
  5.20000000E+02  7.80000000E+01  0.00000000E+00
  5.20000000E+02  7.60000000E+01  0.00000000E+00
  5.20000000E+02  7.40000000E+01  0.00000000E+00
  5.20000000E+02  7.20000000E+01  0.00000000E+00
  5.20000000E+02  7.00000000E+01  0.00000000E+00
  5.20000000E+02  6.80000000E+01  0.00000000E+00
  5.20000000E+02  6.60000000E+01  0.00000000E+00
  5.20000000E+02  6.40000000E+01  0.00000000E+00
  5.20000000E+02  6.20000000E+01  0.00000000E+00
  5.20000000E+02  6.00000000E+01  0.00000000E+00
  5.20000000E+02  5.80000000E+01  0.00000000E+00
  5.20000000E+02  5.60000000E+01  0.00000000E+00
  5.20000000E+02  5.40000000E+01  0.00000000E+00
  5.20000000E+02  5.20000000E+01  0.00000000E+00
  5.20000000E+02  5.00000000E+01  0.00000000E+00
  5.20000000E+02  4.80000000E+01  0.00000000E+00
  5.20000000E+02  4.60000000E+01  0.00000000E+00
  5.20000000E+02  4.40000000E+01  0.00000000E+00
  5.20000000E+02  4.20000000E+01  0.00000000E+00
  5.20000000E+02  4.00000000E+01  0.00000000E+00
  5.20000000E+02  3.80000000E+01  0.00000000E+00
  5.20000000E+02  3.60000000E+01  0.00000000E+00
  5.20000000E+02  3.40000000E+01  0.00000000E+00
  5.20000000E+02  3.20000000E+01  0.00000000E+00
  5.20000000E+02  3.00000000E+01  0.00000000E+00
  5.20000000E+02  2.80000000E+01  0.00000000E+00
  5.20000000E+02  2.60000000E+01  0.00000000E+00
  5.20000000E+02  2.40000000E+01  0.00000000E+00
  5.20000000E+02  2.20000000E+01  0.00000000E+00
  5.20000000E+02  2.00000000E+01  0.00000000E+00
  5.20000000E+02  1.80000000E+01  0.00000000E+00
  5.20000000E+02  1.60000000E+01  0.00000000E+00
  5.20000000E+02  1.40000000E+01  0.00000000E+00
  5.20000000E+02  1.20000000E+01  0.00000000E+00
  5.20000000E+02  1.00000000E+01  0.00000000E+00
  5.20000000E+02  8.00000000E+00  0.00000000E+00
  5.20000000E+02  6.00000000E+00  0.00000000E+00
  5.20000000E+02  4.00000000E+00  0.00000000E+00
  5.20000000E+02  2.00000000E+00  0.00000000E+00
  5.20000000E+02 -3.33066907E-14  0.00000000E+00
  5.30000000E+02  1.00000000E+02  0.00000000E+00
  5.30000000E+02  9.80000000E+01  0.00000000E+00
  5.30000000E+02  9.60000000E+01  0.00000000E+00
  5.30000000E+02  9.40000000E+01  0.00000000E+00
  5.30000000E+02  9.20000000E+01  0.00000000E+00
  5.30000000E+02  9.00000000E+01  0.00000000E+00
  5.30000000E+02  8.80000000E+01  0.00000000E+00
  5.30000000E+02  8.60000000E+01  0.00000000E+00
  5.30000000E+02  8.40000000E+01  0.00000000E+00
  5.30000000E+02  8.20000000E+01  0.00000000E+00
  5.30000000E+02  8.00000000E+01  0.00000000E+00
  5.30000000E+02  7.80000000E+01  0.00000000E+00
  5.30000000E+02  7.60000000E+01  0.00000000E+00
  5.30000000E+02  7.40000000E+01  0.00000000E+00
  5.30000000E+02  7.20000000E+01  0.00000000E+00
  5.30000000E+02  7.00000000E+01  0.00000000E+00
  5.30000000E+02  6.80000000E+01  0.00000000E+00
  5.30000000E+02  6.60000000E+01  0.00000000E+00
  5.30000000E+02  6.40000000E+01  0.00000000E+00
  5.30000000E+02  6.20000000E+01  0.00000000E+00
  5.30000000E+02  6.00000000E+01  0.00000000E+00
  5.30000000E+02  5.80000000E+01  0.00000000E+00
  5.30000000E+02  5.60000000E+01  0.00000000E+00
  5.30000000E+02  5.40000000E+01  0.00000000E+00
  5.30000000E+02  5.20000000E+01  0.00000000E+00
  5.30000000E+02  5.00000000E+01  0.00000000E+00
  5.30000000E+02  4.80000000E+01  0.00000000E+00
  5.30000000E+02  4.60000000E+01  0.00000000E+00
  5.30000000E+02  4.40000000E+01  0.00000000E+00
  5.30000000E+02  4.20000000E+01  0.00000000E+00
  5.30000000E+02  4.00000000E+01  0.00000000E+00
  5.30000000E+02  3.80000000E+01  0.00000000E+00
  5.30000000E+02  3.60000000E+01  0.00000000E+00
  5.30000000E+02  3.40000000E+01  0.00000000E+00
  5.30000000E+02  3.20000000E+01  0.00000000E+00
  5.30000000E+02  3.00000000E+01  0.00000000E+00
  5.30000000E+02  2.80000000E+01  0.00000000E+00
  5.30000000E+02  2.60000000E+01  0.00000000E+00
  5.30000000E+02  2.40000000E+01  0.00000000E+00
  5.30000000E+02  2.20000000E+01  0.00000000E+00
  5.30000000E+02  2.00000000E+01  0.00000000E+00
  5.30000000E+02  1.80000000E+01  0.00000000E+00
  5.30000000E+02  1.60000000E+01  0.00000000E+00
  5.30000000E+02  1.40000000E+01  0.00000000E+00
  5.30000000E+02  1.20000000E+01  0.00000000E+00
  5.30000000E+02  1.00000000E+01  0.00000000E+00
  5.30000000E+02  8.00000000E+00  0.00000000E+00
  5.30000000E+02  6.00000000E+00  0.00000000E+00
  5.30000000E+02  4.00000000E+00  0.00000000E+00
  5.30000000E+02  2.00000000E+00  0.00000000E+00
  5.30000000E+02 -3.33066907E-14  0.00000000E+00
  5.40000000E+02  1.00000000E+02  0.00000000E+00
  5.40000000E+02  9.80000000E+01  0.00000000E+00
  5.40000000E+02  9.60000000E+01  0.00000000E+00
  5.40000000E+02  9.40000000E+01  0.00000000E+00
  5.40000000E+02  9.20000000E+01  0.00000000E+00
  5.40000000E+02  9.00000000E+01  0.00000000E+00
  5.40000000E+02  8.80000000E+01  0.00000000E+00
  5.40000000E+02  8.60000000E+01  0.00000000E+00
  5.40000000E+02  8.40000000E+01  0.00000000E+00
  5.40000000E+02  8.20000000E+01  0.00000000E+00
  5.40000000E+02  8.00000000E+01  0.00000000E+00
  5.40000000E+02  7.80000000E+01  0.00000000E+00
  5.40000000E+02  7.60000000E+01  0.00000000E+00
  5.40000000E+02  7.40000000E+01  0.00000000E+00
  5.40000000E+02  7.20000000E+01  0.00000000E+00
  5.40000000E+02  7.00000000E+01  0.00000000E+00
  5.40000000E+02  6.80000000E+01  0.00000000E+00
  5.40000000E+02  6.60000000E+01  0.00000000E+00
  5.40000000E+02  6.40000000E+01  0.00000000E+00
  5.40000000E+02  6.20000000E+01  0.00000000E+00
  5.40000000E+02  6.00000000E+01  0.00000000E+00
  5.40000000E+02  5.80000000E+01  0.00000000E+00
  5.40000000E+02  5.60000000E+01  0.00000000E+00
  5.40000000E+02  5.40000000E+01  0.00000000E+00
  5.40000000E+02  5.20000000E+01  0.00000000E+00
  5.40000000E+02  5.00000000E+01  0.00000000E+00
  5.40000000E+02  4.80000000E+01  0.00000000E+00
  5.40000000E+02  4.60000000E+01  0.00000000E+00
  5.40000000E+02  4.40000000E+01  0.00000000E+00
  5.40000000E+02  4.20000000E+01  0.00000000E+00
  5.40000000E+02  4.00000000E+01  0.00000000E+00
  5.40000000E+02  3.80000000E+01  0.00000000E+00
  5.40000000E+02  3.60000000E+01  0.00000000E+00
  5.40000000E+02  3.40000000E+01  0.00000000E+00
  5.40000000E+02  3.20000000E+01  0.00000000E+00
  5.40000000E+02  3.00000000E+01  0.00000000E+00
  5.40000000E+02  2.80000000E+01  0.00000000E+00
  5.40000000E+02  2.60000000E+01  0.00000000E+00
  5.40000000E+02  2.40000000E+01  0.00000000E+00
  5.40000000E+02  2.20000000E+01  0.00000000E+00
  5.40000000E+02  2.00000000E+01  0.00000000E+00
  5.40000000E+02  1.80000000E+01  0.00000000E+00
  5.40000000E+02  1.60000000E+01  0.00000000E+00
  5.40000000E+02  1.40000000E+01  0.00000000E+00
  5.40000000E+02  1.20000000E+01  0.00000000E+00
  5.40000000E+02  1.00000000E+01  0.00000000E+00
  5.40000000E+02  8.00000000E+00  0.00000000E+00
  5.40000000E+02  6.00000000E+00  0.00000000E+00
  5.40000000E+02  4.00000000E+00  0.00000000E+00
  5.40000000E+02  2.00000000E+00  0.00000000E+00
  5.40000000E+02 -3.33066907E-14  0.00000000E+00
  5.50000000E+02  1.00000000E+02  0.00000000E+00
  5.50000000E+02  9.80000000E+01  0.00000000E+00
  5.50000000E+02  9.60000000E+01  0.00000000E+00
  5.50000000E+02  9.40000000E+01  0.00000000E+00
  5.50000000E+02  9.20000000E+01  0.00000000E+00
  5.50000000E+02  9.00000000E+01  0.00000000E+00
  5.50000000E+02  8.80000000E+01  0.00000000E+00
  5.50000000E+02  8.60000000E+01  0.00000000E+00
  5.50000000E+02  8.40000000E+01  0.00000000E+00
  5.50000000E+02  8.20000000E+01  0.00000000E+00
  5.50000000E+02  8.00000000E+01  0.00000000E+00
  5.50000000E+02  7.80000000E+01  0.00000000E+00
  5.50000000E+02  7.60000000E+01  0.00000000E+00
  5.50000000E+02  7.40000000E+01  0.00000000E+00
  5.50000000E+02  7.20000000E+01  0.00000000E+00
  5.50000000E+02  7.00000000E+01  0.00000000E+00
  5.50000000E+02  6.80000000E+01  0.00000000E+00
  5.50000000E+02  6.60000000E+01  0.00000000E+00
  5.50000000E+02  6.40000000E+01  0.00000000E+00
  5.50000000E+02  6.20000000E+01  0.00000000E+00
  5.50000000E+02  6.00000000E+01  0.00000000E+00
  5.50000000E+02  5.80000000E+01  0.00000000E+00
  5.50000000E+02  5.60000000E+01  0.00000000E+00
  5.50000000E+02  5.40000000E+01  0.00000000E+00
  5.50000000E+02  5.20000000E+01  0.00000000E+00
  5.50000000E+02  5.00000000E+01  0.00000000E+00
  5.50000000E+02  4.80000000E+01  0.00000000E+00
  5.50000000E+02  4.60000000E+01  0.00000000E+00
  5.50000000E+02  4.40000000E+01  0.00000000E+00
  5.50000000E+02  4.20000000E+01  0.00000000E+00
  5.50000000E+02  4.00000000E+01  0.00000000E+00
  5.50000000E+02  3.80000000E+01  0.00000000E+00
  5.50000000E+02  3.60000000E+01  0.00000000E+00
  5.50000000E+02  3.40000000E+01  0.00000000E+00
  5.50000000E+02  3.20000000E+01  0.00000000E+00
  5.50000000E+02  3.00000000E+01  0.00000000E+00
  5.50000000E+02  2.80000000E+01  0.00000000E+00
  5.50000000E+02  2.60000000E+01  0.00000000E+00
  5.50000000E+02  2.40000000E+01  0.00000000E+00
  5.50000000E+02  2.20000000E+01  0.00000000E+00
  5.50000000E+02  2.00000000E+01  0.00000000E+00
  5.50000000E+02  1.80000000E+01  0.00000000E+00
  5.50000000E+02  1.60000000E+01  0.00000000E+00
  5.50000000E+02  1.40000000E+01  0.00000000E+00
  5.50000000E+02  1.20000000E+01  0.00000000E+00
  5.50000000E+02  1.00000000E+01  0.00000000E+00
  5.50000000E+02  8.00000000E+00  0.00000000E+00
  5.50000000E+02  6.00000000E+00  0.00000000E+00
  5.50000000E+02  4.00000000E+00  0.00000000E+00
  5.50000000E+02  2.00000000E+00  0.00000000E+00
  5.50000000E+02 -3.33066907E-14  0.00000000E+00
  5.60000000E+02  1.00000000E+02  0.00000000E+00
  5.60000000E+02  9.80000000E+01  0.00000000E+00
  5.60000000E+02  9.60000000E+01  0.00000000E+00
  5.60000000E+02  9.40000000E+01  0.00000000E+00
  5.60000000E+02  9.20000000E+01  0.00000000E+00
  5.60000000E+02  9.00000000E+01  0.00000000E+00
  5.60000000E+02  8.80000000E+01  0.00000000E+00
  5.60000000E+02  8.60000000E+01  0.00000000E+00
  5.60000000E+02  8.40000000E+01  0.00000000E+00
  5.60000000E+02  8.20000000E+01  0.00000000E+00
  5.60000000E+02  8.00000000E+01  0.00000000E+00
  5.60000000E+02  7.80000000E+01  0.00000000E+00
  5.60000000E+02  7.60000000E+01  0.00000000E+00
  5.60000000E+02  7.40000000E+01  0.00000000E+00
  5.60000000E+02  7.20000000E+01  0.00000000E+00
  5.60000000E+02  7.00000000E+01  0.00000000E+00
  5.60000000E+02  6.80000000E+01  0.00000000E+00
  5.60000000E+02  6.60000000E+01  0.00000000E+00
  5.60000000E+02  6.40000000E+01  0.00000000E+00
  5.60000000E+02  6.20000000E+01  0.00000000E+00
  5.60000000E+02  6.00000000E+01  0.00000000E+00
  5.60000000E+02  5.80000000E+01  0.00000000E+00
  5.60000000E+02  5.60000000E+01  0.00000000E+00
  5.60000000E+02  5.40000000E+01  0.00000000E+00
  5.60000000E+02  5.20000000E+01  0.00000000E+00
  5.60000000E+02  5.00000000E+01  0.00000000E+00
  5.60000000E+02  4.80000000E+01  0.00000000E+00
  5.60000000E+02  4.60000000E+01  0.00000000E+00
  5.60000000E+02  4.40000000E+01  0.00000000E+00
  5.60000000E+02  4.20000000E+01  0.00000000E+00
  5.60000000E+02  4.00000000E+01  0.00000000E+00
  5.60000000E+02  3.80000000E+01  0.00000000E+00
  5.60000000E+02  3.60000000E+01  0.00000000E+00
  5.60000000E+02  3.40000000E+01  0.00000000E+00
  5.60000000E+02  3.20000000E+01  0.00000000E+00
  5.60000000E+02  3.00000000E+01  0.00000000E+00
  5.60000000E+02  2.80000000E+01  0.00000000E+00
  5.60000000E+02  2.60000000E+01  0.00000000E+00
  5.60000000E+02  2.40000000E+01  0.00000000E+00
  5.60000000E+02  2.20000000E+01  0.00000000E+00
  5.60000000E+02  2.00000000E+01  0.00000000E+00
  5.60000000E+02  1.80000000E+01  0.00000000E+00
  5.60000000E+02  1.60000000E+01  0.00000000E+00
  5.60000000E+02  1.40000000E+01  0.00000000E+00
  5.60000000E+02  1.20000000E+01  0.00000000E+00
  5.60000000E+02  1.00000000E+01  0.00000000E+00
  5.60000000E+02  8.00000000E+00  0.00000000E+00
  5.60000000E+02  6.00000000E+00  0.00000000E+00
  5.60000000E+02  4.00000000E+00  0.00000000E+00
  5.60000000E+02  2.00000000E+00  0.00000000E+00
  5.60000000E+02 -3.33066907E-14  0.00000000E+00
  5.70000000E+02  1.00000000E+02  0.00000000E+00
  5.70000000E+02  9.80000000E+01  0.00000000E+00
  5.70000000E+02  9.60000000E+01  0.00000000E+00
  5.70000000E+02  9.40000000E+01  0.00000000E+00
  5.70000000E+02  9.20000000E+01  0.00000000E+00
  5.70000000E+02  9.00000000E+01  0.00000000E+00
  5.70000000E+02  8.80000000E+01  0.00000000E+00
  5.70000000E+02  8.60000000E+01  0.00000000E+00
  5.70000000E+02  8.40000000E+01  0.00000000E+00
  5.70000000E+02  8.20000000E+01  0.00000000E+00
  5.70000000E+02  8.00000000E+01  0.00000000E+00
  5.70000000E+02  7.80000000E+01  0.00000000E+00
  5.70000000E+02  7.60000000E+01  0.00000000E+00
  5.70000000E+02  7.40000000E+01  0.00000000E+00
  5.70000000E+02  7.20000000E+01  0.00000000E+00
  5.70000000E+02  7.00000000E+01  0.00000000E+00
  5.70000000E+02  6.80000000E+01  0.00000000E+00
  5.70000000E+02  6.60000000E+01  0.00000000E+00
  5.70000000E+02  6.40000000E+01  0.00000000E+00
  5.70000000E+02  6.20000000E+01  0.00000000E+00
  5.70000000E+02  6.00000000E+01  0.00000000E+00
  5.70000000E+02  5.80000000E+01  0.00000000E+00
  5.70000000E+02  5.60000000E+01  0.00000000E+00
  5.70000000E+02  5.40000000E+01  0.00000000E+00
  5.70000000E+02  5.20000000E+01  0.00000000E+00
  5.70000000E+02  5.00000000E+01  0.00000000E+00
  5.70000000E+02  4.80000000E+01  0.00000000E+00
  5.70000000E+02  4.60000000E+01  0.00000000E+00
  5.70000000E+02  4.40000000E+01  0.00000000E+00
  5.70000000E+02  4.20000000E+01  0.00000000E+00
  5.70000000E+02  4.00000000E+01  0.00000000E+00
  5.70000000E+02  3.80000000E+01  0.00000000E+00
  5.70000000E+02  3.60000000E+01  0.00000000E+00
  5.70000000E+02  3.40000000E+01  0.00000000E+00
  5.70000000E+02  3.20000000E+01  0.00000000E+00
  5.70000000E+02  3.00000000E+01  0.00000000E+00
  5.70000000E+02  2.80000000E+01  0.00000000E+00
  5.70000000E+02  2.60000000E+01  0.00000000E+00
  5.70000000E+02  2.40000000E+01  0.00000000E+00
  5.70000000E+02  2.20000000E+01  0.00000000E+00
  5.70000000E+02  2.00000000E+01  0.00000000E+00
  5.70000000E+02  1.80000000E+01  0.00000000E+00
  5.70000000E+02  1.60000000E+01  0.00000000E+00
  5.70000000E+02  1.40000000E+01  0.00000000E+00
  5.70000000E+02  1.20000000E+01  0.00000000E+00
  5.70000000E+02  1.00000000E+01  0.00000000E+00
  5.70000000E+02  8.00000000E+00  0.00000000E+00
  5.70000000E+02  6.00000000E+00  0.00000000E+00
  5.70000000E+02  4.00000000E+00  0.00000000E+00
  5.70000000E+02  2.00000000E+00  0.00000000E+00
  5.70000000E+02 -3.33066907E-14  0.00000000E+00
  5.80000000E+02  1.00000000E+02  0.00000000E+00
  5.80000000E+02  9.80000000E+01  0.00000000E+00
  5.80000000E+02  9.60000000E+01  0.00000000E+00
  5.80000000E+02  9.40000000E+01  0.00000000E+00
  5.80000000E+02  9.20000000E+01  0.00000000E+00
  5.80000000E+02  9.00000000E+01  0.00000000E+00
  5.80000000E+02  8.80000000E+01  0.00000000E+00
  5.80000000E+02  8.60000000E+01  0.00000000E+00
  5.80000000E+02  8.40000000E+01  0.00000000E+00
  5.80000000E+02  8.20000000E+01  0.00000000E+00
  5.80000000E+02  8.00000000E+01  0.00000000E+00
  5.80000000E+02  7.80000000E+01  0.00000000E+00
  5.80000000E+02  7.60000000E+01  0.00000000E+00
  5.80000000E+02  7.40000000E+01  0.00000000E+00
  5.80000000E+02  7.20000000E+01  0.00000000E+00
  5.80000000E+02  7.00000000E+01  0.00000000E+00
  5.80000000E+02  6.80000000E+01  0.00000000E+00
  5.80000000E+02  6.60000000E+01  0.00000000E+00
  5.80000000E+02  6.40000000E+01  0.00000000E+00
  5.80000000E+02  6.20000000E+01  0.00000000E+00
  5.80000000E+02  6.00000000E+01  0.00000000E+00
  5.80000000E+02  5.80000000E+01  0.00000000E+00
  5.80000000E+02  5.60000000E+01  0.00000000E+00
  5.80000000E+02  5.40000000E+01  0.00000000E+00
  5.80000000E+02  5.20000000E+01  0.00000000E+00
  5.80000000E+02  5.00000000E+01  0.00000000E+00
  5.80000000E+02  4.80000000E+01  0.00000000E+00
  5.80000000E+02  4.60000000E+01  0.00000000E+00
  5.80000000E+02  4.40000000E+01  0.00000000E+00
  5.80000000E+02  4.20000000E+01  0.00000000E+00
  5.80000000E+02  4.00000000E+01  0.00000000E+00
  5.80000000E+02  3.80000000E+01  0.00000000E+00
  5.80000000E+02  3.60000000E+01  0.00000000E+00
  5.80000000E+02  3.40000000E+01  0.00000000E+00
  5.80000000E+02  3.20000000E+01  0.00000000E+00
  5.80000000E+02  3.00000000E+01  0.00000000E+00
  5.80000000E+02  2.80000000E+01  0.00000000E+00
  5.80000000E+02  2.60000000E+01  0.00000000E+00
  5.80000000E+02  2.40000000E+01  0.00000000E+00
  5.80000000E+02  2.20000000E+01  0.00000000E+00
  5.80000000E+02  2.00000000E+01  0.00000000E+00
  5.80000000E+02  1.80000000E+01  0.00000000E+00
  5.80000000E+02  1.60000000E+01  0.00000000E+00
  5.80000000E+02  1.40000000E+01  0.00000000E+00
  5.80000000E+02  1.20000000E+01  0.00000000E+00
  5.80000000E+02  1.00000000E+01  0.00000000E+00
  5.80000000E+02  8.00000000E+00  0.00000000E+00
  5.80000000E+02  6.00000000E+00  0.00000000E+00
  5.80000000E+02  4.00000000E+00  0.00000000E+00
  5.80000000E+02  2.00000000E+00  0.00000000E+00
  5.80000000E+02 -3.33066907E-14  0.00000000E+00
  5.90000000E+02  1.00000000E+02  0.00000000E+00
  5.90000000E+02  9.80000000E+01  0.00000000E+00
  5.90000000E+02  9.60000000E+01  0.00000000E+00
  5.90000000E+02  9.40000000E+01  0.00000000E+00
  5.90000000E+02  9.20000000E+01  0.00000000E+00
  5.90000000E+02  9.00000000E+01  0.00000000E+00
  5.90000000E+02  8.80000000E+01  0.00000000E+00
  5.90000000E+02  8.60000000E+01  0.00000000E+00
  5.90000000E+02  8.40000000E+01  0.00000000E+00
  5.90000000E+02  8.20000000E+01  0.00000000E+00
  5.90000000E+02  8.00000000E+01  0.00000000E+00
  5.90000000E+02  7.80000000E+01  0.00000000E+00
  5.90000000E+02  7.60000000E+01  0.00000000E+00
  5.90000000E+02  7.40000000E+01  0.00000000E+00
  5.90000000E+02  7.20000000E+01  0.00000000E+00
  5.90000000E+02  7.00000000E+01  0.00000000E+00
  5.90000000E+02  6.80000000E+01  0.00000000E+00
  5.90000000E+02  6.60000000E+01  0.00000000E+00
  5.90000000E+02  6.40000000E+01  0.00000000E+00
  5.90000000E+02  6.20000000E+01  0.00000000E+00
  5.90000000E+02  6.00000000E+01  0.00000000E+00
  5.90000000E+02  5.80000000E+01  0.00000000E+00
  5.90000000E+02  5.60000000E+01  0.00000000E+00
  5.90000000E+02  5.40000000E+01  0.00000000E+00
  5.90000000E+02  5.20000000E+01  0.00000000E+00
  5.90000000E+02  5.00000000E+01  0.00000000E+00
  5.90000000E+02  4.80000000E+01  0.00000000E+00
  5.90000000E+02  4.60000000E+01  0.00000000E+00
  5.90000000E+02  4.40000000E+01  0.00000000E+00
  5.90000000E+02  4.20000000E+01  0.00000000E+00
  5.90000000E+02  4.00000000E+01  0.00000000E+00
  5.90000000E+02  3.80000000E+01  0.00000000E+00
  5.90000000E+02  3.60000000E+01  0.00000000E+00
  5.90000000E+02  3.40000000E+01  0.00000000E+00
  5.90000000E+02  3.20000000E+01  0.00000000E+00
  5.90000000E+02  3.00000000E+01  0.00000000E+00
  5.90000000E+02  2.80000000E+01  0.00000000E+00
  5.90000000E+02  2.60000000E+01  0.00000000E+00
  5.90000000E+02  2.40000000E+01  0.00000000E+00
  5.90000000E+02  2.20000000E+01  0.00000000E+00
  5.90000000E+02  2.00000000E+01  0.00000000E+00
  5.90000000E+02  1.80000000E+01  0.00000000E+00
  5.90000000E+02  1.60000000E+01  0.00000000E+00
  5.90000000E+02  1.40000000E+01  0.00000000E+00
  5.90000000E+02  1.20000000E+01  0.00000000E+00
  5.90000000E+02  1.00000000E+01  0.00000000E+00
  5.90000000E+02  8.00000000E+00  0.00000000E+00
  5.90000000E+02  6.00000000E+00  0.00000000E+00
  5.90000000E+02  4.00000000E+00  0.00000000E+00
  5.90000000E+02  2.00000000E+00  0.00000000E+00
  5.90000000E+02 -3.33066907E-14  0.00000000E+00
  6.00000000E+02  1.00000000E+02  0.00000000E+00
  6.00000000E+02  9.80000000E+01  0.00000000E+00
  6.00000000E+02  9.60000000E+01  0.00000000E+00
  6.00000000E+02  9.40000000E+01  0.00000000E+00
  6.00000000E+02  9.20000000E+01  0.00000000E+00
  6.00000000E+02  9.00000000E+01  0.00000000E+00
  6.00000000E+02  8.80000000E+01  0.00000000E+00
  6.00000000E+02  8.60000000E+01  0.00000000E+00
  6.00000000E+02  8.40000000E+01  0.00000000E+00
  6.00000000E+02  8.20000000E+01  0.00000000E+00
  6.00000000E+02  8.00000000E+01  0.00000000E+00
  6.00000000E+02  7.80000000E+01  0.00000000E+00
  6.00000000E+02  7.60000000E+01  0.00000000E+00
  6.00000000E+02  7.40000000E+01  0.00000000E+00
  6.00000000E+02  7.20000000E+01  0.00000000E+00
  6.00000000E+02  7.00000000E+01  0.00000000E+00
  6.00000000E+02  6.80000000E+01  0.00000000E+00
  6.00000000E+02  6.60000000E+01  0.00000000E+00
  6.00000000E+02  6.40000000E+01  0.00000000E+00
  6.00000000E+02  6.20000000E+01  0.00000000E+00
  6.00000000E+02  6.00000000E+01  0.00000000E+00
  6.00000000E+02  5.80000000E+01  0.00000000E+00
  6.00000000E+02  5.60000000E+01  0.00000000E+00
  6.00000000E+02  5.40000000E+01  0.00000000E+00
  6.00000000E+02  5.20000000E+01  0.00000000E+00
  6.00000000E+02  5.00000000E+01  0.00000000E+00
  6.00000000E+02  4.80000000E+01  0.00000000E+00
  6.00000000E+02  4.60000000E+01  0.00000000E+00
  6.00000000E+02  4.40000000E+01  0.00000000E+00
  6.00000000E+02  4.20000000E+01  0.00000000E+00
  6.00000000E+02  4.00000000E+01  0.00000000E+00
  6.00000000E+02  3.80000000E+01  0.00000000E+00
  6.00000000E+02  3.60000000E+01  0.00000000E+00
  6.00000000E+02  3.40000000E+01  0.00000000E+00
  6.00000000E+02  3.20000000E+01  0.00000000E+00
  6.00000000E+02  3.00000000E+01  0.00000000E+00
  6.00000000E+02  2.80000000E+01  0.00000000E+00
  6.00000000E+02  2.60000000E+01  0.00000000E+00
  6.00000000E+02  2.40000000E+01  0.00000000E+00
  6.00000000E+02  2.20000000E+01  0.00000000E+00
  6.00000000E+02  2.00000000E+01  0.00000000E+00
  6.00000000E+02  1.80000000E+01  0.00000000E+00
  6.00000000E+02  1.60000000E+01  0.00000000E+00
  6.00000000E+02  1.40000000E+01  0.00000000E+00
  6.00000000E+02  1.20000000E+01  0.00000000E+00
  6.00000000E+02  1.00000000E+01  0.00000000E+00
  6.00000000E+02  8.00000000E+00  0.00000000E+00
  6.00000000E+02  6.00000000E+00  0.00000000E+00
  6.00000000E+02  4.00000000E+00  0.00000000E+00
  6.00000000E+02  2.00000000E+00  0.00000000E+00
  6.00000000E+02 -3.33066907E-14  0.00000000E+00
  6.10000000E+02  1.00000000E+02  0.00000000E+00
  6.10000000E+02  9.80000000E+01  0.00000000E+00
  6.10000000E+02  9.60000000E+01  0.00000000E+00
  6.10000000E+02  9.40000000E+01  0.00000000E+00
  6.10000000E+02  9.20000000E+01  0.00000000E+00
  6.10000000E+02  9.00000000E+01  0.00000000E+00
  6.10000000E+02  8.80000000E+01  0.00000000E+00
  6.10000000E+02  8.60000000E+01  0.00000000E+00
  6.10000000E+02  8.40000000E+01  0.00000000E+00
  6.10000000E+02  8.20000000E+01  0.00000000E+00
  6.10000000E+02  8.00000000E+01  0.00000000E+00
  6.10000000E+02  7.80000000E+01  0.00000000E+00
  6.10000000E+02  7.60000000E+01  0.00000000E+00
  6.10000000E+02  7.40000000E+01  0.00000000E+00
  6.10000000E+02  7.20000000E+01  0.00000000E+00
  6.10000000E+02  7.00000000E+01  0.00000000E+00
  6.10000000E+02  6.80000000E+01  0.00000000E+00
  6.10000000E+02  6.60000000E+01  0.00000000E+00
  6.10000000E+02  6.40000000E+01  0.00000000E+00
  6.10000000E+02  6.20000000E+01  0.00000000E+00
  6.10000000E+02  6.00000000E+01  0.00000000E+00
  6.10000000E+02  5.80000000E+01  0.00000000E+00
  6.10000000E+02  5.60000000E+01  0.00000000E+00
  6.10000000E+02  5.40000000E+01  0.00000000E+00
  6.10000000E+02  5.20000000E+01  0.00000000E+00
  6.10000000E+02  5.00000000E+01  0.00000000E+00
  6.10000000E+02  4.80000000E+01  0.00000000E+00
  6.10000000E+02  4.60000000E+01  0.00000000E+00
  6.10000000E+02  4.40000000E+01  0.00000000E+00
  6.10000000E+02  4.20000000E+01  0.00000000E+00
  6.10000000E+02  4.00000000E+01  0.00000000E+00
  6.10000000E+02  3.80000000E+01  0.00000000E+00
  6.10000000E+02  3.60000000E+01  0.00000000E+00
  6.10000000E+02  3.40000000E+01  0.00000000E+00
  6.10000000E+02  3.20000000E+01  0.00000000E+00
  6.10000000E+02  3.00000000E+01  0.00000000E+00
  6.10000000E+02  2.80000000E+01  0.00000000E+00
  6.10000000E+02  2.60000000E+01  0.00000000E+00
  6.10000000E+02  2.40000000E+01  0.00000000E+00
  6.10000000E+02  2.20000000E+01  0.00000000E+00
  6.10000000E+02  2.00000000E+01  0.00000000E+00
  6.10000000E+02  1.80000000E+01  0.00000000E+00
  6.10000000E+02  1.60000000E+01  0.00000000E+00
  6.10000000E+02  1.40000000E+01  0.00000000E+00
  6.10000000E+02  1.20000000E+01  0.00000000E+00
  6.10000000E+02  1.00000000E+01  0.00000000E+00
  6.10000000E+02  8.00000000E+00  0.00000000E+00
  6.10000000E+02  6.00000000E+00  0.00000000E+00
  6.10000000E+02  4.00000000E+00  0.00000000E+00
  6.10000000E+02  2.00000000E+00  0.00000000E+00
  6.10000000E+02 -3.33066907E-14  0.00000000E+00
  6.20000000E+02  1.00000000E+02  0.00000000E+00
  6.20000000E+02  9.80000000E+01  0.00000000E+00
  6.20000000E+02  9.60000000E+01  0.00000000E+00
  6.20000000E+02  9.40000000E+01  0.00000000E+00
  6.20000000E+02  9.20000000E+01  0.00000000E+00
  6.20000000E+02  9.00000000E+01  0.00000000E+00
  6.20000000E+02  8.80000000E+01  0.00000000E+00
  6.20000000E+02  8.60000000E+01  0.00000000E+00
  6.20000000E+02  8.40000000E+01  0.00000000E+00
  6.20000000E+02  8.20000000E+01  0.00000000E+00
  6.20000000E+02  8.00000000E+01  0.00000000E+00
  6.20000000E+02  7.80000000E+01  0.00000000E+00
  6.20000000E+02  7.60000000E+01  0.00000000E+00
  6.20000000E+02  7.40000000E+01  0.00000000E+00
  6.20000000E+02  7.20000000E+01  0.00000000E+00
  6.20000000E+02  7.00000000E+01  0.00000000E+00
  6.20000000E+02  6.80000000E+01  0.00000000E+00
  6.20000000E+02  6.60000000E+01  0.00000000E+00
  6.20000000E+02  6.40000000E+01  0.00000000E+00
  6.20000000E+02  6.20000000E+01  0.00000000E+00
  6.20000000E+02  6.00000000E+01  0.00000000E+00
  6.20000000E+02  5.80000000E+01  0.00000000E+00
  6.20000000E+02  5.60000000E+01  0.00000000E+00
  6.20000000E+02  5.40000000E+01  0.00000000E+00
  6.20000000E+02  5.20000000E+01  0.00000000E+00
  6.20000000E+02  5.00000000E+01  0.00000000E+00
  6.20000000E+02  4.80000000E+01  0.00000000E+00
  6.20000000E+02  4.60000000E+01  0.00000000E+00
  6.20000000E+02  4.40000000E+01  0.00000000E+00
  6.20000000E+02  4.20000000E+01  0.00000000E+00
  6.20000000E+02  4.00000000E+01  0.00000000E+00
  6.20000000E+02  3.80000000E+01  0.00000000E+00
  6.20000000E+02  3.60000000E+01  0.00000000E+00
  6.20000000E+02  3.40000000E+01  0.00000000E+00
  6.20000000E+02  3.20000000E+01  0.00000000E+00
  6.20000000E+02  3.00000000E+01  0.00000000E+00
  6.20000000E+02  2.80000000E+01  0.00000000E+00
  6.20000000E+02  2.60000000E+01  0.00000000E+00
  6.20000000E+02  2.40000000E+01  0.00000000E+00
  6.20000000E+02  2.20000000E+01  0.00000000E+00
  6.20000000E+02  2.00000000E+01  0.00000000E+00
  6.20000000E+02  1.80000000E+01  0.00000000E+00
  6.20000000E+02  1.60000000E+01  0.00000000E+00
  6.20000000E+02  1.40000000E+01  0.00000000E+00
  6.20000000E+02  1.20000000E+01  0.00000000E+00
  6.20000000E+02  1.00000000E+01  0.00000000E+00
  6.20000000E+02  8.00000000E+00  0.00000000E+00
  6.20000000E+02  6.00000000E+00  0.00000000E+00
  6.20000000E+02  4.00000000E+00  0.00000000E+00
  6.20000000E+02  2.00000000E+00  0.00000000E+00
  6.20000000E+02 -3.33066907E-14  0.00000000E+00
  6.30000000E+02  1.00000000E+02  0.00000000E+00
  6.30000000E+02  9.80000000E+01  0.00000000E+00
  6.30000000E+02  9.60000000E+01  0.00000000E+00
  6.30000000E+02  9.40000000E+01  0.00000000E+00
  6.30000000E+02  9.20000000E+01  0.00000000E+00
  6.30000000E+02  9.00000000E+01  0.00000000E+00
  6.30000000E+02  8.80000000E+01  0.00000000E+00
  6.30000000E+02  8.60000000E+01  0.00000000E+00
  6.30000000E+02  8.40000000E+01  0.00000000E+00
  6.30000000E+02  8.20000000E+01  0.00000000E+00
  6.30000000E+02  8.00000000E+01  0.00000000E+00
  6.30000000E+02  7.80000000E+01  0.00000000E+00
  6.30000000E+02  7.60000000E+01  0.00000000E+00
  6.30000000E+02  7.40000000E+01  0.00000000E+00
  6.30000000E+02  7.20000000E+01  0.00000000E+00
  6.30000000E+02  7.00000000E+01  0.00000000E+00
  6.30000000E+02  6.80000000E+01  0.00000000E+00
  6.30000000E+02  6.60000000E+01  0.00000000E+00
  6.30000000E+02  6.40000000E+01  0.00000000E+00
  6.30000000E+02  6.20000000E+01  0.00000000E+00
  6.30000000E+02  6.00000000E+01  0.00000000E+00
  6.30000000E+02  5.80000000E+01  0.00000000E+00
  6.30000000E+02  5.60000000E+01  0.00000000E+00
  6.30000000E+02  5.40000000E+01  0.00000000E+00
  6.30000000E+02  5.20000000E+01  0.00000000E+00
  6.30000000E+02  5.00000000E+01  0.00000000E+00
  6.30000000E+02  4.80000000E+01  0.00000000E+00
  6.30000000E+02  4.60000000E+01  0.00000000E+00
  6.30000000E+02  4.40000000E+01  0.00000000E+00
  6.30000000E+02  4.20000000E+01  0.00000000E+00
  6.30000000E+02  4.00000000E+01  0.00000000E+00
  6.30000000E+02  3.80000000E+01  0.00000000E+00
  6.30000000E+02  3.60000000E+01  0.00000000E+00
  6.30000000E+02  3.40000000E+01  0.00000000E+00
  6.30000000E+02  3.20000000E+01  0.00000000E+00
  6.30000000E+02  3.00000000E+01  0.00000000E+00
  6.30000000E+02  2.80000000E+01  0.00000000E+00
  6.30000000E+02  2.60000000E+01  0.00000000E+00
  6.30000000E+02  2.40000000E+01  0.00000000E+00
  6.30000000E+02  2.20000000E+01  0.00000000E+00
  6.30000000E+02  2.00000000E+01  0.00000000E+00
  6.30000000E+02  1.80000000E+01  0.00000000E+00
  6.30000000E+02  1.60000000E+01  0.00000000E+00
  6.30000000E+02  1.40000000E+01  0.00000000E+00
  6.30000000E+02  1.20000000E+01  0.00000000E+00
  6.30000000E+02  1.00000000E+01  0.00000000E+00
  6.30000000E+02  8.00000000E+00  0.00000000E+00
  6.30000000E+02  6.00000000E+00  0.00000000E+00
  6.30000000E+02  4.00000000E+00  0.00000000E+00
  6.30000000E+02  2.00000000E+00  0.00000000E+00
  6.30000000E+02 -3.33066907E-14  0.00000000E+00
  6.40000000E+02  1.00000000E+02  0.00000000E+00
  6.40000000E+02  9.80000000E+01  0.00000000E+00
  6.40000000E+02  9.60000000E+01  0.00000000E+00
  6.40000000E+02  9.40000000E+01  0.00000000E+00
  6.40000000E+02  9.20000000E+01  0.00000000E+00
  6.40000000E+02  9.00000000E+01  0.00000000E+00
  6.40000000E+02  8.80000000E+01  0.00000000E+00
  6.40000000E+02  8.60000000E+01  0.00000000E+00
  6.40000000E+02  8.40000000E+01  0.00000000E+00
  6.40000000E+02  8.20000000E+01  0.00000000E+00
  6.40000000E+02  8.00000000E+01  0.00000000E+00
  6.40000000E+02  7.80000000E+01  0.00000000E+00
  6.40000000E+02  7.60000000E+01  0.00000000E+00
  6.40000000E+02  7.40000000E+01  0.00000000E+00
  6.40000000E+02  7.20000000E+01  0.00000000E+00
  6.40000000E+02  7.00000000E+01  0.00000000E+00
  6.40000000E+02  6.80000000E+01  0.00000000E+00
  6.40000000E+02  6.60000000E+01  0.00000000E+00
  6.40000000E+02  6.40000000E+01  0.00000000E+00
  6.40000000E+02  6.20000000E+01  0.00000000E+00
  6.40000000E+02  6.00000000E+01  0.00000000E+00
  6.40000000E+02  5.80000000E+01  0.00000000E+00
  6.40000000E+02  5.60000000E+01  0.00000000E+00
  6.40000000E+02  5.40000000E+01  0.00000000E+00
  6.40000000E+02  5.20000000E+01  0.00000000E+00
  6.40000000E+02  5.00000000E+01  0.00000000E+00
  6.40000000E+02  4.80000000E+01  0.00000000E+00
  6.40000000E+02  4.60000000E+01  0.00000000E+00
  6.40000000E+02  4.40000000E+01  0.00000000E+00
  6.40000000E+02  4.20000000E+01  0.00000000E+00
  6.40000000E+02  4.00000000E+01  0.00000000E+00
  6.40000000E+02  3.80000000E+01  0.00000000E+00
  6.40000000E+02  3.60000000E+01  0.00000000E+00
  6.40000000E+02  3.40000000E+01  0.00000000E+00
  6.40000000E+02  3.20000000E+01  0.00000000E+00
  6.40000000E+02  3.00000000E+01  0.00000000E+00
  6.40000000E+02  2.80000000E+01  0.00000000E+00
  6.40000000E+02  2.60000000E+01  0.00000000E+00
  6.40000000E+02  2.40000000E+01  0.00000000E+00
  6.40000000E+02  2.20000000E+01  0.00000000E+00
  6.40000000E+02  2.00000000E+01  0.00000000E+00
  6.40000000E+02  1.80000000E+01  0.00000000E+00
  6.40000000E+02  1.60000000E+01  0.00000000E+00
  6.40000000E+02  1.40000000E+01  0.00000000E+00
  6.40000000E+02  1.20000000E+01  0.00000000E+00
  6.40000000E+02  1.00000000E+01  0.00000000E+00
  6.40000000E+02  8.00000000E+00  0.00000000E+00
  6.40000000E+02  6.00000000E+00  0.00000000E+00
  6.40000000E+02  4.00000000E+00  0.00000000E+00
  6.40000000E+02  2.00000000E+00  0.00000000E+00
  6.40000000E+02 -3.33066907E-14  0.00000000E+00
  6.50000000E+02  1.00000000E+02  0.00000000E+00
  6.50000000E+02  9.80000000E+01  0.00000000E+00
  6.50000000E+02  9.60000000E+01  0.00000000E+00
  6.50000000E+02  9.40000000E+01  0.00000000E+00
  6.50000000E+02  9.20000000E+01  0.00000000E+00
  6.50000000E+02  9.00000000E+01  0.00000000E+00
  6.50000000E+02  8.80000000E+01  0.00000000E+00
  6.50000000E+02  8.60000000E+01  0.00000000E+00
  6.50000000E+02  8.40000000E+01  0.00000000E+00
  6.50000000E+02  8.20000000E+01  0.00000000E+00
  6.50000000E+02  8.00000000E+01  0.00000000E+00
  6.50000000E+02  7.80000000E+01  0.00000000E+00
  6.50000000E+02  7.60000000E+01  0.00000000E+00
  6.50000000E+02  7.40000000E+01  0.00000000E+00
  6.50000000E+02  7.20000000E+01  0.00000000E+00
  6.50000000E+02  7.00000000E+01  0.00000000E+00
  6.50000000E+02  6.80000000E+01  0.00000000E+00
  6.50000000E+02  6.60000000E+01  0.00000000E+00
  6.50000000E+02  6.40000000E+01  0.00000000E+00
  6.50000000E+02  6.20000000E+01  0.00000000E+00
  6.50000000E+02  6.00000000E+01  0.00000000E+00
  6.50000000E+02  5.80000000E+01  0.00000000E+00
  6.50000000E+02  5.60000000E+01  0.00000000E+00
  6.50000000E+02  5.40000000E+01  0.00000000E+00
  6.50000000E+02  5.20000000E+01  0.00000000E+00
  6.50000000E+02  5.00000000E+01  0.00000000E+00
  6.50000000E+02  4.80000000E+01  0.00000000E+00
  6.50000000E+02  4.60000000E+01  0.00000000E+00
  6.50000000E+02  4.40000000E+01  0.00000000E+00
  6.50000000E+02  4.20000000E+01  0.00000000E+00
  6.50000000E+02  4.00000000E+01  0.00000000E+00
  6.50000000E+02  3.80000000E+01  0.00000000E+00
  6.50000000E+02  3.60000000E+01  0.00000000E+00
  6.50000000E+02  3.40000000E+01  0.00000000E+00
  6.50000000E+02  3.20000000E+01  0.00000000E+00
  6.50000000E+02  3.00000000E+01  0.00000000E+00
  6.50000000E+02  2.80000000E+01  0.00000000E+00
  6.50000000E+02  2.60000000E+01  0.00000000E+00
  6.50000000E+02  2.40000000E+01  0.00000000E+00
  6.50000000E+02  2.20000000E+01  0.00000000E+00
  6.50000000E+02  2.00000000E+01  0.00000000E+00
  6.50000000E+02  1.80000000E+01  0.00000000E+00
  6.50000000E+02  1.60000000E+01  0.00000000E+00
  6.50000000E+02  1.40000000E+01  0.00000000E+00
  6.50000000E+02  1.20000000E+01  0.00000000E+00
  6.50000000E+02  1.00000000E+01  0.00000000E+00
  6.50000000E+02  8.00000000E+00  0.00000000E+00
  6.50000000E+02  6.00000000E+00  0.00000000E+00
  6.50000000E+02  4.00000000E+00  0.00000000E+00
  6.50000000E+02  2.00000000E+00  0.00000000E+00
  6.50000000E+02 -3.33066907E-14  0.00000000E+00
  6.60000000E+02  1.00000000E+02  0.00000000E+00
  6.60000000E+02  9.80000000E+01  0.00000000E+00
  6.60000000E+02  9.60000000E+01  0.00000000E+00
  6.60000000E+02  9.40000000E+01  0.00000000E+00
  6.60000000E+02  9.20000000E+01  0.00000000E+00
  6.60000000E+02  9.00000000E+01  0.00000000E+00
  6.60000000E+02  8.80000000E+01  0.00000000E+00
  6.60000000E+02  8.60000000E+01  0.00000000E+00
  6.60000000E+02  8.40000000E+01  0.00000000E+00
  6.60000000E+02  8.20000000E+01  0.00000000E+00
  6.60000000E+02  8.00000000E+01  0.00000000E+00
  6.60000000E+02  7.80000000E+01  0.00000000E+00
  6.60000000E+02  7.60000000E+01  0.00000000E+00
  6.60000000E+02  7.40000000E+01  0.00000000E+00
  6.60000000E+02  7.20000000E+01  0.00000000E+00
  6.60000000E+02  7.00000000E+01  0.00000000E+00
  6.60000000E+02  6.80000000E+01  0.00000000E+00
  6.60000000E+02  6.60000000E+01  0.00000000E+00
  6.60000000E+02  6.40000000E+01  0.00000000E+00
  6.60000000E+02  6.20000000E+01  0.00000000E+00
  6.60000000E+02  6.00000000E+01  0.00000000E+00
  6.60000000E+02  5.80000000E+01  0.00000000E+00
  6.60000000E+02  5.60000000E+01  0.00000000E+00
  6.60000000E+02  5.40000000E+01  0.00000000E+00
  6.60000000E+02  5.20000000E+01  0.00000000E+00
  6.60000000E+02  5.00000000E+01  0.00000000E+00
  6.60000000E+02  4.80000000E+01  0.00000000E+00
  6.60000000E+02  4.60000000E+01  0.00000000E+00
  6.60000000E+02  4.40000000E+01  0.00000000E+00
  6.60000000E+02  4.20000000E+01  0.00000000E+00
  6.60000000E+02  4.00000000E+01  0.00000000E+00
  6.60000000E+02  3.80000000E+01  0.00000000E+00
  6.60000000E+02  3.60000000E+01  0.00000000E+00
  6.60000000E+02  3.40000000E+01  0.00000000E+00
  6.60000000E+02  3.20000000E+01  0.00000000E+00
  6.60000000E+02  3.00000000E+01  0.00000000E+00
  6.60000000E+02  2.80000000E+01  0.00000000E+00
  6.60000000E+02  2.60000000E+01  0.00000000E+00
  6.60000000E+02  2.40000000E+01  0.00000000E+00
  6.60000000E+02  2.20000000E+01  0.00000000E+00
  6.60000000E+02  2.00000000E+01  0.00000000E+00
  6.60000000E+02  1.80000000E+01  0.00000000E+00
  6.60000000E+02  1.60000000E+01  0.00000000E+00
  6.60000000E+02  1.40000000E+01  0.00000000E+00
  6.60000000E+02  1.20000000E+01  0.00000000E+00
  6.60000000E+02  1.00000000E+01  0.00000000E+00
  6.60000000E+02  8.00000000E+00  0.00000000E+00
  6.60000000E+02  6.00000000E+00  0.00000000E+00
  6.60000000E+02  4.00000000E+00  0.00000000E+00
  6.60000000E+02  2.00000000E+00  0.00000000E+00
  6.60000000E+02 -3.33066907E-14  0.00000000E+00
  6.70000000E+02  1.00000000E+02  0.00000000E+00
  6.70000000E+02  9.80000000E+01  0.00000000E+00
  6.70000000E+02  9.60000000E+01  0.00000000E+00
  6.70000000E+02  9.40000000E+01  0.00000000E+00
  6.70000000E+02  9.20000000E+01  0.00000000E+00
  6.70000000E+02  9.00000000E+01  0.00000000E+00
  6.70000000E+02  8.80000000E+01  0.00000000E+00
  6.70000000E+02  8.60000000E+01  0.00000000E+00
  6.70000000E+02  8.40000000E+01  0.00000000E+00
  6.70000000E+02  8.20000000E+01  0.00000000E+00
  6.70000000E+02  8.00000000E+01  0.00000000E+00
  6.70000000E+02  7.80000000E+01  0.00000000E+00
  6.70000000E+02  7.60000000E+01  0.00000000E+00
  6.70000000E+02  7.40000000E+01  0.00000000E+00
  6.70000000E+02  7.20000000E+01  0.00000000E+00
  6.70000000E+02  7.00000000E+01  0.00000000E+00
  6.70000000E+02  6.80000000E+01  0.00000000E+00
  6.70000000E+02  6.60000000E+01  0.00000000E+00
  6.70000000E+02  6.40000000E+01  0.00000000E+00
  6.70000000E+02  6.20000000E+01  0.00000000E+00
  6.70000000E+02  6.00000000E+01  0.00000000E+00
  6.70000000E+02  5.80000000E+01  0.00000000E+00
  6.70000000E+02  5.60000000E+01  0.00000000E+00
  6.70000000E+02  5.40000000E+01  0.00000000E+00
  6.70000000E+02  5.20000000E+01  0.00000000E+00
  6.70000000E+02  5.00000000E+01  0.00000000E+00
  6.70000000E+02  4.80000000E+01  0.00000000E+00
  6.70000000E+02  4.60000000E+01  0.00000000E+00
  6.70000000E+02  4.40000000E+01  0.00000000E+00
  6.70000000E+02  4.20000000E+01  0.00000000E+00
  6.70000000E+02  4.00000000E+01  0.00000000E+00
  6.70000000E+02  3.80000000E+01  0.00000000E+00
  6.70000000E+02  3.60000000E+01  0.00000000E+00
  6.70000000E+02  3.40000000E+01  0.00000000E+00
  6.70000000E+02  3.20000000E+01  0.00000000E+00
  6.70000000E+02  3.00000000E+01  0.00000000E+00
  6.70000000E+02  2.80000000E+01  0.00000000E+00
  6.70000000E+02  2.60000000E+01  0.00000000E+00
  6.70000000E+02  2.40000000E+01  0.00000000E+00
  6.70000000E+02  2.20000000E+01  0.00000000E+00
  6.70000000E+02  2.00000000E+01  0.00000000E+00
  6.70000000E+02  1.80000000E+01  0.00000000E+00
  6.70000000E+02  1.60000000E+01  0.00000000E+00
  6.70000000E+02  1.40000000E+01  0.00000000E+00
  6.70000000E+02  1.20000000E+01  0.00000000E+00
  6.70000000E+02  1.00000000E+01  0.00000000E+00
  6.70000000E+02  8.00000000E+00  0.00000000E+00
  6.70000000E+02  6.00000000E+00  0.00000000E+00
  6.70000000E+02  4.00000000E+00  0.00000000E+00
  6.70000000E+02  2.00000000E+00  0.00000000E+00
  6.70000000E+02 -3.33066907E-14  0.00000000E+00
  6.80000000E+02  1.00000000E+02  0.00000000E+00
  6.80000000E+02  9.80000000E+01  0.00000000E+00
  6.80000000E+02  9.60000000E+01  0.00000000E+00
  6.80000000E+02  9.40000000E+01  0.00000000E+00
  6.80000000E+02  9.20000000E+01  0.00000000E+00
  6.80000000E+02  9.00000000E+01  0.00000000E+00
  6.80000000E+02  8.80000000E+01  0.00000000E+00
  6.80000000E+02  8.60000000E+01  0.00000000E+00
  6.80000000E+02  8.40000000E+01  0.00000000E+00
  6.80000000E+02  8.20000000E+01  0.00000000E+00
  6.80000000E+02  8.00000000E+01  0.00000000E+00
  6.80000000E+02  7.80000000E+01  0.00000000E+00
  6.80000000E+02  7.60000000E+01  0.00000000E+00
  6.80000000E+02  7.40000000E+01  0.00000000E+00
  6.80000000E+02  7.20000000E+01  0.00000000E+00
  6.80000000E+02  7.00000000E+01  0.00000000E+00
  6.80000000E+02  6.80000000E+01  0.00000000E+00
  6.80000000E+02  6.60000000E+01  0.00000000E+00
  6.80000000E+02  6.40000000E+01  0.00000000E+00
  6.80000000E+02  6.20000000E+01  0.00000000E+00
  6.80000000E+02  6.00000000E+01  0.00000000E+00
  6.80000000E+02  5.80000000E+01  0.00000000E+00
  6.80000000E+02  5.60000000E+01  0.00000000E+00
  6.80000000E+02  5.40000000E+01  0.00000000E+00
  6.80000000E+02  5.20000000E+01  0.00000000E+00
  6.80000000E+02  5.00000000E+01  0.00000000E+00
  6.80000000E+02  4.80000000E+01  0.00000000E+00
  6.80000000E+02  4.60000000E+01  0.00000000E+00
  6.80000000E+02  4.40000000E+01  0.00000000E+00
  6.80000000E+02  4.20000000E+01  0.00000000E+00
  6.80000000E+02  4.00000000E+01  0.00000000E+00
  6.80000000E+02  3.80000000E+01  0.00000000E+00
  6.80000000E+02  3.60000000E+01  0.00000000E+00
  6.80000000E+02  3.40000000E+01  0.00000000E+00
  6.80000000E+02  3.20000000E+01  0.00000000E+00
  6.80000000E+02  3.00000000E+01  0.00000000E+00
  6.80000000E+02  2.80000000E+01  0.00000000E+00
  6.80000000E+02  2.60000000E+01  0.00000000E+00
  6.80000000E+02  2.40000000E+01  0.00000000E+00
  6.80000000E+02  2.20000000E+01  0.00000000E+00
  6.80000000E+02  2.00000000E+01  0.00000000E+00
  6.80000000E+02  1.80000000E+01  0.00000000E+00
  6.80000000E+02  1.60000000E+01  0.00000000E+00
  6.80000000E+02  1.40000000E+01  0.00000000E+00
  6.80000000E+02  1.20000000E+01  0.00000000E+00
  6.80000000E+02  1.00000000E+01  0.00000000E+00
  6.80000000E+02  8.00000000E+00  0.00000000E+00
  6.80000000E+02  6.00000000E+00  0.00000000E+00
  6.80000000E+02  4.00000000E+00  0.00000000E+00
  6.80000000E+02  2.00000000E+00  0.00000000E+00
  6.80000000E+02 -3.33066907E-14  0.00000000E+00
  6.90000000E+02  1.00000000E+02  0.00000000E+00
  6.90000000E+02  9.80000000E+01  0.00000000E+00
  6.90000000E+02  9.60000000E+01  0.00000000E+00
  6.90000000E+02  9.40000000E+01  0.00000000E+00
  6.90000000E+02  9.20000000E+01  0.00000000E+00
  6.90000000E+02  9.00000000E+01  0.00000000E+00
  6.90000000E+02  8.80000000E+01  0.00000000E+00
  6.90000000E+02  8.60000000E+01  0.00000000E+00
  6.90000000E+02  8.40000000E+01  0.00000000E+00
  6.90000000E+02  8.20000000E+01  0.00000000E+00
  6.90000000E+02  8.00000000E+01  0.00000000E+00
  6.90000000E+02  7.80000000E+01  0.00000000E+00
  6.90000000E+02  7.60000000E+01  0.00000000E+00
  6.90000000E+02  7.40000000E+01  0.00000000E+00
  6.90000000E+02  7.20000000E+01  0.00000000E+00
  6.90000000E+02  7.00000000E+01  0.00000000E+00
  6.90000000E+02  6.80000000E+01  0.00000000E+00
  6.90000000E+02  6.60000000E+01  0.00000000E+00
  6.90000000E+02  6.40000000E+01  0.00000000E+00
  6.90000000E+02  6.20000000E+01  0.00000000E+00
  6.90000000E+02  6.00000000E+01  0.00000000E+00
  6.90000000E+02  5.80000000E+01  0.00000000E+00
  6.90000000E+02  5.60000000E+01  0.00000000E+00
  6.90000000E+02  5.40000000E+01  0.00000000E+00
  6.90000000E+02  5.20000000E+01  0.00000000E+00
  6.90000000E+02  5.00000000E+01  0.00000000E+00
  6.90000000E+02  4.80000000E+01  0.00000000E+00
  6.90000000E+02  4.60000000E+01  0.00000000E+00
  6.90000000E+02  4.40000000E+01  0.00000000E+00
  6.90000000E+02  4.20000000E+01  0.00000000E+00
  6.90000000E+02  4.00000000E+01  0.00000000E+00
  6.90000000E+02  3.80000000E+01  0.00000000E+00
  6.90000000E+02  3.60000000E+01  0.00000000E+00
  6.90000000E+02  3.40000000E+01  0.00000000E+00
  6.90000000E+02  3.20000000E+01  0.00000000E+00
  6.90000000E+02  3.00000000E+01  0.00000000E+00
  6.90000000E+02  2.80000000E+01  0.00000000E+00
  6.90000000E+02  2.60000000E+01  0.00000000E+00
  6.90000000E+02  2.40000000E+01  0.00000000E+00
  6.90000000E+02  2.20000000E+01  0.00000000E+00
  6.90000000E+02  2.00000000E+01  0.00000000E+00
  6.90000000E+02  1.80000000E+01  0.00000000E+00
  6.90000000E+02  1.60000000E+01  0.00000000E+00
  6.90000000E+02  1.40000000E+01  0.00000000E+00
  6.90000000E+02  1.20000000E+01  0.00000000E+00
  6.90000000E+02  1.00000000E+01  0.00000000E+00
  6.90000000E+02  8.00000000E+00  0.00000000E+00
  6.90000000E+02  6.00000000E+00  0.00000000E+00
  6.90000000E+02  4.00000000E+00  0.00000000E+00
  6.90000000E+02  2.00000000E+00  0.00000000E+00
  6.90000000E+02 -3.33066907E-14  0.00000000E+00
  7.00000000E+02  1.00000000E+02  0.00000000E+00
  7.00000000E+02  9.80000000E+01  0.00000000E+00
  7.00000000E+02  9.60000000E+01  0.00000000E+00
  7.00000000E+02  9.40000000E+01  0.00000000E+00
  7.00000000E+02  9.20000000E+01  0.00000000E+00
  7.00000000E+02  9.00000000E+01  0.00000000E+00
  7.00000000E+02  8.80000000E+01  0.00000000E+00
  7.00000000E+02  8.60000000E+01  0.00000000E+00
  7.00000000E+02  8.40000000E+01  0.00000000E+00
  7.00000000E+02  8.20000000E+01  0.00000000E+00
  7.00000000E+02  8.00000000E+01  0.00000000E+00
  7.00000000E+02  7.80000000E+01  0.00000000E+00
  7.00000000E+02  7.60000000E+01  0.00000000E+00
  7.00000000E+02  7.40000000E+01  0.00000000E+00
  7.00000000E+02  7.20000000E+01  0.00000000E+00
  7.00000000E+02  7.00000000E+01  0.00000000E+00
  7.00000000E+02  6.80000000E+01  0.00000000E+00
  7.00000000E+02  6.60000000E+01  0.00000000E+00
  7.00000000E+02  6.40000000E+01  0.00000000E+00
  7.00000000E+02  6.20000000E+01  0.00000000E+00
  7.00000000E+02  6.00000000E+01  0.00000000E+00
  7.00000000E+02  5.80000000E+01  0.00000000E+00
  7.00000000E+02  5.60000000E+01  0.00000000E+00
  7.00000000E+02  5.40000000E+01  0.00000000E+00
  7.00000000E+02  5.20000000E+01  0.00000000E+00
  7.00000000E+02  5.00000000E+01  0.00000000E+00
  7.00000000E+02  4.80000000E+01  0.00000000E+00
  7.00000000E+02  4.60000000E+01  0.00000000E+00
  7.00000000E+02  4.40000000E+01  0.00000000E+00
  7.00000000E+02  4.20000000E+01  0.00000000E+00
  7.00000000E+02  4.00000000E+01  0.00000000E+00
  7.00000000E+02  3.80000000E+01  0.00000000E+00
  7.00000000E+02  3.60000000E+01  0.00000000E+00
  7.00000000E+02  3.40000000E+01  0.00000000E+00
  7.00000000E+02  3.20000000E+01  0.00000000E+00
  7.00000000E+02  3.00000000E+01  0.00000000E+00
  7.00000000E+02  2.80000000E+01  0.00000000E+00
  7.00000000E+02  2.60000000E+01  0.00000000E+00
  7.00000000E+02  2.40000000E+01  0.00000000E+00
  7.00000000E+02  2.20000000E+01  0.00000000E+00
  7.00000000E+02  2.00000000E+01  0.00000000E+00
  7.00000000E+02  1.80000000E+01  0.00000000E+00
  7.00000000E+02  1.60000000E+01  0.00000000E+00
  7.00000000E+02  1.40000000E+01  0.00000000E+00
  7.00000000E+02  1.20000000E+01  0.00000000E+00
  7.00000000E+02  1.00000000E+01  0.00000000E+00
  7.00000000E+02  8.00000000E+00  0.00000000E+00
  7.00000000E+02  6.00000000E+00  0.00000000E+00
  7.00000000E+02  4.00000000E+00  0.00000000E+00
  7.00000000E+02  2.00000000E+00  0.00000000E+00
  7.00000000E+02 -3.33066907E-14  0.00000000E+00
  7.10000000E+02  1.00000000E+02  0.00000000E+00
  7.10000000E+02  9.80000000E+01  0.00000000E+00
  7.10000000E+02  9.60000000E+01  0.00000000E+00
  7.10000000E+02  9.40000000E+01  0.00000000E+00
  7.10000000E+02  9.20000000E+01  0.00000000E+00
  7.10000000E+02  9.00000000E+01  0.00000000E+00
  7.10000000E+02  8.80000000E+01  0.00000000E+00
  7.10000000E+02  8.60000000E+01  0.00000000E+00
  7.10000000E+02  8.40000000E+01  0.00000000E+00
  7.10000000E+02  8.20000000E+01  0.00000000E+00
  7.10000000E+02  8.00000000E+01  0.00000000E+00
  7.10000000E+02  7.80000000E+01  0.00000000E+00
  7.10000000E+02  7.60000000E+01  0.00000000E+00
  7.10000000E+02  7.40000000E+01  0.00000000E+00
  7.10000000E+02  7.20000000E+01  0.00000000E+00
  7.10000000E+02  7.00000000E+01  0.00000000E+00
  7.10000000E+02  6.80000000E+01  0.00000000E+00
  7.10000000E+02  6.60000000E+01  0.00000000E+00
  7.10000000E+02  6.40000000E+01  0.00000000E+00
  7.10000000E+02  6.20000000E+01  0.00000000E+00
  7.10000000E+02  6.00000000E+01  0.00000000E+00
  7.10000000E+02  5.80000000E+01  0.00000000E+00
  7.10000000E+02  5.60000000E+01  0.00000000E+00
  7.10000000E+02  5.40000000E+01  0.00000000E+00
  7.10000000E+02  5.20000000E+01  0.00000000E+00
  7.10000000E+02  5.00000000E+01  0.00000000E+00
  7.10000000E+02  4.80000000E+01  0.00000000E+00
  7.10000000E+02  4.60000000E+01  0.00000000E+00
  7.10000000E+02  4.40000000E+01  0.00000000E+00
  7.10000000E+02  4.20000000E+01  0.00000000E+00
  7.10000000E+02  4.00000000E+01  0.00000000E+00
  7.10000000E+02  3.80000000E+01  0.00000000E+00
  7.10000000E+02  3.60000000E+01  0.00000000E+00
  7.10000000E+02  3.40000000E+01  0.00000000E+00
  7.10000000E+02  3.20000000E+01  0.00000000E+00
  7.10000000E+02  3.00000000E+01  0.00000000E+00
  7.10000000E+02  2.80000000E+01  0.00000000E+00
  7.10000000E+02  2.60000000E+01  0.00000000E+00
  7.10000000E+02  2.40000000E+01  0.00000000E+00
  7.10000000E+02  2.20000000E+01  0.00000000E+00
  7.10000000E+02  2.00000000E+01  0.00000000E+00
  7.10000000E+02  1.80000000E+01  0.00000000E+00
  7.10000000E+02  1.60000000E+01  0.00000000E+00
  7.10000000E+02  1.40000000E+01  0.00000000E+00
  7.10000000E+02  1.20000000E+01  0.00000000E+00
  7.10000000E+02  1.00000000E+01  0.00000000E+00
  7.10000000E+02  8.00000000E+00  0.00000000E+00
  7.10000000E+02  6.00000000E+00  0.00000000E+00
  7.10000000E+02  4.00000000E+00  0.00000000E+00
  7.10000000E+02  2.00000000E+00  0.00000000E+00
  7.10000000E+02 -3.33066907E-14  0.00000000E+00
  7.20000000E+02  1.00000000E+02  0.00000000E+00
  7.20000000E+02  9.80000000E+01  0.00000000E+00
  7.20000000E+02  9.60000000E+01  0.00000000E+00
  7.20000000E+02  9.40000000E+01  0.00000000E+00
  7.20000000E+02  9.20000000E+01  0.00000000E+00
  7.20000000E+02  9.00000000E+01  0.00000000E+00
  7.20000000E+02  8.80000000E+01  0.00000000E+00
  7.20000000E+02  8.60000000E+01  0.00000000E+00
  7.20000000E+02  8.40000000E+01  0.00000000E+00
  7.20000000E+02  8.20000000E+01  0.00000000E+00
  7.20000000E+02  8.00000000E+01  0.00000000E+00
  7.20000000E+02  7.80000000E+01  0.00000000E+00
  7.20000000E+02  7.60000000E+01  0.00000000E+00
  7.20000000E+02  7.40000000E+01  0.00000000E+00
  7.20000000E+02  7.20000000E+01  0.00000000E+00
  7.20000000E+02  7.00000000E+01  0.00000000E+00
  7.20000000E+02  6.80000000E+01  0.00000000E+00
  7.20000000E+02  6.60000000E+01  0.00000000E+00
  7.20000000E+02  6.40000000E+01  0.00000000E+00
  7.20000000E+02  6.20000000E+01  0.00000000E+00
  7.20000000E+02  6.00000000E+01  0.00000000E+00
  7.20000000E+02  5.80000000E+01  0.00000000E+00
  7.20000000E+02  5.60000000E+01  0.00000000E+00
  7.20000000E+02  5.40000000E+01  0.00000000E+00
  7.20000000E+02  5.20000000E+01  0.00000000E+00
  7.20000000E+02  5.00000000E+01  0.00000000E+00
  7.20000000E+02  4.80000000E+01  0.00000000E+00
  7.20000000E+02  4.60000000E+01  0.00000000E+00
  7.20000000E+02  4.40000000E+01  0.00000000E+00
  7.20000000E+02  4.20000000E+01  0.00000000E+00
  7.20000000E+02  4.00000000E+01  0.00000000E+00
  7.20000000E+02  3.80000000E+01  0.00000000E+00
  7.20000000E+02  3.60000000E+01  0.00000000E+00
  7.20000000E+02  3.40000000E+01  0.00000000E+00
  7.20000000E+02  3.20000000E+01  0.00000000E+00
  7.20000000E+02  3.00000000E+01  0.00000000E+00
  7.20000000E+02  2.80000000E+01  0.00000000E+00
  7.20000000E+02  2.60000000E+01  0.00000000E+00
  7.20000000E+02  2.40000000E+01  0.00000000E+00
  7.20000000E+02  2.20000000E+01  0.00000000E+00
  7.20000000E+02  2.00000000E+01  0.00000000E+00
  7.20000000E+02  1.80000000E+01  0.00000000E+00
  7.20000000E+02  1.60000000E+01  0.00000000E+00
  7.20000000E+02  1.40000000E+01  0.00000000E+00
  7.20000000E+02  1.20000000E+01  0.00000000E+00
  7.20000000E+02  1.00000000E+01  0.00000000E+00
  7.20000000E+02  8.00000000E+00  0.00000000E+00
  7.20000000E+02  6.00000000E+00  0.00000000E+00
  7.20000000E+02  4.00000000E+00  0.00000000E+00
  7.20000000E+02  2.00000000E+00  0.00000000E+00
  7.20000000E+02 -3.33066907E-14  0.00000000E+00
  7.30000000E+02  1.00000000E+02  0.00000000E+00
  7.30000000E+02  9.80000000E+01  0.00000000E+00
  7.30000000E+02  9.60000000E+01  0.00000000E+00
  7.30000000E+02  9.40000000E+01  0.00000000E+00
  7.30000000E+02  9.20000000E+01  0.00000000E+00
  7.30000000E+02  9.00000000E+01  0.00000000E+00
  7.30000000E+02  8.80000000E+01  0.00000000E+00
  7.30000000E+02  8.60000000E+01  0.00000000E+00
  7.30000000E+02  8.40000000E+01  0.00000000E+00
  7.30000000E+02  8.20000000E+01  0.00000000E+00
  7.30000000E+02  8.00000000E+01  0.00000000E+00
  7.30000000E+02  7.80000000E+01  0.00000000E+00
  7.30000000E+02  7.60000000E+01  0.00000000E+00
  7.30000000E+02  7.40000000E+01  0.00000000E+00
  7.30000000E+02  7.20000000E+01  0.00000000E+00
  7.30000000E+02  7.00000000E+01  0.00000000E+00
  7.30000000E+02  6.80000000E+01  0.00000000E+00
  7.30000000E+02  6.60000000E+01  0.00000000E+00
  7.30000000E+02  6.40000000E+01  0.00000000E+00
  7.30000000E+02  6.20000000E+01  0.00000000E+00
  7.30000000E+02  6.00000000E+01  0.00000000E+00
  7.30000000E+02  5.80000000E+01  0.00000000E+00
  7.30000000E+02  5.60000000E+01  0.00000000E+00
  7.30000000E+02  5.40000000E+01  0.00000000E+00
  7.30000000E+02  5.20000000E+01  0.00000000E+00
  7.30000000E+02  5.00000000E+01  0.00000000E+00
  7.30000000E+02  4.80000000E+01  0.00000000E+00
  7.30000000E+02  4.60000000E+01  0.00000000E+00
  7.30000000E+02  4.40000000E+01  0.00000000E+00
  7.30000000E+02  4.20000000E+01  0.00000000E+00
  7.30000000E+02  4.00000000E+01  0.00000000E+00
  7.30000000E+02  3.80000000E+01  0.00000000E+00
  7.30000000E+02  3.60000000E+01  0.00000000E+00
  7.30000000E+02  3.40000000E+01  0.00000000E+00
  7.30000000E+02  3.20000000E+01  0.00000000E+00
  7.30000000E+02  3.00000000E+01  0.00000000E+00
  7.30000000E+02  2.80000000E+01  0.00000000E+00
  7.30000000E+02  2.60000000E+01  0.00000000E+00
  7.30000000E+02  2.40000000E+01  0.00000000E+00
  7.30000000E+02  2.20000000E+01  0.00000000E+00
  7.30000000E+02  2.00000000E+01  0.00000000E+00
  7.30000000E+02  1.80000000E+01  0.00000000E+00
  7.30000000E+02  1.60000000E+01  0.00000000E+00
  7.30000000E+02  1.40000000E+01  0.00000000E+00
  7.30000000E+02  1.20000000E+01  0.00000000E+00
  7.30000000E+02  1.00000000E+01  0.00000000E+00
  7.30000000E+02  8.00000000E+00  0.00000000E+00
  7.30000000E+02  6.00000000E+00  0.00000000E+00
  7.30000000E+02  4.00000000E+00  0.00000000E+00
  7.30000000E+02  2.00000000E+00  0.00000000E+00
  7.30000000E+02 -3.33066907E-14  0.00000000E+00
  7.40000000E+02  1.00000000E+02  0.00000000E+00
  7.40000000E+02  9.80000000E+01  0.00000000E+00
  7.40000000E+02  9.60000000E+01  0.00000000E+00
  7.40000000E+02  9.40000000E+01  0.00000000E+00
  7.40000000E+02  9.20000000E+01  0.00000000E+00
  7.40000000E+02  9.00000000E+01  0.00000000E+00
  7.40000000E+02  8.80000000E+01  0.00000000E+00
  7.40000000E+02  8.60000000E+01  0.00000000E+00
  7.40000000E+02  8.40000000E+01  0.00000000E+00
  7.40000000E+02  8.20000000E+01  0.00000000E+00
  7.40000000E+02  8.00000000E+01  0.00000000E+00
  7.40000000E+02  7.80000000E+01  0.00000000E+00
  7.40000000E+02  7.60000000E+01  0.00000000E+00
  7.40000000E+02  7.40000000E+01  0.00000000E+00
  7.40000000E+02  7.20000000E+01  0.00000000E+00
  7.40000000E+02  7.00000000E+01  0.00000000E+00
  7.40000000E+02  6.80000000E+01  0.00000000E+00
  7.40000000E+02  6.60000000E+01  0.00000000E+00
  7.40000000E+02  6.40000000E+01  0.00000000E+00
  7.40000000E+02  6.20000000E+01  0.00000000E+00
  7.40000000E+02  6.00000000E+01  0.00000000E+00
  7.40000000E+02  5.80000000E+01  0.00000000E+00
  7.40000000E+02  5.60000000E+01  0.00000000E+00
  7.40000000E+02  5.40000000E+01  0.00000000E+00
  7.40000000E+02  5.20000000E+01  0.00000000E+00
  7.40000000E+02  5.00000000E+01  0.00000000E+00
  7.40000000E+02  4.80000000E+01  0.00000000E+00
  7.40000000E+02  4.60000000E+01  0.00000000E+00
  7.40000000E+02  4.40000000E+01  0.00000000E+00
  7.40000000E+02  4.20000000E+01  0.00000000E+00
  7.40000000E+02  4.00000000E+01  0.00000000E+00
  7.40000000E+02  3.80000000E+01  0.00000000E+00
  7.40000000E+02  3.60000000E+01  0.00000000E+00
  7.40000000E+02  3.40000000E+01  0.00000000E+00
  7.40000000E+02  3.20000000E+01  0.00000000E+00
  7.40000000E+02  3.00000000E+01  0.00000000E+00
  7.40000000E+02  2.80000000E+01  0.00000000E+00
  7.40000000E+02  2.60000000E+01  0.00000000E+00
  7.40000000E+02  2.40000000E+01  0.00000000E+00
  7.40000000E+02  2.20000000E+01  0.00000000E+00
  7.40000000E+02  2.00000000E+01  0.00000000E+00
  7.40000000E+02  1.80000000E+01  0.00000000E+00
  7.40000000E+02  1.60000000E+01  0.00000000E+00
  7.40000000E+02  1.40000000E+01  0.00000000E+00
  7.40000000E+02  1.20000000E+01  0.00000000E+00
  7.40000000E+02  1.00000000E+01  0.00000000E+00
  7.40000000E+02  8.00000000E+00  0.00000000E+00
  7.40000000E+02  6.00000000E+00  0.00000000E+00
  7.40000000E+02  4.00000000E+00  0.00000000E+00
  7.40000000E+02  2.00000000E+00  0.00000000E+00
  7.40000000E+02 -3.33066907E-14  0.00000000E+00
  7.50000000E+02  1.00000000E+02  0.00000000E+00
  7.50000000E+02  9.80000000E+01  0.00000000E+00
  7.50000000E+02  9.60000000E+01  0.00000000E+00
  7.50000000E+02  9.40000000E+01  0.00000000E+00
  7.50000000E+02  9.20000000E+01  0.00000000E+00
  7.50000000E+02  9.00000000E+01  0.00000000E+00
  7.50000000E+02  8.80000000E+01  0.00000000E+00
  7.50000000E+02  8.60000000E+01  0.00000000E+00
  7.50000000E+02  8.40000000E+01  0.00000000E+00
  7.50000000E+02  8.20000000E+01  0.00000000E+00
  7.50000000E+02  8.00000000E+01  0.00000000E+00
  7.50000000E+02  7.80000000E+01  0.00000000E+00
  7.50000000E+02  7.60000000E+01  0.00000000E+00
  7.50000000E+02  7.40000000E+01  0.00000000E+00
  7.50000000E+02  7.20000000E+01  0.00000000E+00
  7.50000000E+02  7.00000000E+01  0.00000000E+00
  7.50000000E+02  6.80000000E+01  0.00000000E+00
  7.50000000E+02  6.60000000E+01  0.00000000E+00
  7.50000000E+02  6.40000000E+01  0.00000000E+00
  7.50000000E+02  6.20000000E+01  0.00000000E+00
  7.50000000E+02  6.00000000E+01  0.00000000E+00
  7.50000000E+02  5.80000000E+01  0.00000000E+00
  7.50000000E+02  5.60000000E+01  0.00000000E+00
  7.50000000E+02  5.40000000E+01  0.00000000E+00
  7.50000000E+02  5.20000000E+01  0.00000000E+00
  7.50000000E+02  5.00000000E+01  0.00000000E+00
  7.50000000E+02  4.80000000E+01  0.00000000E+00
  7.50000000E+02  4.60000000E+01  0.00000000E+00
  7.50000000E+02  4.40000000E+01  0.00000000E+00
  7.50000000E+02  4.20000000E+01  0.00000000E+00
  7.50000000E+02  4.00000000E+01  0.00000000E+00
  7.50000000E+02  3.80000000E+01  0.00000000E+00
  7.50000000E+02  3.60000000E+01  0.00000000E+00
  7.50000000E+02  3.40000000E+01  0.00000000E+00
  7.50000000E+02  3.20000000E+01  0.00000000E+00
  7.50000000E+02  3.00000000E+01  0.00000000E+00
  7.50000000E+02  2.80000000E+01  0.00000000E+00
  7.50000000E+02  2.60000000E+01  0.00000000E+00
  7.50000000E+02  2.40000000E+01  0.00000000E+00
  7.50000000E+02  2.20000000E+01  0.00000000E+00
  7.50000000E+02  2.00000000E+01  0.00000000E+00
  7.50000000E+02  1.80000000E+01  0.00000000E+00
  7.50000000E+02  1.60000000E+01  0.00000000E+00
  7.50000000E+02  1.40000000E+01  0.00000000E+00
  7.50000000E+02  1.20000000E+01  0.00000000E+00
  7.50000000E+02  1.00000000E+01  0.00000000E+00
  7.50000000E+02  8.00000000E+00  0.00000000E+00
  7.50000000E+02  6.00000000E+00  0.00000000E+00
  7.50000000E+02  4.00000000E+00  0.00000000E+00
  7.50000000E+02  2.00000000E+00  0.00000000E+00
  7.50000000E+02 -3.33066907E-14  0.00000000E+00
  7.60000000E+02  1.00000000E+02  0.00000000E+00
  7.60000000E+02  9.80000000E+01  0.00000000E+00
  7.60000000E+02  9.60000000E+01  0.00000000E+00
  7.60000000E+02  9.40000000E+01  0.00000000E+00
  7.60000000E+02  9.20000000E+01  0.00000000E+00
  7.60000000E+02  9.00000000E+01  0.00000000E+00
  7.60000000E+02  8.80000000E+01  0.00000000E+00
  7.60000000E+02  8.60000000E+01  0.00000000E+00
  7.60000000E+02  8.40000000E+01  0.00000000E+00
  7.60000000E+02  8.20000000E+01  0.00000000E+00
  7.60000000E+02  8.00000000E+01  0.00000000E+00
  7.60000000E+02  7.80000000E+01  0.00000000E+00
  7.60000000E+02  7.60000000E+01  0.00000000E+00
  7.60000000E+02  7.40000000E+01  0.00000000E+00
  7.60000000E+02  7.20000000E+01  0.00000000E+00
  7.60000000E+02  7.00000000E+01  0.00000000E+00
  7.60000000E+02  6.80000000E+01  0.00000000E+00
  7.60000000E+02  6.60000000E+01  0.00000000E+00
  7.60000000E+02  6.40000000E+01  0.00000000E+00
  7.60000000E+02  6.20000000E+01  0.00000000E+00
  7.60000000E+02  6.00000000E+01  0.00000000E+00
  7.60000000E+02  5.80000000E+01  0.00000000E+00
  7.60000000E+02  5.60000000E+01  0.00000000E+00
  7.60000000E+02  5.40000000E+01  0.00000000E+00
  7.60000000E+02  5.20000000E+01  0.00000000E+00
  7.60000000E+02  5.00000000E+01  0.00000000E+00
  7.60000000E+02  4.80000000E+01  0.00000000E+00
  7.60000000E+02  4.60000000E+01  0.00000000E+00
  7.60000000E+02  4.40000000E+01  0.00000000E+00
  7.60000000E+02  4.20000000E+01  0.00000000E+00
  7.60000000E+02  4.00000000E+01  0.00000000E+00
  7.60000000E+02  3.80000000E+01  0.00000000E+00
  7.60000000E+02  3.60000000E+01  0.00000000E+00
  7.60000000E+02  3.40000000E+01  0.00000000E+00
  7.60000000E+02  3.20000000E+01  0.00000000E+00
  7.60000000E+02  3.00000000E+01  0.00000000E+00
  7.60000000E+02  2.80000000E+01  0.00000000E+00
  7.60000000E+02  2.60000000E+01  0.00000000E+00
  7.60000000E+02  2.40000000E+01  0.00000000E+00
  7.60000000E+02  2.20000000E+01  0.00000000E+00
  7.60000000E+02  2.00000000E+01  0.00000000E+00
  7.60000000E+02  1.80000000E+01  0.00000000E+00
  7.60000000E+02  1.60000000E+01  0.00000000E+00
  7.60000000E+02  1.40000000E+01  0.00000000E+00
  7.60000000E+02  1.20000000E+01  0.00000000E+00
  7.60000000E+02  1.00000000E+01  0.00000000E+00
  7.60000000E+02  8.00000000E+00  0.00000000E+00
  7.60000000E+02  6.00000000E+00  0.00000000E+00
  7.60000000E+02  4.00000000E+00  0.00000000E+00
  7.60000000E+02  2.00000000E+00  0.00000000E+00
  7.60000000E+02 -3.33066907E-14  0.00000000E+00
  7.70000000E+02  1.00000000E+02  0.00000000E+00
  7.70000000E+02  9.80000000E+01  0.00000000E+00
  7.70000000E+02  9.60000000E+01  0.00000000E+00
  7.70000000E+02  9.40000000E+01  0.00000000E+00
  7.70000000E+02  9.20000000E+01  0.00000000E+00
  7.70000000E+02  9.00000000E+01  0.00000000E+00
  7.70000000E+02  8.80000000E+01  0.00000000E+00
  7.70000000E+02  8.60000000E+01  0.00000000E+00
  7.70000000E+02  8.40000000E+01  0.00000000E+00
  7.70000000E+02  8.20000000E+01  0.00000000E+00
  7.70000000E+02  8.00000000E+01  0.00000000E+00
  7.70000000E+02  7.80000000E+01  0.00000000E+00
  7.70000000E+02  7.60000000E+01  0.00000000E+00
  7.70000000E+02  7.40000000E+01  0.00000000E+00
  7.70000000E+02  7.20000000E+01  0.00000000E+00
  7.70000000E+02  7.00000000E+01  0.00000000E+00
  7.70000000E+02  6.80000000E+01  0.00000000E+00
  7.70000000E+02  6.60000000E+01  0.00000000E+00
  7.70000000E+02  6.40000000E+01  0.00000000E+00
  7.70000000E+02  6.20000000E+01  0.00000000E+00
  7.70000000E+02  6.00000000E+01  0.00000000E+00
  7.70000000E+02  5.80000000E+01  0.00000000E+00
  7.70000000E+02  5.60000000E+01  0.00000000E+00
  7.70000000E+02  5.40000000E+01  0.00000000E+00
  7.70000000E+02  5.20000000E+01  0.00000000E+00
  7.70000000E+02  5.00000000E+01  0.00000000E+00
  7.70000000E+02  4.80000000E+01  0.00000000E+00
  7.70000000E+02  4.60000000E+01  0.00000000E+00
  7.70000000E+02  4.40000000E+01  0.00000000E+00
  7.70000000E+02  4.20000000E+01  0.00000000E+00
  7.70000000E+02  4.00000000E+01  0.00000000E+00
  7.70000000E+02  3.80000000E+01  0.00000000E+00
  7.70000000E+02  3.60000000E+01  0.00000000E+00
  7.70000000E+02  3.40000000E+01  0.00000000E+00
  7.70000000E+02  3.20000000E+01  0.00000000E+00
  7.70000000E+02  3.00000000E+01  0.00000000E+00
  7.70000000E+02  2.80000000E+01  0.00000000E+00
  7.70000000E+02  2.60000000E+01  0.00000000E+00
  7.70000000E+02  2.40000000E+01  0.00000000E+00
  7.70000000E+02  2.20000000E+01  0.00000000E+00
  7.70000000E+02  2.00000000E+01  0.00000000E+00
  7.70000000E+02  1.80000000E+01  0.00000000E+00
  7.70000000E+02  1.60000000E+01  0.00000000E+00
  7.70000000E+02  1.40000000E+01  0.00000000E+00
  7.70000000E+02  1.20000000E+01  0.00000000E+00
  7.70000000E+02  1.00000000E+01  0.00000000E+00
  7.70000000E+02  8.00000000E+00  0.00000000E+00
  7.70000000E+02  6.00000000E+00  0.00000000E+00
  7.70000000E+02  4.00000000E+00  0.00000000E+00
  7.70000000E+02  2.00000000E+00  0.00000000E+00
  7.70000000E+02 -3.33066907E-14  0.00000000E+00
  7.80000000E+02  1.00000000E+02  0.00000000E+00
  7.80000000E+02  9.80000000E+01  0.00000000E+00
  7.80000000E+02  9.60000000E+01  0.00000000E+00
  7.80000000E+02  9.40000000E+01  0.00000000E+00
  7.80000000E+02  9.20000000E+01  0.00000000E+00
  7.80000000E+02  9.00000000E+01  0.00000000E+00
  7.80000000E+02  8.80000000E+01  0.00000000E+00
  7.80000000E+02  8.60000000E+01  0.00000000E+00
  7.80000000E+02  8.40000000E+01  0.00000000E+00
  7.80000000E+02  8.20000000E+01  0.00000000E+00
  7.80000000E+02  8.00000000E+01  0.00000000E+00
  7.80000000E+02  7.80000000E+01  0.00000000E+00
  7.80000000E+02  7.60000000E+01  0.00000000E+00
  7.80000000E+02  7.40000000E+01  0.00000000E+00
  7.80000000E+02  7.20000000E+01  0.00000000E+00
  7.80000000E+02  7.00000000E+01  0.00000000E+00
  7.80000000E+02  6.80000000E+01  0.00000000E+00
  7.80000000E+02  6.60000000E+01  0.00000000E+00
  7.80000000E+02  6.40000000E+01  0.00000000E+00
  7.80000000E+02  6.20000000E+01  0.00000000E+00
  7.80000000E+02  6.00000000E+01  0.00000000E+00
  7.80000000E+02  5.80000000E+01  0.00000000E+00
  7.80000000E+02  5.60000000E+01  0.00000000E+00
  7.80000000E+02  5.40000000E+01  0.00000000E+00
  7.80000000E+02  5.20000000E+01  0.00000000E+00
  7.80000000E+02  5.00000000E+01  0.00000000E+00
  7.80000000E+02  4.80000000E+01  0.00000000E+00
  7.80000000E+02  4.60000000E+01  0.00000000E+00
  7.80000000E+02  4.40000000E+01  0.00000000E+00
  7.80000000E+02  4.20000000E+01  0.00000000E+00
  7.80000000E+02  4.00000000E+01  0.00000000E+00
  7.80000000E+02  3.80000000E+01  0.00000000E+00
  7.80000000E+02  3.60000000E+01  0.00000000E+00
  7.80000000E+02  3.40000000E+01  0.00000000E+00
  7.80000000E+02  3.20000000E+01  0.00000000E+00
  7.80000000E+02  3.00000000E+01  0.00000000E+00
  7.80000000E+02  2.80000000E+01  0.00000000E+00
  7.80000000E+02  2.60000000E+01  0.00000000E+00
  7.80000000E+02  2.40000000E+01  0.00000000E+00
  7.80000000E+02  2.20000000E+01  0.00000000E+00
  7.80000000E+02  2.00000000E+01  0.00000000E+00
  7.80000000E+02  1.80000000E+01  0.00000000E+00
  7.80000000E+02  1.60000000E+01  0.00000000E+00
  7.80000000E+02  1.40000000E+01  0.00000000E+00
  7.80000000E+02  1.20000000E+01  0.00000000E+00
  7.80000000E+02  1.00000000E+01  0.00000000E+00
  7.80000000E+02  8.00000000E+00  0.00000000E+00
  7.80000000E+02  6.00000000E+00  0.00000000E+00
  7.80000000E+02  4.00000000E+00  0.00000000E+00
  7.80000000E+02  2.00000000E+00  0.00000000E+00
  7.80000000E+02 -3.33066907E-14  0.00000000E+00
  7.90000000E+02  1.00000000E+02  0.00000000E+00
  7.90000000E+02  9.80000000E+01  0.00000000E+00
  7.90000000E+02  9.60000000E+01  0.00000000E+00
  7.90000000E+02  9.40000000E+01  0.00000000E+00
  7.90000000E+02  9.20000000E+01  0.00000000E+00
  7.90000000E+02  9.00000000E+01  0.00000000E+00
  7.90000000E+02  8.80000000E+01  0.00000000E+00
  7.90000000E+02  8.60000000E+01  0.00000000E+00
  7.90000000E+02  8.40000000E+01  0.00000000E+00
  7.90000000E+02  8.20000000E+01  0.00000000E+00
  7.90000000E+02  8.00000000E+01  0.00000000E+00
  7.90000000E+02  7.80000000E+01  0.00000000E+00
  7.90000000E+02  7.60000000E+01  0.00000000E+00
  7.90000000E+02  7.40000000E+01  0.00000000E+00
  7.90000000E+02  7.20000000E+01  0.00000000E+00
  7.90000000E+02  7.00000000E+01  0.00000000E+00
  7.90000000E+02  6.80000000E+01  0.00000000E+00
  7.90000000E+02  6.60000000E+01  0.00000000E+00
  7.90000000E+02  6.40000000E+01  0.00000000E+00
  7.90000000E+02  6.20000000E+01  0.00000000E+00
  7.90000000E+02  6.00000000E+01  0.00000000E+00
  7.90000000E+02  5.80000000E+01  0.00000000E+00
  7.90000000E+02  5.60000000E+01  0.00000000E+00
  7.90000000E+02  5.40000000E+01  0.00000000E+00
  7.90000000E+02  5.20000000E+01  0.00000000E+00
  7.90000000E+02  5.00000000E+01  0.00000000E+00
  7.90000000E+02  4.80000000E+01  0.00000000E+00
  7.90000000E+02  4.60000000E+01  0.00000000E+00
  7.90000000E+02  4.40000000E+01  0.00000000E+00
  7.90000000E+02  4.20000000E+01  0.00000000E+00
  7.90000000E+02  4.00000000E+01  0.00000000E+00
  7.90000000E+02  3.80000000E+01  0.00000000E+00
  7.90000000E+02  3.60000000E+01  0.00000000E+00
  7.90000000E+02  3.40000000E+01  0.00000000E+00
  7.90000000E+02  3.20000000E+01  0.00000000E+00
  7.90000000E+02  3.00000000E+01  0.00000000E+00
  7.90000000E+02  2.80000000E+01  0.00000000E+00
  7.90000000E+02  2.60000000E+01  0.00000000E+00
  7.90000000E+02  2.40000000E+01  0.00000000E+00
  7.90000000E+02  2.20000000E+01  0.00000000E+00
  7.90000000E+02  2.00000000E+01  0.00000000E+00
  7.90000000E+02  1.80000000E+01  0.00000000E+00
  7.90000000E+02  1.60000000E+01  0.00000000E+00
  7.90000000E+02  1.40000000E+01  0.00000000E+00
  7.90000000E+02  1.20000000E+01  0.00000000E+00
  7.90000000E+02  1.00000000E+01  0.00000000E+00
  7.90000000E+02  8.00000000E+00  0.00000000E+00
  7.90000000E+02  6.00000000E+00  0.00000000E+00
  7.90000000E+02  4.00000000E+00  0.00000000E+00
  7.90000000E+02  2.00000000E+00  0.00000000E+00
  7.90000000E+02 -3.33066907E-14  0.00000000E+00
  8.00000000E+02  1.00000000E+02  0.00000000E+00
  8.00000000E+02  9.80000000E+01  0.00000000E+00
  8.00000000E+02  9.60000000E+01  0.00000000E+00
  8.00000000E+02  9.40000000E+01  0.00000000E+00
  8.00000000E+02  9.20000000E+01  0.00000000E+00
  8.00000000E+02  9.00000000E+01  0.00000000E+00
  8.00000000E+02  8.80000000E+01  0.00000000E+00
  8.00000000E+02  8.60000000E+01  0.00000000E+00
  8.00000000E+02  8.40000000E+01  0.00000000E+00
  8.00000000E+02  8.20000000E+01  0.00000000E+00
  8.00000000E+02  8.00000000E+01  0.00000000E+00
  8.00000000E+02  7.80000000E+01  0.00000000E+00
  8.00000000E+02  7.60000000E+01  0.00000000E+00
  8.00000000E+02  7.40000000E+01  0.00000000E+00
  8.00000000E+02  7.20000000E+01  0.00000000E+00
  8.00000000E+02  7.00000000E+01  0.00000000E+00
  8.00000000E+02  6.80000000E+01  0.00000000E+00
  8.00000000E+02  6.60000000E+01  0.00000000E+00
  8.00000000E+02  6.40000000E+01  0.00000000E+00
  8.00000000E+02  6.20000000E+01  0.00000000E+00
  8.00000000E+02  6.00000000E+01  0.00000000E+00
  8.00000000E+02  5.80000000E+01  0.00000000E+00
  8.00000000E+02  5.60000000E+01  0.00000000E+00
  8.00000000E+02  5.40000000E+01  0.00000000E+00
  8.00000000E+02  5.20000000E+01  0.00000000E+00
  8.00000000E+02  5.00000000E+01  0.00000000E+00
  8.00000000E+02  4.80000000E+01  0.00000000E+00
  8.00000000E+02  4.60000000E+01  0.00000000E+00
  8.00000000E+02  4.40000000E+01  0.00000000E+00
  8.00000000E+02  4.20000000E+01  0.00000000E+00
  8.00000000E+02  4.00000000E+01  0.00000000E+00
  8.00000000E+02  3.80000000E+01  0.00000000E+00
  8.00000000E+02  3.60000000E+01  0.00000000E+00
  8.00000000E+02  3.40000000E+01  0.00000000E+00
  8.00000000E+02  3.20000000E+01  0.00000000E+00
  8.00000000E+02  3.00000000E+01  0.00000000E+00
  8.00000000E+02  2.80000000E+01  0.00000000E+00
  8.00000000E+02  2.60000000E+01  0.00000000E+00
  8.00000000E+02  2.40000000E+01  0.00000000E+00
  8.00000000E+02  2.20000000E+01  0.00000000E+00
  8.00000000E+02  2.00000000E+01  0.00000000E+00
  8.00000000E+02  1.80000000E+01  0.00000000E+00
  8.00000000E+02  1.60000000E+01  0.00000000E+00
  8.00000000E+02  1.40000000E+01  0.00000000E+00
  8.00000000E+02  1.20000000E+01  0.00000000E+00
  8.00000000E+02  1.00000000E+01  0.00000000E+00
  8.00000000E+02  8.00000000E+00  0.00000000E+00
  8.00000000E+02  6.00000000E+00  0.00000000E+00
  8.00000000E+02  4.00000000E+00  0.00000000E+00
  8.00000000E+02  2.00000000E+00  0.00000000E+00
  8.00000000E+02 -3.33066907E-14  0.00000000E+00
  8.10000000E+02  1.00000000E+02  0.00000000E+00
  8.10000000E+02  9.80000000E+01  0.00000000E+00
  8.10000000E+02  9.60000000E+01  0.00000000E+00
  8.10000000E+02  9.40000000E+01  0.00000000E+00
  8.10000000E+02  9.20000000E+01  0.00000000E+00
  8.10000000E+02  9.00000000E+01  0.00000000E+00
  8.10000000E+02  8.80000000E+01  0.00000000E+00
  8.10000000E+02  8.60000000E+01  0.00000000E+00
  8.10000000E+02  8.40000000E+01  0.00000000E+00
  8.10000000E+02  8.20000000E+01  0.00000000E+00
  8.10000000E+02  8.00000000E+01  0.00000000E+00
  8.10000000E+02  7.80000000E+01  0.00000000E+00
  8.10000000E+02  7.60000000E+01  0.00000000E+00
  8.10000000E+02  7.40000000E+01  0.00000000E+00
  8.10000000E+02  7.20000000E+01  0.00000000E+00
  8.10000000E+02  7.00000000E+01  0.00000000E+00
  8.10000000E+02  6.80000000E+01  0.00000000E+00
  8.10000000E+02  6.60000000E+01  0.00000000E+00
  8.10000000E+02  6.40000000E+01  0.00000000E+00
  8.10000000E+02  6.20000000E+01  0.00000000E+00
  8.10000000E+02  6.00000000E+01  0.00000000E+00
  8.10000000E+02  5.80000000E+01  0.00000000E+00
  8.10000000E+02  5.60000000E+01  0.00000000E+00
  8.10000000E+02  5.40000000E+01  0.00000000E+00
  8.10000000E+02  5.20000000E+01  0.00000000E+00
  8.10000000E+02  5.00000000E+01  0.00000000E+00
  8.10000000E+02  4.80000000E+01  0.00000000E+00
  8.10000000E+02  4.60000000E+01  0.00000000E+00
  8.10000000E+02  4.40000000E+01  0.00000000E+00
  8.10000000E+02  4.20000000E+01  0.00000000E+00
  8.10000000E+02  4.00000000E+01  0.00000000E+00
  8.10000000E+02  3.80000000E+01  0.00000000E+00
  8.10000000E+02  3.60000000E+01  0.00000000E+00
  8.10000000E+02  3.40000000E+01  0.00000000E+00
  8.10000000E+02  3.20000000E+01  0.00000000E+00
  8.10000000E+02  3.00000000E+01  0.00000000E+00
  8.10000000E+02  2.80000000E+01  0.00000000E+00
  8.10000000E+02  2.60000000E+01  0.00000000E+00
  8.10000000E+02  2.40000000E+01  0.00000000E+00
  8.10000000E+02  2.20000000E+01  0.00000000E+00
  8.10000000E+02  2.00000000E+01  0.00000000E+00
  8.10000000E+02  1.80000000E+01  0.00000000E+00
  8.10000000E+02  1.60000000E+01  0.00000000E+00
  8.10000000E+02  1.40000000E+01  0.00000000E+00
  8.10000000E+02  1.20000000E+01  0.00000000E+00
  8.10000000E+02  1.00000000E+01  0.00000000E+00
  8.10000000E+02  8.00000000E+00  0.00000000E+00
  8.10000000E+02  6.00000000E+00  0.00000000E+00
  8.10000000E+02  4.00000000E+00  0.00000000E+00
  8.10000000E+02  2.00000000E+00  0.00000000E+00
  8.10000000E+02 -3.33066907E-14  0.00000000E+00
  8.20000000E+02  1.00000000E+02  0.00000000E+00
  8.20000000E+02  9.80000000E+01  0.00000000E+00
  8.20000000E+02  9.60000000E+01  0.00000000E+00
  8.20000000E+02  9.40000000E+01  0.00000000E+00
  8.20000000E+02  9.20000000E+01  0.00000000E+00
  8.20000000E+02  9.00000000E+01  0.00000000E+00
  8.20000000E+02  8.80000000E+01  0.00000000E+00
  8.20000000E+02  8.60000000E+01  0.00000000E+00
  8.20000000E+02  8.40000000E+01  0.00000000E+00
  8.20000000E+02  8.20000000E+01  0.00000000E+00
  8.20000000E+02  8.00000000E+01  0.00000000E+00
  8.20000000E+02  7.80000000E+01  0.00000000E+00
  8.20000000E+02  7.60000000E+01  0.00000000E+00
  8.20000000E+02  7.40000000E+01  0.00000000E+00
  8.20000000E+02  7.20000000E+01  0.00000000E+00
  8.20000000E+02  7.00000000E+01  0.00000000E+00
  8.20000000E+02  6.80000000E+01  0.00000000E+00
  8.20000000E+02  6.60000000E+01  0.00000000E+00
  8.20000000E+02  6.40000000E+01  0.00000000E+00
  8.20000000E+02  6.20000000E+01  0.00000000E+00
  8.20000000E+02  6.00000000E+01  0.00000000E+00
  8.20000000E+02  5.80000000E+01  0.00000000E+00
  8.20000000E+02  5.60000000E+01  0.00000000E+00
  8.20000000E+02  5.40000000E+01  0.00000000E+00
  8.20000000E+02  5.20000000E+01  0.00000000E+00
  8.20000000E+02  5.00000000E+01  0.00000000E+00
  8.20000000E+02  4.80000000E+01  0.00000000E+00
  8.20000000E+02  4.60000000E+01  0.00000000E+00
  8.20000000E+02  4.40000000E+01  0.00000000E+00
  8.20000000E+02  4.20000000E+01  0.00000000E+00
  8.20000000E+02  4.00000000E+01  0.00000000E+00
  8.20000000E+02  3.80000000E+01  0.00000000E+00
  8.20000000E+02  3.60000000E+01  0.00000000E+00
  8.20000000E+02  3.40000000E+01  0.00000000E+00
  8.20000000E+02  3.20000000E+01  0.00000000E+00
  8.20000000E+02  3.00000000E+01  0.00000000E+00
  8.20000000E+02  2.80000000E+01  0.00000000E+00
  8.20000000E+02  2.60000000E+01  0.00000000E+00
  8.20000000E+02  2.40000000E+01  0.00000000E+00
  8.20000000E+02  2.20000000E+01  0.00000000E+00
  8.20000000E+02  2.00000000E+01  0.00000000E+00
  8.20000000E+02  1.80000000E+01  0.00000000E+00
  8.20000000E+02  1.60000000E+01  0.00000000E+00
  8.20000000E+02  1.40000000E+01  0.00000000E+00
  8.20000000E+02  1.20000000E+01  0.00000000E+00
  8.20000000E+02  1.00000000E+01  0.00000000E+00
  8.20000000E+02  8.00000000E+00  0.00000000E+00
  8.20000000E+02  6.00000000E+00  0.00000000E+00
  8.20000000E+02  4.00000000E+00  0.00000000E+00
  8.20000000E+02  2.00000000E+00  0.00000000E+00
  8.20000000E+02 -3.33066907E-14  0.00000000E+00
  8.30000000E+02  1.00000000E+02  0.00000000E+00
  8.30000000E+02  9.80000000E+01  0.00000000E+00
  8.30000000E+02  9.60000000E+01  0.00000000E+00
  8.30000000E+02  9.40000000E+01  0.00000000E+00
  8.30000000E+02  9.20000000E+01  0.00000000E+00
  8.30000000E+02  9.00000000E+01  0.00000000E+00
  8.30000000E+02  8.80000000E+01  0.00000000E+00
  8.30000000E+02  8.60000000E+01  0.00000000E+00
  8.30000000E+02  8.40000000E+01  0.00000000E+00
  8.30000000E+02  8.20000000E+01  0.00000000E+00
  8.30000000E+02  8.00000000E+01  0.00000000E+00
  8.30000000E+02  7.80000000E+01  0.00000000E+00
  8.30000000E+02  7.60000000E+01  0.00000000E+00
  8.30000000E+02  7.40000000E+01  0.00000000E+00
  8.30000000E+02  7.20000000E+01  0.00000000E+00
  8.30000000E+02  7.00000000E+01  0.00000000E+00
  8.30000000E+02  6.80000000E+01  0.00000000E+00
  8.30000000E+02  6.60000000E+01  0.00000000E+00
  8.30000000E+02  6.40000000E+01  0.00000000E+00
  8.30000000E+02  6.20000000E+01  0.00000000E+00
  8.30000000E+02  6.00000000E+01  0.00000000E+00
  8.30000000E+02  5.80000000E+01  0.00000000E+00
  8.30000000E+02  5.60000000E+01  0.00000000E+00
  8.30000000E+02  5.40000000E+01  0.00000000E+00
  8.30000000E+02  5.20000000E+01  0.00000000E+00
  8.30000000E+02  5.00000000E+01  0.00000000E+00
  8.30000000E+02  4.80000000E+01  0.00000000E+00
  8.30000000E+02  4.60000000E+01  0.00000000E+00
  8.30000000E+02  4.40000000E+01  0.00000000E+00
  8.30000000E+02  4.20000000E+01  0.00000000E+00
  8.30000000E+02  4.00000000E+01  0.00000000E+00
  8.30000000E+02  3.80000000E+01  0.00000000E+00
  8.30000000E+02  3.60000000E+01  0.00000000E+00
  8.30000000E+02  3.40000000E+01  0.00000000E+00
  8.30000000E+02  3.20000000E+01  0.00000000E+00
  8.30000000E+02  3.00000000E+01  0.00000000E+00
  8.30000000E+02  2.80000000E+01  0.00000000E+00
  8.30000000E+02  2.60000000E+01  0.00000000E+00
  8.30000000E+02  2.40000000E+01  0.00000000E+00
  8.30000000E+02  2.20000000E+01  0.00000000E+00
  8.30000000E+02  2.00000000E+01  0.00000000E+00
  8.30000000E+02  1.80000000E+01  0.00000000E+00
  8.30000000E+02  1.60000000E+01  0.00000000E+00
  8.30000000E+02  1.40000000E+01  0.00000000E+00
  8.30000000E+02  1.20000000E+01  0.00000000E+00
  8.30000000E+02  1.00000000E+01  0.00000000E+00
  8.30000000E+02  8.00000000E+00  0.00000000E+00
  8.30000000E+02  6.00000000E+00  0.00000000E+00
  8.30000000E+02  4.00000000E+00  0.00000000E+00
  8.30000000E+02  2.00000000E+00  0.00000000E+00
  8.30000000E+02 -3.33066907E-14  0.00000000E+00
  8.40000000E+02  1.00000000E+02  0.00000000E+00
  8.40000000E+02  9.80000000E+01  0.00000000E+00
  8.40000000E+02  9.60000000E+01  0.00000000E+00
  8.40000000E+02  9.40000000E+01  0.00000000E+00
  8.40000000E+02  9.20000000E+01  0.00000000E+00
  8.40000000E+02  9.00000000E+01  0.00000000E+00
  8.40000000E+02  8.80000000E+01  0.00000000E+00
  8.40000000E+02  8.60000000E+01  0.00000000E+00
  8.40000000E+02  8.40000000E+01  0.00000000E+00
  8.40000000E+02  8.20000000E+01  0.00000000E+00
  8.40000000E+02  8.00000000E+01  0.00000000E+00
  8.40000000E+02  7.80000000E+01  0.00000000E+00
  8.40000000E+02  7.60000000E+01  0.00000000E+00
  8.40000000E+02  7.40000000E+01  0.00000000E+00
  8.40000000E+02  7.20000000E+01  0.00000000E+00
  8.40000000E+02  7.00000000E+01  0.00000000E+00
  8.40000000E+02  6.80000000E+01  0.00000000E+00
  8.40000000E+02  6.60000000E+01  0.00000000E+00
  8.40000000E+02  6.40000000E+01  0.00000000E+00
  8.40000000E+02  6.20000000E+01  0.00000000E+00
  8.40000000E+02  6.00000000E+01  0.00000000E+00
  8.40000000E+02  5.80000000E+01  0.00000000E+00
  8.40000000E+02  5.60000000E+01  0.00000000E+00
  8.40000000E+02  5.40000000E+01  0.00000000E+00
  8.40000000E+02  5.20000000E+01  0.00000000E+00
  8.40000000E+02  5.00000000E+01  0.00000000E+00
  8.40000000E+02  4.80000000E+01  0.00000000E+00
  8.40000000E+02  4.60000000E+01  0.00000000E+00
  8.40000000E+02  4.40000000E+01  0.00000000E+00
  8.40000000E+02  4.20000000E+01  0.00000000E+00
  8.40000000E+02  4.00000000E+01  0.00000000E+00
  8.40000000E+02  3.80000000E+01  0.00000000E+00
  8.40000000E+02  3.60000000E+01  0.00000000E+00
  8.40000000E+02  3.40000000E+01  0.00000000E+00
  8.40000000E+02  3.20000000E+01  0.00000000E+00
  8.40000000E+02  3.00000000E+01  0.00000000E+00
  8.40000000E+02  2.80000000E+01  0.00000000E+00
  8.40000000E+02  2.60000000E+01  0.00000000E+00
  8.40000000E+02  2.40000000E+01  0.00000000E+00
  8.40000000E+02  2.20000000E+01  0.00000000E+00
  8.40000000E+02  2.00000000E+01  0.00000000E+00
  8.40000000E+02  1.80000000E+01  0.00000000E+00
  8.40000000E+02  1.60000000E+01  0.00000000E+00
  8.40000000E+02  1.40000000E+01  0.00000000E+00
  8.40000000E+02  1.20000000E+01  0.00000000E+00
  8.40000000E+02  1.00000000E+01  0.00000000E+00
  8.40000000E+02  8.00000000E+00  0.00000000E+00
  8.40000000E+02  6.00000000E+00  0.00000000E+00
  8.40000000E+02  4.00000000E+00  0.00000000E+00
  8.40000000E+02  2.00000000E+00  0.00000000E+00
  8.40000000E+02 -3.33066907E-14  0.00000000E+00
  8.50000000E+02  1.00000000E+02  0.00000000E+00
  8.50000000E+02  9.80000000E+01  0.00000000E+00
  8.50000000E+02  9.60000000E+01  0.00000000E+00
  8.50000000E+02  9.40000000E+01  0.00000000E+00
  8.50000000E+02  9.20000000E+01  0.00000000E+00
  8.50000000E+02  9.00000000E+01  0.00000000E+00
  8.50000000E+02  8.80000000E+01  0.00000000E+00
  8.50000000E+02  8.60000000E+01  0.00000000E+00
  8.50000000E+02  8.40000000E+01  0.00000000E+00
  8.50000000E+02  8.20000000E+01  0.00000000E+00
  8.50000000E+02  8.00000000E+01  0.00000000E+00
  8.50000000E+02  7.80000000E+01  0.00000000E+00
  8.50000000E+02  7.60000000E+01  0.00000000E+00
  8.50000000E+02  7.40000000E+01  0.00000000E+00
  8.50000000E+02  7.20000000E+01  0.00000000E+00
  8.50000000E+02  7.00000000E+01  0.00000000E+00
  8.50000000E+02  6.80000000E+01  0.00000000E+00
  8.50000000E+02  6.60000000E+01  0.00000000E+00
  8.50000000E+02  6.40000000E+01  0.00000000E+00
  8.50000000E+02  6.20000000E+01  0.00000000E+00
  8.50000000E+02  6.00000000E+01  0.00000000E+00
  8.50000000E+02  5.80000000E+01  0.00000000E+00
  8.50000000E+02  5.60000000E+01  0.00000000E+00
  8.50000000E+02  5.40000000E+01  0.00000000E+00
  8.50000000E+02  5.20000000E+01  0.00000000E+00
  8.50000000E+02  5.00000000E+01  0.00000000E+00
  8.50000000E+02  4.80000000E+01  0.00000000E+00
  8.50000000E+02  4.60000000E+01  0.00000000E+00
  8.50000000E+02  4.40000000E+01  0.00000000E+00
  8.50000000E+02  4.20000000E+01  0.00000000E+00
  8.50000000E+02  4.00000000E+01  0.00000000E+00
  8.50000000E+02  3.80000000E+01  0.00000000E+00
  8.50000000E+02  3.60000000E+01  0.00000000E+00
  8.50000000E+02  3.40000000E+01  0.00000000E+00
  8.50000000E+02  3.20000000E+01  0.00000000E+00
  8.50000000E+02  3.00000000E+01  0.00000000E+00
  8.50000000E+02  2.80000000E+01  0.00000000E+00
  8.50000000E+02  2.60000000E+01  0.00000000E+00
  8.50000000E+02  2.40000000E+01  0.00000000E+00
  8.50000000E+02  2.20000000E+01  0.00000000E+00
  8.50000000E+02  2.00000000E+01  0.00000000E+00
  8.50000000E+02  1.80000000E+01  0.00000000E+00
  8.50000000E+02  1.60000000E+01  0.00000000E+00
  8.50000000E+02  1.40000000E+01  0.00000000E+00
  8.50000000E+02  1.20000000E+01  0.00000000E+00
  8.50000000E+02  1.00000000E+01  0.00000000E+00
  8.50000000E+02  8.00000000E+00  0.00000000E+00
  8.50000000E+02  6.00000000E+00  0.00000000E+00
  8.50000000E+02  4.00000000E+00  0.00000000E+00
  8.50000000E+02  2.00000000E+00  0.00000000E+00
  8.50000000E+02 -3.33066907E-14  0.00000000E+00
  8.60000000E+02  1.00000000E+02  0.00000000E+00
  8.60000000E+02  9.80000000E+01  0.00000000E+00
  8.60000000E+02  9.60000000E+01  0.00000000E+00
  8.60000000E+02  9.40000000E+01  0.00000000E+00
  8.60000000E+02  9.20000000E+01  0.00000000E+00
  8.60000000E+02  9.00000000E+01  0.00000000E+00
  8.60000000E+02  8.80000000E+01  0.00000000E+00
  8.60000000E+02  8.60000000E+01  0.00000000E+00
  8.60000000E+02  8.40000000E+01  0.00000000E+00
  8.60000000E+02  8.20000000E+01  0.00000000E+00
  8.60000000E+02  8.00000000E+01  0.00000000E+00
  8.60000000E+02  7.80000000E+01  0.00000000E+00
  8.60000000E+02  7.60000000E+01  0.00000000E+00
  8.60000000E+02  7.40000000E+01  0.00000000E+00
  8.60000000E+02  7.20000000E+01  0.00000000E+00
  8.60000000E+02  7.00000000E+01  0.00000000E+00
  8.60000000E+02  6.80000000E+01  0.00000000E+00
  8.60000000E+02  6.60000000E+01  0.00000000E+00
  8.60000000E+02  6.40000000E+01  0.00000000E+00
  8.60000000E+02  6.20000000E+01  0.00000000E+00
  8.60000000E+02  6.00000000E+01  0.00000000E+00
  8.60000000E+02  5.80000000E+01  0.00000000E+00
  8.60000000E+02  5.60000000E+01  0.00000000E+00
  8.60000000E+02  5.40000000E+01  0.00000000E+00
  8.60000000E+02  5.20000000E+01  0.00000000E+00
  8.60000000E+02  5.00000000E+01  0.00000000E+00
  8.60000000E+02  4.80000000E+01  0.00000000E+00
  8.60000000E+02  4.60000000E+01  0.00000000E+00
  8.60000000E+02  4.40000000E+01  0.00000000E+00
  8.60000000E+02  4.20000000E+01  0.00000000E+00
  8.60000000E+02  4.00000000E+01  0.00000000E+00
  8.60000000E+02  3.80000000E+01  0.00000000E+00
  8.60000000E+02  3.60000000E+01  0.00000000E+00
  8.60000000E+02  3.40000000E+01  0.00000000E+00
  8.60000000E+02  3.20000000E+01  0.00000000E+00
  8.60000000E+02  3.00000000E+01  0.00000000E+00
  8.60000000E+02  2.80000000E+01  0.00000000E+00
  8.60000000E+02  2.60000000E+01  0.00000000E+00
  8.60000000E+02  2.40000000E+01  0.00000000E+00
  8.60000000E+02  2.20000000E+01  0.00000000E+00
  8.60000000E+02  2.00000000E+01  0.00000000E+00
  8.60000000E+02  1.80000000E+01  0.00000000E+00
  8.60000000E+02  1.60000000E+01  0.00000000E+00
  8.60000000E+02  1.40000000E+01  0.00000000E+00
  8.60000000E+02  1.20000000E+01  0.00000000E+00
  8.60000000E+02  1.00000000E+01  0.00000000E+00
  8.60000000E+02  8.00000000E+00  0.00000000E+00
  8.60000000E+02  6.00000000E+00  0.00000000E+00
  8.60000000E+02  4.00000000E+00  0.00000000E+00
  8.60000000E+02  2.00000000E+00  0.00000000E+00
  8.60000000E+02 -3.33066907E-14  0.00000000E+00
  8.70000000E+02  1.00000000E+02  0.00000000E+00
  8.70000000E+02  9.80000000E+01  0.00000000E+00
  8.70000000E+02  9.60000000E+01  0.00000000E+00
  8.70000000E+02  9.40000000E+01  0.00000000E+00
  8.70000000E+02  9.20000000E+01  0.00000000E+00
  8.70000000E+02  9.00000000E+01  0.00000000E+00
  8.70000000E+02  8.80000000E+01  0.00000000E+00
  8.70000000E+02  8.60000000E+01  0.00000000E+00
  8.70000000E+02  8.40000000E+01  0.00000000E+00
  8.70000000E+02  8.20000000E+01  0.00000000E+00
  8.70000000E+02  8.00000000E+01  0.00000000E+00
  8.70000000E+02  7.80000000E+01  0.00000000E+00
  8.70000000E+02  7.60000000E+01  0.00000000E+00
  8.70000000E+02  7.40000000E+01  0.00000000E+00
  8.70000000E+02  7.20000000E+01  0.00000000E+00
  8.70000000E+02  7.00000000E+01  0.00000000E+00
  8.70000000E+02  6.80000000E+01  0.00000000E+00
  8.70000000E+02  6.60000000E+01  0.00000000E+00
  8.70000000E+02  6.40000000E+01  0.00000000E+00
  8.70000000E+02  6.20000000E+01  0.00000000E+00
  8.70000000E+02  6.00000000E+01  0.00000000E+00
  8.70000000E+02  5.80000000E+01  0.00000000E+00
  8.70000000E+02  5.60000000E+01  0.00000000E+00
  8.70000000E+02  5.40000000E+01  0.00000000E+00
  8.70000000E+02  5.20000000E+01  0.00000000E+00
  8.70000000E+02  5.00000000E+01  0.00000000E+00
  8.70000000E+02  4.80000000E+01  0.00000000E+00
  8.70000000E+02  4.60000000E+01  0.00000000E+00
  8.70000000E+02  4.40000000E+01  0.00000000E+00
  8.70000000E+02  4.20000000E+01  0.00000000E+00
  8.70000000E+02  4.00000000E+01  0.00000000E+00
  8.70000000E+02  3.80000000E+01  0.00000000E+00
  8.70000000E+02  3.60000000E+01  0.00000000E+00
  8.70000000E+02  3.40000000E+01  0.00000000E+00
  8.70000000E+02  3.20000000E+01  0.00000000E+00
  8.70000000E+02  3.00000000E+01  0.00000000E+00
  8.70000000E+02  2.80000000E+01  0.00000000E+00
  8.70000000E+02  2.60000000E+01  0.00000000E+00
  8.70000000E+02  2.40000000E+01  0.00000000E+00
  8.70000000E+02  2.20000000E+01  0.00000000E+00
  8.70000000E+02  2.00000000E+01  0.00000000E+00
  8.70000000E+02  1.80000000E+01  0.00000000E+00
  8.70000000E+02  1.60000000E+01  0.00000000E+00
  8.70000000E+02  1.40000000E+01  0.00000000E+00
  8.70000000E+02  1.20000000E+01  0.00000000E+00
  8.70000000E+02  1.00000000E+01  0.00000000E+00
  8.70000000E+02  8.00000000E+00  0.00000000E+00
  8.70000000E+02  6.00000000E+00  0.00000000E+00
  8.70000000E+02  4.00000000E+00  0.00000000E+00
  8.70000000E+02  2.00000000E+00  0.00000000E+00
  8.70000000E+02 -3.33066907E-14  0.00000000E+00
  8.80000000E+02  1.00000000E+02  0.00000000E+00
  8.80000000E+02  9.80000000E+01  0.00000000E+00
  8.80000000E+02  9.60000000E+01  0.00000000E+00
  8.80000000E+02  9.40000000E+01  0.00000000E+00
  8.80000000E+02  9.20000000E+01  0.00000000E+00
  8.80000000E+02  9.00000000E+01  0.00000000E+00
  8.80000000E+02  8.80000000E+01  0.00000000E+00
  8.80000000E+02  8.60000000E+01  0.00000000E+00
  8.80000000E+02  8.40000000E+01  0.00000000E+00
  8.80000000E+02  8.20000000E+01  0.00000000E+00
  8.80000000E+02  8.00000000E+01  0.00000000E+00
  8.80000000E+02  7.80000000E+01  0.00000000E+00
  8.80000000E+02  7.60000000E+01  0.00000000E+00
  8.80000000E+02  7.40000000E+01  0.00000000E+00
  8.80000000E+02  7.20000000E+01  0.00000000E+00
  8.80000000E+02  7.00000000E+01  0.00000000E+00
  8.80000000E+02  6.80000000E+01  0.00000000E+00
  8.80000000E+02  6.60000000E+01  0.00000000E+00
  8.80000000E+02  6.40000000E+01  0.00000000E+00
  8.80000000E+02  6.20000000E+01  0.00000000E+00
  8.80000000E+02  6.00000000E+01  0.00000000E+00
  8.80000000E+02  5.80000000E+01  0.00000000E+00
  8.80000000E+02  5.60000000E+01  0.00000000E+00
  8.80000000E+02  5.40000000E+01  0.00000000E+00
  8.80000000E+02  5.20000000E+01  0.00000000E+00
  8.80000000E+02  5.00000000E+01  0.00000000E+00
  8.80000000E+02  4.80000000E+01  0.00000000E+00
  8.80000000E+02  4.60000000E+01  0.00000000E+00
  8.80000000E+02  4.40000000E+01  0.00000000E+00
  8.80000000E+02  4.20000000E+01  0.00000000E+00
  8.80000000E+02  4.00000000E+01  0.00000000E+00
  8.80000000E+02  3.80000000E+01  0.00000000E+00
  8.80000000E+02  3.60000000E+01  0.00000000E+00
  8.80000000E+02  3.40000000E+01  0.00000000E+00
  8.80000000E+02  3.20000000E+01  0.00000000E+00
  8.80000000E+02  3.00000000E+01  0.00000000E+00
  8.80000000E+02  2.80000000E+01  0.00000000E+00
  8.80000000E+02  2.60000000E+01  0.00000000E+00
  8.80000000E+02  2.40000000E+01  0.00000000E+00
  8.80000000E+02  2.20000000E+01  0.00000000E+00
  8.80000000E+02  2.00000000E+01  0.00000000E+00
  8.80000000E+02  1.80000000E+01  0.00000000E+00
  8.80000000E+02  1.60000000E+01  0.00000000E+00
  8.80000000E+02  1.40000000E+01  0.00000000E+00
  8.80000000E+02  1.20000000E+01  0.00000000E+00
  8.80000000E+02  1.00000000E+01  0.00000000E+00
  8.80000000E+02  8.00000000E+00  0.00000000E+00
  8.80000000E+02  6.00000000E+00  0.00000000E+00
  8.80000000E+02  4.00000000E+00  0.00000000E+00
  8.80000000E+02  2.00000000E+00  0.00000000E+00
  8.80000000E+02 -3.33066907E-14  0.00000000E+00
  8.90000000E+02  1.00000000E+02  0.00000000E+00
  8.90000000E+02  9.80000000E+01  0.00000000E+00
  8.90000000E+02  9.60000000E+01  0.00000000E+00
  8.90000000E+02  9.40000000E+01  0.00000000E+00
  8.90000000E+02  9.20000000E+01  0.00000000E+00
  8.90000000E+02  9.00000000E+01  0.00000000E+00
  8.90000000E+02  8.80000000E+01  0.00000000E+00
  8.90000000E+02  8.60000000E+01  0.00000000E+00
  8.90000000E+02  8.40000000E+01  0.00000000E+00
  8.90000000E+02  8.20000000E+01  0.00000000E+00
  8.90000000E+02  8.00000000E+01  0.00000000E+00
  8.90000000E+02  7.80000000E+01  0.00000000E+00
  8.90000000E+02  7.60000000E+01  0.00000000E+00
  8.90000000E+02  7.40000000E+01  0.00000000E+00
  8.90000000E+02  7.20000000E+01  0.00000000E+00
  8.90000000E+02  7.00000000E+01  0.00000000E+00
  8.90000000E+02  6.80000000E+01  0.00000000E+00
  8.90000000E+02  6.60000000E+01  0.00000000E+00
  8.90000000E+02  6.40000000E+01  0.00000000E+00
  8.90000000E+02  6.20000000E+01  0.00000000E+00
  8.90000000E+02  6.00000000E+01  0.00000000E+00
  8.90000000E+02  5.80000000E+01  0.00000000E+00
  8.90000000E+02  5.60000000E+01  0.00000000E+00
  8.90000000E+02  5.40000000E+01  0.00000000E+00
  8.90000000E+02  5.20000000E+01  0.00000000E+00
  8.90000000E+02  5.00000000E+01  0.00000000E+00
  8.90000000E+02  4.80000000E+01  0.00000000E+00
  8.90000000E+02  4.60000000E+01  0.00000000E+00
  8.90000000E+02  4.40000000E+01  0.00000000E+00
  8.90000000E+02  4.20000000E+01  0.00000000E+00
  8.90000000E+02  4.00000000E+01  0.00000000E+00
  8.90000000E+02  3.80000000E+01  0.00000000E+00
  8.90000000E+02  3.60000000E+01  0.00000000E+00
  8.90000000E+02  3.40000000E+01  0.00000000E+00
  8.90000000E+02  3.20000000E+01  0.00000000E+00
  8.90000000E+02  3.00000000E+01  0.00000000E+00
  8.90000000E+02  2.80000000E+01  0.00000000E+00
  8.90000000E+02  2.60000000E+01  0.00000000E+00
  8.90000000E+02  2.40000000E+01  0.00000000E+00
  8.90000000E+02  2.20000000E+01  0.00000000E+00
  8.90000000E+02  2.00000000E+01  0.00000000E+00
  8.90000000E+02  1.80000000E+01  0.00000000E+00
  8.90000000E+02  1.60000000E+01  0.00000000E+00
  8.90000000E+02  1.40000000E+01  0.00000000E+00
  8.90000000E+02  1.20000000E+01  0.00000000E+00
  8.90000000E+02  1.00000000E+01  0.00000000E+00
  8.90000000E+02  8.00000000E+00  0.00000000E+00
  8.90000000E+02  6.00000000E+00  0.00000000E+00
  8.90000000E+02  4.00000000E+00  0.00000000E+00
  8.90000000E+02  2.00000000E+00  0.00000000E+00
  8.90000000E+02 -3.33066907E-14  0.00000000E+00
  9.00000000E+02  1.00000000E+02  0.00000000E+00
  9.00000000E+02  9.80000000E+01  0.00000000E+00
  9.00000000E+02  9.60000000E+01  0.00000000E+00
  9.00000000E+02  9.40000000E+01  0.00000000E+00
  9.00000000E+02  9.20000000E+01  0.00000000E+00
  9.00000000E+02  9.00000000E+01  0.00000000E+00
  9.00000000E+02  8.80000000E+01  0.00000000E+00
  9.00000000E+02  8.60000000E+01  0.00000000E+00
  9.00000000E+02  8.40000000E+01  0.00000000E+00
  9.00000000E+02  8.20000000E+01  0.00000000E+00
  9.00000000E+02  8.00000000E+01  0.00000000E+00
  9.00000000E+02  7.80000000E+01  0.00000000E+00
  9.00000000E+02  7.60000000E+01  0.00000000E+00
  9.00000000E+02  7.40000000E+01  0.00000000E+00
  9.00000000E+02  7.20000000E+01  0.00000000E+00
  9.00000000E+02  7.00000000E+01  0.00000000E+00
  9.00000000E+02  6.80000000E+01  0.00000000E+00
  9.00000000E+02  6.60000000E+01  0.00000000E+00
  9.00000000E+02  6.40000000E+01  0.00000000E+00
  9.00000000E+02  6.20000000E+01  0.00000000E+00
  9.00000000E+02  6.00000000E+01  0.00000000E+00
  9.00000000E+02  5.80000000E+01  0.00000000E+00
  9.00000000E+02  5.60000000E+01  0.00000000E+00
  9.00000000E+02  5.40000000E+01  0.00000000E+00
  9.00000000E+02  5.20000000E+01  0.00000000E+00
  9.00000000E+02  5.00000000E+01  0.00000000E+00
  9.00000000E+02  4.80000000E+01  0.00000000E+00
  9.00000000E+02  4.60000000E+01  0.00000000E+00
  9.00000000E+02  4.40000000E+01  0.00000000E+00
  9.00000000E+02  4.20000000E+01  0.00000000E+00
  9.00000000E+02  4.00000000E+01  0.00000000E+00
  9.00000000E+02  3.80000000E+01  0.00000000E+00
  9.00000000E+02  3.60000000E+01  0.00000000E+00
  9.00000000E+02  3.40000000E+01  0.00000000E+00
  9.00000000E+02  3.20000000E+01  0.00000000E+00
  9.00000000E+02  3.00000000E+01  0.00000000E+00
  9.00000000E+02  2.80000000E+01  0.00000000E+00
  9.00000000E+02  2.60000000E+01  0.00000000E+00
  9.00000000E+02  2.40000000E+01  0.00000000E+00
  9.00000000E+02  2.20000000E+01  0.00000000E+00
  9.00000000E+02  2.00000000E+01  0.00000000E+00
  9.00000000E+02  1.80000000E+01  0.00000000E+00
  9.00000000E+02  1.60000000E+01  0.00000000E+00
  9.00000000E+02  1.40000000E+01  0.00000000E+00
  9.00000000E+02  1.20000000E+01  0.00000000E+00
  9.00000000E+02  1.00000000E+01  0.00000000E+00
  9.00000000E+02  8.00000000E+00  0.00000000E+00
  9.00000000E+02  6.00000000E+00  0.00000000E+00
  9.00000000E+02  4.00000000E+00  0.00000000E+00
  9.00000000E+02  2.00000000E+00  0.00000000E+00
  9.00000000E+02 -3.33066907E-14  0.00000000E+00
  9.10000000E+02  1.00000000E+02  0.00000000E+00
  9.10000000E+02  9.80000000E+01  0.00000000E+00
  9.10000000E+02  9.60000000E+01  0.00000000E+00
  9.10000000E+02  9.40000000E+01  0.00000000E+00
  9.10000000E+02  9.20000000E+01  0.00000000E+00
  9.10000000E+02  9.00000000E+01  0.00000000E+00
  9.10000000E+02  8.80000000E+01  0.00000000E+00
  9.10000000E+02  8.60000000E+01  0.00000000E+00
  9.10000000E+02  8.40000000E+01  0.00000000E+00
  9.10000000E+02  8.20000000E+01  0.00000000E+00
  9.10000000E+02  8.00000000E+01  0.00000000E+00
  9.10000000E+02  7.80000000E+01  0.00000000E+00
  9.10000000E+02  7.60000000E+01  0.00000000E+00
  9.10000000E+02  7.40000000E+01  0.00000000E+00
  9.10000000E+02  7.20000000E+01  0.00000000E+00
  9.10000000E+02  7.00000000E+01  0.00000000E+00
  9.10000000E+02  6.80000000E+01  0.00000000E+00
  9.10000000E+02  6.60000000E+01  0.00000000E+00
  9.10000000E+02  6.40000000E+01  0.00000000E+00
  9.10000000E+02  6.20000000E+01  0.00000000E+00
  9.10000000E+02  6.00000000E+01  0.00000000E+00
  9.10000000E+02  5.80000000E+01  0.00000000E+00
  9.10000000E+02  5.60000000E+01  0.00000000E+00
  9.10000000E+02  5.40000000E+01  0.00000000E+00
  9.10000000E+02  5.20000000E+01  0.00000000E+00
  9.10000000E+02  5.00000000E+01  0.00000000E+00
  9.10000000E+02  4.80000000E+01  0.00000000E+00
  9.10000000E+02  4.60000000E+01  0.00000000E+00
  9.10000000E+02  4.40000000E+01  0.00000000E+00
  9.10000000E+02  4.20000000E+01  0.00000000E+00
  9.10000000E+02  4.00000000E+01  0.00000000E+00
  9.10000000E+02  3.80000000E+01  0.00000000E+00
  9.10000000E+02  3.60000000E+01  0.00000000E+00
  9.10000000E+02  3.40000000E+01  0.00000000E+00
  9.10000000E+02  3.20000000E+01  0.00000000E+00
  9.10000000E+02  3.00000000E+01  0.00000000E+00
  9.10000000E+02  2.80000000E+01  0.00000000E+00
  9.10000000E+02  2.60000000E+01  0.00000000E+00
  9.10000000E+02  2.40000000E+01  0.00000000E+00
  9.10000000E+02  2.20000000E+01  0.00000000E+00
  9.10000000E+02  2.00000000E+01  0.00000000E+00
  9.10000000E+02  1.80000000E+01  0.00000000E+00
  9.10000000E+02  1.60000000E+01  0.00000000E+00
  9.10000000E+02  1.40000000E+01  0.00000000E+00
  9.10000000E+02  1.20000000E+01  0.00000000E+00
  9.10000000E+02  1.00000000E+01  0.00000000E+00
  9.10000000E+02  8.00000000E+00  0.00000000E+00
  9.10000000E+02  6.00000000E+00  0.00000000E+00
  9.10000000E+02  4.00000000E+00  0.00000000E+00
  9.10000000E+02  2.00000000E+00  0.00000000E+00
  9.10000000E+02 -3.33066907E-14  0.00000000E+00
  9.20000000E+02  1.00000000E+02  0.00000000E+00
  9.20000000E+02  9.80000000E+01  0.00000000E+00
  9.20000000E+02  9.60000000E+01  0.00000000E+00
  9.20000000E+02  9.40000000E+01  0.00000000E+00
  9.20000000E+02  9.20000000E+01  0.00000000E+00
  9.20000000E+02  9.00000000E+01  0.00000000E+00
  9.20000000E+02  8.80000000E+01  0.00000000E+00
  9.20000000E+02  8.60000000E+01  0.00000000E+00
  9.20000000E+02  8.40000000E+01  0.00000000E+00
  9.20000000E+02  8.20000000E+01  0.00000000E+00
  9.20000000E+02  8.00000000E+01  0.00000000E+00
  9.20000000E+02  7.80000000E+01  0.00000000E+00
  9.20000000E+02  7.60000000E+01  0.00000000E+00
  9.20000000E+02  7.40000000E+01  0.00000000E+00
  9.20000000E+02  7.20000000E+01  0.00000000E+00
  9.20000000E+02  7.00000000E+01  0.00000000E+00
  9.20000000E+02  6.80000000E+01  0.00000000E+00
  9.20000000E+02  6.60000000E+01  0.00000000E+00
  9.20000000E+02  6.40000000E+01  0.00000000E+00
  9.20000000E+02  6.20000000E+01  0.00000000E+00
  9.20000000E+02  6.00000000E+01  0.00000000E+00
  9.20000000E+02  5.80000000E+01  0.00000000E+00
  9.20000000E+02  5.60000000E+01  0.00000000E+00
  9.20000000E+02  5.40000000E+01  0.00000000E+00
  9.20000000E+02  5.20000000E+01  0.00000000E+00
  9.20000000E+02  5.00000000E+01  0.00000000E+00
  9.20000000E+02  4.80000000E+01  0.00000000E+00
  9.20000000E+02  4.60000000E+01  0.00000000E+00
  9.20000000E+02  4.40000000E+01  0.00000000E+00
  9.20000000E+02  4.20000000E+01  0.00000000E+00
  9.20000000E+02  4.00000000E+01  0.00000000E+00
  9.20000000E+02  3.80000000E+01  0.00000000E+00
  9.20000000E+02  3.60000000E+01  0.00000000E+00
  9.20000000E+02  3.40000000E+01  0.00000000E+00
  9.20000000E+02  3.20000000E+01  0.00000000E+00
  9.20000000E+02  3.00000000E+01  0.00000000E+00
  9.20000000E+02  2.80000000E+01  0.00000000E+00
  9.20000000E+02  2.60000000E+01  0.00000000E+00
  9.20000000E+02  2.40000000E+01  0.00000000E+00
  9.20000000E+02  2.20000000E+01  0.00000000E+00
  9.20000000E+02  2.00000000E+01  0.00000000E+00
  9.20000000E+02  1.80000000E+01  0.00000000E+00
  9.20000000E+02  1.60000000E+01  0.00000000E+00
  9.20000000E+02  1.40000000E+01  0.00000000E+00
  9.20000000E+02  1.20000000E+01  0.00000000E+00
  9.20000000E+02  1.00000000E+01  0.00000000E+00
  9.20000000E+02  8.00000000E+00  0.00000000E+00
  9.20000000E+02  6.00000000E+00  0.00000000E+00
  9.20000000E+02  4.00000000E+00  0.00000000E+00
  9.20000000E+02  2.00000000E+00  0.00000000E+00
  9.20000000E+02 -3.33066907E-14  0.00000000E+00
  9.30000000E+02  1.00000000E+02  0.00000000E+00
  9.30000000E+02  9.80000000E+01  0.00000000E+00
  9.30000000E+02  9.60000000E+01  0.00000000E+00
  9.30000000E+02  9.40000000E+01  0.00000000E+00
  9.30000000E+02  9.20000000E+01  0.00000000E+00
  9.30000000E+02  9.00000000E+01  0.00000000E+00
  9.30000000E+02  8.80000000E+01  0.00000000E+00
  9.30000000E+02  8.60000000E+01  0.00000000E+00
  9.30000000E+02  8.40000000E+01  0.00000000E+00
  9.30000000E+02  8.20000000E+01  0.00000000E+00
  9.30000000E+02  8.00000000E+01  0.00000000E+00
  9.30000000E+02  7.80000000E+01  0.00000000E+00
  9.30000000E+02  7.60000000E+01  0.00000000E+00
  9.30000000E+02  7.40000000E+01  0.00000000E+00
  9.30000000E+02  7.20000000E+01  0.00000000E+00
  9.30000000E+02  7.00000000E+01  0.00000000E+00
  9.30000000E+02  6.80000000E+01  0.00000000E+00
  9.30000000E+02  6.60000000E+01  0.00000000E+00
  9.30000000E+02  6.40000000E+01  0.00000000E+00
  9.30000000E+02  6.20000000E+01  0.00000000E+00
  9.30000000E+02  6.00000000E+01  0.00000000E+00
  9.30000000E+02  5.80000000E+01  0.00000000E+00
  9.30000000E+02  5.60000000E+01  0.00000000E+00
  9.30000000E+02  5.40000000E+01  0.00000000E+00
  9.30000000E+02  5.20000000E+01  0.00000000E+00
  9.30000000E+02  5.00000000E+01  0.00000000E+00
  9.30000000E+02  4.80000000E+01  0.00000000E+00
  9.30000000E+02  4.60000000E+01  0.00000000E+00
  9.30000000E+02  4.40000000E+01  0.00000000E+00
  9.30000000E+02  4.20000000E+01  0.00000000E+00
  9.30000000E+02  4.00000000E+01  0.00000000E+00
  9.30000000E+02  3.80000000E+01  0.00000000E+00
  9.30000000E+02  3.60000000E+01  0.00000000E+00
  9.30000000E+02  3.40000000E+01  0.00000000E+00
  9.30000000E+02  3.20000000E+01  0.00000000E+00
  9.30000000E+02  3.00000000E+01  0.00000000E+00
  9.30000000E+02  2.80000000E+01  0.00000000E+00
  9.30000000E+02  2.60000000E+01  0.00000000E+00
  9.30000000E+02  2.40000000E+01  0.00000000E+00
  9.30000000E+02  2.20000000E+01  0.00000000E+00
  9.30000000E+02  2.00000000E+01  0.00000000E+00
  9.30000000E+02  1.80000000E+01  0.00000000E+00
  9.30000000E+02  1.60000000E+01  0.00000000E+00
  9.30000000E+02  1.40000000E+01  0.00000000E+00
  9.30000000E+02  1.20000000E+01  0.00000000E+00
  9.30000000E+02  1.00000000E+01  0.00000000E+00
  9.30000000E+02  8.00000000E+00  0.00000000E+00
  9.30000000E+02  6.00000000E+00  0.00000000E+00
  9.30000000E+02  4.00000000E+00  0.00000000E+00
  9.30000000E+02  2.00000000E+00  0.00000000E+00
  9.30000000E+02 -3.33066907E-14  0.00000000E+00
  9.40000000E+02  1.00000000E+02  0.00000000E+00
  9.40000000E+02  9.80000000E+01  0.00000000E+00
  9.40000000E+02  9.60000000E+01  0.00000000E+00
  9.40000000E+02  9.40000000E+01  0.00000000E+00
  9.40000000E+02  9.20000000E+01  0.00000000E+00
  9.40000000E+02  9.00000000E+01  0.00000000E+00
  9.40000000E+02  8.80000000E+01  0.00000000E+00
  9.40000000E+02  8.60000000E+01  0.00000000E+00
  9.40000000E+02  8.40000000E+01  0.00000000E+00
  9.40000000E+02  8.20000000E+01  0.00000000E+00
  9.40000000E+02  8.00000000E+01  0.00000000E+00
  9.40000000E+02  7.80000000E+01  0.00000000E+00
  9.40000000E+02  7.60000000E+01  0.00000000E+00
  9.40000000E+02  7.40000000E+01  0.00000000E+00
  9.40000000E+02  7.20000000E+01  0.00000000E+00
  9.40000000E+02  7.00000000E+01  0.00000000E+00
  9.40000000E+02  6.80000000E+01  0.00000000E+00
  9.40000000E+02  6.60000000E+01  0.00000000E+00
  9.40000000E+02  6.40000000E+01  0.00000000E+00
  9.40000000E+02  6.20000000E+01  0.00000000E+00
  9.40000000E+02  6.00000000E+01  0.00000000E+00
  9.40000000E+02  5.80000000E+01  0.00000000E+00
  9.40000000E+02  5.60000000E+01  0.00000000E+00
  9.40000000E+02  5.40000000E+01  0.00000000E+00
  9.40000000E+02  5.20000000E+01  0.00000000E+00
  9.40000000E+02  5.00000000E+01  0.00000000E+00
  9.40000000E+02  4.80000000E+01  0.00000000E+00
  9.40000000E+02  4.60000000E+01  0.00000000E+00
  9.40000000E+02  4.40000000E+01  0.00000000E+00
  9.40000000E+02  4.20000000E+01  0.00000000E+00
  9.40000000E+02  4.00000000E+01  0.00000000E+00
  9.40000000E+02  3.80000000E+01  0.00000000E+00
  9.40000000E+02  3.60000000E+01  0.00000000E+00
  9.40000000E+02  3.40000000E+01  0.00000000E+00
  9.40000000E+02  3.20000000E+01  0.00000000E+00
  9.40000000E+02  3.00000000E+01  0.00000000E+00
  9.40000000E+02  2.80000000E+01  0.00000000E+00
  9.40000000E+02  2.60000000E+01  0.00000000E+00
  9.40000000E+02  2.40000000E+01  0.00000000E+00
  9.40000000E+02  2.20000000E+01  0.00000000E+00
  9.40000000E+02  2.00000000E+01  0.00000000E+00
  9.40000000E+02  1.80000000E+01  0.00000000E+00
  9.40000000E+02  1.60000000E+01  0.00000000E+00
  9.40000000E+02  1.40000000E+01  0.00000000E+00
  9.40000000E+02  1.20000000E+01  0.00000000E+00
  9.40000000E+02  1.00000000E+01  0.00000000E+00
  9.40000000E+02  8.00000000E+00  0.00000000E+00
  9.40000000E+02  6.00000000E+00  0.00000000E+00
  9.40000000E+02  4.00000000E+00  0.00000000E+00
  9.40000000E+02  2.00000000E+00  0.00000000E+00
  9.40000000E+02 -3.33066907E-14  0.00000000E+00
  9.50000000E+02  1.00000000E+02  0.00000000E+00
  9.50000000E+02  9.80000000E+01  0.00000000E+00
  9.50000000E+02  9.60000000E+01  0.00000000E+00
  9.50000000E+02  9.40000000E+01  0.00000000E+00
  9.50000000E+02  9.20000000E+01  0.00000000E+00
  9.50000000E+02  9.00000000E+01  0.00000000E+00
  9.50000000E+02  8.80000000E+01  0.00000000E+00
  9.50000000E+02  8.60000000E+01  0.00000000E+00
  9.50000000E+02  8.40000000E+01  0.00000000E+00
  9.50000000E+02  8.20000000E+01  0.00000000E+00
  9.50000000E+02  8.00000000E+01  0.00000000E+00
  9.50000000E+02  7.80000000E+01  0.00000000E+00
  9.50000000E+02  7.60000000E+01  0.00000000E+00
  9.50000000E+02  7.40000000E+01  0.00000000E+00
  9.50000000E+02  7.20000000E+01  0.00000000E+00
  9.50000000E+02  7.00000000E+01  0.00000000E+00
  9.50000000E+02  6.80000000E+01  0.00000000E+00
  9.50000000E+02  6.60000000E+01  0.00000000E+00
  9.50000000E+02  6.40000000E+01  0.00000000E+00
  9.50000000E+02  6.20000000E+01  0.00000000E+00
  9.50000000E+02  6.00000000E+01  0.00000000E+00
  9.50000000E+02  5.80000000E+01  0.00000000E+00
  9.50000000E+02  5.60000000E+01  0.00000000E+00
  9.50000000E+02  5.40000000E+01  0.00000000E+00
  9.50000000E+02  5.20000000E+01  0.00000000E+00
  9.50000000E+02  5.00000000E+01  0.00000000E+00
  9.50000000E+02  4.80000000E+01  0.00000000E+00
  9.50000000E+02  4.60000000E+01  0.00000000E+00
  9.50000000E+02  4.40000000E+01  0.00000000E+00
  9.50000000E+02  4.20000000E+01  0.00000000E+00
  9.50000000E+02  4.00000000E+01  0.00000000E+00
  9.50000000E+02  3.80000000E+01  0.00000000E+00
  9.50000000E+02  3.60000000E+01  0.00000000E+00
  9.50000000E+02  3.40000000E+01  0.00000000E+00
  9.50000000E+02  3.20000000E+01  0.00000000E+00
  9.50000000E+02  3.00000000E+01  0.00000000E+00
  9.50000000E+02  2.80000000E+01  0.00000000E+00
  9.50000000E+02  2.60000000E+01  0.00000000E+00
  9.50000000E+02  2.40000000E+01  0.00000000E+00
  9.50000000E+02  2.20000000E+01  0.00000000E+00
  9.50000000E+02  2.00000000E+01  0.00000000E+00
  9.50000000E+02  1.80000000E+01  0.00000000E+00
  9.50000000E+02  1.60000000E+01  0.00000000E+00
  9.50000000E+02  1.40000000E+01  0.00000000E+00
  9.50000000E+02  1.20000000E+01  0.00000000E+00
  9.50000000E+02  1.00000000E+01  0.00000000E+00
  9.50000000E+02  8.00000000E+00  0.00000000E+00
  9.50000000E+02  6.00000000E+00  0.00000000E+00
  9.50000000E+02  4.00000000E+00  0.00000000E+00
  9.50000000E+02  2.00000000E+00  0.00000000E+00
  9.50000000E+02 -3.33066907E-14  0.00000000E+00
  9.60000000E+02  1.00000000E+02  0.00000000E+00
  9.60000000E+02  9.80000000E+01  0.00000000E+00
  9.60000000E+02  9.60000000E+01  0.00000000E+00
  9.60000000E+02  9.40000000E+01  0.00000000E+00
  9.60000000E+02  9.20000000E+01  0.00000000E+00
  9.60000000E+02  9.00000000E+01  0.00000000E+00
  9.60000000E+02  8.80000000E+01  0.00000000E+00
  9.60000000E+02  8.60000000E+01  0.00000000E+00
  9.60000000E+02  8.40000000E+01  0.00000000E+00
  9.60000000E+02  8.20000000E+01  0.00000000E+00
  9.60000000E+02  8.00000000E+01  0.00000000E+00
  9.60000000E+02  7.80000000E+01  0.00000000E+00
  9.60000000E+02  7.60000000E+01  0.00000000E+00
  9.60000000E+02  7.40000000E+01  0.00000000E+00
  9.60000000E+02  7.20000000E+01  0.00000000E+00
  9.60000000E+02  7.00000000E+01  0.00000000E+00
  9.60000000E+02  6.80000000E+01  0.00000000E+00
  9.60000000E+02  6.60000000E+01  0.00000000E+00
  9.60000000E+02  6.40000000E+01  0.00000000E+00
  9.60000000E+02  6.20000000E+01  0.00000000E+00
  9.60000000E+02  6.00000000E+01  0.00000000E+00
  9.60000000E+02  5.80000000E+01  0.00000000E+00
  9.60000000E+02  5.60000000E+01  0.00000000E+00
  9.60000000E+02  5.40000000E+01  0.00000000E+00
  9.60000000E+02  5.20000000E+01  0.00000000E+00
  9.60000000E+02  5.00000000E+01  0.00000000E+00
  9.60000000E+02  4.80000000E+01  0.00000000E+00
  9.60000000E+02  4.60000000E+01  0.00000000E+00
  9.60000000E+02  4.40000000E+01  0.00000000E+00
  9.60000000E+02  4.20000000E+01  0.00000000E+00
  9.60000000E+02  4.00000000E+01  0.00000000E+00
  9.60000000E+02  3.80000000E+01  0.00000000E+00
  9.60000000E+02  3.60000000E+01  0.00000000E+00
  9.60000000E+02  3.40000000E+01  0.00000000E+00
  9.60000000E+02  3.20000000E+01  0.00000000E+00
  9.60000000E+02  3.00000000E+01  0.00000000E+00
  9.60000000E+02  2.80000000E+01  0.00000000E+00
  9.60000000E+02  2.60000000E+01  0.00000000E+00
  9.60000000E+02  2.40000000E+01  0.00000000E+00
  9.60000000E+02  2.20000000E+01  0.00000000E+00
  9.60000000E+02  2.00000000E+01  0.00000000E+00
  9.60000000E+02  1.80000000E+01  0.00000000E+00
  9.60000000E+02  1.60000000E+01  0.00000000E+00
  9.60000000E+02  1.40000000E+01  0.00000000E+00
  9.60000000E+02  1.20000000E+01  0.00000000E+00
  9.60000000E+02  1.00000000E+01  0.00000000E+00
  9.60000000E+02  8.00000000E+00  0.00000000E+00
  9.60000000E+02  6.00000000E+00  0.00000000E+00
  9.60000000E+02  4.00000000E+00  0.00000000E+00
  9.60000000E+02  2.00000000E+00  0.00000000E+00
  9.60000000E+02 -3.33066907E-14  0.00000000E+00
  9.70000000E+02  1.00000000E+02  0.00000000E+00
  9.70000000E+02  9.80000000E+01  0.00000000E+00
  9.70000000E+02  9.60000000E+01  0.00000000E+00
  9.70000000E+02  9.40000000E+01  0.00000000E+00
  9.70000000E+02  9.20000000E+01  0.00000000E+00
  9.70000000E+02  9.00000000E+01  0.00000000E+00
  9.70000000E+02  8.80000000E+01  0.00000000E+00
  9.70000000E+02  8.60000000E+01  0.00000000E+00
  9.70000000E+02  8.40000000E+01  0.00000000E+00
  9.70000000E+02  8.20000000E+01  0.00000000E+00
  9.70000000E+02  8.00000000E+01  0.00000000E+00
  9.70000000E+02  7.80000000E+01  0.00000000E+00
  9.70000000E+02  7.60000000E+01  0.00000000E+00
  9.70000000E+02  7.40000000E+01  0.00000000E+00
  9.70000000E+02  7.20000000E+01  0.00000000E+00
  9.70000000E+02  7.00000000E+01  0.00000000E+00
  9.70000000E+02  6.80000000E+01  0.00000000E+00
  9.70000000E+02  6.60000000E+01  0.00000000E+00
  9.70000000E+02  6.40000000E+01  0.00000000E+00
  9.70000000E+02  6.20000000E+01  0.00000000E+00
  9.70000000E+02  6.00000000E+01  0.00000000E+00
  9.70000000E+02  5.80000000E+01  0.00000000E+00
  9.70000000E+02  5.60000000E+01  0.00000000E+00
  9.70000000E+02  5.40000000E+01  0.00000000E+00
  9.70000000E+02  5.20000000E+01  0.00000000E+00
  9.70000000E+02  5.00000000E+01  0.00000000E+00
  9.70000000E+02  4.80000000E+01  0.00000000E+00
  9.70000000E+02  4.60000000E+01  0.00000000E+00
  9.70000000E+02  4.40000000E+01  0.00000000E+00
  9.70000000E+02  4.20000000E+01  0.00000000E+00
  9.70000000E+02  4.00000000E+01  0.00000000E+00
  9.70000000E+02  3.80000000E+01  0.00000000E+00
  9.70000000E+02  3.60000000E+01  0.00000000E+00
  9.70000000E+02  3.40000000E+01  0.00000000E+00
  9.70000000E+02  3.20000000E+01  0.00000000E+00
  9.70000000E+02  3.00000000E+01  0.00000000E+00
  9.70000000E+02  2.80000000E+01  0.00000000E+00
  9.70000000E+02  2.60000000E+01  0.00000000E+00
  9.70000000E+02  2.40000000E+01  0.00000000E+00
  9.70000000E+02  2.20000000E+01  0.00000000E+00
  9.70000000E+02  2.00000000E+01  0.00000000E+00
  9.70000000E+02  1.80000000E+01  0.00000000E+00
  9.70000000E+02  1.60000000E+01  0.00000000E+00
  9.70000000E+02  1.40000000E+01  0.00000000E+00
  9.70000000E+02  1.20000000E+01  0.00000000E+00
  9.70000000E+02  1.00000000E+01  0.00000000E+00
  9.70000000E+02  8.00000000E+00  0.00000000E+00
  9.70000000E+02  6.00000000E+00  0.00000000E+00
  9.70000000E+02  4.00000000E+00  0.00000000E+00
  9.70000000E+02  2.00000000E+00  0.00000000E+00
  9.70000000E+02 -3.33066907E-14  0.00000000E+00
  9.80000000E+02  1.00000000E+02  0.00000000E+00
  9.80000000E+02  9.80000000E+01  0.00000000E+00
  9.80000000E+02  9.60000000E+01  0.00000000E+00
  9.80000000E+02  9.40000000E+01  0.00000000E+00
  9.80000000E+02  9.20000000E+01  0.00000000E+00
  9.80000000E+02  9.00000000E+01  0.00000000E+00
  9.80000000E+02  8.80000000E+01  0.00000000E+00
  9.80000000E+02  8.60000000E+01  0.00000000E+00
  9.80000000E+02  8.40000000E+01  0.00000000E+00
  9.80000000E+02  8.20000000E+01  0.00000000E+00
  9.80000000E+02  8.00000000E+01  0.00000000E+00
  9.80000000E+02  7.80000000E+01  0.00000000E+00
  9.80000000E+02  7.60000000E+01  0.00000000E+00
  9.80000000E+02  7.40000000E+01  0.00000000E+00
  9.80000000E+02  7.20000000E+01  0.00000000E+00
  9.80000000E+02  7.00000000E+01  0.00000000E+00
  9.80000000E+02  6.80000000E+01  0.00000000E+00
  9.80000000E+02  6.60000000E+01  0.00000000E+00
  9.80000000E+02  6.40000000E+01  0.00000000E+00
  9.80000000E+02  6.20000000E+01  0.00000000E+00
  9.80000000E+02  6.00000000E+01  0.00000000E+00
  9.80000000E+02  5.80000000E+01  0.00000000E+00
  9.80000000E+02  5.60000000E+01  0.00000000E+00
  9.80000000E+02  5.40000000E+01  0.00000000E+00
  9.80000000E+02  5.20000000E+01  0.00000000E+00
  9.80000000E+02  5.00000000E+01  0.00000000E+00
  9.80000000E+02  4.80000000E+01  0.00000000E+00
  9.80000000E+02  4.60000000E+01  0.00000000E+00
  9.80000000E+02  4.40000000E+01  0.00000000E+00
  9.80000000E+02  4.20000000E+01  0.00000000E+00
  9.80000000E+02  4.00000000E+01  0.00000000E+00
  9.80000000E+02  3.80000000E+01  0.00000000E+00
  9.80000000E+02  3.60000000E+01  0.00000000E+00
  9.80000000E+02  3.40000000E+01  0.00000000E+00
  9.80000000E+02  3.20000000E+01  0.00000000E+00
  9.80000000E+02  3.00000000E+01  0.00000000E+00
  9.80000000E+02  2.80000000E+01  0.00000000E+00
  9.80000000E+02  2.60000000E+01  0.00000000E+00
  9.80000000E+02  2.40000000E+01  0.00000000E+00
  9.80000000E+02  2.20000000E+01  0.00000000E+00
  9.80000000E+02  2.00000000E+01  0.00000000E+00
  9.80000000E+02  1.80000000E+01  0.00000000E+00
  9.80000000E+02  1.60000000E+01  0.00000000E+00
  9.80000000E+02  1.40000000E+01  0.00000000E+00
  9.80000000E+02  1.20000000E+01  0.00000000E+00
  9.80000000E+02  1.00000000E+01  0.00000000E+00
  9.80000000E+02  8.00000000E+00  0.00000000E+00
  9.80000000E+02  6.00000000E+00  0.00000000E+00
  9.80000000E+02  4.00000000E+00  0.00000000E+00
  9.80000000E+02  2.00000000E+00  0.00000000E+00
  9.80000000E+02 -3.33066907E-14  0.00000000E+00
  9.90000000E+02  1.00000000E+02  0.00000000E+00
  9.90000000E+02  9.80000000E+01  0.00000000E+00
  9.90000000E+02  9.60000000E+01  0.00000000E+00
  9.90000000E+02  9.40000000E+01  0.00000000E+00
  9.90000000E+02  9.20000000E+01  0.00000000E+00
  9.90000000E+02  9.00000000E+01  0.00000000E+00
  9.90000000E+02  8.80000000E+01  0.00000000E+00
  9.90000000E+02  8.60000000E+01  0.00000000E+00
  9.90000000E+02  8.40000000E+01  0.00000000E+00
  9.90000000E+02  8.20000000E+01  0.00000000E+00
  9.90000000E+02  8.00000000E+01  0.00000000E+00
  9.90000000E+02  7.80000000E+01  0.00000000E+00
  9.90000000E+02  7.60000000E+01  0.00000000E+00
  9.90000000E+02  7.40000000E+01  0.00000000E+00
  9.90000000E+02  7.20000000E+01  0.00000000E+00
  9.90000000E+02  7.00000000E+01  0.00000000E+00
  9.90000000E+02  6.80000000E+01  0.00000000E+00
  9.90000000E+02  6.60000000E+01  0.00000000E+00
  9.90000000E+02  6.40000000E+01  0.00000000E+00
  9.90000000E+02  6.20000000E+01  0.00000000E+00
  9.90000000E+02  6.00000000E+01  0.00000000E+00
  9.90000000E+02  5.80000000E+01  0.00000000E+00
  9.90000000E+02  5.60000000E+01  0.00000000E+00
  9.90000000E+02  5.40000000E+01  0.00000000E+00
  9.90000000E+02  5.20000000E+01  0.00000000E+00
  9.90000000E+02  5.00000000E+01  0.00000000E+00
  9.90000000E+02  4.80000000E+01  0.00000000E+00
  9.90000000E+02  4.60000000E+01  0.00000000E+00
  9.90000000E+02  4.40000000E+01  0.00000000E+00
  9.90000000E+02  4.20000000E+01  0.00000000E+00
  9.90000000E+02  4.00000000E+01  0.00000000E+00
  9.90000000E+02  3.80000000E+01  0.00000000E+00
  9.90000000E+02  3.60000000E+01  0.00000000E+00
  9.90000000E+02  3.40000000E+01  0.00000000E+00
  9.90000000E+02  3.20000000E+01  0.00000000E+00
  9.90000000E+02  3.00000000E+01  0.00000000E+00
  9.90000000E+02  2.80000000E+01  0.00000000E+00
  9.90000000E+02  2.60000000E+01  0.00000000E+00
  9.90000000E+02  2.40000000E+01  0.00000000E+00
  9.90000000E+02  2.20000000E+01  0.00000000E+00
  9.90000000E+02  2.00000000E+01  0.00000000E+00
  9.90000000E+02  1.80000000E+01  0.00000000E+00
  9.90000000E+02  1.60000000E+01  0.00000000E+00
  9.90000000E+02  1.40000000E+01  0.00000000E+00
  9.90000000E+02  1.20000000E+01  0.00000000E+00
  9.90000000E+02  1.00000000E+01  0.00000000E+00
  9.90000000E+02  8.00000000E+00  0.00000000E+00
  9.90000000E+02  6.00000000E+00  0.00000000E+00
  9.90000000E+02  4.00000000E+00  0.00000000E+00
  9.90000000E+02  2.00000000E+00  0.00000000E+00
  9.90000000E+02 -3.33066907E-14  0.00000000E+00
  1.00000000E+03  1.00000000E+02  0.00000000E+00
  1.00000000E+03  9.80000000E+01  0.00000000E+00
  1.00000000E+03  9.60000000E+01  0.00000000E+00
  1.00000000E+03  9.40000000E+01  0.00000000E+00
  1.00000000E+03  9.20000000E+01  0.00000000E+00
  1.00000000E+03  9.00000000E+01  0.00000000E+00
  1.00000000E+03  8.80000000E+01  0.00000000E+00
  1.00000000E+03  8.60000000E+01  0.00000000E+00
  1.00000000E+03  8.40000000E+01  0.00000000E+00
  1.00000000E+03  8.20000000E+01  0.00000000E+00
  1.00000000E+03  8.00000000E+01  0.00000000E+00
  1.00000000E+03  7.80000000E+01  0.00000000E+00
  1.00000000E+03  7.60000000E+01  0.00000000E+00
  1.00000000E+03  7.40000000E+01  0.00000000E+00
  1.00000000E+03  7.20000000E+01  0.00000000E+00
  1.00000000E+03  7.00000000E+01  0.00000000E+00
  1.00000000E+03  6.80000000E+01  0.00000000E+00
  1.00000000E+03  6.60000000E+01  0.00000000E+00
  1.00000000E+03  6.40000000E+01  0.00000000E+00
  1.00000000E+03  6.20000000E+01  0.00000000E+00
  1.00000000E+03  6.00000000E+01  0.00000000E+00
  1.00000000E+03  5.80000000E+01  0.00000000E+00
  1.00000000E+03  5.60000000E+01  0.00000000E+00
  1.00000000E+03  5.40000000E+01  0.00000000E+00
  1.00000000E+03  5.20000000E+01  0.00000000E+00
  1.00000000E+03  5.00000000E+01  0.00000000E+00
  1.00000000E+03  4.80000000E+01  0.00000000E+00
  1.00000000E+03  4.60000000E+01  0.00000000E+00
  1.00000000E+03  4.40000000E+01  0.00000000E+00
  1.00000000E+03  4.20000000E+01  0.00000000E+00
  1.00000000E+03  4.00000000E+01  0.00000000E+00
  1.00000000E+03  3.80000000E+01  0.00000000E+00
  1.00000000E+03  3.60000000E+01  0.00000000E+00
  1.00000000E+03  3.40000000E+01  0.00000000E+00
  1.00000000E+03  3.20000000E+01  0.00000000E+00
  1.00000000E+03  3.00000000E+01  0.00000000E+00
  1.00000000E+03  2.80000000E+01  0.00000000E+00
  1.00000000E+03  2.60000000E+01  0.00000000E+00
  1.00000000E+03  2.40000000E+01  0.00000000E+00
  1.00000000E+03  2.20000000E+01  0.00000000E+00
  1.00000000E+03  2.00000000E+01  0.00000000E+00
  1.00000000E+03  1.80000000E+01  0.00000000E+00
  1.00000000E+03  1.60000000E+01  0.00000000E+00
  1.00000000E+03  1.40000000E+01  0.00000000E+00
  1.00000000E+03  1.20000000E+01  0.00000000E+00
  1.00000000E+03  1.00000000E+01  0.00000000E+00
  1.00000000E+03  8.00000000E+00  0.00000000E+00
  1.00000000E+03  6.00000000E+00  0.00000000E+00
  1.00000000E+03  4.00000000E+00  0.00000000E+00
  1.00000000E+03  2.00000000E+00  0.00000000E+00
  1.00000000E+03 -3.33066907E-14  0.00000000E+00
CELLS      5000     25000
         4           0           1          52          51
         4           1           2          53          52
         4           2           3          54          53
         4           3           4          55          54
         4           4           5          56          55
         4           5           6          57          56
         4           6           7          58          57
         4           7           8          59          58
         4           8           9          60          59
         4           9          10          61          60
         4          10          11          62          61
         4          11          12          63          62
         4          12          13          64          63
         4          13          14          65          64
         4          14          15          66          65
         4          15          16          67          66
         4          16          17          68          67
         4          17          18          69          68
         4          18          19          70          69
         4          19          20          71          70
         4          20          21          72          71
         4          21          22          73          72
         4          22          23          74          73
         4          23          24          75          74
         4          24          25          76          75
         4          25          26          77          76
         4          26          27          78          77
         4          27          28          79          78
         4          28          29          80          79
         4          29          30          81          80
         4          30          31          82          81
         4          31          32          83          82
         4          32          33          84          83
         4          33          34          85          84
         4          34          35          86          85
         4          35          36          87          86
         4          36          37          88          87
         4          37          38          89          88
         4          38          39          90          89
         4          39          40          91          90
         4          40          41          92          91
         4          41          42          93          92
         4          42          43          94          93
         4          43          44          95          94
         4          44          45          96          95
         4          45          46          97          96
         4          46          47          98          97
         4          47          48          99          98
         4          48          49         100          99
         4          49          50         101         100
         4          51          52         103         102
         4          52          53         104         103
         4          53          54         105         104
         4          54          55         106         105
         4          55          56         107         106
         4          56          57         108         107
         4          57          58         109         108
         4          58          59         110         109
         4          59          60         111         110
         4          60          61         112         111
         4          61          62         113         112
         4          62          63         114         113
         4          63          64         115         114
         4          64          65         116         115
         4          65          66         117         116
         4          66          67         118         117
         4          67          68         119         118
         4          68          69         120         119
         4          69          70         121         120
         4          70          71         122         121
         4          71          72         123         122
         4          72          73         124         123
         4          73          74         125         124
         4          74          75         126         125
         4          75          76         127         126
         4          76          77         128         127
         4          77          78         129         128
         4          78          79         130         129
         4          79          80         131         130
         4          80          81         132         131
         4          81          82         133         132
         4          82          83         134         133
         4          83          84         135         134
         4          84          85         136         135
         4          85          86         137         136
         4          86          87         138         137
         4          87          88         139         138
         4          88          89         140         139
         4          89          90         141         140
         4          90          91         142         141
         4          91          92         143         142
         4          92          93         144         143
         4          93          94         145         144
         4          94          95         146         145
         4          95          96         147         146
         4          96          97         148         147
         4          97          98         149         148
         4          98          99         150         149
         4          99         100         151         150
         4         100         101         152         151
         4         102         103         154         153
         4         103         104         155         154
         4         104         105         156         155
         4         105         106         157         156
         4         106         107         158         157
         4         107         108         159         158
         4         108         109         160         159
         4         109         110         161         160
         4         110         111         162         161
         4         111         112         163         162
         4         112         113         164         163
         4         113         114         165         164
         4         114         115         166         165
         4         115         116         167         166
         4         116         117         168         167
         4         117         118         169         168
         4         118         119         170         169
         4         119         120         171         170
         4         120         121         172         171
         4         121         122         173         172
         4         122         123         174         173
         4         123         124         175         174
         4         124         125         176         175
         4         125         126         177         176
         4         126         127         178         177
         4         127         128         179         178
         4         128         129         180         179
         4         129         130         181         180
         4         130         131         182         181
         4         131         132         183         182
         4         132         133         184         183
         4         133         134         185         184
         4         134         135         186         185
         4         135         136         187         186
         4         136         137         188         187
         4         137         138         189         188
         4         138         139         190         189
         4         139         140         191         190
         4         140         141         192         191
         4         141         142         193         192
         4         142         143         194         193
         4         143         144         195         194
         4         144         145         196         195
         4         145         146         197         196
         4         146         147         198         197
         4         147         148         199         198
         4         148         149         200         199
         4         149         150         201         200
         4         150         151         202         201
         4         151         152         203         202
         4         153         154         205         204
         4         154         155         206         205
         4         155         156         207         206
         4         156         157         208         207
         4         157         158         209         208
         4         158         159         210         209
         4         159         160         211         210
         4         160         161         212         211
         4         161         162         213         212
         4         162         163         214         213
         4         163         164         215         214
         4         164         165         216         215
         4         165         166         217         216
         4         166         167         218         217
         4         167         168         219         218
         4         168         169         220         219
         4         169         170         221         220
         4         170         171         222         221
         4         171         172         223         222
         4         172         173         224         223
         4         173         174         225         224
         4         174         175         226         225
         4         175         176         227         226
         4         176         177         228         227
         4         177         178         229         228
         4         178         179         230         229
         4         179         180         231         230
         4         180         181         232         231
         4         181         182         233         232
         4         182         183         234         233
         4         183         184         235         234
         4         184         185         236         235
         4         185         186         237         236
         4         186         187         238         237
         4         187         188         239         238
         4         188         189         240         239
         4         189         190         241         240
         4         190         191         242         241
         4         191         192         243         242
         4         192         193         244         243
         4         193         194         245         244
         4         194         195         246         245
         4         195         196         247         246
         4         196         197         248         247
         4         197         198         249         248
         4         198         199         250         249
         4         199         200         251         250
         4         200         201         252         251
         4         201         202         253         252
         4         202         203         254         253
         4         204         205         256         255
         4         205         206         257         256
         4         206         207         258         257
         4         207         208         259         258
         4         208         209         260         259
         4         209         210         261         260
         4         210         211         262         261
         4         211         212         263         262
         4         212         213         264         263
         4         213         214         265         264
         4         214         215         266         265
         4         215         216         267         266
         4         216         217         268         267
         4         217         218         269         268
         4         218         219         270         269
         4         219         220         271         270
         4         220         221         272         271
         4         221         222         273         272
         4         222         223         274         273
         4         223         224         275         274
         4         224         225         276         275
         4         225         226         277         276
         4         226         227         278         277
         4         227         228         279         278
         4         228         229         280         279
         4         229         230         281         280
         4         230         231         282         281
         4         231         232         283         282
         4         232         233         284         283
         4         233         234         285         284
         4         234         235         286         285
         4         235         236         287         286
         4         236         237         288         287
         4         237         238         289         288
         4         238         239         290         289
         4         239         240         291         290
         4         240         241         292         291
         4         241         242         293         292
         4         242         243         294         293
         4         243         244         295         294
         4         244         245         296         295
         4         245         246         297         296
         4         246         247         298         297
         4         247         248         299         298
         4         248         249         300         299
         4         249         250         301         300
         4         250         251         302         301
         4         251         252         303         302
         4         252         253         304         303
         4         253         254         305         304
         4         255         256         307         306
         4         256         257         308         307
         4         257         258         309         308
         4         258         259         310         309
         4         259         260         311         310
         4         260         261         312         311
         4         261         262         313         312
         4         262         263         314         313
         4         263         264         315         314
         4         264         265         316         315
         4         265         266         317         316
         4         266         267         318         317
         4         267         268         319         318
         4         268         269         320         319
         4         269         270         321         320
         4         270         271         322         321
         4         271         272         323         322
         4         272         273         324         323
         4         273         274         325         324
         4         274         275         326         325
         4         275         276         327         326
         4         276         277         328         327
         4         277         278         329         328
         4         278         279         330         329
         4         279         280         331         330
         4         280         281         332         331
         4         281         282         333         332
         4         282         283         334         333
         4         283         284         335         334
         4         284         285         336         335
         4         285         286         337         336
         4         286         287         338         337
         4         287         288         339         338
         4         288         289         340         339
         4         289         290         341         340
         4         290         291         342         341
         4         291         292         343         342
         4         292         293         344         343
         4         293         294         345         344
         4         294         295         346         345
         4         295         296         347         346
         4         296         297         348         347
         4         297         298         349         348
         4         298         299         350         349
         4         299         300         351         350
         4         300         301         352         351
         4         301         302         353         352
         4         302         303         354         353
         4         303         304         355         354
         4         304         305         356         355
         4         306         307         358         357
         4         307         308         359         358
         4         308         309         360         359
         4         309         310         361         360
         4         310         311         362         361
         4         311         312         363         362
         4         312         313         364         363
         4         313         314         365         364
         4         314         315         366         365
         4         315         316         367         366
         4         316         317         368         367
         4         317         318         369         368
         4         318         319         370         369
         4         319         320         371         370
         4         320         321         372         371
         4         321         322         373         372
         4         322         323         374         373
         4         323         324         375         374
         4         324         325         376         375
         4         325         326         377         376
         4         326         327         378         377
         4         327         328         379         378
         4         328         329         380         379
         4         329         330         381         380
         4         330         331         382         381
         4         331         332         383         382
         4         332         333         384         383
         4         333         334         385         384
         4         334         335         386         385
         4         335         336         387         386
         4         336         337         388         387
         4         337         338         389         388
         4         338         339         390         389
         4         339         340         391         390
         4         340         341         392         391
         4         341         342         393         392
         4         342         343         394         393
         4         343         344         395         394
         4         344         345         396         395
         4         345         346         397         396
         4         346         347         398         397
         4         347         348         399         398
         4         348         349         400         399
         4         349         350         401         400
         4         350         351         402         401
         4         351         352         403         402
         4         352         353         404         403
         4         353         354         405         404
         4         354         355         406         405
         4         355         356         407         406
         4         357         358         409         408
         4         358         359         410         409
         4         359         360         411         410
         4         360         361         412         411
         4         361         362         413         412
         4         362         363         414         413
         4         363         364         415         414
         4         364         365         416         415
         4         365         366         417         416
         4         366         367         418         417
         4         367         368         419         418
         4         368         369         420         419
         4         369         370         421         420
         4         370         371         422         421
         4         371         372         423         422
         4         372         373         424         423
         4         373         374         425         424
         4         374         375         426         425
         4         375         376         427         426
         4         376         377         428         427
         4         377         378         429         428
         4         378         379         430         429
         4         379         380         431         430
         4         380         381         432         431
         4         381         382         433         432
         4         382         383         434         433
         4         383         384         435         434
         4         384         385         436         435
         4         385         386         437         436
         4         386         387         438         437
         4         387         388         439         438
         4         388         389         440         439
         4         389         390         441         440
         4         390         391         442         441
         4         391         392         443         442
         4         392         393         444         443
         4         393         394         445         444
         4         394         395         446         445
         4         395         396         447         446
         4         396         397         448         447
         4         397         398         449         448
         4         398         399         450         449
         4         399         400         451         450
         4         400         401         452         451
         4         401         402         453         452
         4         402         403         454         453
         4         403         404         455         454
         4         404         405         456         455
         4         405         406         457         456
         4         406         407         458         457
         4         408         409         460         459
         4         409         410         461         460
         4         410         411         462         461
         4         411         412         463         462
         4         412         413         464         463
         4         413         414         465         464
         4         414         415         466         465
         4         415         416         467         466
         4         416         417         468         467
         4         417         418         469         468
         4         418         419         470         469
         4         419         420         471         470
         4         420         421         472         471
         4         421         422         473         472
         4         422         423         474         473
         4         423         424         475         474
         4         424         425         476         475
         4         425         426         477         476
         4         426         427         478         477
         4         427         428         479         478
         4         428         429         480         479
         4         429         430         481         480
         4         430         431         482         481
         4         431         432         483         482
         4         432         433         484         483
         4         433         434         485         484
         4         434         435         486         485
         4         435         436         487         486
         4         436         437         488         487
         4         437         438         489         488
         4         438         439         490         489
         4         439         440         491         490
         4         440         441         492         491
         4         441         442         493         492
         4         442         443         494         493
         4         443         444         495         494
         4         444         445         496         495
         4         445         446         497         496
         4         446         447         498         497
         4         447         448         499         498
         4         448         449         500         499
         4         449         450         501         500
         4         450         451         502         501
         4         451         452         503         502
         4         452         453         504         503
         4         453         454         505         504
         4         454         455         506         505
         4         455         456         507         506
         4         456         457         508         507
         4         457         458         509         508
         4         459         460         511         510
         4         460         461         512         511
         4         461         462         513         512
         4         462         463         514         513
         4         463         464         515         514
         4         464         465         516         515
         4         465         466         517         516
         4         466         467         518         517
         4         467         468         519         518
         4         468         469         520         519
         4         469         470         521         520
         4         470         471         522         521
         4         471         472         523         522
         4         472         473         524         523
         4         473         474         525         524
         4         474         475         526         525
         4         475         476         527         526
         4         476         477         528         527
         4         477         478         529         528
         4         478         479         530         529
         4         479         480         531         530
         4         480         481         532         531
         4         481         482         533         532
         4         482         483         534         533
         4         483         484         535         534
         4         484         485         536         535
         4         485         486         537         536
         4         486         487         538         537
         4         487         488         539         538
         4         488         489         540         539
         4         489         490         541         540
         4         490         491         542         541
         4         491         492         543         542
         4         492         493         544         543
         4         493         494         545         544
         4         494         495         546         545
         4         495         496         547         546
         4         496         497         548         547
         4         497         498         549         548
         4         498         499         550         549
         4         499         500         551         550
         4         500         501         552         551
         4         501         502         553         552
         4         502         503         554         553
         4         503         504         555         554
         4         504         505         556         555
         4         505         506         557         556
         4         506         507         558         557
         4         507         508         559         558
         4         508         509         560         559
         4         510         511         562         561
         4         511         512         563         562
         4         512         513         564         563
         4         513         514         565         564
         4         514         515         566         565
         4         515         516         567         566
         4         516         517         568         567
         4         517         518         569         568
         4         518         519         570         569
         4         519         520         571         570
         4         520         521         572         571
         4         521         522         573         572
         4         522         523         574         573
         4         523         524         575         574
         4         524         525         576         575
         4         525         526         577         576
         4         526         527         578         577
         4         527         528         579         578
         4         528         529         580         579
         4         529         530         581         580
         4         530         531         582         581
         4         531         532         583         582
         4         532         533         584         583
         4         533         534         585         584
         4         534         535         586         585
         4         535         536         587         586
         4         536         537         588         587
         4         537         538         589         588
         4         538         539         590         589
         4         539         540         591         590
         4         540         541         592         591
         4         541         542         593         592
         4         542         543         594         593
         4         543         544         595         594
         4         544         545         596         595
         4         545         546         597         596
         4         546         547         598         597
         4         547         548         599         598
         4         548         549         600         599
         4         549         550         601         600
         4         550         551         602         601
         4         551         552         603         602
         4         552         553         604         603
         4         553         554         605         604
         4         554         555         606         605
         4         555         556         607         606
         4         556         557         608         607
         4         557         558         609         608
         4         558         559         610         609
         4         559         560         611         610
         4         561         562         613         612
         4         562         563         614         613
         4         563         564         615         614
         4         564         565         616         615
         4         565         566         617         616
         4         566         567         618         617
         4         567         568         619         618
         4         568         569         620         619
         4         569         570         621         620
         4         570         571         622         621
         4         571         572         623         622
         4         572         573         624         623
         4         573         574         625         624
         4         574         575         626         625
         4         575         576         627         626
         4         576         577         628         627
         4         577         578         629         628
         4         578         579         630         629
         4         579         580         631         630
         4         580         581         632         631
         4         581         582         633         632
         4         582         583         634         633
         4         583         584         635         634
         4         584         585         636         635
         4         585         586         637         636
         4         586         587         638         637
         4         587         588         639         638
         4         588         589         640         639
         4         589         590         641         640
         4         590         591         642         641
         4         591         592         643         642
         4         592         593         644         643
         4         593         594         645         644
         4         594         595         646         645
         4         595         596         647         646
         4         596         597         648         647
         4         597         598         649         648
         4         598         599         650         649
         4         599         600         651         650
         4         600         601         652         651
         4         601         602         653         652
         4         602         603         654         653
         4         603         604         655         654
         4         604         605         656         655
         4         605         606         657         656
         4         606         607         658         657
         4         607         608         659         658
         4         608         609         660         659
         4         609         610         661         660
         4         610         611         662         661
         4         612         613         664         663
         4         613         614         665         664
         4         614         615         666         665
         4         615         616         667         666
         4         616         617         668         667
         4         617         618         669         668
         4         618         619         670         669
         4         619         620         671         670
         4         620         621         672         671
         4         621         622         673         672
         4         622         623         674         673
         4         623         624         675         674
         4         624         625         676         675
         4         625         626         677         676
         4         626         627         678         677
         4         627         628         679         678
         4         628         629         680         679
         4         629         630         681         680
         4         630         631         682         681
         4         631         632         683         682
         4         632         633         684         683
         4         633         634         685         684
         4         634         635         686         685
         4         635         636         687         686
         4         636         637         688         687
         4         637         638         689         688
         4         638         639         690         689
         4         639         640         691         690
         4         640         641         692         691
         4         641         642         693         692
         4         642         643         694         693
         4         643         644         695         694
         4         644         645         696         695
         4         645         646         697         696
         4         646         647         698         697
         4         647         648         699         698
         4         648         649         700         699
         4         649         650         701         700
         4         650         651         702         701
         4         651         652         703         702
         4         652         653         704         703
         4         653         654         705         704
         4         654         655         706         705
         4         655         656         707         706
         4         656         657         708         707
         4         657         658         709         708
         4         658         659         710         709
         4         659         660         711         710
         4         660         661         712         711
         4         661         662         713         712
         4         663         664         715         714
         4         664         665         716         715
         4         665         666         717         716
         4         666         667         718         717
         4         667         668         719         718
         4         668         669         720         719
         4         669         670         721         720
         4         670         671         722         721
         4         671         672         723         722
         4         672         673         724         723
         4         673         674         725         724
         4         674         675         726         725
         4         675         676         727         726
         4         676         677         728         727
         4         677         678         729         728
         4         678         679         730         729
         4         679         680         731         730
         4         680         681         732         731
         4         681         682         733         732
         4         682         683         734         733
         4         683         684         735         734
         4         684         685         736         735
         4         685         686         737         736
         4         686         687         738         737
         4         687         688         739         738
         4         688         689         740         739
         4         689         690         741         740
         4         690         691         742         741
         4         691         692         743         742
         4         692         693         744         743
         4         693         694         745         744
         4         694         695         746         745
         4         695         696         747         746
         4         696         697         748         747
         4         697         698         749         748
         4         698         699         750         749
         4         699         700         751         750
         4         700         701         752         751
         4         701         702         753         752
         4         702         703         754         753
         4         703         704         755         754
         4         704         705         756         755
         4         705         706         757         756
         4         706         707         758         757
         4         707         708         759         758
         4         708         709         760         759
         4         709         710         761         760
         4         710         711         762         761
         4         711         712         763         762
         4         712         713         764         763
         4         714         715         766         765
         4         715         716         767         766
         4         716         717         768         767
         4         717         718         769         768
         4         718         719         770         769
         4         719         720         771         770
         4         720         721         772         771
         4         721         722         773         772
         4         722         723         774         773
         4         723         724         775         774
         4         724         725         776         775
         4         725         726         777         776
         4         726         727         778         777
         4         727         728         779         778
         4         728         729         780         779
         4         729         730         781         780
         4         730         731         782         781
         4         731         732         783         782
         4         732         733         784         783
         4         733         734         785         784
         4         734         735         786         785
         4         735         736         787         786
         4         736         737         788         787
         4         737         738         789         788
         4         738         739         790         789
         4         739         740         791         790
         4         740         741         792         791
         4         741         742         793         792
         4         742         743         794         793
         4         743         744         795         794
         4         744         745         796         795
         4         745         746         797         796
         4         746         747         798         797
         4         747         748         799         798
         4         748         749         800         799
         4         749         750         801         800
         4         750         751         802         801
         4         751         752         803         802
         4         752         753         804         803
         4         753         754         805         804
         4         754         755         806         805
         4         755         756         807         806
         4         756         757         808         807
         4         757         758         809         808
         4         758         759         810         809
         4         759         760         811         810
         4         760         761         812         811
         4         761         762         813         812
         4         762         763         814         813
         4         763         764         815         814
         4         765         766         817         816
         4         766         767         818         817
         4         767         768         819         818
         4         768         769         820         819
         4         769         770         821         820
         4         770         771         822         821
         4         771         772         823         822
         4         772         773         824         823
         4         773         774         825         824
         4         774         775         826         825
         4         775         776         827         826
         4         776         777         828         827
         4         777         778         829         828
         4         778         779         830         829
         4         779         780         831         830
         4         780         781         832         831
         4         781         782         833         832
         4         782         783         834         833
         4         783         784         835         834
         4         784         785         836         835
         4         785         786         837         836
         4         786         787         838         837
         4         787         788         839         838
         4         788         789         840         839
         4         789         790         841         840
         4         790         791         842         841
         4         791         792         843         842
         4         792         793         844         843
         4         793         794         845         844
         4         794         795         846         845
         4         795         796         847         846
         4         796         797         848         847
         4         797         798         849         848
         4         798         799         850         849
         4         799         800         851         850
         4         800         801         852         851
         4         801         802         853         852
         4         802         803         854         853
         4         803         804         855         854
         4         804         805         856         855
         4         805         806         857         856
         4         806         807         858         857
         4         807         808         859         858
         4         808         809         860         859
         4         809         810         861         860
         4         810         811         862         861
         4         811         812         863         862
         4         812         813         864         863
         4         813         814         865         864
         4         814         815         866         865
         4         816         817         868         867
         4         817         818         869         868
         4         818         819         870         869
         4         819         820         871         870
         4         820         821         872         871
         4         821         822         873         872
         4         822         823         874         873
         4         823         824         875         874
         4         824         825         876         875
         4         825         826         877         876
         4         826         827         878         877
         4         827         828         879         878
         4         828         829         880         879
         4         829         830         881         880
         4         830         831         882         881
         4         831         832         883         882
         4         832         833         884         883
         4         833         834         885         884
         4         834         835         886         885
         4         835         836         887         886
         4         836         837         888         887
         4         837         838         889         888
         4         838         839         890         889
         4         839         840         891         890
         4         840         841         892         891
         4         841         842         893         892
         4         842         843         894         893
         4         843         844         895         894
         4         844         845         896         895
         4         845         846         897         896
         4         846         847         898         897
         4         847         848         899         898
         4         848         849         900         899
         4         849         850         901         900
         4         850         851         902         901
         4         851         852         903         902
         4         852         853         904         903
         4         853         854         905         904
         4         854         855         906         905
         4         855         856         907         906
         4         856         857         908         907
         4         857         858         909         908
         4         858         859         910         909
         4         859         860         911         910
         4         860         861         912         911
         4         861         862         913         912
         4         862         863         914         913
         4         863         864         915         914
         4         864         865         916         915
         4         865         866         917         916
         4         867         868         919         918
         4         868         869         920         919
         4         869         870         921         920
         4         870         871         922         921
         4         871         872         923         922
         4         872         873         924         923
         4         873         874         925         924
         4         874         875         926         925
         4         875         876         927         926
         4         876         877         928         927
         4         877         878         929         928
         4         878         879         930         929
         4         879         880         931         930
         4         880         881         932         931
         4         881         882         933         932
         4         882         883         934         933
         4         883         884         935         934
         4         884         885         936         935
         4         885         886         937         936
         4         886         887         938         937
         4         887         888         939         938
         4         888         889         940         939
         4         889         890         941         940
         4         890         891         942         941
         4         891         892         943         942
         4         892         893         944         943
         4         893         894         945         944
         4         894         895         946         945
         4         895         896         947         946
         4         896         897         948         947
         4         897         898         949         948
         4         898         899         950         949
         4         899         900         951         950
         4         900         901         952         951
         4         901         902         953         952
         4         902         903         954         953
         4         903         904         955         954
         4         904         905         956         955
         4         905         906         957         956
         4         906         907         958         957
         4         907         908         959         958
         4         908         909         960         959
         4         909         910         961         960
         4         910         911         962         961
         4         911         912         963         962
         4         912         913         964         963
         4         913         914         965         964
         4         914         915         966         965
         4         915         916         967         966
         4         916         917         968         967
         4         918         919         970         969
         4         919         920         971         970
         4         920         921         972         971
         4         921         922         973         972
         4         922         923         974         973
         4         923         924         975         974
         4         924         925         976         975
         4         925         926         977         976
         4         926         927         978         977
         4         927         928         979         978
         4         928         929         980         979
         4         929         930         981         980
         4         930         931         982         981
         4         931         932         983         982
         4         932         933         984         983
         4         933         934         985         984
         4         934         935         986         985
         4         935         936         987         986
         4         936         937         988         987
         4         937         938         989         988
         4         938         939         990         989
         4         939         940         991         990
         4         940         941         992         991
         4         941         942         993         992
         4         942         943         994         993
         4         943         944         995         994
         4         944         945         996         995
         4         945         946         997         996
         4         946         947         998         997
         4         947         948         999         998
         4         948         949        1000         999
         4         949         950        1001        1000
         4         950         951        1002        1001
         4         951         952        1003        1002
         4         952         953        1004        1003
         4         953         954        1005        1004
         4         954         955        1006        1005
         4         955         956        1007        1006
         4         956         957        1008        1007
         4         957         958        1009        1008
         4         958         959        1010        1009
         4         959         960        1011        1010
         4         960         961        1012        1011
         4         961         962        1013        1012
         4         962         963        1014        1013
         4         963         964        1015        1014
         4         964         965        1016        1015
         4         965         966        1017        1016
         4         966         967        1018        1017
         4         967         968        1019        1018
         4         969         970        1021        1020
         4         970         971        1022        1021
         4         971         972        1023        1022
         4         972         973        1024        1023
         4         973         974        1025        1024
         4         974         975        1026        1025
         4         975         976        1027        1026
         4         976         977        1028        1027
         4         977         978        1029        1028
         4         978         979        1030        1029
         4         979         980        1031        1030
         4         980         981        1032        1031
         4         981         982        1033        1032
         4         982         983        1034        1033
         4         983         984        1035        1034
         4         984         985        1036        1035
         4         985         986        1037        1036
         4         986         987        1038        1037
         4         987         988        1039        1038
         4         988         989        1040        1039
         4         989         990        1041        1040
         4         990         991        1042        1041
         4         991         992        1043        1042
         4         992         993        1044        1043
         4         993         994        1045        1044
         4         994         995        1046        1045
         4         995         996        1047        1046
         4         996         997        1048        1047
         4         997         998        1049        1048
         4         998         999        1050        1049
         4         999        1000        1051        1050
         4        1000        1001        1052        1051
         4        1001        1002        1053        1052
         4        1002        1003        1054        1053
         4        1003        1004        1055        1054
         4        1004        1005        1056        1055
         4        1005        1006        1057        1056
         4        1006        1007        1058        1057
         4        1007        1008        1059        1058
         4        1008        1009        1060        1059
         4        1009        1010        1061        1060
         4        1010        1011        1062        1061
         4        1011        1012        1063        1062
         4        1012        1013        1064        1063
         4        1013        1014        1065        1064
         4        1014        1015        1066        1065
         4        1015        1016        1067        1066
         4        1016        1017        1068        1067
         4        1017        1018        1069        1068
         4        1018        1019        1070        1069
         4        1020        1021        1072        1071
         4        1021        1022        1073        1072
         4        1022        1023        1074        1073
         4        1023        1024        1075        1074
         4        1024        1025        1076        1075
         4        1025        1026        1077        1076
         4        1026        1027        1078        1077
         4        1027        1028        1079        1078
         4        1028        1029        1080        1079
         4        1029        1030        1081        1080
         4        1030        1031        1082        1081
         4        1031        1032        1083        1082
         4        1032        1033        1084        1083
         4        1033        1034        1085        1084
         4        1034        1035        1086        1085
         4        1035        1036        1087        1086
         4        1036        1037        1088        1087
         4        1037        1038        1089        1088
         4        1038        1039        1090        1089
         4        1039        1040        1091        1090
         4        1040        1041        1092        1091
         4        1041        1042        1093        1092
         4        1042        1043        1094        1093
         4        1043        1044        1095        1094
         4        1044        1045        1096        1095
         4        1045        1046        1097        1096
         4        1046        1047        1098        1097
         4        1047        1048        1099        1098
         4        1048        1049        1100        1099
         4        1049        1050        1101        1100
         4        1050        1051        1102        1101
         4        1051        1052        1103        1102
         4        1052        1053        1104        1103
         4        1053        1054        1105        1104
         4        1054        1055        1106        1105
         4        1055        1056        1107        1106
         4        1056        1057        1108        1107
         4        1057        1058        1109        1108
         4        1058        1059        1110        1109
         4        1059        1060        1111        1110
         4        1060        1061        1112        1111
         4        1061        1062        1113        1112
         4        1062        1063        1114        1113
         4        1063        1064        1115        1114
         4        1064        1065        1116        1115
         4        1065        1066        1117        1116
         4        1066        1067        1118        1117
         4        1067        1068        1119        1118
         4        1068        1069        1120        1119
         4        1069        1070        1121        1120
         4        1071        1072        1123        1122
         4        1072        1073        1124        1123
         4        1073        1074        1125        1124
         4        1074        1075        1126        1125
         4        1075        1076        1127        1126
         4        1076        1077        1128        1127
         4        1077        1078        1129        1128
         4        1078        1079        1130        1129
         4        1079        1080        1131        1130
         4        1080        1081        1132        1131
         4        1081        1082        1133        1132
         4        1082        1083        1134        1133
         4        1083        1084        1135        1134
         4        1084        1085        1136        1135
         4        1085        1086        1137        1136
         4        1086        1087        1138        1137
         4        1087        1088        1139        1138
         4        1088        1089        1140        1139
         4        1089        1090        1141        1140
         4        1090        1091        1142        1141
         4        1091        1092        1143        1142
         4        1092        1093        1144        1143
         4        1093        1094        1145        1144
         4        1094        1095        1146        1145
         4        1095        1096        1147        1146
         4        1096        1097        1148        1147
         4        1097        1098        1149        1148
         4        1098        1099        1150        1149
         4        1099        1100        1151        1150
         4        1100        1101        1152        1151
         4        1101        1102        1153        1152
         4        1102        1103        1154        1153
         4        1103        1104        1155        1154
         4        1104        1105        1156        1155
         4        1105        1106        1157        1156
         4        1106        1107        1158        1157
         4        1107        1108        1159        1158
         4        1108        1109        1160        1159
         4        1109        1110        1161        1160
         4        1110        1111        1162        1161
         4        1111        1112        1163        1162
         4        1112        1113        1164        1163
         4        1113        1114        1165        1164
         4        1114        1115        1166        1165
         4        1115        1116        1167        1166
         4        1116        1117        1168        1167
         4        1117        1118        1169        1168
         4        1118        1119        1170        1169
         4        1119        1120        1171        1170
         4        1120        1121        1172        1171
         4        1122        1123        1174        1173
         4        1123        1124        1175        1174
         4        1124        1125        1176        1175
         4        1125        1126        1177        1176
         4        1126        1127        1178        1177
         4        1127        1128        1179        1178
         4        1128        1129        1180        1179
         4        1129        1130        1181        1180
         4        1130        1131        1182        1181
         4        1131        1132        1183        1182
         4        1132        1133        1184        1183
         4        1133        1134        1185        1184
         4        1134        1135        1186        1185
         4        1135        1136        1187        1186
         4        1136        1137        1188        1187
         4        1137        1138        1189        1188
         4        1138        1139        1190        1189
         4        1139        1140        1191        1190
         4        1140        1141        1192        1191
         4        1141        1142        1193        1192
         4        1142        1143        1194        1193
         4        1143        1144        1195        1194
         4        1144        1145        1196        1195
         4        1145        1146        1197        1196
         4        1146        1147        1198        1197
         4        1147        1148        1199        1198
         4        1148        1149        1200        1199
         4        1149        1150        1201        1200
         4        1150        1151        1202        1201
         4        1151        1152        1203        1202
         4        1152        1153        1204        1203
         4        1153        1154        1205        1204
         4        1154        1155        1206        1205
         4        1155        1156        1207        1206
         4        1156        1157        1208        1207
         4        1157        1158        1209        1208
         4        1158        1159        1210        1209
         4        1159        1160        1211        1210
         4        1160        1161        1212        1211
         4        1161        1162        1213        1212
         4        1162        1163        1214        1213
         4        1163        1164        1215        1214
         4        1164        1165        1216        1215
         4        1165        1166        1217        1216
         4        1166        1167        1218        1217
         4        1167        1168        1219        1218
         4        1168        1169        1220        1219
         4        1169        1170        1221        1220
         4        1170        1171        1222        1221
         4        1171        1172        1223        1222
         4        1173        1174        1225        1224
         4        1174        1175        1226        1225
         4        1175        1176        1227        1226
         4        1176        1177        1228        1227
         4        1177        1178        1229        1228
         4        1178        1179        1230        1229
         4        1179        1180        1231        1230
         4        1180        1181        1232        1231
         4        1181        1182        1233        1232
         4        1182        1183        1234        1233
         4        1183        1184        1235        1234
         4        1184        1185        1236        1235
         4        1185        1186        1237        1236
         4        1186        1187        1238        1237
         4        1187        1188        1239        1238
         4        1188        1189        1240        1239
         4        1189        1190        1241        1240
         4        1190        1191        1242        1241
         4        1191        1192        1243        1242
         4        1192        1193        1244        1243
         4        1193        1194        1245        1244
         4        1194        1195        1246        1245
         4        1195        1196        1247        1246
         4        1196        1197        1248        1247
         4        1197        1198        1249        1248
         4        1198        1199        1250        1249
         4        1199        1200        1251        1250
         4        1200        1201        1252        1251
         4        1201        1202        1253        1252
         4        1202        1203        1254        1253
         4        1203        1204        1255        1254
         4        1204        1205        1256        1255
         4        1205        1206        1257        1256
         4        1206        1207        1258        1257
         4        1207        1208        1259        1258
         4        1208        1209        1260        1259
         4        1209        1210        1261        1260
         4        1210        1211        1262        1261
         4        1211        1212        1263        1262
         4        1212        1213        1264        1263
         4        1213        1214        1265        1264
         4        1214        1215        1266        1265
         4        1215        1216        1267        1266
         4        1216        1217        1268        1267
         4        1217        1218        1269        1268
         4        1218        1219        1270        1269
         4        1219        1220        1271        1270
         4        1220        1221        1272        1271
         4        1221        1222        1273        1272
         4        1222        1223        1274        1273
         4        1224        1225        1276        1275
         4        1225        1226        1277        1276
         4        1226        1227        1278        1277
         4        1227        1228        1279        1278
         4        1228        1229        1280        1279
         4        1229        1230        1281        1280
         4        1230        1231        1282        1281
         4        1231        1232        1283        1282
         4        1232        1233        1284        1283
         4        1233        1234        1285        1284
         4        1234        1235        1286        1285
         4        1235        1236        1287        1286
         4        1236        1237        1288        1287
         4        1237        1238        1289        1288
         4        1238        1239        1290        1289
         4        1239        1240        1291        1290
         4        1240        1241        1292        1291
         4        1241        1242        1293        1292
         4        1242        1243        1294        1293
         4        1243        1244        1295        1294
         4        1244        1245        1296        1295
         4        1245        1246        1297        1296
         4        1246        1247        1298        1297
         4        1247        1248        1299        1298
         4        1248        1249        1300        1299
         4        1249        1250        1301        1300
         4        1250        1251        1302        1301
         4        1251        1252        1303        1302
         4        1252        1253        1304        1303
         4        1253        1254        1305        1304
         4        1254        1255        1306        1305
         4        1255        1256        1307        1306
         4        1256        1257        1308        1307
         4        1257        1258        1309        1308
         4        1258        1259        1310        1309
         4        1259        1260        1311        1310
         4        1260        1261        1312        1311
         4        1261        1262        1313        1312
         4        1262        1263        1314        1313
         4        1263        1264        1315        1314
         4        1264        1265        1316        1315
         4        1265        1266        1317        1316
         4        1266        1267        1318        1317
         4        1267        1268        1319        1318
         4        1268        1269        1320        1319
         4        1269        1270        1321        1320
         4        1270        1271        1322        1321
         4        1271        1272        1323        1322
         4        1272        1273        1324        1323
         4        1273        1274        1325        1324
         4        1275        1276        1327        1326
         4        1276        1277        1328        1327
         4        1277        1278        1329        1328
         4        1278        1279        1330        1329
         4        1279        1280        1331        1330
         4        1280        1281        1332        1331
         4        1281        1282        1333        1332
         4        1282        1283        1334        1333
         4        1283        1284        1335        1334
         4        1284        1285        1336        1335
         4        1285        1286        1337        1336
         4        1286        1287        1338        1337
         4        1287        1288        1339        1338
         4        1288        1289        1340        1339
         4        1289        1290        1341        1340
         4        1290        1291        1342        1341
         4        1291        1292        1343        1342
         4        1292        1293        1344        1343
         4        1293        1294        1345        1344
         4        1294        1295        1346        1345
         4        1295        1296        1347        1346
         4        1296        1297        1348        1347
         4        1297        1298        1349        1348
         4        1298        1299        1350        1349
         4        1299        1300        1351        1350
         4        1300        1301        1352        1351
         4        1301        1302        1353        1352
         4        1302        1303        1354        1353
         4        1303        1304        1355        1354
         4        1304        1305        1356        1355
         4        1305        1306        1357        1356
         4        1306        1307        1358        1357
         4        1307        1308        1359        1358
         4        1308        1309        1360        1359
         4        1309        1310        1361        1360
         4        1310        1311        1362        1361
         4        1311        1312        1363        1362
         4        1312        1313        1364        1363
         4        1313        1314        1365        1364
         4        1314        1315        1366        1365
         4        1315        1316        1367        1366
         4        1316        1317        1368        1367
         4        1317        1318        1369        1368
         4        1318        1319        1370        1369
         4        1319        1320        1371        1370
         4        1320        1321        1372        1371
         4        1321        1322        1373        1372
         4        1322        1323        1374        1373
         4        1323        1324        1375        1374
         4        1324        1325        1376        1375
         4        1326        1327        1378        1377
         4        1327        1328        1379        1378
         4        1328        1329        1380        1379
         4        1329        1330        1381        1380
         4        1330        1331        1382        1381
         4        1331        1332        1383        1382
         4        1332        1333        1384        1383
         4        1333        1334        1385        1384
         4        1334        1335        1386        1385
         4        1335        1336        1387        1386
         4        1336        1337        1388        1387
         4        1337        1338        1389        1388
         4        1338        1339        1390        1389
         4        1339        1340        1391        1390
         4        1340        1341        1392        1391
         4        1341        1342        1393        1392
         4        1342        1343        1394        1393
         4        1343        1344        1395        1394
         4        1344        1345        1396        1395
         4        1345        1346        1397        1396
         4        1346        1347        1398        1397
         4        1347        1348        1399        1398
         4        1348        1349        1400        1399
         4        1349        1350        1401        1400
         4        1350        1351        1402        1401
         4        1351        1352        1403        1402
         4        1352        1353        1404        1403
         4        1353        1354        1405        1404
         4        1354        1355        1406        1405
         4        1355        1356        1407        1406
         4        1356        1357        1408        1407
         4        1357        1358        1409        1408
         4        1358        1359        1410        1409
         4        1359        1360        1411        1410
         4        1360        1361        1412        1411
         4        1361        1362        1413        1412
         4        1362        1363        1414        1413
         4        1363        1364        1415        1414
         4        1364        1365        1416        1415
         4        1365        1366        1417        1416
         4        1366        1367        1418        1417
         4        1367        1368        1419        1418
         4        1368        1369        1420        1419
         4        1369        1370        1421        1420
         4        1370        1371        1422        1421
         4        1371        1372        1423        1422
         4        1372        1373        1424        1423
         4        1373        1374        1425        1424
         4        1374        1375        1426        1425
         4        1375        1376        1427        1426
         4        1377        1378        1429        1428
         4        1378        1379        1430        1429
         4        1379        1380        1431        1430
         4        1380        1381        1432        1431
         4        1381        1382        1433        1432
         4        1382        1383        1434        1433
         4        1383        1384        1435        1434
         4        1384        1385        1436        1435
         4        1385        1386        1437        1436
         4        1386        1387        1438        1437
         4        1387        1388        1439        1438
         4        1388        1389        1440        1439
         4        1389        1390        1441        1440
         4        1390        1391        1442        1441
         4        1391        1392        1443        1442
         4        1392        1393        1444        1443
         4        1393        1394        1445        1444
         4        1394        1395        1446        1445
         4        1395        1396        1447        1446
         4        1396        1397        1448        1447
         4        1397        1398        1449        1448
         4        1398        1399        1450        1449
         4        1399        1400        1451        1450
         4        1400        1401        1452        1451
         4        1401        1402        1453        1452
         4        1402        1403        1454        1453
         4        1403        1404        1455        1454
         4        1404        1405        1456        1455
         4        1405        1406        1457        1456
         4        1406        1407        1458        1457
         4        1407        1408        1459        1458
         4        1408        1409        1460        1459
         4        1409        1410        1461        1460
         4        1410        1411        1462        1461
         4        1411        1412        1463        1462
         4        1412        1413        1464        1463
         4        1413        1414        1465        1464
         4        1414        1415        1466        1465
         4        1415        1416        1467        1466
         4        1416        1417        1468        1467
         4        1417        1418        1469        1468
         4        1418        1419        1470        1469
         4        1419        1420        1471        1470
         4        1420        1421        1472        1471
         4        1421        1422        1473        1472
         4        1422        1423        1474        1473
         4        1423        1424        1475        1474
         4        1424        1425        1476        1475
         4        1425        1426        1477        1476
         4        1426        1427        1478        1477
         4        1428        1429        1480        1479
         4        1429        1430        1481        1480
         4        1430        1431        1482        1481
         4        1431        1432        1483        1482
         4        1432        1433        1484        1483
         4        1433        1434        1485        1484
         4        1434        1435        1486        1485
         4        1435        1436        1487        1486
         4        1436        1437        1488        1487
         4        1437        1438        1489        1488
         4        1438        1439        1490        1489
         4        1439        1440        1491        1490
         4        1440        1441        1492        1491
         4        1441        1442        1493        1492
         4        1442        1443        1494        1493
         4        1443        1444        1495        1494
         4        1444        1445        1496        1495
         4        1445        1446        1497        1496
         4        1446        1447        1498        1497
         4        1447        1448        1499        1498
         4        1448        1449        1500        1499
         4        1449        1450        1501        1500
         4        1450        1451        1502        1501
         4        1451        1452        1503        1502
         4        1452        1453        1504        1503
         4        1453        1454        1505        1504
         4        1454        1455        1506        1505
         4        1455        1456        1507        1506
         4        1456        1457        1508        1507
         4        1457        1458        1509        1508
         4        1458        1459        1510        1509
         4        1459        1460        1511        1510
         4        1460        1461        1512        1511
         4        1461        1462        1513        1512
         4        1462        1463        1514        1513
         4        1463        1464        1515        1514
         4        1464        1465        1516        1515
         4        1465        1466        1517        1516
         4        1466        1467        1518        1517
         4        1467        1468        1519        1518
         4        1468        1469        1520        1519
         4        1469        1470        1521        1520
         4        1470        1471        1522        1521
         4        1471        1472        1523        1522
         4        1472        1473        1524        1523
         4        1473        1474        1525        1524
         4        1474        1475        1526        1525
         4        1475        1476        1527        1526
         4        1476        1477        1528        1527
         4        1477        1478        1529        1528
         4        1479        1480        1531        1530
         4        1480        1481        1532        1531
         4        1481        1482        1533        1532
         4        1482        1483        1534        1533
         4        1483        1484        1535        1534
         4        1484        1485        1536        1535
         4        1485        1486        1537        1536
         4        1486        1487        1538        1537
         4        1487        1488        1539        1538
         4        1488        1489        1540        1539
         4        1489        1490        1541        1540
         4        1490        1491        1542        1541
         4        1491        1492        1543        1542
         4        1492        1493        1544        1543
         4        1493        1494        1545        1544
         4        1494        1495        1546        1545
         4        1495        1496        1547        1546
         4        1496        1497        1548        1547
         4        1497        1498        1549        1548
         4        1498        1499        1550        1549
         4        1499        1500        1551        1550
         4        1500        1501        1552        1551
         4        1501        1502        1553        1552
         4        1502        1503        1554        1553
         4        1503        1504        1555        1554
         4        1504        1505        1556        1555
         4        1505        1506        1557        1556
         4        1506        1507        1558        1557
         4        1507        1508        1559        1558
         4        1508        1509        1560        1559
         4        1509        1510        1561        1560
         4        1510        1511        1562        1561
         4        1511        1512        1563        1562
         4        1512        1513        1564        1563
         4        1513        1514        1565        1564
         4        1514        1515        1566        1565
         4        1515        1516        1567        1566
         4        1516        1517        1568        1567
         4        1517        1518        1569        1568
         4        1518        1519        1570        1569
         4        1519        1520        1571        1570
         4        1520        1521        1572        1571
         4        1521        1522        1573        1572
         4        1522        1523        1574        1573
         4        1523        1524        1575        1574
         4        1524        1525        1576        1575
         4        1525        1526        1577        1576
         4        1526        1527        1578        1577
         4        1527        1528        1579        1578
         4        1528        1529        1580        1579
         4        1530        1531        1582        1581
         4        1531        1532        1583        1582
         4        1532        1533        1584        1583
         4        1533        1534        1585        1584
         4        1534        1535        1586        1585
         4        1535        1536        1587        1586
         4        1536        1537        1588        1587
         4        1537        1538        1589        1588
         4        1538        1539        1590        1589
         4        1539        1540        1591        1590
         4        1540        1541        1592        1591
         4        1541        1542        1593        1592
         4        1542        1543        1594        1593
         4        1543        1544        1595        1594
         4        1544        1545        1596        1595
         4        1545        1546        1597        1596
         4        1546        1547        1598        1597
         4        1547        1548        1599        1598
         4        1548        1549        1600        1599
         4        1549        1550        1601        1600
         4        1550        1551        1602        1601
         4        1551        1552        1603        1602
         4        1552        1553        1604        1603
         4        1553        1554        1605        1604
         4        1554        1555        1606        1605
         4        1555        1556        1607        1606
         4        1556        1557        1608        1607
         4        1557        1558        1609        1608
         4        1558        1559        1610        1609
         4        1559        1560        1611        1610
         4        1560        1561        1612        1611
         4        1561        1562        1613        1612
         4        1562        1563        1614        1613
         4        1563        1564        1615        1614
         4        1564        1565        1616        1615
         4        1565        1566        1617        1616
         4        1566        1567        1618        1617
         4        1567        1568        1619        1618
         4        1568        1569        1620        1619
         4        1569        1570        1621        1620
         4        1570        1571        1622        1621
         4        1571        1572        1623        1622
         4        1572        1573        1624        1623
         4        1573        1574        1625        1624
         4        1574        1575        1626        1625
         4        1575        1576        1627        1626
         4        1576        1577        1628        1627
         4        1577        1578        1629        1628
         4        1578        1579        1630        1629
         4        1579        1580        1631        1630
         4        1581        1582        1633        1632
         4        1582        1583        1634        1633
         4        1583        1584        1635        1634
         4        1584        1585        1636        1635
         4        1585        1586        1637        1636
         4        1586        1587        1638        1637
         4        1587        1588        1639        1638
         4        1588        1589        1640        1639
         4        1589        1590        1641        1640
         4        1590        1591        1642        1641
         4        1591        1592        1643        1642
         4        1592        1593        1644        1643
         4        1593        1594        1645        1644
         4        1594        1595        1646        1645
         4        1595        1596        1647        1646
         4        1596        1597        1648        1647
         4        1597        1598        1649        1648
         4        1598        1599        1650        1649
         4        1599        1600        1651        1650
         4        1600        1601        1652        1651
         4        1601        1602        1653        1652
         4        1602        1603        1654        1653
         4        1603        1604        1655        1654
         4        1604        1605        1656        1655
         4        1605        1606        1657        1656
         4        1606        1607        1658        1657
         4        1607        1608        1659        1658
         4        1608        1609        1660        1659
         4        1609        1610        1661        1660
         4        1610        1611        1662        1661
         4        1611        1612        1663        1662
         4        1612        1613        1664        1663
         4        1613        1614        1665        1664
         4        1614        1615        1666        1665
         4        1615        1616        1667        1666
         4        1616        1617        1668        1667
         4        1617        1618        1669        1668
         4        1618        1619        1670        1669
         4        1619        1620        1671        1670
         4        1620        1621        1672        1671
         4        1621        1622        1673        1672
         4        1622        1623        1674        1673
         4        1623        1624        1675        1674
         4        1624        1625        1676        1675
         4        1625        1626        1677        1676
         4        1626        1627        1678        1677
         4        1627        1628        1679        1678
         4        1628        1629        1680        1679
         4        1629        1630        1681        1680
         4        1630        1631        1682        1681
         4        1632        1633        1684        1683
         4        1633        1634        1685        1684
         4        1634        1635        1686        1685
         4        1635        1636        1687        1686
         4        1636        1637        1688        1687
         4        1637        1638        1689        1688
         4        1638        1639        1690        1689
         4        1639        1640        1691        1690
         4        1640        1641        1692        1691
         4        1641        1642        1693        1692
         4        1642        1643        1694        1693
         4        1643        1644        1695        1694
         4        1644        1645        1696        1695
         4        1645        1646        1697        1696
         4        1646        1647        1698        1697
         4        1647        1648        1699        1698
         4        1648        1649        1700        1699
         4        1649        1650        1701        1700
         4        1650        1651        1702        1701
         4        1651        1652        1703        1702
         4        1652        1653        1704        1703
         4        1653        1654        1705        1704
         4        1654        1655        1706        1705
         4        1655        1656        1707        1706
         4        1656        1657        1708        1707
         4        1657        1658        1709        1708
         4        1658        1659        1710        1709
         4        1659        1660        1711        1710
         4        1660        1661        1712        1711
         4        1661        1662        1713        1712
         4        1662        1663        1714        1713
         4        1663        1664        1715        1714
         4        1664        1665        1716        1715
         4        1665        1666        1717        1716
         4        1666        1667        1718        1717
         4        1667        1668        1719        1718
         4        1668        1669        1720        1719
         4        1669        1670        1721        1720
         4        1670        1671        1722        1721
         4        1671        1672        1723        1722
         4        1672        1673        1724        1723
         4        1673        1674        1725        1724
         4        1674        1675        1726        1725
         4        1675        1676        1727        1726
         4        1676        1677        1728        1727
         4        1677        1678        1729        1728
         4        1678        1679        1730        1729
         4        1679        1680        1731        1730
         4        1680        1681        1732        1731
         4        1681        1682        1733        1732
         4        1683        1684        1735        1734
         4        1684        1685        1736        1735
         4        1685        1686        1737        1736
         4        1686        1687        1738        1737
         4        1687        1688        1739        1738
         4        1688        1689        1740        1739
         4        1689        1690        1741        1740
         4        1690        1691        1742        1741
         4        1691        1692        1743        1742
         4        1692        1693        1744        1743
         4        1693        1694        1745        1744
         4        1694        1695        1746        1745
         4        1695        1696        1747        1746
         4        1696        1697        1748        1747
         4        1697        1698        1749        1748
         4        1698        1699        1750        1749
         4        1699        1700        1751        1750
         4        1700        1701        1752        1751
         4        1701        1702        1753        1752
         4        1702        1703        1754        1753
         4        1703        1704        1755        1754
         4        1704        1705        1756        1755
         4        1705        1706        1757        1756
         4        1706        1707        1758        1757
         4        1707        1708        1759        1758
         4        1708        1709        1760        1759
         4        1709        1710        1761        1760
         4        1710        1711        1762        1761
         4        1711        1712        1763        1762
         4        1712        1713        1764        1763
         4        1713        1714        1765        1764
         4        1714        1715        1766        1765
         4        1715        1716        1767        1766
         4        1716        1717        1768        1767
         4        1717        1718        1769        1768
         4        1718        1719        1770        1769
         4        1719        1720        1771        1770
         4        1720        1721        1772        1771
         4        1721        1722        1773        1772
         4        1722        1723        1774        1773
         4        1723        1724        1775        1774
         4        1724        1725        1776        1775
         4        1725        1726        1777        1776
         4        1726        1727        1778        1777
         4        1727        1728        1779        1778
         4        1728        1729        1780        1779
         4        1729        1730        1781        1780
         4        1730        1731        1782        1781
         4        1731        1732        1783        1782
         4        1732        1733        1784        1783
         4        1734        1735        1786        1785
         4        1735        1736        1787        1786
         4        1736        1737        1788        1787
         4        1737        1738        1789        1788
         4        1738        1739        1790        1789
         4        1739        1740        1791        1790
         4        1740        1741        1792        1791
         4        1741        1742        1793        1792
         4        1742        1743        1794        1793
         4        1743        1744        1795        1794
         4        1744        1745        1796        1795
         4        1745        1746        1797        1796
         4        1746        1747        1798        1797
         4        1747        1748        1799        1798
         4        1748        1749        1800        1799
         4        1749        1750        1801        1800
         4        1750        1751        1802        1801
         4        1751        1752        1803        1802
         4        1752        1753        1804        1803
         4        1753        1754        1805        1804
         4        1754        1755        1806        1805
         4        1755        1756        1807        1806
         4        1756        1757        1808        1807
         4        1757        1758        1809        1808
         4        1758        1759        1810        1809
         4        1759        1760        1811        1810
         4        1760        1761        1812        1811
         4        1761        1762        1813        1812
         4        1762        1763        1814        1813
         4        1763        1764        1815        1814
         4        1764        1765        1816        1815
         4        1765        1766        1817        1816
         4        1766        1767        1818        1817
         4        1767        1768        1819        1818
         4        1768        1769        1820        1819
         4        1769        1770        1821        1820
         4        1770        1771        1822        1821
         4        1771        1772        1823        1822
         4        1772        1773        1824        1823
         4        1773        1774        1825        1824
         4        1774        1775        1826        1825
         4        1775        1776        1827        1826
         4        1776        1777        1828        1827
         4        1777        1778        1829        1828
         4        1778        1779        1830        1829
         4        1779        1780        1831        1830
         4        1780        1781        1832        1831
         4        1781        1782        1833        1832
         4        1782        1783        1834        1833
         4        1783        1784        1835        1834
         4        1785        1786        1837        1836
         4        1786        1787        1838        1837
         4        1787        1788        1839        1838
         4        1788        1789        1840        1839
         4        1789        1790        1841        1840
         4        1790        1791        1842        1841
         4        1791        1792        1843        1842
         4        1792        1793        1844        1843
         4        1793        1794        1845        1844
         4        1794        1795        1846        1845
         4        1795        1796        1847        1846
         4        1796        1797        1848        1847
         4        1797        1798        1849        1848
         4        1798        1799        1850        1849
         4        1799        1800        1851        1850
         4        1800        1801        1852        1851
         4        1801        1802        1853        1852
         4        1802        1803        1854        1853
         4        1803        1804        1855        1854
         4        1804        1805        1856        1855
         4        1805        1806        1857        1856
         4        1806        1807        1858        1857
         4        1807        1808        1859        1858
         4        1808        1809        1860        1859
         4        1809        1810        1861        1860
         4        1810        1811        1862        1861
         4        1811        1812        1863        1862
         4        1812        1813        1864        1863
         4        1813        1814        1865        1864
         4        1814        1815        1866        1865
         4        1815        1816        1867        1866
         4        1816        1817        1868        1867
         4        1817        1818        1869        1868
         4        1818        1819        1870        1869
         4        1819        1820        1871        1870
         4        1820        1821        1872        1871
         4        1821        1822        1873        1872
         4        1822        1823        1874        1873
         4        1823        1824        1875        1874
         4        1824        1825        1876        1875
         4        1825        1826        1877        1876
         4        1826        1827        1878        1877
         4        1827        1828        1879        1878
         4        1828        1829        1880        1879
         4        1829        1830        1881        1880
         4        1830        1831        1882        1881
         4        1831        1832        1883        1882
         4        1832        1833        1884        1883
         4        1833        1834        1885        1884
         4        1834        1835        1886        1885
         4        1836        1837        1888        1887
         4        1837        1838        1889        1888
         4        1838        1839        1890        1889
         4        1839        1840        1891        1890
         4        1840        1841        1892        1891
         4        1841        1842        1893        1892
         4        1842        1843        1894        1893
         4        1843        1844        1895        1894
         4        1844        1845        1896        1895
         4        1845        1846        1897        1896
         4        1846        1847        1898        1897
         4        1847        1848        1899        1898
         4        1848        1849        1900        1899
         4        1849        1850        1901        1900
         4        1850        1851        1902        1901
         4        1851        1852        1903        1902
         4        1852        1853        1904        1903
         4        1853        1854        1905        1904
         4        1854        1855        1906        1905
         4        1855        1856        1907        1906
         4        1856        1857        1908        1907
         4        1857        1858        1909        1908
         4        1858        1859        1910        1909
         4        1859        1860        1911        1910
         4        1860        1861        1912        1911
         4        1861        1862        1913        1912
         4        1862        1863        1914        1913
         4        1863        1864        1915        1914
         4        1864        1865        1916        1915
         4        1865        1866        1917        1916
         4        1866        1867        1918        1917
         4        1867        1868        1919        1918
         4        1868        1869        1920        1919
         4        1869        1870        1921        1920
         4        1870        1871        1922        1921
         4        1871        1872        1923        1922
         4        1872        1873        1924        1923
         4        1873        1874        1925        1924
         4        1874        1875        1926        1925
         4        1875        1876        1927        1926
         4        1876        1877        1928        1927
         4        1877        1878        1929        1928
         4        1878        1879        1930        1929
         4        1879        1880        1931        1930
         4        1880        1881        1932        1931
         4        1881        1882        1933        1932
         4        1882        1883        1934        1933
         4        1883        1884        1935        1934
         4        1884        1885        1936        1935
         4        1885        1886        1937        1936
         4        1887        1888        1939        1938
         4        1888        1889        1940        1939
         4        1889        1890        1941        1940
         4        1890        1891        1942        1941
         4        1891        1892        1943        1942
         4        1892        1893        1944        1943
         4        1893        1894        1945        1944
         4        1894        1895        1946        1945
         4        1895        1896        1947        1946
         4        1896        1897        1948        1947
         4        1897        1898        1949        1948
         4        1898        1899        1950        1949
         4        1899        1900        1951        1950
         4        1900        1901        1952        1951
         4        1901        1902        1953        1952
         4        1902        1903        1954        1953
         4        1903        1904        1955        1954
         4        1904        1905        1956        1955
         4        1905        1906        1957        1956
         4        1906        1907        1958        1957
         4        1907        1908        1959        1958
         4        1908        1909        1960        1959
         4        1909        1910        1961        1960
         4        1910        1911        1962        1961
         4        1911        1912        1963        1962
         4        1912        1913        1964        1963
         4        1913        1914        1965        1964
         4        1914        1915        1966        1965
         4        1915        1916        1967        1966
         4        1916        1917        1968        1967
         4        1917        1918        1969        1968
         4        1918        1919        1970        1969
         4        1919        1920        1971        1970
         4        1920        1921        1972        1971
         4        1921        1922        1973        1972
         4        1922        1923        1974        1973
         4        1923        1924        1975        1974
         4        1924        1925        1976        1975
         4        1925        1926        1977        1976
         4        1926        1927        1978        1977
         4        1927        1928        1979        1978
         4        1928        1929        1980        1979
         4        1929        1930        1981        1980
         4        1930        1931        1982        1981
         4        1931        1932        1983        1982
         4        1932        1933        1984        1983
         4        1933        1934        1985        1984
         4        1934        1935        1986        1985
         4        1935        1936        1987        1986
         4        1936        1937        1988        1987
         4        1938        1939        1990        1989
         4        1939        1940        1991        1990
         4        1940        1941        1992        1991
         4        1941        1942        1993        1992
         4        1942        1943        1994        1993
         4        1943        1944        1995        1994
         4        1944        1945        1996        1995
         4        1945        1946        1997        1996
         4        1946        1947        1998        1997
         4        1947        1948        1999        1998
         4        1948        1949        2000        1999
         4        1949        1950        2001        2000
         4        1950        1951        2002        2001
         4        1951        1952        2003        2002
         4        1952        1953        2004        2003
         4        1953        1954        2005        2004
         4        1954        1955        2006        2005
         4        1955        1956        2007        2006
         4        1956        1957        2008        2007
         4        1957        1958        2009        2008
         4        1958        1959        2010        2009
         4        1959        1960        2011        2010
         4        1960        1961        2012        2011
         4        1961        1962        2013        2012
         4        1962        1963        2014        2013
         4        1963        1964        2015        2014
         4        1964        1965        2016        2015
         4        1965        1966        2017        2016
         4        1966        1967        2018        2017
         4        1967        1968        2019        2018
         4        1968        1969        2020        2019
         4        1969        1970        2021        2020
         4        1970        1971        2022        2021
         4        1971        1972        2023        2022
         4        1972        1973        2024        2023
         4        1973        1974        2025        2024
         4        1974        1975        2026        2025
         4        1975        1976        2027        2026
         4        1976        1977        2028        2027
         4        1977        1978        2029        2028
         4        1978        1979        2030        2029
         4        1979        1980        2031        2030
         4        1980        1981        2032        2031
         4        1981        1982        2033        2032
         4        1982        1983        2034        2033
         4        1983        1984        2035        2034
         4        1984        1985        2036        2035
         4        1985        1986        2037        2036
         4        1986        1987        2038        2037
         4        1987        1988        2039        2038
         4        1989        1990        2041        2040
         4        1990        1991        2042        2041
         4        1991        1992        2043        2042
         4        1992        1993        2044        2043
         4        1993        1994        2045        2044
         4        1994        1995        2046        2045
         4        1995        1996        2047        2046
         4        1996        1997        2048        2047
         4        1997        1998        2049        2048
         4        1998        1999        2050        2049
         4        1999        2000        2051        2050
         4        2000        2001        2052        2051
         4        2001        2002        2053        2052
         4        2002        2003        2054        2053
         4        2003        2004        2055        2054
         4        2004        2005        2056        2055
         4        2005        2006        2057        2056
         4        2006        2007        2058        2057
         4        2007        2008        2059        2058
         4        2008        2009        2060        2059
         4        2009        2010        2061        2060
         4        2010        2011        2062        2061
         4        2011        2012        2063        2062
         4        2012        2013        2064        2063
         4        2013        2014        2065        2064
         4        2014        2015        2066        2065
         4        2015        2016        2067        2066
         4        2016        2017        2068        2067
         4        2017        2018        2069        2068
         4        2018        2019        2070        2069
         4        2019        2020        2071        2070
         4        2020        2021        2072        2071
         4        2021        2022        2073        2072
         4        2022        2023        2074        2073
         4        2023        2024        2075        2074
         4        2024        2025        2076        2075
         4        2025        2026        2077        2076
         4        2026        2027        2078        2077
         4        2027        2028        2079        2078
         4        2028        2029        2080        2079
         4        2029        2030        2081        2080
         4        2030        2031        2082        2081
         4        2031        2032        2083        2082
         4        2032        2033        2084        2083
         4        2033        2034        2085        2084
         4        2034        2035        2086        2085
         4        2035        2036        2087        2086
         4        2036        2037        2088        2087
         4        2037        2038        2089        2088
         4        2038        2039        2090        2089
         4        2040        2041        2092        2091
         4        2041        2042        2093        2092
         4        2042        2043        2094        2093
         4        2043        2044        2095        2094
         4        2044        2045        2096        2095
         4        2045        2046        2097        2096
         4        2046        2047        2098        2097
         4        2047        2048        2099        2098
         4        2048        2049        2100        2099
         4        2049        2050        2101        2100
         4        2050        2051        2102        2101
         4        2051        2052        2103        2102
         4        2052        2053        2104        2103
         4        2053        2054        2105        2104
         4        2054        2055        2106        2105
         4        2055        2056        2107        2106
         4        2056        2057        2108        2107
         4        2057        2058        2109        2108
         4        2058        2059        2110        2109
         4        2059        2060        2111        2110
         4        2060        2061        2112        2111
         4        2061        2062        2113        2112
         4        2062        2063        2114        2113
         4        2063        2064        2115        2114
         4        2064        2065        2116        2115
         4        2065        2066        2117        2116
         4        2066        2067        2118        2117
         4        2067        2068        2119        2118
         4        2068        2069        2120        2119
         4        2069        2070        2121        2120
         4        2070        2071        2122        2121
         4        2071        2072        2123        2122
         4        2072        2073        2124        2123
         4        2073        2074        2125        2124
         4        2074        2075        2126        2125
         4        2075        2076        2127        2126
         4        2076        2077        2128        2127
         4        2077        2078        2129        2128
         4        2078        2079        2130        2129
         4        2079        2080        2131        2130
         4        2080        2081        2132        2131
         4        2081        2082        2133        2132
         4        2082        2083        2134        2133
         4        2083        2084        2135        2134
         4        2084        2085        2136        2135
         4        2085        2086        2137        2136
         4        2086        2087        2138        2137
         4        2087        2088        2139        2138
         4        2088        2089        2140        2139
         4        2089        2090        2141        2140
         4        2091        2092        2143        2142
         4        2092        2093        2144        2143
         4        2093        2094        2145        2144
         4        2094        2095        2146        2145
         4        2095        2096        2147        2146
         4        2096        2097        2148        2147
         4        2097        2098        2149        2148
         4        2098        2099        2150        2149
         4        2099        2100        2151        2150
         4        2100        2101        2152        2151
         4        2101        2102        2153        2152
         4        2102        2103        2154        2153
         4        2103        2104        2155        2154
         4        2104        2105        2156        2155
         4        2105        2106        2157        2156
         4        2106        2107        2158        2157
         4        2107        2108        2159        2158
         4        2108        2109        2160        2159
         4        2109        2110        2161        2160
         4        2110        2111        2162        2161
         4        2111        2112        2163        2162
         4        2112        2113        2164        2163
         4        2113        2114        2165        2164
         4        2114        2115        2166        2165
         4        2115        2116        2167        2166
         4        2116        2117        2168        2167
         4        2117        2118        2169        2168
         4        2118        2119        2170        2169
         4        2119        2120        2171        2170
         4        2120        2121        2172        2171
         4        2121        2122        2173        2172
         4        2122        2123        2174        2173
         4        2123        2124        2175        2174
         4        2124        2125        2176        2175
         4        2125        2126        2177        2176
         4        2126        2127        2178        2177
         4        2127        2128        2179        2178
         4        2128        2129        2180        2179
         4        2129        2130        2181        2180
         4        2130        2131        2182        2181
         4        2131        2132        2183        2182
         4        2132        2133        2184        2183
         4        2133        2134        2185        2184
         4        2134        2135        2186        2185
         4        2135        2136        2187        2186
         4        2136        2137        2188        2187
         4        2137        2138        2189        2188
         4        2138        2139        2190        2189
         4        2139        2140        2191        2190
         4        2140        2141        2192        2191
         4        2142        2143        2194        2193
         4        2143        2144        2195        2194
         4        2144        2145        2196        2195
         4        2145        2146        2197        2196
         4        2146        2147        2198        2197
         4        2147        2148        2199        2198
         4        2148        2149        2200        2199
         4        2149        2150        2201        2200
         4        2150        2151        2202        2201
         4        2151        2152        2203        2202
         4        2152        2153        2204        2203
         4        2153        2154        2205        2204
         4        2154        2155        2206        2205
         4        2155        2156        2207        2206
         4        2156        2157        2208        2207
         4        2157        2158        2209        2208
         4        2158        2159        2210        2209
         4        2159        2160        2211        2210
         4        2160        2161        2212        2211
         4        2161        2162        2213        2212
         4        2162        2163        2214        2213
         4        2163        2164        2215        2214
         4        2164        2165        2216        2215
         4        2165        2166        2217        2216
         4        2166        2167        2218        2217
         4        2167        2168        2219        2218
         4        2168        2169        2220        2219
         4        2169        2170        2221        2220
         4        2170        2171        2222        2221
         4        2171        2172        2223        2222
         4        2172        2173        2224        2223
         4        2173        2174        2225        2224
         4        2174        2175        2226        2225
         4        2175        2176        2227        2226
         4        2176        2177        2228        2227
         4        2177        2178        2229        2228
         4        2178        2179        2230        2229
         4        2179        2180        2231        2230
         4        2180        2181        2232        2231
         4        2181        2182        2233        2232
         4        2182        2183        2234        2233
         4        2183        2184        2235        2234
         4        2184        2185        2236        2235
         4        2185        2186        2237        2236
         4        2186        2187        2238        2237
         4        2187        2188        2239        2238
         4        2188        2189        2240        2239
         4        2189        2190        2241        2240
         4        2190        2191        2242        2241
         4        2191        2192        2243        2242
         4        2193        2194        2245        2244
         4        2194        2195        2246        2245
         4        2195        2196        2247        2246
         4        2196        2197        2248        2247
         4        2197        2198        2249        2248
         4        2198        2199        2250        2249
         4        2199        2200        2251        2250
         4        2200        2201        2252        2251
         4        2201        2202        2253        2252
         4        2202        2203        2254        2253
         4        2203        2204        2255        2254
         4        2204        2205        2256        2255
         4        2205        2206        2257        2256
         4        2206        2207        2258        2257
         4        2207        2208        2259        2258
         4        2208        2209        2260        2259
         4        2209        2210        2261        2260
         4        2210        2211        2262        2261
         4        2211        2212        2263        2262
         4        2212        2213        2264        2263
         4        2213        2214        2265        2264
         4        2214        2215        2266        2265
         4        2215        2216        2267        2266
         4        2216        2217        2268        2267
         4        2217        2218        2269        2268
         4        2218        2219        2270        2269
         4        2219        2220        2271        2270
         4        2220        2221        2272        2271
         4        2221        2222        2273        2272
         4        2222        2223        2274        2273
         4        2223        2224        2275        2274
         4        2224        2225        2276        2275
         4        2225        2226        2277        2276
         4        2226        2227        2278        2277
         4        2227        2228        2279        2278
         4        2228        2229        2280        2279
         4        2229        2230        2281        2280
         4        2230        2231        2282        2281
         4        2231        2232        2283        2282
         4        2232        2233        2284        2283
         4        2233        2234        2285        2284
         4        2234        2235        2286        2285
         4        2235        2236        2287        2286
         4        2236        2237        2288        2287
         4        2237        2238        2289        2288
         4        2238        2239        2290        2289
         4        2239        2240        2291        2290
         4        2240        2241        2292        2291
         4        2241        2242        2293        2292
         4        2242        2243        2294        2293
         4        2244        2245        2296        2295
         4        2245        2246        2297        2296
         4        2246        2247        2298        2297
         4        2247        2248        2299        2298
         4        2248        2249        2300        2299
         4        2249        2250        2301        2300
         4        2250        2251        2302        2301
         4        2251        2252        2303        2302
         4        2252        2253        2304        2303
         4        2253        2254        2305        2304
         4        2254        2255        2306        2305
         4        2255        2256        2307        2306
         4        2256        2257        2308        2307
         4        2257        2258        2309        2308
         4        2258        2259        2310        2309
         4        2259        2260        2311        2310
         4        2260        2261        2312        2311
         4        2261        2262        2313        2312
         4        2262        2263        2314        2313
         4        2263        2264        2315        2314
         4        2264        2265        2316        2315
         4        2265        2266        2317        2316
         4        2266        2267        2318        2317
         4        2267        2268        2319        2318
         4        2268        2269        2320        2319
         4        2269        2270        2321        2320
         4        2270        2271        2322        2321
         4        2271        2272        2323        2322
         4        2272        2273        2324        2323
         4        2273        2274        2325        2324
         4        2274        2275        2326        2325
         4        2275        2276        2327        2326
         4        2276        2277        2328        2327
         4        2277        2278        2329        2328
         4        2278        2279        2330        2329
         4        2279        2280        2331        2330
         4        2280        2281        2332        2331
         4        2281        2282        2333        2332
         4        2282        2283        2334        2333
         4        2283        2284        2335        2334
         4        2284        2285        2336        2335
         4        2285        2286        2337        2336
         4        2286        2287        2338        2337
         4        2287        2288        2339        2338
         4        2288        2289        2340        2339
         4        2289        2290        2341        2340
         4        2290        2291        2342        2341
         4        2291        2292        2343        2342
         4        2292        2293        2344        2343
         4        2293        2294        2345        2344
         4        2295        2296        2347        2346
         4        2296        2297        2348        2347
         4        2297        2298        2349        2348
         4        2298        2299        2350        2349
         4        2299        2300        2351        2350
         4        2300        2301        2352        2351
         4        2301        2302        2353        2352
         4        2302        2303        2354        2353
         4        2303        2304        2355        2354
         4        2304        2305        2356        2355
         4        2305        2306        2357        2356
         4        2306        2307        2358        2357
         4        2307        2308        2359        2358
         4        2308        2309        2360        2359
         4        2309        2310        2361        2360
         4        2310        2311        2362        2361
         4        2311        2312        2363        2362
         4        2312        2313        2364        2363
         4        2313        2314        2365        2364
         4        2314        2315        2366        2365
         4        2315        2316        2367        2366
         4        2316        2317        2368        2367
         4        2317        2318        2369        2368
         4        2318        2319        2370        2369
         4        2319        2320        2371        2370
         4        2320        2321        2372        2371
         4        2321        2322        2373        2372
         4        2322        2323        2374        2373
         4        2323        2324        2375        2374
         4        2324        2325        2376        2375
         4        2325        2326        2377        2376
         4        2326        2327        2378        2377
         4        2327        2328        2379        2378
         4        2328        2329        2380        2379
         4        2329        2330        2381        2380
         4        2330        2331        2382        2381
         4        2331        2332        2383        2382
         4        2332        2333        2384        2383
         4        2333        2334        2385        2384
         4        2334        2335        2386        2385
         4        2335        2336        2387        2386
         4        2336        2337        2388        2387
         4        2337        2338        2389        2388
         4        2338        2339        2390        2389
         4        2339        2340        2391        2390
         4        2340        2341        2392        2391
         4        2341        2342        2393        2392
         4        2342        2343        2394        2393
         4        2343        2344        2395        2394
         4        2344        2345        2396        2395
         4        2346        2347        2398        2397
         4        2347        2348        2399        2398
         4        2348        2349        2400        2399
         4        2349        2350        2401        2400
         4        2350        2351        2402        2401
         4        2351        2352        2403        2402
         4        2352        2353        2404        2403
         4        2353        2354        2405        2404
         4        2354        2355        2406        2405
         4        2355        2356        2407        2406
         4        2356        2357        2408        2407
         4        2357        2358        2409        2408
         4        2358        2359        2410        2409
         4        2359        2360        2411        2410
         4        2360        2361        2412        2411
         4        2361        2362        2413        2412
         4        2362        2363        2414        2413
         4        2363        2364        2415        2414
         4        2364        2365        2416        2415
         4        2365        2366        2417        2416
         4        2366        2367        2418        2417
         4        2367        2368        2419        2418
         4        2368        2369        2420        2419
         4        2369        2370        2421        2420
         4        2370        2371        2422        2421
         4        2371        2372        2423        2422
         4        2372        2373        2424        2423
         4        2373        2374        2425        2424
         4        2374        2375        2426        2425
         4        2375        2376        2427        2426
         4        2376        2377        2428        2427
         4        2377        2378        2429        2428
         4        2378        2379        2430        2429
         4        2379        2380        2431        2430
         4        2380        2381        2432        2431
         4        2381        2382        2433        2432
         4        2382        2383        2434        2433
         4        2383        2384        2435        2434
         4        2384        2385        2436        2435
         4        2385        2386        2437        2436
         4        2386        2387        2438        2437
         4        2387        2388        2439        2438
         4        2388        2389        2440        2439
         4        2389        2390        2441        2440
         4        2390        2391        2442        2441
         4        2391        2392        2443        2442
         4        2392        2393        2444        2443
         4        2393        2394        2445        2444
         4        2394        2395        2446        2445
         4        2395        2396        2447        2446
         4        2397        2398        2449        2448
         4        2398        2399        2450        2449
         4        2399        2400        2451        2450
         4        2400        2401        2452        2451
         4        2401        2402        2453        2452
         4        2402        2403        2454        2453
         4        2403        2404        2455        2454
         4        2404        2405        2456        2455
         4        2405        2406        2457        2456
         4        2406        2407        2458        2457
         4        2407        2408        2459        2458
         4        2408        2409        2460        2459
         4        2409        2410        2461        2460
         4        2410        2411        2462        2461
         4        2411        2412        2463        2462
         4        2412        2413        2464        2463
         4        2413        2414        2465        2464
         4        2414        2415        2466        2465
         4        2415        2416        2467        2466
         4        2416        2417        2468        2467
         4        2417        2418        2469        2468
         4        2418        2419        2470        2469
         4        2419        2420        2471        2470
         4        2420        2421        2472        2471
         4        2421        2422        2473        2472
         4        2422        2423        2474        2473
         4        2423        2424        2475        2474
         4        2424        2425        2476        2475
         4        2425        2426        2477        2476
         4        2426        2427        2478        2477
         4        2427        2428        2479        2478
         4        2428        2429        2480        2479
         4        2429        2430        2481        2480
         4        2430        2431        2482        2481
         4        2431        2432        2483        2482
         4        2432        2433        2484        2483
         4        2433        2434        2485        2484
         4        2434        2435        2486        2485
         4        2435        2436        2487        2486
         4        2436        2437        2488        2487
         4        2437        2438        2489        2488
         4        2438        2439        2490        2489
         4        2439        2440        2491        2490
         4        2440        2441        2492        2491
         4        2441        2442        2493        2492
         4        2442        2443        2494        2493
         4        2443        2444        2495        2494
         4        2444        2445        2496        2495
         4        2445        2446        2497        2496
         4        2446        2447        2498        2497
         4        2448        2449        2500        2499
         4        2449        2450        2501        2500
         4        2450        2451        2502        2501
         4        2451        2452        2503        2502
         4        2452        2453        2504        2503
         4        2453        2454        2505        2504
         4        2454        2455        2506        2505
         4        2455        2456        2507        2506
         4        2456        2457        2508        2507
         4        2457        2458        2509        2508
         4        2458        2459        2510        2509
         4        2459        2460        2511        2510
         4        2460        2461        2512        2511
         4        2461        2462        2513        2512
         4        2462        2463        2514        2513
         4        2463        2464        2515        2514
         4        2464        2465        2516        2515
         4        2465        2466        2517        2516
         4        2466        2467        2518        2517
         4        2467        2468        2519        2518
         4        2468        2469        2520        2519
         4        2469        2470        2521        2520
         4        2470        2471        2522        2521
         4        2471        2472        2523        2522
         4        2472        2473        2524        2523
         4        2473        2474        2525        2524
         4        2474        2475        2526        2525
         4        2475        2476        2527        2526
         4        2476        2477        2528        2527
         4        2477        2478        2529        2528
         4        2478        2479        2530        2529
         4        2479        2480        2531        2530
         4        2480        2481        2532        2531
         4        2481        2482        2533        2532
         4        2482        2483        2534        2533
         4        2483        2484        2535        2534
         4        2484        2485        2536        2535
         4        2485        2486        2537        2536
         4        2486        2487        2538        2537
         4        2487        2488        2539        2538
         4        2488        2489        2540        2539
         4        2489        2490        2541        2540
         4        2490        2491        2542        2541
         4        2491        2492        2543        2542
         4        2492        2493        2544        2543
         4        2493        2494        2545        2544
         4        2494        2495        2546        2545
         4        2495        2496        2547        2546
         4        2496        2497        2548        2547
         4        2497        2498        2549        2548
         4        2499        2500        2551        2550
         4        2500        2501        2552        2551
         4        2501        2502        2553        2552
         4        2502        2503        2554        2553
         4        2503        2504        2555        2554
         4        2504        2505        2556        2555
         4        2505        2506        2557        2556
         4        2506        2507        2558        2557
         4        2507        2508        2559        2558
         4        2508        2509        2560        2559
         4        2509        2510        2561        2560
         4        2510        2511        2562        2561
         4        2511        2512        2563        2562
         4        2512        2513        2564        2563
         4        2513        2514        2565        2564
         4        2514        2515        2566        2565
         4        2515        2516        2567        2566
         4        2516        2517        2568        2567
         4        2517        2518        2569        2568
         4        2518        2519        2570        2569
         4        2519        2520        2571        2570
         4        2520        2521        2572        2571
         4        2521        2522        2573        2572
         4        2522        2523        2574        2573
         4        2523        2524        2575        2574
         4        2524        2525        2576        2575
         4        2525        2526        2577        2576
         4        2526        2527        2578        2577
         4        2527        2528        2579        2578
         4        2528        2529        2580        2579
         4        2529        2530        2581        2580
         4        2530        2531        2582        2581
         4        2531        2532        2583        2582
         4        2532        2533        2584        2583
         4        2533        2534        2585        2584
         4        2534        2535        2586        2585
         4        2535        2536        2587        2586
         4        2536        2537        2588        2587
         4        2537        2538        2589        2588
         4        2538        2539        2590        2589
         4        2539        2540        2591        2590
         4        2540        2541        2592        2591
         4        2541        2542        2593        2592
         4        2542        2543        2594        2593
         4        2543        2544        2595        2594
         4        2544        2545        2596        2595
         4        2545        2546        2597        2596
         4        2546        2547        2598        2597
         4        2547        2548        2599        2598
         4        2548        2549        2600        2599
         4        2550        2551        2602        2601
         4        2551        2552        2603        2602
         4        2552        2553        2604        2603
         4        2553        2554        2605        2604
         4        2554        2555        2606        2605
         4        2555        2556        2607        2606
         4        2556        2557        2608        2607
         4        2557        2558        2609        2608
         4        2558        2559        2610        2609
         4        2559        2560        2611        2610
         4        2560        2561        2612        2611
         4        2561        2562        2613        2612
         4        2562        2563        2614        2613
         4        2563        2564        2615        2614
         4        2564        2565        2616        2615
         4        2565        2566        2617        2616
         4        2566        2567        2618        2617
         4        2567        2568        2619        2618
         4        2568        2569        2620        2619
         4        2569        2570        2621        2620
         4        2570        2571        2622        2621
         4        2571        2572        2623        2622
         4        2572        2573        2624        2623
         4        2573        2574        2625        2624
         4        2574        2575        2626        2625
         4        2575        2576        2627        2626
         4        2576        2577        2628        2627
         4        2577        2578        2629        2628
         4        2578        2579        2630        2629
         4        2579        2580        2631        2630
         4        2580        2581        2632        2631
         4        2581        2582        2633        2632
         4        2582        2583        2634        2633
         4        2583        2584        2635        2634
         4        2584        2585        2636        2635
         4        2585        2586        2637        2636
         4        2586        2587        2638        2637
         4        2587        2588        2639        2638
         4        2588        2589        2640        2639
         4        2589        2590        2641        2640
         4        2590        2591        2642        2641
         4        2591        2592        2643        2642
         4        2592        2593        2644        2643
         4        2593        2594        2645        2644
         4        2594        2595        2646        2645
         4        2595        2596        2647        2646
         4        2596        2597        2648        2647
         4        2597        2598        2649        2648
         4        2598        2599        2650        2649
         4        2599        2600        2651        2650
         4        2601        2602        2653        2652
         4        2602        2603        2654        2653
         4        2603        2604        2655        2654
         4        2604        2605        2656        2655
         4        2605        2606        2657        2656
         4        2606        2607        2658        2657
         4        2607        2608        2659        2658
         4        2608        2609        2660        2659
         4        2609        2610        2661        2660
         4        2610        2611        2662        2661
         4        2611        2612        2663        2662
         4        2612        2613        2664        2663
         4        2613        2614        2665        2664
         4        2614        2615        2666        2665
         4        2615        2616        2667        2666
         4        2616        2617        2668        2667
         4        2617        2618        2669        2668
         4        2618        2619        2670        2669
         4        2619        2620        2671        2670
         4        2620        2621        2672        2671
         4        2621        2622        2673        2672
         4        2622        2623        2674        2673
         4        2623        2624        2675        2674
         4        2624        2625        2676        2675
         4        2625        2626        2677        2676
         4        2626        2627        2678        2677
         4        2627        2628        2679        2678
         4        2628        2629        2680        2679
         4        2629        2630        2681        2680
         4        2630        2631        2682        2681
         4        2631        2632        2683        2682
         4        2632        2633        2684        2683
         4        2633        2634        2685        2684
         4        2634        2635        2686        2685
         4        2635        2636        2687        2686
         4        2636        2637        2688        2687
         4        2637        2638        2689        2688
         4        2638        2639        2690        2689
         4        2639        2640        2691        2690
         4        2640        2641        2692        2691
         4        2641        2642        2693        2692
         4        2642        2643        2694        2693
         4        2643        2644        2695        2694
         4        2644        2645        2696        2695
         4        2645        2646        2697        2696
         4        2646        2647        2698        2697
         4        2647        2648        2699        2698
         4        2648        2649        2700        2699
         4        2649        2650        2701        2700
         4        2650        2651        2702        2701
         4        2652        2653        2704        2703
         4        2653        2654        2705        2704
         4        2654        2655        2706        2705
         4        2655        2656        2707        2706
         4        2656        2657        2708        2707
         4        2657        2658        2709        2708
         4        2658        2659        2710        2709
         4        2659        2660        2711        2710
         4        2660        2661        2712        2711
         4        2661        2662        2713        2712
         4        2662        2663        2714        2713
         4        2663        2664        2715        2714
         4        2664        2665        2716        2715
         4        2665        2666        2717        2716
         4        2666        2667        2718        2717
         4        2667        2668        2719        2718
         4        2668        2669        2720        2719
         4        2669        2670        2721        2720
         4        2670        2671        2722        2721
         4        2671        2672        2723        2722
         4        2672        2673        2724        2723
         4        2673        2674        2725        2724
         4        2674        2675        2726        2725
         4        2675        2676        2727        2726
         4        2676        2677        2728        2727
         4        2677        2678        2729        2728
         4        2678        2679        2730        2729
         4        2679        2680        2731        2730
         4        2680        2681        2732        2731
         4        2681        2682        2733        2732
         4        2682        2683        2734        2733
         4        2683        2684        2735        2734
         4        2684        2685        2736        2735
         4        2685        2686        2737        2736
         4        2686        2687        2738        2737
         4        2687        2688        2739        2738
         4        2688        2689        2740        2739
         4        2689        2690        2741        2740
         4        2690        2691        2742        2741
         4        2691        2692        2743        2742
         4        2692        2693        2744        2743
         4        2693        2694        2745        2744
         4        2694        2695        2746        2745
         4        2695        2696        2747        2746
         4        2696        2697        2748        2747
         4        2697        2698        2749        2748
         4        2698        2699        2750        2749
         4        2699        2700        2751        2750
         4        2700        2701        2752        2751
         4        2701        2702        2753        2752
         4        2703        2704        2755        2754
         4        2704        2705        2756        2755
         4        2705        2706        2757        2756
         4        2706        2707        2758        2757
         4        2707        2708        2759        2758
         4        2708        2709        2760        2759
         4        2709        2710        2761        2760
         4        2710        2711        2762        2761
         4        2711        2712        2763        2762
         4        2712        2713        2764        2763
         4        2713        2714        2765        2764
         4        2714        2715        2766        2765
         4        2715        2716        2767        2766
         4        2716        2717        2768        2767
         4        2717        2718        2769        2768
         4        2718        2719        2770        2769
         4        2719        2720        2771        2770
         4        2720        2721        2772        2771
         4        2721        2722        2773        2772
         4        2722        2723        2774        2773
         4        2723        2724        2775        2774
         4        2724        2725        2776        2775
         4        2725        2726        2777        2776
         4        2726        2727        2778        2777
         4        2727        2728        2779        2778
         4        2728        2729        2780        2779
         4        2729        2730        2781        2780
         4        2730        2731        2782        2781
         4        2731        2732        2783        2782
         4        2732        2733        2784        2783
         4        2733        2734        2785        2784
         4        2734        2735        2786        2785
         4        2735        2736        2787        2786
         4        2736        2737        2788        2787
         4        2737        2738        2789        2788
         4        2738        2739        2790        2789
         4        2739        2740        2791        2790
         4        2740        2741        2792        2791
         4        2741        2742        2793        2792
         4        2742        2743        2794        2793
         4        2743        2744        2795        2794
         4        2744        2745        2796        2795
         4        2745        2746        2797        2796
         4        2746        2747        2798        2797
         4        2747        2748        2799        2798
         4        2748        2749        2800        2799
         4        2749        2750        2801        2800
         4        2750        2751        2802        2801
         4        2751        2752        2803        2802
         4        2752        2753        2804        2803
         4        2754        2755        2806        2805
         4        2755        2756        2807        2806
         4        2756        2757        2808        2807
         4        2757        2758        2809        2808
         4        2758        2759        2810        2809
         4        2759        2760        2811        2810
         4        2760        2761        2812        2811
         4        2761        2762        2813        2812
         4        2762        2763        2814        2813
         4        2763        2764        2815        2814
         4        2764        2765        2816        2815
         4        2765        2766        2817        2816
         4        2766        2767        2818        2817
         4        2767        2768        2819        2818
         4        2768        2769        2820        2819
         4        2769        2770        2821        2820
         4        2770        2771        2822        2821
         4        2771        2772        2823        2822
         4        2772        2773        2824        2823
         4        2773        2774        2825        2824
         4        2774        2775        2826        2825
         4        2775        2776        2827        2826
         4        2776        2777        2828        2827
         4        2777        2778        2829        2828
         4        2778        2779        2830        2829
         4        2779        2780        2831        2830
         4        2780        2781        2832        2831
         4        2781        2782        2833        2832
         4        2782        2783        2834        2833
         4        2783        2784        2835        2834
         4        2784        2785        2836        2835
         4        2785        2786        2837        2836
         4        2786        2787        2838        2837
         4        2787        2788        2839        2838
         4        2788        2789        2840        2839
         4        2789        2790        2841        2840
         4        2790        2791        2842        2841
         4        2791        2792        2843        2842
         4        2792        2793        2844        2843
         4        2793        2794        2845        2844
         4        2794        2795        2846        2845
         4        2795        2796        2847        2846
         4        2796        2797        2848        2847
         4        2797        2798        2849        2848
         4        2798        2799        2850        2849
         4        2799        2800        2851        2850
         4        2800        2801        2852        2851
         4        2801        2802        2853        2852
         4        2802        2803        2854        2853
         4        2803        2804        2855        2854
         4        2805        2806        2857        2856
         4        2806        2807        2858        2857
         4        2807        2808        2859        2858
         4        2808        2809        2860        2859
         4        2809        2810        2861        2860
         4        2810        2811        2862        2861
         4        2811        2812        2863        2862
         4        2812        2813        2864        2863
         4        2813        2814        2865        2864
         4        2814        2815        2866        2865
         4        2815        2816        2867        2866
         4        2816        2817        2868        2867
         4        2817        2818        2869        2868
         4        2818        2819        2870        2869
         4        2819        2820        2871        2870
         4        2820        2821        2872        2871
         4        2821        2822        2873        2872
         4        2822        2823        2874        2873
         4        2823        2824        2875        2874
         4        2824        2825        2876        2875
         4        2825        2826        2877        2876
         4        2826        2827        2878        2877
         4        2827        2828        2879        2878
         4        2828        2829        2880        2879
         4        2829        2830        2881        2880
         4        2830        2831        2882        2881
         4        2831        2832        2883        2882
         4        2832        2833        2884        2883
         4        2833        2834        2885        2884
         4        2834        2835        2886        2885
         4        2835        2836        2887        2886
         4        2836        2837        2888        2887
         4        2837        2838        2889        2888
         4        2838        2839        2890        2889
         4        2839        2840        2891        2890
         4        2840        2841        2892        2891
         4        2841        2842        2893        2892
         4        2842        2843        2894        2893
         4        2843        2844        2895        2894
         4        2844        2845        2896        2895
         4        2845        2846        2897        2896
         4        2846        2847        2898        2897
         4        2847        2848        2899        2898
         4        2848        2849        2900        2899
         4        2849        2850        2901        2900
         4        2850        2851        2902        2901
         4        2851        2852        2903        2902
         4        2852        2853        2904        2903
         4        2853        2854        2905        2904
         4        2854        2855        2906        2905
         4        2856        2857        2908        2907
         4        2857        2858        2909        2908
         4        2858        2859        2910        2909
         4        2859        2860        2911        2910
         4        2860        2861        2912        2911
         4        2861        2862        2913        2912
         4        2862        2863        2914        2913
         4        2863        2864        2915        2914
         4        2864        2865        2916        2915
         4        2865        2866        2917        2916
         4        2866        2867        2918        2917
         4        2867        2868        2919        2918
         4        2868        2869        2920        2919
         4        2869        2870        2921        2920
         4        2870        2871        2922        2921
         4        2871        2872        2923        2922
         4        2872        2873        2924        2923
         4        2873        2874        2925        2924
         4        2874        2875        2926        2925
         4        2875        2876        2927        2926
         4        2876        2877        2928        2927
         4        2877        2878        2929        2928
         4        2878        2879        2930        2929
         4        2879        2880        2931        2930
         4        2880        2881        2932        2931
         4        2881        2882        2933        2932
         4        2882        2883        2934        2933
         4        2883        2884        2935        2934
         4        2884        2885        2936        2935
         4        2885        2886        2937        2936
         4        2886        2887        2938        2937
         4        2887        2888        2939        2938
         4        2888        2889        2940        2939
         4        2889        2890        2941        2940
         4        2890        2891        2942        2941
         4        2891        2892        2943        2942
         4        2892        2893        2944        2943
         4        2893        2894        2945        2944
         4        2894        2895        2946        2945
         4        2895        2896        2947        2946
         4        2896        2897        2948        2947
         4        2897        2898        2949        2948
         4        2898        2899        2950        2949
         4        2899        2900        2951        2950
         4        2900        2901        2952        2951
         4        2901        2902        2953        2952
         4        2902        2903        2954        2953
         4        2903        2904        2955        2954
         4        2904        2905        2956        2955
         4        2905        2906        2957        2956
         4        2907        2908        2959        2958
         4        2908        2909        2960        2959
         4        2909        2910        2961        2960
         4        2910        2911        2962        2961
         4        2911        2912        2963        2962
         4        2912        2913        2964        2963
         4        2913        2914        2965        2964
         4        2914        2915        2966        2965
         4        2915        2916        2967        2966
         4        2916        2917        2968        2967
         4        2917        2918        2969        2968
         4        2918        2919        2970        2969
         4        2919        2920        2971        2970
         4        2920        2921        2972        2971
         4        2921        2922        2973        2972
         4        2922        2923        2974        2973
         4        2923        2924        2975        2974
         4        2924        2925        2976        2975
         4        2925        2926        2977        2976
         4        2926        2927        2978        2977
         4        2927        2928        2979        2978
         4        2928        2929        2980        2979
         4        2929        2930        2981        2980
         4        2930        2931        2982        2981
         4        2931        2932        2983        2982
         4        2932        2933        2984        2983
         4        2933        2934        2985        2984
         4        2934        2935        2986        2985
         4        2935        2936        2987        2986
         4        2936        2937        2988        2987
         4        2937        2938        2989        2988
         4        2938        2939        2990        2989
         4        2939        2940        2991        2990
         4        2940        2941        2992        2991
         4        2941        2942        2993        2992
         4        2942        2943        2994        2993
         4        2943        2944        2995        2994
         4        2944        2945        2996        2995
         4        2945        2946        2997        2996
         4        2946        2947        2998        2997
         4        2947        2948        2999        2998
         4        2948        2949        3000        2999
         4        2949        2950        3001        3000
         4        2950        2951        3002        3001
         4        2951        2952        3003        3002
         4        2952        2953        3004        3003
         4        2953        2954        3005        3004
         4        2954        2955        3006        3005
         4        2955        2956        3007        3006
         4        2956        2957        3008        3007
         4        2958        2959        3010        3009
         4        2959        2960        3011        3010
         4        2960        2961        3012        3011
         4        2961        2962        3013        3012
         4        2962        2963        3014        3013
         4        2963        2964        3015        3014
         4        2964        2965        3016        3015
         4        2965        2966        3017        3016
         4        2966        2967        3018        3017
         4        2967        2968        3019        3018
         4        2968        2969        3020        3019
         4        2969        2970        3021        3020
         4        2970        2971        3022        3021
         4        2971        2972        3023        3022
         4        2972        2973        3024        3023
         4        2973        2974        3025        3024
         4        2974        2975        3026        3025
         4        2975        2976        3027        3026
         4        2976        2977        3028        3027
         4        2977        2978        3029        3028
         4        2978        2979        3030        3029
         4        2979        2980        3031        3030
         4        2980        2981        3032        3031
         4        2981        2982        3033        3032
         4        2982        2983        3034        3033
         4        2983        2984        3035        3034
         4        2984        2985        3036        3035
         4        2985        2986        3037        3036
         4        2986        2987        3038        3037
         4        2987        2988        3039        3038
         4        2988        2989        3040        3039
         4        2989        2990        3041        3040
         4        2990        2991        3042        3041
         4        2991        2992        3043        3042
         4        2992        2993        3044        3043
         4        2993        2994        3045        3044
         4        2994        2995        3046        3045
         4        2995        2996        3047        3046
         4        2996        2997        3048        3047
         4        2997        2998        3049        3048
         4        2998        2999        3050        3049
         4        2999        3000        3051        3050
         4        3000        3001        3052        3051
         4        3001        3002        3053        3052
         4        3002        3003        3054        3053
         4        3003        3004        3055        3054
         4        3004        3005        3056        3055
         4        3005        3006        3057        3056
         4        3006        3007        3058        3057
         4        3007        3008        3059        3058
         4        3009        3010        3061        3060
         4        3010        3011        3062        3061
         4        3011        3012        3063        3062
         4        3012        3013        3064        3063
         4        3013        3014        3065        3064
         4        3014        3015        3066        3065
         4        3015        3016        3067        3066
         4        3016        3017        3068        3067
         4        3017        3018        3069        3068
         4        3018        3019        3070        3069
         4        3019        3020        3071        3070
         4        3020        3021        3072        3071
         4        3021        3022        3073        3072
         4        3022        3023        3074        3073
         4        3023        3024        3075        3074
         4        3024        3025        3076        3075
         4        3025        3026        3077        3076
         4        3026        3027        3078        3077
         4        3027        3028        3079        3078
         4        3028        3029        3080        3079
         4        3029        3030        3081        3080
         4        3030        3031        3082        3081
         4        3031        3032        3083        3082
         4        3032        3033        3084        3083
         4        3033        3034        3085        3084
         4        3034        3035        3086        3085
         4        3035        3036        3087        3086
         4        3036        3037        3088        3087
         4        3037        3038        3089        3088
         4        3038        3039        3090        3089
         4        3039        3040        3091        3090
         4        3040        3041        3092        3091
         4        3041        3042        3093        3092
         4        3042        3043        3094        3093
         4        3043        3044        3095        3094
         4        3044        3045        3096        3095
         4        3045        3046        3097        3096
         4        3046        3047        3098        3097
         4        3047        3048        3099        3098
         4        3048        3049        3100        3099
         4        3049        3050        3101        3100
         4        3050        3051        3102        3101
         4        3051        3052        3103        3102
         4        3052        3053        3104        3103
         4        3053        3054        3105        3104
         4        3054        3055        3106        3105
         4        3055        3056        3107        3106
         4        3056        3057        3108        3107
         4        3057        3058        3109        3108
         4        3058        3059        3110        3109
         4        3060        3061        3112        3111
         4        3061        3062        3113        3112
         4        3062        3063        3114        3113
         4        3063        3064        3115        3114
         4        3064        3065        3116        3115
         4        3065        3066        3117        3116
         4        3066        3067        3118        3117
         4        3067        3068        3119        3118
         4        3068        3069        3120        3119
         4        3069        3070        3121        3120
         4        3070        3071        3122        3121
         4        3071        3072        3123        3122
         4        3072        3073        3124        3123
         4        3073        3074        3125        3124
         4        3074        3075        3126        3125
         4        3075        3076        3127        3126
         4        3076        3077        3128        3127
         4        3077        3078        3129        3128
         4        3078        3079        3130        3129
         4        3079        3080        3131        3130
         4        3080        3081        3132        3131
         4        3081        3082        3133        3132
         4        3082        3083        3134        3133
         4        3083        3084        3135        3134
         4        3084        3085        3136        3135
         4        3085        3086        3137        3136
         4        3086        3087        3138        3137
         4        3087        3088        3139        3138
         4        3088        3089        3140        3139
         4        3089        3090        3141        3140
         4        3090        3091        3142        3141
         4        3091        3092        3143        3142
         4        3092        3093        3144        3143
         4        3093        3094        3145        3144
         4        3094        3095        3146        3145
         4        3095        3096        3147        3146
         4        3096        3097        3148        3147
         4        3097        3098        3149        3148
         4        3098        3099        3150        3149
         4        3099        3100        3151        3150
         4        3100        3101        3152        3151
         4        3101        3102        3153        3152
         4        3102        3103        3154        3153
         4        3103        3104        3155        3154
         4        3104        3105        3156        3155
         4        3105        3106        3157        3156
         4        3106        3107        3158        3157
         4        3107        3108        3159        3158
         4        3108        3109        3160        3159
         4        3109        3110        3161        3160
         4        3111        3112        3163        3162
         4        3112        3113        3164        3163
         4        3113        3114        3165        3164
         4        3114        3115        3166        3165
         4        3115        3116        3167        3166
         4        3116        3117        3168        3167
         4        3117        3118        3169        3168
         4        3118        3119        3170        3169
         4        3119        3120        3171        3170
         4        3120        3121        3172        3171
         4        3121        3122        3173        3172
         4        3122        3123        3174        3173
         4        3123        3124        3175        3174
         4        3124        3125        3176        3175
         4        3125        3126        3177        3176
         4        3126        3127        3178        3177
         4        3127        3128        3179        3178
         4        3128        3129        3180        3179
         4        3129        3130        3181        3180
         4        3130        3131        3182        3181
         4        3131        3132        3183        3182
         4        3132        3133        3184        3183
         4        3133        3134        3185        3184
         4        3134        3135        3186        3185
         4        3135        3136        3187        3186
         4        3136        3137        3188        3187
         4        3137        3138        3189        3188
         4        3138        3139        3190        3189
         4        3139        3140        3191        3190
         4        3140        3141        3192        3191
         4        3141        3142        3193        3192
         4        3142        3143        3194        3193
         4        3143        3144        3195        3194
         4        3144        3145        3196        3195
         4        3145        3146        3197        3196
         4        3146        3147        3198        3197
         4        3147        3148        3199        3198
         4        3148        3149        3200        3199
         4        3149        3150        3201        3200
         4        3150        3151        3202        3201
         4        3151        3152        3203        3202
         4        3152        3153        3204        3203
         4        3153        3154        3205        3204
         4        3154        3155        3206        3205
         4        3155        3156        3207        3206
         4        3156        3157        3208        3207
         4        3157        3158        3209        3208
         4        3158        3159        3210        3209
         4        3159        3160        3211        3210
         4        3160        3161        3212        3211
         4        3162        3163        3214        3213
         4        3163        3164        3215        3214
         4        3164        3165        3216        3215
         4        3165        3166        3217        3216
         4        3166        3167        3218        3217
         4        3167        3168        3219        3218
         4        3168        3169        3220        3219
         4        3169        3170        3221        3220
         4        3170        3171        3222        3221
         4        3171        3172        3223        3222
         4        3172        3173        3224        3223
         4        3173        3174        3225        3224
         4        3174        3175        3226        3225
         4        3175        3176        3227        3226
         4        3176        3177        3228        3227
         4        3177        3178        3229        3228
         4        3178        3179        3230        3229
         4        3179        3180        3231        3230
         4        3180        3181        3232        3231
         4        3181        3182        3233        3232
         4        3182        3183        3234        3233
         4        3183        3184        3235        3234
         4        3184        3185        3236        3235
         4        3185        3186        3237        3236
         4        3186        3187        3238        3237
         4        3187        3188        3239        3238
         4        3188        3189        3240        3239
         4        3189        3190        3241        3240
         4        3190        3191        3242        3241
         4        3191        3192        3243        3242
         4        3192        3193        3244        3243
         4        3193        3194        3245        3244
         4        3194        3195        3246        3245
         4        3195        3196        3247        3246
         4        3196        3197        3248        3247
         4        3197        3198        3249        3248
         4        3198        3199        3250        3249
         4        3199        3200        3251        3250
         4        3200        3201        3252        3251
         4        3201        3202        3253        3252
         4        3202        3203        3254        3253
         4        3203        3204        3255        3254
         4        3204        3205        3256        3255
         4        3205        3206        3257        3256
         4        3206        3207        3258        3257
         4        3207        3208        3259        3258
         4        3208        3209        3260        3259
         4        3209        3210        3261        3260
         4        3210        3211        3262        3261
         4        3211        3212        3263        3262
         4        3213        3214        3265        3264
         4        3214        3215        3266        3265
         4        3215        3216        3267        3266
         4        3216        3217        3268        3267
         4        3217        3218        3269        3268
         4        3218        3219        3270        3269
         4        3219        3220        3271        3270
         4        3220        3221        3272        3271
         4        3221        3222        3273        3272
         4        3222        3223        3274        3273
         4        3223        3224        3275        3274
         4        3224        3225        3276        3275
         4        3225        3226        3277        3276
         4        3226        3227        3278        3277
         4        3227        3228        3279        3278
         4        3228        3229        3280        3279
         4        3229        3230        3281        3280
         4        3230        3231        3282        3281
         4        3231        3232        3283        3282
         4        3232        3233        3284        3283
         4        3233        3234        3285        3284
         4        3234        3235        3286        3285
         4        3235        3236        3287        3286
         4        3236        3237        3288        3287
         4        3237        3238        3289        3288
         4        3238        3239        3290        3289
         4        3239        3240        3291        3290
         4        3240        3241        3292        3291
         4        3241        3242        3293        3292
         4        3242        3243        3294        3293
         4        3243        3244        3295        3294
         4        3244        3245        3296        3295
         4        3245        3246        3297        3296
         4        3246        3247        3298        3297
         4        3247        3248        3299        3298
         4        3248        3249        3300        3299
         4        3249        3250        3301        3300
         4        3250        3251        3302        3301
         4        3251        3252        3303        3302
         4        3252        3253        3304        3303
         4        3253        3254        3305        3304
         4        3254        3255        3306        3305
         4        3255        3256        3307        3306
         4        3256        3257        3308        3307
         4        3257        3258        3309        3308
         4        3258        3259        3310        3309
         4        3259        3260        3311        3310
         4        3260        3261        3312        3311
         4        3261        3262        3313        3312
         4        3262        3263        3314        3313
         4        3264        3265        3316        3315
         4        3265        3266        3317        3316
         4        3266        3267        3318        3317
         4        3267        3268        3319        3318
         4        3268        3269        3320        3319
         4        3269        3270        3321        3320
         4        3270        3271        3322        3321
         4        3271        3272        3323        3322
         4        3272        3273        3324        3323
         4        3273        3274        3325        3324
         4        3274        3275        3326        3325
         4        3275        3276        3327        3326
         4        3276        3277        3328        3327
         4        3277        3278        3329        3328
         4        3278        3279        3330        3329
         4        3279        3280        3331        3330
         4        3280        3281        3332        3331
         4        3281        3282        3333        3332
         4        3282        3283        3334        3333
         4        3283        3284        3335        3334
         4        3284        3285        3336        3335
         4        3285        3286        3337        3336
         4        3286        3287        3338        3337
         4        3287        3288        3339        3338
         4        3288        3289        3340        3339
         4        3289        3290        3341        3340
         4        3290        3291        3342        3341
         4        3291        3292        3343        3342
         4        3292        3293        3344        3343
         4        3293        3294        3345        3344
         4        3294        3295        3346        3345
         4        3295        3296        3347        3346
         4        3296        3297        3348        3347
         4        3297        3298        3349        3348
         4        3298        3299        3350        3349
         4        3299        3300        3351        3350
         4        3300        3301        3352        3351
         4        3301        3302        3353        3352
         4        3302        3303        3354        3353
         4        3303        3304        3355        3354
         4        3304        3305        3356        3355
         4        3305        3306        3357        3356
         4        3306        3307        3358        3357
         4        3307        3308        3359        3358
         4        3308        3309        3360        3359
         4        3309        3310        3361        3360
         4        3310        3311        3362        3361
         4        3311        3312        3363        3362
         4        3312        3313        3364        3363
         4        3313        3314        3365        3364
         4        3315        3316        3367        3366
         4        3316        3317        3368        3367
         4        3317        3318        3369        3368
         4        3318        3319        3370        3369
         4        3319        3320        3371        3370
         4        3320        3321        3372        3371
         4        3321        3322        3373        3372
         4        3322        3323        3374        3373
         4        3323        3324        3375        3374
         4        3324        3325        3376        3375
         4        3325        3326        3377        3376
         4        3326        3327        3378        3377
         4        3327        3328        3379        3378
         4        3328        3329        3380        3379
         4        3329        3330        3381        3380
         4        3330        3331        3382        3381
         4        3331        3332        3383        3382
         4        3332        3333        3384        3383
         4        3333        3334        3385        3384
         4        3334        3335        3386        3385
         4        3335        3336        3387        3386
         4        3336        3337        3388        3387
         4        3337        3338        3389        3388
         4        3338        3339        3390        3389
         4        3339        3340        3391        3390
         4        3340        3341        3392        3391
         4        3341        3342        3393        3392
         4        3342        3343        3394        3393
         4        3343        3344        3395        3394
         4        3344        3345        3396        3395
         4        3345        3346        3397        3396
         4        3346        3347        3398        3397
         4        3347        3348        3399        3398
         4        3348        3349        3400        3399
         4        3349        3350        3401        3400
         4        3350        3351        3402        3401
         4        3351        3352        3403        3402
         4        3352        3353        3404        3403
         4        3353        3354        3405        3404
         4        3354        3355        3406        3405
         4        3355        3356        3407        3406
         4        3356        3357        3408        3407
         4        3357        3358        3409        3408
         4        3358        3359        3410        3409
         4        3359        3360        3411        3410
         4        3360        3361        3412        3411
         4        3361        3362        3413        3412
         4        3362        3363        3414        3413
         4        3363        3364        3415        3414
         4        3364        3365        3416        3415
         4        3366        3367        3418        3417
         4        3367        3368        3419        3418
         4        3368        3369        3420        3419
         4        3369        3370        3421        3420
         4        3370        3371        3422        3421
         4        3371        3372        3423        3422
         4        3372        3373        3424        3423
         4        3373        3374        3425        3424
         4        3374        3375        3426        3425
         4        3375        3376        3427        3426
         4        3376        3377        3428        3427
         4        3377        3378        3429        3428
         4        3378        3379        3430        3429
         4        3379        3380        3431        3430
         4        3380        3381        3432        3431
         4        3381        3382        3433        3432
         4        3382        3383        3434        3433
         4        3383        3384        3435        3434
         4        3384        3385        3436        3435
         4        3385        3386        3437        3436
         4        3386        3387        3438        3437
         4        3387        3388        3439        3438
         4        3388        3389        3440        3439
         4        3389        3390        3441        3440
         4        3390        3391        3442        3441
         4        3391        3392        3443        3442
         4        3392        3393        3444        3443
         4        3393        3394        3445        3444
         4        3394        3395        3446        3445
         4        3395        3396        3447        3446
         4        3396        3397        3448        3447
         4        3397        3398        3449        3448
         4        3398        3399        3450        3449
         4        3399        3400        3451        3450
         4        3400        3401        3452        3451
         4        3401        3402        3453        3452
         4        3402        3403        3454        3453
         4        3403        3404        3455        3454
         4        3404        3405        3456        3455
         4        3405        3406        3457        3456
         4        3406        3407        3458        3457
         4        3407        3408        3459        3458
         4        3408        3409        3460        3459
         4        3409        3410        3461        3460
         4        3410        3411        3462        3461
         4        3411        3412        3463        3462
         4        3412        3413        3464        3463
         4        3413        3414        3465        3464
         4        3414        3415        3466        3465
         4        3415        3416        3467        3466
         4        3417        3418        3469        3468
         4        3418        3419        3470        3469
         4        3419        3420        3471        3470
         4        3420        3421        3472        3471
         4        3421        3422        3473        3472
         4        3422        3423        3474        3473
         4        3423        3424        3475        3474
         4        3424        3425        3476        3475
         4        3425        3426        3477        3476
         4        3426        3427        3478        3477
         4        3427        3428        3479        3478
         4        3428        3429        3480        3479
         4        3429        3430        3481        3480
         4        3430        3431        3482        3481
         4        3431        3432        3483        3482
         4        3432        3433        3484        3483
         4        3433        3434        3485        3484
         4        3434        3435        3486        3485
         4        3435        3436        3487        3486
         4        3436        3437        3488        3487
         4        3437        3438        3489        3488
         4        3438        3439        3490        3489
         4        3439        3440        3491        3490
         4        3440        3441        3492        3491
         4        3441        3442        3493        3492
         4        3442        3443        3494        3493
         4        3443        3444        3495        3494
         4        3444        3445        3496        3495
         4        3445        3446        3497        3496
         4        3446        3447        3498        3497
         4        3447        3448        3499        3498
         4        3448        3449        3500        3499
         4        3449        3450        3501        3500
         4        3450        3451        3502        3501
         4        3451        3452        3503        3502
         4        3452        3453        3504        3503
         4        3453        3454        3505        3504
         4        3454        3455        3506        3505
         4        3455        3456        3507        3506
         4        3456        3457        3508        3507
         4        3457        3458        3509        3508
         4        3458        3459        3510        3509
         4        3459        3460        3511        3510
         4        3460        3461        3512        3511
         4        3461        3462        3513        3512
         4        3462        3463        3514        3513
         4        3463        3464        3515        3514
         4        3464        3465        3516        3515
         4        3465        3466        3517        3516
         4        3466        3467        3518        3517
         4        3468        3469        3520        3519
         4        3469        3470        3521        3520
         4        3470        3471        3522        3521
         4        3471        3472        3523        3522
         4        3472        3473        3524        3523
         4        3473        3474        3525        3524
         4        3474        3475        3526        3525
         4        3475        3476        3527        3526
         4        3476        3477        3528        3527
         4        3477        3478        3529        3528
         4        3478        3479        3530        3529
         4        3479        3480        3531        3530
         4        3480        3481        3532        3531
         4        3481        3482        3533        3532
         4        3482        3483        3534        3533
         4        3483        3484        3535        3534
         4        3484        3485        3536        3535
         4        3485        3486        3537        3536
         4        3486        3487        3538        3537
         4        3487        3488        3539        3538
         4        3488        3489        3540        3539
         4        3489        3490        3541        3540
         4        3490        3491        3542        3541
         4        3491        3492        3543        3542
         4        3492        3493        3544        3543
         4        3493        3494        3545        3544
         4        3494        3495        3546        3545
         4        3495        3496        3547        3546
         4        3496        3497        3548        3547
         4        3497        3498        3549        3548
         4        3498        3499        3550        3549
         4        3499        3500        3551        3550
         4        3500        3501        3552        3551
         4        3501        3502        3553        3552
         4        3502        3503        3554        3553
         4        3503        3504        3555        3554
         4        3504        3505        3556        3555
         4        3505        3506        3557        3556
         4        3506        3507        3558        3557
         4        3507        3508        3559        3558
         4        3508        3509        3560        3559
         4        3509        3510        3561        3560
         4        3510        3511        3562        3561
         4        3511        3512        3563        3562
         4        3512        3513        3564        3563
         4        3513        3514        3565        3564
         4        3514        3515        3566        3565
         4        3515        3516        3567        3566
         4        3516        3517        3568        3567
         4        3517        3518        3569        3568
         4        3519        3520        3571        3570
         4        3520        3521        3572        3571
         4        3521        3522        3573        3572
         4        3522        3523        3574        3573
         4        3523        3524        3575        3574
         4        3524        3525        3576        3575
         4        3525        3526        3577        3576
         4        3526        3527        3578        3577
         4        3527        3528        3579        3578
         4        3528        3529        3580        3579
         4        3529        3530        3581        3580
         4        3530        3531        3582        3581
         4        3531        3532        3583        3582
         4        3532        3533        3584        3583
         4        3533        3534        3585        3584
         4        3534        3535        3586        3585
         4        3535        3536        3587        3586
         4        3536        3537        3588        3587
         4        3537        3538        3589        3588
         4        3538        3539        3590        3589
         4        3539        3540        3591        3590
         4        3540        3541        3592        3591
         4        3541        3542        3593        3592
         4        3542        3543        3594        3593
         4        3543        3544        3595        3594
         4        3544        3545        3596        3595
         4        3545        3546        3597        3596
         4        3546        3547        3598        3597
         4        3547        3548        3599        3598
         4        3548        3549        3600        3599
         4        3549        3550        3601        3600
         4        3550        3551        3602        3601
         4        3551        3552        3603        3602
         4        3552        3553        3604        3603
         4        3553        3554        3605        3604
         4        3554        3555        3606        3605
         4        3555        3556        3607        3606
         4        3556        3557        3608        3607
         4        3557        3558        3609        3608
         4        3558        3559        3610        3609
         4        3559        3560        3611        3610
         4        3560        3561        3612        3611
         4        3561        3562        3613        3612
         4        3562        3563        3614        3613
         4        3563        3564        3615        3614
         4        3564        3565        3616        3615
         4        3565        3566        3617        3616
         4        3566        3567        3618        3617
         4        3567        3568        3619        3618
         4        3568        3569        3620        3619
         4        3570        3571        3622        3621
         4        3571        3572        3623        3622
         4        3572        3573        3624        3623
         4        3573        3574        3625        3624
         4        3574        3575        3626        3625
         4        3575        3576        3627        3626
         4        3576        3577        3628        3627
         4        3577        3578        3629        3628
         4        3578        3579        3630        3629
         4        3579        3580        3631        3630
         4        3580        3581        3632        3631
         4        3581        3582        3633        3632
         4        3582        3583        3634        3633
         4        3583        3584        3635        3634
         4        3584        3585        3636        3635
         4        3585        3586        3637        3636
         4        3586        3587        3638        3637
         4        3587        3588        3639        3638
         4        3588        3589        3640        3639
         4        3589        3590        3641        3640
         4        3590        3591        3642        3641
         4        3591        3592        3643        3642
         4        3592        3593        3644        3643
         4        3593        3594        3645        3644
         4        3594        3595        3646        3645
         4        3595        3596        3647        3646
         4        3596        3597        3648        3647
         4        3597        3598        3649        3648
         4        3598        3599        3650        3649
         4        3599        3600        3651        3650
         4        3600        3601        3652        3651
         4        3601        3602        3653        3652
         4        3602        3603        3654        3653
         4        3603        3604        3655        3654
         4        3604        3605        3656        3655
         4        3605        3606        3657        3656
         4        3606        3607        3658        3657
         4        3607        3608        3659        3658
         4        3608        3609        3660        3659
         4        3609        3610        3661        3660
         4        3610        3611        3662        3661
         4        3611        3612        3663        3662
         4        3612        3613        3664        3663
         4        3613        3614        3665        3664
         4        3614        3615        3666        3665
         4        3615        3616        3667        3666
         4        3616        3617        3668        3667
         4        3617        3618        3669        3668
         4        3618        3619        3670        3669
         4        3619        3620        3671        3670
         4        3621        3622        3673        3672
         4        3622        3623        3674        3673
         4        3623        3624        3675        3674
         4        3624        3625        3676        3675
         4        3625        3626        3677        3676
         4        3626        3627        3678        3677
         4        3627        3628        3679        3678
         4        3628        3629        3680        3679
         4        3629        3630        3681        3680
         4        3630        3631        3682        3681
         4        3631        3632        3683        3682
         4        3632        3633        3684        3683
         4        3633        3634        3685        3684
         4        3634        3635        3686        3685
         4        3635        3636        3687        3686
         4        3636        3637        3688        3687
         4        3637        3638        3689        3688
         4        3638        3639        3690        3689
         4        3639        3640        3691        3690
         4        3640        3641        3692        3691
         4        3641        3642        3693        3692
         4        3642        3643        3694        3693
         4        3643        3644        3695        3694
         4        3644        3645        3696        3695
         4        3645        3646        3697        3696
         4        3646        3647        3698        3697
         4        3647        3648        3699        3698
         4        3648        3649        3700        3699
         4        3649        3650        3701        3700
         4        3650        3651        3702        3701
         4        3651        3652        3703        3702
         4        3652        3653        3704        3703
         4        3653        3654        3705        3704
         4        3654        3655        3706        3705
         4        3655        3656        3707        3706
         4        3656        3657        3708        3707
         4        3657        3658        3709        3708
         4        3658        3659        3710        3709
         4        3659        3660        3711        3710
         4        3660        3661        3712        3711
         4        3661        3662        3713        3712
         4        3662        3663        3714        3713
         4        3663        3664        3715        3714
         4        3664        3665        3716        3715
         4        3665        3666        3717        3716
         4        3666        3667        3718        3717
         4        3667        3668        3719        3718
         4        3668        3669        3720        3719
         4        3669        3670        3721        3720
         4        3670        3671        3722        3721
         4        3672        3673        3724        3723
         4        3673        3674        3725        3724
         4        3674        3675        3726        3725
         4        3675        3676        3727        3726
         4        3676        3677        3728        3727
         4        3677        3678        3729        3728
         4        3678        3679        3730        3729
         4        3679        3680        3731        3730
         4        3680        3681        3732        3731
         4        3681        3682        3733        3732
         4        3682        3683        3734        3733
         4        3683        3684        3735        3734
         4        3684        3685        3736        3735
         4        3685        3686        3737        3736
         4        3686        3687        3738        3737
         4        3687        3688        3739        3738
         4        3688        3689        3740        3739
         4        3689        3690        3741        3740
         4        3690        3691        3742        3741
         4        3691        3692        3743        3742
         4        3692        3693        3744        3743
         4        3693        3694        3745        3744
         4        3694        3695        3746        3745
         4        3695        3696        3747        3746
         4        3696        3697        3748        3747
         4        3697        3698        3749        3748
         4        3698        3699        3750        3749
         4        3699        3700        3751        3750
         4        3700        3701        3752        3751
         4        3701        3702        3753        3752
         4        3702        3703        3754        3753
         4        3703        3704        3755        3754
         4        3704        3705        3756        3755
         4        3705        3706        3757        3756
         4        3706        3707        3758        3757
         4        3707        3708        3759        3758
         4        3708        3709        3760        3759
         4        3709        3710        3761        3760
         4        3710        3711        3762        3761
         4        3711        3712        3763        3762
         4        3712        3713        3764        3763
         4        3713        3714        3765        3764
         4        3714        3715        3766        3765
         4        3715        3716        3767        3766
         4        3716        3717        3768        3767
         4        3717        3718        3769        3768
         4        3718        3719        3770        3769
         4        3719        3720        3771        3770
         4        3720        3721        3772        3771
         4        3721        3722        3773        3772
         4        3723        3724        3775        3774
         4        3724        3725        3776        3775
         4        3725        3726        3777        3776
         4        3726        3727        3778        3777
         4        3727        3728        3779        3778
         4        3728        3729        3780        3779
         4        3729        3730        3781        3780
         4        3730        3731        3782        3781
         4        3731        3732        3783        3782
         4        3732        3733        3784        3783
         4        3733        3734        3785        3784
         4        3734        3735        3786        3785
         4        3735        3736        3787        3786
         4        3736        3737        3788        3787
         4        3737        3738        3789        3788
         4        3738        3739        3790        3789
         4        3739        3740        3791        3790
         4        3740        3741        3792        3791
         4        3741        3742        3793        3792
         4        3742        3743        3794        3793
         4        3743        3744        3795        3794
         4        3744        3745        3796        3795
         4        3745        3746        3797        3796
         4        3746        3747        3798        3797
         4        3747        3748        3799        3798
         4        3748        3749        3800        3799
         4        3749        3750        3801        3800
         4        3750        3751        3802        3801
         4        3751        3752        3803        3802
         4        3752        3753        3804        3803
         4        3753        3754        3805        3804
         4        3754        3755        3806        3805
         4        3755        3756        3807        3806
         4        3756        3757        3808        3807
         4        3757        3758        3809        3808
         4        3758        3759        3810        3809
         4        3759        3760        3811        3810
         4        3760        3761        3812        3811
         4        3761        3762        3813        3812
         4        3762        3763        3814        3813
         4        3763        3764        3815        3814
         4        3764        3765        3816        3815
         4        3765        3766        3817        3816
         4        3766        3767        3818        3817
         4        3767        3768        3819        3818
         4        3768        3769        3820        3819
         4        3769        3770        3821        3820
         4        3770        3771        3822        3821
         4        3771        3772        3823        3822
         4        3772        3773        3824        3823
         4        3774        3775        3826        3825
         4        3775        3776        3827        3826
         4        3776        3777        3828        3827
         4        3777        3778        3829        3828
         4        3778        3779        3830        3829
         4        3779        3780        3831        3830
         4        3780        3781        3832        3831
         4        3781        3782        3833        3832
         4        3782        3783        3834        3833
         4        3783        3784        3835        3834
         4        3784        3785        3836        3835
         4        3785        3786        3837        3836
         4        3786        3787        3838        3837
         4        3787        3788        3839        3838
         4        3788        3789        3840        3839
         4        3789        3790        3841        3840
         4        3790        3791        3842        3841
         4        3791        3792        3843        3842
         4        3792        3793        3844        3843
         4        3793        3794        3845        3844
         4        3794        3795        3846        3845
         4        3795        3796        3847        3846
         4        3796        3797        3848        3847
         4        3797        3798        3849        3848
         4        3798        3799        3850        3849
         4        3799        3800        3851        3850
         4        3800        3801        3852        3851
         4        3801        3802        3853        3852
         4        3802        3803        3854        3853
         4        3803        3804        3855        3854
         4        3804        3805        3856        3855
         4        3805        3806        3857        3856
         4        3806        3807        3858        3857
         4        3807        3808        3859        3858
         4        3808        3809        3860        3859
         4        3809        3810        3861        3860
         4        3810        3811        3862        3861
         4        3811        3812        3863        3862
         4        3812        3813        3864        3863
         4        3813        3814        3865        3864
         4        3814        3815        3866        3865
         4        3815        3816        3867        3866
         4        3816        3817        3868        3867
         4        3817        3818        3869        3868
         4        3818        3819        3870        3869
         4        3819        3820        3871        3870
         4        3820        3821        3872        3871
         4        3821        3822        3873        3872
         4        3822        3823        3874        3873
         4        3823        3824        3875        3874
         4        3825        3826        3877        3876
         4        3826        3827        3878        3877
         4        3827        3828        3879        3878
         4        3828        3829        3880        3879
         4        3829        3830        3881        3880
         4        3830        3831        3882        3881
         4        3831        3832        3883        3882
         4        3832        3833        3884        3883
         4        3833        3834        3885        3884
         4        3834        3835        3886        3885
         4        3835        3836        3887        3886
         4        3836        3837        3888        3887
         4        3837        3838        3889        3888
         4        3838        3839        3890        3889
         4        3839        3840        3891        3890
         4        3840        3841        3892        3891
         4        3841        3842        3893        3892
         4        3842        3843        3894        3893
         4        3843        3844        3895        3894
         4        3844        3845        3896        3895
         4        3845        3846        3897        3896
         4        3846        3847        3898        3897
         4        3847        3848        3899        3898
         4        3848        3849        3900        3899
         4        3849        3850        3901        3900
         4        3850        3851        3902        3901
         4        3851        3852        3903        3902
         4        3852        3853        3904        3903
         4        3853        3854        3905        3904
         4        3854        3855        3906        3905
         4        3855        3856        3907        3906
         4        3856        3857        3908        3907
         4        3857        3858        3909        3908
         4        3858        3859        3910        3909
         4        3859        3860        3911        3910
         4        3860        3861        3912        3911
         4        3861        3862        3913        3912
         4        3862        3863        3914        3913
         4        3863        3864        3915        3914
         4        3864        3865        3916        3915
         4        3865        3866        3917        3916
         4        3866        3867        3918        3917
         4        3867        3868        3919        3918
         4        3868        3869        3920        3919
         4        3869        3870        3921        3920
         4        3870        3871        3922        3921
         4        3871        3872        3923        3922
         4        3872        3873        3924        3923
         4        3873        3874        3925        3924
         4        3874        3875        3926        3925
         4        3876        3877        3928        3927
         4        3877        3878        3929        3928
         4        3878        3879        3930        3929
         4        3879        3880        3931        3930
         4        3880        3881        3932        3931
         4        3881        3882        3933        3932
         4        3882        3883        3934        3933
         4        3883        3884        3935        3934
         4        3884        3885        3936        3935
         4        3885        3886        3937        3936
         4        3886        3887        3938        3937
         4        3887        3888        3939        3938
         4        3888        3889        3940        3939
         4        3889        3890        3941        3940
         4        3890        3891        3942        3941
         4        3891        3892        3943        3942
         4        3892        3893        3944        3943
         4        3893        3894        3945        3944
         4        3894        3895        3946        3945
         4        3895        3896        3947        3946
         4        3896        3897        3948        3947
         4        3897        3898        3949        3948
         4        3898        3899        3950        3949
         4        3899        3900        3951        3950
         4        3900        3901        3952        3951
         4        3901        3902        3953        3952
         4        3902        3903        3954        3953
         4        3903        3904        3955        3954
         4        3904        3905        3956        3955
         4        3905        3906        3957        3956
         4        3906        3907        3958        3957
         4        3907        3908        3959        3958
         4        3908        3909        3960        3959
         4        3909        3910        3961        3960
         4        3910        3911        3962        3961
         4        3911        3912        3963        3962
         4        3912        3913        3964        3963
         4        3913        3914        3965        3964
         4        3914        3915        3966        3965
         4        3915        3916        3967        3966
         4        3916        3917        3968        3967
         4        3917        3918        3969        3968
         4        3918        3919        3970        3969
         4        3919        3920        3971        3970
         4        3920        3921        3972        3971
         4        3921        3922        3973        3972
         4        3922        3923        3974        3973
         4        3923        3924        3975        3974
         4        3924        3925        3976        3975
         4        3925        3926        3977        3976
         4        3927        3928        3979        3978
         4        3928        3929        3980        3979
         4        3929        3930        3981        3980
         4        3930        3931        3982        3981
         4        3931        3932        3983        3982
         4        3932        3933        3984        3983
         4        3933        3934        3985        3984
         4        3934        3935        3986        3985
         4        3935        3936        3987        3986
         4        3936        3937        3988        3987
         4        3937        3938        3989        3988
         4        3938        3939        3990        3989
         4        3939        3940        3991        3990
         4        3940        3941        3992        3991
         4        3941        3942        3993        3992
         4        3942        3943        3994        3993
         4        3943        3944        3995        3994
         4        3944        3945        3996        3995
         4        3945        3946        3997        3996
         4        3946        3947        3998        3997
         4        3947        3948        3999        3998
         4        3948        3949        4000        3999
         4        3949        3950        4001        4000
         4        3950        3951        4002        4001
         4        3951        3952        4003        4002
         4        3952        3953        4004        4003
         4        3953        3954        4005        4004
         4        3954        3955        4006        4005
         4        3955        3956        4007        4006
         4        3956        3957        4008        4007
         4        3957        3958        4009        4008
         4        3958        3959        4010        4009
         4        3959        3960        4011        4010
         4        3960        3961        4012        4011
         4        3961        3962        4013        4012
         4        3962        3963        4014        4013
         4        3963        3964        4015        4014
         4        3964        3965        4016        4015
         4        3965        3966        4017        4016
         4        3966        3967        4018        4017
         4        3967        3968        4019        4018
         4        3968        3969        4020        4019
         4        3969        3970        4021        4020
         4        3970        3971        4022        4021
         4        3971        3972        4023        4022
         4        3972        3973        4024        4023
         4        3973        3974        4025        4024
         4        3974        3975        4026        4025
         4        3975        3976        4027        4026
         4        3976        3977        4028        4027
         4        3978        3979        4030        4029
         4        3979        3980        4031        4030
         4        3980        3981        4032        4031
         4        3981        3982        4033        4032
         4        3982        3983        4034        4033
         4        3983        3984        4035        4034
         4        3984        3985        4036        4035
         4        3985        3986        4037        4036
         4        3986        3987        4038        4037
         4        3987        3988        4039        4038
         4        3988        3989        4040        4039
         4        3989        3990        4041        4040
         4        3990        3991        4042        4041
         4        3991        3992        4043        4042
         4        3992        3993        4044        4043
         4        3993        3994        4045        4044
         4        3994        3995        4046        4045
         4        3995        3996        4047        4046
         4        3996        3997        4048        4047
         4        3997        3998        4049        4048
         4        3998        3999        4050        4049
         4        3999        4000        4051        4050
         4        4000        4001        4052        4051
         4        4001        4002        4053        4052
         4        4002        4003        4054        4053
         4        4003        4004        4055        4054
         4        4004        4005        4056        4055
         4        4005        4006        4057        4056
         4        4006        4007        4058        4057
         4        4007        4008        4059        4058
         4        4008        4009        4060        4059
         4        4009        4010        4061        4060
         4        4010        4011        4062        4061
         4        4011        4012        4063        4062
         4        4012        4013        4064        4063
         4        4013        4014        4065        4064
         4        4014        4015        4066        4065
         4        4015        4016        4067        4066
         4        4016        4017        4068        4067
         4        4017        4018        4069        4068
         4        4018        4019        4070        4069
         4        4019        4020        4071        4070
         4        4020        4021        4072        4071
         4        4021        4022        4073        4072
         4        4022        4023        4074        4073
         4        4023        4024        4075        4074
         4        4024        4025        4076        4075
         4        4025        4026        4077        4076
         4        4026        4027        4078        4077
         4        4027        4028        4079        4078
         4        4029        4030        4081        4080
         4        4030        4031        4082        4081
         4        4031        4032        4083        4082
         4        4032        4033        4084        4083
         4        4033        4034        4085        4084
         4        4034        4035        4086        4085
         4        4035        4036        4087        4086
         4        4036        4037        4088        4087
         4        4037        4038        4089        4088
         4        4038        4039        4090        4089
         4        4039        4040        4091        4090
         4        4040        4041        4092        4091
         4        4041        4042        4093        4092
         4        4042        4043        4094        4093
         4        4043        4044        4095        4094
         4        4044        4045        4096        4095
         4        4045        4046        4097        4096
         4        4046        4047        4098        4097
         4        4047        4048        4099        4098
         4        4048        4049        4100        4099
         4        4049        4050        4101        4100
         4        4050        4051        4102        4101
         4        4051        4052        4103        4102
         4        4052        4053        4104        4103
         4        4053        4054        4105        4104
         4        4054        4055        4106        4105
         4        4055        4056        4107        4106
         4        4056        4057        4108        4107
         4        4057        4058        4109        4108
         4        4058        4059        4110        4109
         4        4059        4060        4111        4110
         4        4060        4061        4112        4111
         4        4061        4062        4113        4112
         4        4062        4063        4114        4113
         4        4063        4064        4115        4114
         4        4064        4065        4116        4115
         4        4065        4066        4117        4116
         4        4066        4067        4118        4117
         4        4067        4068        4119        4118
         4        4068        4069        4120        4119
         4        4069        4070        4121        4120
         4        4070        4071        4122        4121
         4        4071        4072        4123        4122
         4        4072        4073        4124        4123
         4        4073        4074        4125        4124
         4        4074        4075        4126        4125
         4        4075        4076        4127        4126
         4        4076        4077        4128        4127
         4        4077        4078        4129        4128
         4        4078        4079        4130        4129
         4        4080        4081        4132        4131
         4        4081        4082        4133        4132
         4        4082        4083        4134        4133
         4        4083        4084        4135        4134
         4        4084        4085        4136        4135
         4        4085        4086        4137        4136
         4        4086        4087        4138        4137
         4        4087        4088        4139        4138
         4        4088        4089        4140        4139
         4        4089        4090        4141        4140
         4        4090        4091        4142        4141
         4        4091        4092        4143        4142
         4        4092        4093        4144        4143
         4        4093        4094        4145        4144
         4        4094        4095        4146        4145
         4        4095        4096        4147        4146
         4        4096        4097        4148        4147
         4        4097        4098        4149        4148
         4        4098        4099        4150        4149
         4        4099        4100        4151        4150
         4        4100        4101        4152        4151
         4        4101        4102        4153        4152
         4        4102        4103        4154        4153
         4        4103        4104        4155        4154
         4        4104        4105        4156        4155
         4        4105        4106        4157        4156
         4        4106        4107        4158        4157
         4        4107        4108        4159        4158
         4        4108        4109        4160        4159
         4        4109        4110        4161        4160
         4        4110        4111        4162        4161
         4        4111        4112        4163        4162
         4        4112        4113        4164        4163
         4        4113        4114        4165        4164
         4        4114        4115        4166        4165
         4        4115        4116        4167        4166
         4        4116        4117        4168        4167
         4        4117        4118        4169        4168
         4        4118        4119        4170        4169
         4        4119        4120        4171        4170
         4        4120        4121        4172        4171
         4        4121        4122        4173        4172
         4        4122        4123        4174        4173
         4        4123        4124        4175        4174
         4        4124        4125        4176        4175
         4        4125        4126        4177        4176
         4        4126        4127        4178        4177
         4        4127        4128        4179        4178
         4        4128        4129        4180        4179
         4        4129        4130        4181        4180
         4        4131        4132        4183        4182
         4        4132        4133        4184        4183
         4        4133        4134        4185        4184
         4        4134        4135        4186        4185
         4        4135        4136        4187        4186
         4        4136        4137        4188        4187
         4        4137        4138        4189        4188
         4        4138        4139        4190        4189
         4        4139        4140        4191        4190
         4        4140        4141        4192        4191
         4        4141        4142        4193        4192
         4        4142        4143        4194        4193
         4        4143        4144        4195        4194
         4        4144        4145        4196        4195
         4        4145        4146        4197        4196
         4        4146        4147        4198        4197
         4        4147        4148        4199        4198
         4        4148        4149        4200        4199
         4        4149        4150        4201        4200
         4        4150        4151        4202        4201
         4        4151        4152        4203        4202
         4        4152        4153        4204        4203
         4        4153        4154        4205        4204
         4        4154        4155        4206        4205
         4        4155        4156        4207        4206
         4        4156        4157        4208        4207
         4        4157        4158        4209        4208
         4        4158        4159        4210        4209
         4        4159        4160        4211        4210
         4        4160        4161        4212        4211
         4        4161        4162        4213        4212
         4        4162        4163        4214        4213
         4        4163        4164        4215        4214
         4        4164        4165        4216        4215
         4        4165        4166        4217        4216
         4        4166        4167        4218        4217
         4        4167        4168        4219        4218
         4        4168        4169        4220        4219
         4        4169        4170        4221        4220
         4        4170        4171        4222        4221
         4        4171        4172        4223        4222
         4        4172        4173        4224        4223
         4        4173        4174        4225        4224
         4        4174        4175        4226        4225
         4        4175        4176        4227        4226
         4        4176        4177        4228        4227
         4        4177        4178        4229        4228
         4        4178        4179        4230        4229
         4        4179        4180        4231        4230
         4        4180        4181        4232        4231
         4        4182        4183        4234        4233
         4        4183        4184        4235        4234
         4        4184        4185        4236        4235
         4        4185        4186        4237        4236
         4        4186        4187        4238        4237
         4        4187        4188        4239        4238
         4        4188        4189        4240        4239
         4        4189        4190        4241        4240
         4        4190        4191        4242        4241
         4        4191        4192        4243        4242
         4        4192        4193        4244        4243
         4        4193        4194        4245        4244
         4        4194        4195        4246        4245
         4        4195        4196        4247        4246
         4        4196        4197        4248        4247
         4        4197        4198        4249        4248
         4        4198        4199        4250        4249
         4        4199        4200        4251        4250
         4        4200        4201        4252        4251
         4        4201        4202        4253        4252
         4        4202        4203        4254        4253
         4        4203        4204        4255        4254
         4        4204        4205        4256        4255
         4        4205        4206        4257        4256
         4        4206        4207        4258        4257
         4        4207        4208        4259        4258
         4        4208        4209        4260        4259
         4        4209        4210        4261        4260
         4        4210        4211        4262        4261
         4        4211        4212        4263        4262
         4        4212        4213        4264        4263
         4        4213        4214        4265        4264
         4        4214        4215        4266        4265
         4        4215        4216        4267        4266
         4        4216        4217        4268        4267
         4        4217        4218        4269        4268
         4        4218        4219        4270        4269
         4        4219        4220        4271        4270
         4        4220        4221        4272        4271
         4        4221        4222        4273        4272
         4        4222        4223        4274        4273
         4        4223        4224        4275        4274
         4        4224        4225        4276        4275
         4        4225        4226        4277        4276
         4        4226        4227        4278        4277
         4        4227        4228        4279        4278
         4        4228        4229        4280        4279
         4        4229        4230        4281        4280
         4        4230        4231        4282        4281
         4        4231        4232        4283        4282
         4        4233        4234        4285        4284
         4        4234        4235        4286        4285
         4        4235        4236        4287        4286
         4        4236        4237        4288        4287
         4        4237        4238        4289        4288
         4        4238        4239        4290        4289
         4        4239        4240        4291        4290
         4        4240        4241        4292        4291
         4        4241        4242        4293        4292
         4        4242        4243        4294        4293
         4        4243        4244        4295        4294
         4        4244        4245        4296        4295
         4        4245        4246        4297        4296
         4        4246        4247        4298        4297
         4        4247        4248        4299        4298
         4        4248        4249        4300        4299
         4        4249        4250        4301        4300
         4        4250        4251        4302        4301
         4        4251        4252        4303        4302
         4        4252        4253        4304        4303
         4        4253        4254        4305        4304
         4        4254        4255        4306        4305
         4        4255        4256        4307        4306
         4        4256        4257        4308        4307
         4        4257        4258        4309        4308
         4        4258        4259        4310        4309
         4        4259        4260        4311        4310
         4        4260        4261        4312        4311
         4        4261        4262        4313        4312
         4        4262        4263        4314        4313
         4        4263        4264        4315        4314
         4        4264        4265        4316        4315
         4        4265        4266        4317        4316
         4        4266        4267        4318        4317
         4        4267        4268        4319        4318
         4        4268        4269        4320        4319
         4        4269        4270        4321        4320
         4        4270        4271        4322        4321
         4        4271        4272        4323        4322
         4        4272        4273        4324        4323
         4        4273        4274        4325        4324
         4        4274        4275        4326        4325
         4        4275        4276        4327        4326
         4        4276        4277        4328        4327
         4        4277        4278        4329        4328
         4        4278        4279        4330        4329
         4        4279        4280        4331        4330
         4        4280        4281        4332        4331
         4        4281        4282        4333        4332
         4        4282        4283        4334        4333
         4        4284        4285        4336        4335
         4        4285        4286        4337        4336
         4        4286        4287        4338        4337
         4        4287        4288        4339        4338
         4        4288        4289        4340        4339
         4        4289        4290        4341        4340
         4        4290        4291        4342        4341
         4        4291        4292        4343        4342
         4        4292        4293        4344        4343
         4        4293        4294        4345        4344
         4        4294        4295        4346        4345
         4        4295        4296        4347        4346
         4        4296        4297        4348        4347
         4        4297        4298        4349        4348
         4        4298        4299        4350        4349
         4        4299        4300        4351        4350
         4        4300        4301        4352        4351
         4        4301        4302        4353        4352
         4        4302        4303        4354        4353
         4        4303        4304        4355        4354
         4        4304        4305        4356        4355
         4        4305        4306        4357        4356
         4        4306        4307        4358        4357
         4        4307        4308        4359        4358
         4        4308        4309        4360        4359
         4        4309        4310        4361        4360
         4        4310        4311        4362        4361
         4        4311        4312        4363        4362
         4        4312        4313        4364        4363
         4        4313        4314        4365        4364
         4        4314        4315        4366        4365
         4        4315        4316        4367        4366
         4        4316        4317        4368        4367
         4        4317        4318        4369        4368
         4        4318        4319        4370        4369
         4        4319        4320        4371        4370
         4        4320        4321        4372        4371
         4        4321        4322        4373        4372
         4        4322        4323        4374        4373
         4        4323        4324        4375        4374
         4        4324        4325        4376        4375
         4        4325        4326        4377        4376
         4        4326        4327        4378        4377
         4        4327        4328        4379        4378
         4        4328        4329        4380        4379
         4        4329        4330        4381        4380
         4        4330        4331        4382        4381
         4        4331        4332        4383        4382
         4        4332        4333        4384        4383
         4        4333        4334        4385        4384
         4        4335        4336        4387        4386
         4        4336        4337        4388        4387
         4        4337        4338        4389        4388
         4        4338        4339        4390        4389
         4        4339        4340        4391        4390
         4        4340        4341        4392        4391
         4        4341        4342        4393        4392
         4        4342        4343        4394        4393
         4        4343        4344        4395        4394
         4        4344        4345        4396        4395
         4        4345        4346        4397        4396
         4        4346        4347        4398        4397
         4        4347        4348        4399        4398
         4        4348        4349        4400        4399
         4        4349        4350        4401        4400
         4        4350        4351        4402        4401
         4        4351        4352        4403        4402
         4        4352        4353        4404        4403
         4        4353        4354        4405        4404
         4        4354        4355        4406        4405
         4        4355        4356        4407        4406
         4        4356        4357        4408        4407
         4        4357        4358        4409        4408
         4        4358        4359        4410        4409
         4        4359        4360        4411        4410
         4        4360        4361        4412        4411
         4        4361        4362        4413        4412
         4        4362        4363        4414        4413
         4        4363        4364        4415        4414
         4        4364        4365        4416        4415
         4        4365        4366        4417        4416
         4        4366        4367        4418        4417
         4        4367        4368        4419        4418
         4        4368        4369        4420        4419
         4        4369        4370        4421        4420
         4        4370        4371        4422        4421
         4        4371        4372        4423        4422
         4        4372        4373        4424        4423
         4        4373        4374        4425        4424
         4        4374        4375        4426        4425
         4        4375        4376        4427        4426
         4        4376        4377        4428        4427
         4        4377        4378        4429        4428
         4        4378        4379        4430        4429
         4        4379        4380        4431        4430
         4        4380        4381        4432        4431
         4        4381        4382        4433        4432
         4        4382        4383        4434        4433
         4        4383        4384        4435        4434
         4        4384        4385        4436        4435
         4        4386        4387        4438        4437
         4        4387        4388        4439        4438
         4        4388        4389        4440        4439
         4        4389        4390        4441        4440
         4        4390        4391        4442        4441
         4        4391        4392        4443        4442
         4        4392        4393        4444        4443
         4        4393        4394        4445        4444
         4        4394        4395        4446        4445
         4        4395        4396        4447        4446
         4        4396        4397        4448        4447
         4        4397        4398        4449        4448
         4        4398        4399        4450        4449
         4        4399        4400        4451        4450
         4        4400        4401        4452        4451
         4        4401        4402        4453        4452
         4        4402        4403        4454        4453
         4        4403        4404        4455        4454
         4        4404        4405        4456        4455
         4        4405        4406        4457        4456
         4        4406        4407        4458        4457
         4        4407        4408        4459        4458
         4        4408        4409        4460        4459
         4        4409        4410        4461        4460
         4        4410        4411        4462        4461
         4        4411        4412        4463        4462
         4        4412        4413        4464        4463
         4        4413        4414        4465        4464
         4        4414        4415        4466        4465
         4        4415        4416        4467        4466
         4        4416        4417        4468        4467
         4        4417        4418        4469        4468
         4        4418        4419        4470        4469
         4        4419        4420        4471        4470
         4        4420        4421        4472        4471
         4        4421        4422        4473        4472
         4        4422        4423        4474        4473
         4        4423        4424        4475        4474
         4        4424        4425        4476        4475
         4        4425        4426        4477        4476
         4        4426        4427        4478        4477
         4        4427        4428        4479        4478
         4        4428        4429        4480        4479
         4        4429        4430        4481        4480
         4        4430        4431        4482        4481
         4        4431        4432        4483        4482
         4        4432        4433        4484        4483
         4        4433        4434        4485        4484
         4        4434        4435        4486        4485
         4        4435        4436        4487        4486
         4        4437        4438        4489        4488
         4        4438        4439        4490        4489
         4        4439        4440        4491        4490
         4        4440        4441        4492        4491
         4        4441        4442        4493        4492
         4        4442        4443        4494        4493
         4        4443        4444        4495        4494
         4        4444        4445        4496        4495
         4        4445        4446        4497        4496
         4        4446        4447        4498        4497
         4        4447        4448        4499        4498
         4        4448        4449        4500        4499
         4        4449        4450        4501        4500
         4        4450        4451        4502        4501
         4        4451        4452        4503        4502
         4        4452        4453        4504        4503
         4        4453        4454        4505        4504
         4        4454        4455        4506        4505
         4        4455        4456        4507        4506
         4        4456        4457        4508        4507
         4        4457        4458        4509        4508
         4        4458        4459        4510        4509
         4        4459        4460        4511        4510
         4        4460        4461        4512        4511
         4        4461        4462        4513        4512
         4        4462        4463        4514        4513
         4        4463        4464        4515        4514
         4        4464        4465        4516        4515
         4        4465        4466        4517        4516
         4        4466        4467        4518        4517
         4        4467        4468        4519        4518
         4        4468        4469        4520        4519
         4        4469        4470        4521        4520
         4        4470        4471        4522        4521
         4        4471        4472        4523        4522
         4        4472        4473        4524        4523
         4        4473        4474        4525        4524
         4        4474        4475        4526        4525
         4        4475        4476        4527        4526
         4        4476        4477        4528        4527
         4        4477        4478        4529        4528
         4        4478        4479        4530        4529
         4        4479        4480        4531        4530
         4        4480        4481        4532        4531
         4        4481        4482        4533        4532
         4        4482        4483        4534        4533
         4        4483        4484        4535        4534
         4        4484        4485        4536        4535
         4        4485        4486        4537        4536
         4        4486        4487        4538        4537
         4        4488        4489        4540        4539
         4        4489        4490        4541        4540
         4        4490        4491        4542        4541
         4        4491        4492        4543        4542
         4        4492        4493        4544        4543
         4        4493        4494        4545        4544
         4        4494        4495        4546        4545
         4        4495        4496        4547        4546
         4        4496        4497        4548        4547
         4        4497        4498        4549        4548
         4        4498        4499        4550        4549
         4        4499        4500        4551        4550
         4        4500        4501        4552        4551
         4        4501        4502        4553        4552
         4        4502        4503        4554        4553
         4        4503        4504        4555        4554
         4        4504        4505        4556        4555
         4        4505        4506        4557        4556
         4        4506        4507        4558        4557
         4        4507        4508        4559        4558
         4        4508        4509        4560        4559
         4        4509        4510        4561        4560
         4        4510        4511        4562        4561
         4        4511        4512        4563        4562
         4        4512        4513        4564        4563
         4        4513        4514        4565        4564
         4        4514        4515        4566        4565
         4        4515        4516        4567        4566
         4        4516        4517        4568        4567
         4        4517        4518        4569        4568
         4        4518        4519        4570        4569
         4        4519        4520        4571        4570
         4        4520        4521        4572        4571
         4        4521        4522        4573        4572
         4        4522        4523        4574        4573
         4        4523        4524        4575        4574
         4        4524        4525        4576        4575
         4        4525        4526        4577        4576
         4        4526        4527        4578        4577
         4        4527        4528        4579        4578
         4        4528        4529        4580        4579
         4        4529        4530        4581        4580
         4        4530        4531        4582        4581
         4        4531        4532        4583        4582
         4        4532        4533        4584        4583
         4        4533        4534        4585        4584
         4        4534        4535        4586        4585
         4        4535        4536        4587        4586
         4        4536        4537        4588        4587
         4        4537        4538        4589        4588
         4        4539        4540        4591        4590
         4        4540        4541        4592        4591
         4        4541        4542        4593        4592
         4        4542        4543        4594        4593
         4        4543        4544        4595        4594
         4        4544        4545        4596        4595
         4        4545        4546        4597        4596
         4        4546        4547        4598        4597
         4        4547        4548        4599        4598
         4        4548        4549        4600        4599
         4        4549        4550        4601        4600
         4        4550        4551        4602        4601
         4        4551        4552        4603        4602
         4        4552        4553        4604        4603
         4        4553        4554        4605        4604
         4        4554        4555        4606        4605
         4        4555        4556        4607        4606
         4        4556        4557        4608        4607
         4        4557        4558        4609        4608
         4        4558        4559        4610        4609
         4        4559        4560        4611        4610
         4        4560        4561        4612        4611
         4        4561        4562        4613        4612
         4        4562        4563        4614        4613
         4        4563        4564        4615        4614
         4        4564        4565        4616        4615
         4        4565        4566        4617        4616
         4        4566        4567        4618        4617
         4        4567        4568        4619        4618
         4        4568        4569        4620        4619
         4        4569        4570        4621        4620
         4        4570        4571        4622        4621
         4        4571        4572        4623        4622
         4        4572        4573        4624        4623
         4        4573        4574        4625        4624
         4        4574        4575        4626        4625
         4        4575        4576        4627        4626
         4        4576        4577        4628        4627
         4        4577        4578        4629        4628
         4        4578        4579        4630        4629
         4        4579        4580        4631        4630
         4        4580        4581        4632        4631
         4        4581        4582        4633        4632
         4        4582        4583        4634        4633
         4        4583        4584        4635        4634
         4        4584        4585        4636        4635
         4        4585        4586        4637        4636
         4        4586        4587        4638        4637
         4        4587        4588        4639        4638
         4        4588        4589        4640        4639
         4        4590        4591        4642        4641
         4        4591        4592        4643        4642
         4        4592        4593        4644        4643
         4        4593        4594        4645        4644
         4        4594        4595        4646        4645
         4        4595        4596        4647        4646
         4        4596        4597        4648        4647
         4        4597        4598        4649        4648
         4        4598        4599        4650        4649
         4        4599        4600        4651        4650
         4        4600        4601        4652        4651
         4        4601        4602        4653        4652
         4        4602        4603        4654        4653
         4        4603        4604        4655        4654
         4        4604        4605        4656        4655
         4        4605        4606        4657        4656
         4        4606        4607        4658        4657
         4        4607        4608        4659        4658
         4        4608        4609        4660        4659
         4        4609        4610        4661        4660
         4        4610        4611        4662        4661
         4        4611        4612        4663        4662
         4        4612        4613        4664        4663
         4        4613        4614        4665        4664
         4        4614        4615        4666        4665
         4        4615        4616        4667        4666
         4        4616        4617        4668        4667
         4        4617        4618        4669        4668
         4        4618        4619        4670        4669
         4        4619        4620        4671        4670
         4        4620        4621        4672        4671
         4        4621        4622        4673        4672
         4        4622        4623        4674        4673
         4        4623        4624        4675        4674
         4        4624        4625        4676        4675
         4        4625        4626        4677        4676
         4        4626        4627        4678        4677
         4        4627        4628        4679        4678
         4        4628        4629        4680        4679
         4        4629        4630        4681        4680
         4        4630        4631        4682        4681
         4        4631        4632        4683        4682
         4        4632        4633        4684        4683
         4        4633        4634        4685        4684
         4        4634        4635        4686        4685
         4        4635        4636        4687        4686
         4        4636        4637        4688        4687
         4        4637        4638        4689        4688
         4        4638        4639        4690        4689
         4        4639        4640        4691        4690
         4        4641        4642        4693        4692
         4        4642        4643        4694        4693
         4        4643        4644        4695        4694
         4        4644        4645        4696        4695
         4        4645        4646        4697        4696
         4        4646        4647        4698        4697
         4        4647        4648        4699        4698
         4        4648        4649        4700        4699
         4        4649        4650        4701        4700
         4        4650        4651        4702        4701
         4        4651        4652        4703        4702
         4        4652        4653        4704        4703
         4        4653        4654        4705        4704
         4        4654        4655        4706        4705
         4        4655        4656        4707        4706
         4        4656        4657        4708        4707
         4        4657        4658        4709        4708
         4        4658        4659        4710        4709
         4        4659        4660        4711        4710
         4        4660        4661        4712        4711
         4        4661        4662        4713        4712
         4        4662        4663        4714        4713
         4        4663        4664        4715        4714
         4        4664        4665        4716        4715
         4        4665        4666        4717        4716
         4        4666        4667        4718        4717
         4        4667        4668        4719        4718
         4        4668        4669        4720        4719
         4        4669        4670        4721        4720
         4        4670        4671        4722        4721
         4        4671        4672        4723        4722
         4        4672        4673        4724        4723
         4        4673        4674        4725        4724
         4        4674        4675        4726        4725
         4        4675        4676        4727        4726
         4        4676        4677        4728        4727
         4        4677        4678        4729        4728
         4        4678        4679        4730        4729
         4        4679        4680        4731        4730
         4        4680        4681        4732        4731
         4        4681        4682        4733        4732
         4        4682        4683        4734        4733
         4        4683        4684        4735        4734
         4        4684        4685        4736        4735
         4        4685        4686        4737        4736
         4        4686        4687        4738        4737
         4        4687        4688        4739        4738
         4        4688        4689        4740        4739
         4        4689        4690        4741        4740
         4        4690        4691        4742        4741
         4        4692        4693        4744        4743
         4        4693        4694        4745        4744
         4        4694        4695        4746        4745
         4        4695        4696        4747        4746
         4        4696        4697        4748        4747
         4        4697        4698        4749        4748
         4        4698        4699        4750        4749
         4        4699        4700        4751        4750
         4        4700        4701        4752        4751
         4        4701        4702        4753        4752
         4        4702        4703        4754        4753
         4        4703        4704        4755        4754
         4        4704        4705        4756        4755
         4        4705        4706        4757        4756
         4        4706        4707        4758        4757
         4        4707        4708        4759        4758
         4        4708        4709        4760        4759
         4        4709        4710        4761        4760
         4        4710        4711        4762        4761
         4        4711        4712        4763        4762
         4        4712        4713        4764        4763
         4        4713        4714        4765        4764
         4        4714        4715        4766        4765
         4        4715        4716        4767        4766
         4        4716        4717        4768        4767
         4        4717        4718        4769        4768
         4        4718        4719        4770        4769
         4        4719        4720        4771        4770
         4        4720        4721        4772        4771
         4        4721        4722        4773        4772
         4        4722        4723        4774        4773
         4        4723        4724        4775        4774
         4        4724        4725        4776        4775
         4        4725        4726        4777        4776
         4        4726        4727        4778        4777
         4        4727        4728        4779        4778
         4        4728        4729        4780        4779
         4        4729        4730        4781        4780
         4        4730        4731        4782        4781
         4        4731        4732        4783        4782
         4        4732        4733        4784        4783
         4        4733        4734        4785        4784
         4        4734        4735        4786        4785
         4        4735        4736        4787        4786
         4        4736        4737        4788        4787
         4        4737        4738        4789        4788
         4        4738        4739        4790        4789
         4        4739        4740        4791        4790
         4        4740        4741        4792        4791
         4        4741        4742        4793        4792
         4        4743        4744        4795        4794
         4        4744        4745        4796        4795
         4        4745        4746        4797        4796
         4        4746        4747        4798        4797
         4        4747        4748        4799        4798
         4        4748        4749        4800        4799
         4        4749        4750        4801        4800
         4        4750        4751        4802        4801
         4        4751        4752        4803        4802
         4        4752        4753        4804        4803
         4        4753        4754        4805        4804
         4        4754        4755        4806        4805
         4        4755        4756        4807        4806
         4        4756        4757        4808        4807
         4        4757        4758        4809        4808
         4        4758        4759        4810        4809
         4        4759        4760        4811        4810
         4        4760        4761        4812        4811
         4        4761        4762        4813        4812
         4        4762        4763        4814        4813
         4        4763        4764        4815        4814
         4        4764        4765        4816        4815
         4        4765        4766        4817        4816
         4        4766        4767        4818        4817
         4        4767        4768        4819        4818
         4        4768        4769        4820        4819
         4        4769        4770        4821        4820
         4        4770        4771        4822        4821
         4        4771        4772        4823        4822
         4        4772        4773        4824        4823
         4        4773        4774        4825        4824
         4        4774        4775        4826        4825
         4        4775        4776        4827        4826
         4        4776        4777        4828        4827
         4        4777        4778        4829        4828
         4        4778        4779        4830        4829
         4        4779        4780        4831        4830
         4        4780        4781        4832        4831
         4        4781        4782        4833        4832
         4        4782        4783        4834        4833
         4        4783        4784        4835        4834
         4        4784        4785        4836        4835
         4        4785        4786        4837        4836
         4        4786        4787        4838        4837
         4        4787        4788        4839        4838
         4        4788        4789        4840        4839
         4        4789        4790        4841        4840
         4        4790        4791        4842        4841
         4        4791        4792        4843        4842
         4        4792        4793        4844        4843
         4        4794        4795        4846        4845
         4        4795        4796        4847        4846
         4        4796        4797        4848        4847
         4        4797        4798        4849        4848
         4        4798        4799        4850        4849
         4        4799        4800        4851        4850
         4        4800        4801        4852        4851
         4        4801        4802        4853        4852
         4        4802        4803        4854        4853
         4        4803        4804        4855        4854
         4        4804        4805        4856        4855
         4        4805        4806        4857        4856
         4        4806        4807        4858        4857
         4        4807        4808        4859        4858
         4        4808        4809        4860        4859
         4        4809        4810        4861        4860
         4        4810        4811        4862        4861
         4        4811        4812        4863        4862
         4        4812        4813        4864        4863
         4        4813        4814        4865        4864
         4        4814        4815        4866        4865
         4        4815        4816        4867        4866
         4        4816        4817        4868        4867
         4        4817        4818        4869        4868
         4        4818        4819        4870        4869
         4        4819        4820        4871        4870
         4        4820        4821        4872        4871
         4        4821        4822        4873        4872
         4        4822        4823        4874        4873
         4        4823        4824        4875        4874
         4        4824        4825        4876        4875
         4        4825        4826        4877        4876
         4        4826        4827        4878        4877
         4        4827        4828        4879        4878
         4        4828        4829        4880        4879
         4        4829        4830        4881        4880
         4        4830        4831        4882        4881
         4        4831        4832        4883        4882
         4        4832        4833        4884        4883
         4        4833        4834        4885        4884
         4        4834        4835        4886        4885
         4        4835        4836        4887        4886
         4        4836        4837        4888        4887
         4        4837        4838        4889        4888
         4        4838        4839        4890        4889
         4        4839        4840        4891        4890
         4        4840        4841        4892        4891
         4        4841        4842        4893        4892
         4        4842        4843        4894        4893
         4        4843        4844        4895        4894
         4        4845        4846        4897        4896
         4        4846        4847        4898        4897
         4        4847        4848        4899        4898
         4        4848        4849        4900        4899
         4        4849        4850        4901        4900
         4        4850        4851        4902        4901
         4        4851        4852        4903        4902
         4        4852        4853        4904        4903
         4        4853        4854        4905        4904
         4        4854        4855        4906        4905
         4        4855        4856        4907        4906
         4        4856        4857        4908        4907
         4        4857        4858        4909        4908
         4        4858        4859        4910        4909
         4        4859        4860        4911        4910
         4        4860        4861        4912        4911
         4        4861        4862        4913        4912
         4        4862        4863        4914        4913
         4        4863        4864        4915        4914
         4        4864        4865        4916        4915
         4        4865        4866        4917        4916
         4        4866        4867        4918        4917
         4        4867        4868        4919        4918
         4        4868        4869        4920        4919
         4        4869        4870        4921        4920
         4        4870        4871        4922        4921
         4        4871        4872        4923        4922
         4        4872        4873        4924        4923
         4        4873        4874        4925        4924
         4        4874        4875        4926        4925
         4        4875        4876        4927        4926
         4        4876        4877        4928        4927
         4        4877        4878        4929        4928
         4        4878        4879        4930        4929
         4        4879        4880        4931        4930
         4        4880        4881        4932        4931
         4        4881        4882        4933        4932
         4        4882        4883        4934        4933
         4        4883        4884        4935        4934
         4        4884        4885        4936        4935
         4        4885        4886        4937        4936
         4        4886        4887        4938        4937
         4        4887        4888        4939        4938
         4        4888        4889        4940        4939
         4        4889        4890        4941        4940
         4        4890        4891        4942        4941
         4        4891        4892        4943        4942
         4        4892        4893        4944        4943
         4        4893        4894        4945        4944
         4        4894        4895        4946        4945
         4        4896        4897        4948        4947
         4        4897        4898        4949        4948
         4        4898        4899        4950        4949
         4        4899        4900        4951        4950
         4        4900        4901        4952        4951
         4        4901        4902        4953        4952
         4        4902        4903        4954        4953
         4        4903        4904        4955        4954
         4        4904        4905        4956        4955
         4        4905        4906        4957        4956
         4        4906        4907        4958        4957
         4        4907        4908        4959        4958
         4        4908        4909        4960        4959
         4        4909        4910        4961        4960
         4        4910        4911        4962        4961
         4        4911        4912        4963        4962
         4        4912        4913        4964        4963
         4        4913        4914        4965        4964
         4        4914        4915        4966        4965
         4        4915        4916        4967        4966
         4        4916        4917        4968        4967
         4        4917        4918        4969        4968
         4        4918        4919        4970        4969
         4        4919        4920        4971        4970
         4        4920        4921        4972        4971
         4        4921        4922        4973        4972
         4        4922        4923        4974        4973
         4        4923        4924        4975        4974
         4        4924        4925        4976        4975
         4        4925        4926        4977        4976
         4        4926        4927        4978        4977
         4        4927        4928        4979        4978
         4        4928        4929        4980        4979
         4        4929        4930        4981        4980
         4        4930        4931        4982        4981
         4        4931        4932        4983        4982
         4        4932        4933        4984        4983
         4        4933        4934        4985        4984
         4        4934        4935        4986        4985
         4        4935        4936        4987        4986
         4        4936        4937        4988        4987
         4        4937        4938        4989        4988
         4        4938        4939        4990        4989
         4        4939        4940        4991        4990
         4        4940        4941        4992        4991
         4        4941        4942        4993        4992
         4        4942        4943        4994        4993
         4        4943        4944        4995        4994
         4        4944        4945        4996        4995
         4        4945        4946        4997        4996
         4        4947        4948        4999        4998
         4        4948        4949        5000        4999
         4        4949        4950        5001        5000
         4        4950        4951        5002        5001
         4        4951        4952        5003        5002
         4        4952        4953        5004        5003
         4        4953        4954        5005        5004
         4        4954        4955        5006        5005
         4        4955        4956        5007        5006
         4        4956        4957        5008        5007
         4        4957        4958        5009        5008
         4        4958        4959        5010        5009
         4        4959        4960        5011        5010
         4        4960        4961        5012        5011
         4        4961        4962        5013        5012
         4        4962        4963        5014        5013
         4        4963        4964        5015        5014
         4        4964        4965        5016        5015
         4        4965        4966        5017        5016
         4        4966        4967        5018        5017
         4        4967        4968        5019        5018
         4        4968        4969        5020        5019
         4        4969        4970        5021        5020
         4        4970        4971        5022        5021
         4        4971        4972        5023        5022
         4        4972        4973        5024        5023
         4        4973        4974        5025        5024
         4        4974        4975        5026        5025
         4        4975        4976        5027        5026
         4        4976        4977        5028        5027
         4        4977        4978        5029        5028
         4        4978        4979        5030        5029
         4        4979        4980        5031        5030
         4        4980        4981        5032        5031
         4        4981        4982        5033        5032
         4        4982        4983        5034        5033
         4        4983        4984        5035        5034
         4        4984        4985        5036        5035
         4        4985        4986        5037        5036
         4        4986        4987        5038        5037
         4        4987        4988        5039        5038
         4        4988        4989        5040        5039
         4        4989        4990        5041        5040
         4        4990        4991        5042        5041
         4        4991        4992        5043        5042
         4        4992        4993        5044        5043
         4        4993        4994        5045        5044
         4        4994        4995        5046        5045
         4        4995        4996        5047        5046
         4        4996        4997        5048        5047
         4        4998        4999        5050        5049
         4        4999        5000        5051        5050
         4        5000        5001        5052        5051
         4        5001        5002        5053        5052
         4        5002        5003        5054        5053
         4        5003        5004        5055        5054
         4        5004        5005        5056        5055
         4        5005        5006        5057        5056
         4        5006        5007        5058        5057
         4        5007        5008        5059        5058
         4        5008        5009        5060        5059
         4        5009        5010        5061        5060
         4        5010        5011        5062        5061
         4        5011        5012        5063        5062
         4        5012        5013        5064        5063
         4        5013        5014        5065        5064
         4        5014        5015        5066        5065
         4        5015        5016        5067        5066
         4        5016        5017        5068        5067
         4        5017        5018        5069        5068
         4        5018        5019        5070        5069
         4        5019        5020        5071        5070
         4        5020        5021        5072        5071
         4        5021        5022        5073        5072
         4        5022        5023        5074        5073
         4        5023        5024        5075        5074
         4        5024        5025        5076        5075
         4        5025        5026        5077        5076
         4        5026        5027        5078        5077
         4        5027        5028        5079        5078
         4        5028        5029        5080        5079
         4        5029        5030        5081        5080
         4        5030        5031        5082        5081
         4        5031        5032        5083        5082
         4        5032        5033        5084        5083
         4        5033        5034        5085        5084
         4        5034        5035        5086        5085
         4        5035        5036        5087        5086
         4        5036        5037        5088        5087
         4        5037        5038        5089        5088
         4        5038        5039        5090        5089
         4        5039        5040        5091        5090
         4        5040        5041        5092        5091
         4        5041        5042        5093        5092
         4        5042        5043        5094        5093
         4        5043        5044        5095        5094
         4        5044        5045        5096        5095
         4        5045        5046        5097        5096
         4        5046        5047        5098        5097
         4        5047        5048        5099        5098
         4        5049        5050        5101        5100
         4        5050        5051        5102        5101
         4        5051        5052        5103        5102
         4        5052        5053        5104        5103
         4        5053        5054        5105        5104
         4        5054        5055        5106        5105
         4        5055        5056        5107        5106
         4        5056        5057        5108        5107
         4        5057        5058        5109        5108
         4        5058        5059        5110        5109
         4        5059        5060        5111        5110
         4        5060        5061        5112        5111
         4        5061        5062        5113        5112
         4        5062        5063        5114        5113
         4        5063        5064        5115        5114
         4        5064        5065        5116        5115
         4        5065        5066        5117        5116
         4        5066        5067        5118        5117
         4        5067        5068        5119        5118
         4        5068        5069        5120        5119
         4        5069        5070        5121        5120
         4        5070        5071        5122        5121
         4        5071        5072        5123        5122
         4        5072        5073        5124        5123
         4        5073        5074        5125        5124
         4        5074        5075        5126        5125
         4        5075        5076        5127        5126
         4        5076        5077        5128        5127
         4        5077        5078        5129        5128
         4        5078        5079        5130        5129
         4        5079        5080        5131        5130
         4        5080        5081        5132        5131
         4        5081        5082        5133        5132
         4        5082        5083        5134        5133
         4        5083        5084        5135        5134
         4        5084        5085        5136        5135
         4        5085        5086        5137        5136
         4        5086        5087        5138        5137
         4        5087        5088        5139        5138
         4        5088        5089        5140        5139
         4        5089        5090        5141        5140
         4        5090        5091        5142        5141
         4        5091        5092        5143        5142
         4        5092        5093        5144        5143
         4        5093        5094        5145        5144
         4        5094        5095        5146        5145
         4        5095        5096        5147        5146
         4        5096        5097        5148        5147
         4        5097        5098        5149        5148
         4        5098        5099        5150        5149
CELL_TYPES       5000
9
9
9
9
9
9
9
9
9
9
9
9
9
9
9
9
9
9
9
9
9
9
9
9
9
9
9
9
9
9
9
9
9
9
9
9
9
9
9
9
9
9
9
9
9
9
9
9
9
9
9
9
9
9
9
9
9
9
9
9
9
9
9
9
9
9
9
9
9
9
9
9
9
9
9
9
9
9
9
9
9
9
9
9
9
9
9
9
9
9
9
9
9
9
9
9
9
9
9
9
9
9
9
9
9
9
9
9
9
9
9
9
9
9
9
9
9
9
9
9
9
9
9
9
9
9
9
9
9
9
9
9
9
9
9
9
9
9
9
9
9
9
9
9
9
9
9
9
9
9
9
9
9
9
9
9
9
9
9
9
9
9
9
9
9
9
9
9
9
9
9
9
9
9
9
9
9
9
9
9
9
9
9
9
9
9
9
9
9
9
9
9
9
9
9
9
9
9
9
9
9
9
9
9
9
9
9
9
9
9
9
9
9
9
9
9
9
9
9
9
9
9
9
9
9
9
9
9
9
9
9
9
9
9
9
9
9
9
9
9
9
9
9
9
9
9
9
9
9
9
9
9
9
9
9
9
9
9
9
9
9
9
9
9
9
9
9
9
9
9
9
9
9
9
9
9
9
9
9
9
9
9
9
9
9
9
9
9
9
9
9
9
9
9
9
9
9
9
9
9
9
9
9
9
9
9
9
9
9
9
9
9
9
9
9
9
9
9
9
9
9
9
9
9
9
9
9
9
9
9
9
9
9
9
9
9
9
9
9
9
9
9
9
9
9
9
9
9
9
9
9
9
9
9
9
9
9
9
9
9
9
9
9
9
9
9
9
9
9
9
9
9
9
9
9
9
9
9
9
9
9
9
9
9
9
9
9
9
9
9
9
9
9
9
9
9
9
9
9
9
9
9
9
9
9
9
9
9
9
9
9
9
9
9
9
9
9
9
9
9
9
9
9
9
9
9
9
9
9
9
9
9
9
9
9
9
9
9
9
9
9
9
9
9
9
9
9
9
9
9
9
9
9
9
9
9
9
9
9
9
9
9
9
9
9
9
9
9
9
9
9
9
9
9
9
9
9
9
9
9
9
9
9
9
9
9
9
9
9
9
9
9
9
9
9
9
9
9
9
9
9
9
9
9
9
9
9
9
9
9
9
9
9
9
9
9
9
9
9
9
9
9
9
9
9
9
9
9
9
9
9
9
9
9
9
9
9
9
9
9
9
9
9
9
9
9
9
9
9
9
9
9
9
9
9
9
9
9
9
9
9
9
9
9
9
9
9
9
9
9
9
9
9
9
9
9
9
9
9
9
9
9
9
9
9
9
9
9
9
9
9
9
9
9
9
9
9
9
9
9
9
9
9
9
9
9
9
9
9
9
9
9
9
9
9
9
9
9
9
9
9
9
9
9
9
9
9
9
9
9
9
9
9
9
9
9
9
9
9
9
9
9
9
9
9
9
9
9
9
9
9
9
9
9
9
9
9
9
9
9
9
9
9
9
9
9
9
9
9
9
9
9
9
9
9
9
9
9
9
9
9
9
9
9
9
9
9
9
9
9
9
9
9
9
9
9
9
9
9
9
9
9
9
9
9
9
9
9
9
9
9
9
9
9
9
9
9
9
9
9
9
9
9
9
9
9
9
9
9
9
9
9
9
9
9
9
9
9
9
9
9
9
9
9
9
9
9
9
9
9
9
9
9
9
9
9
9
9
9
9
9
9
9
9
9
9
9
9
9
9
9
9
9
9
9
9
9
9
9
9
9
9
9
9
9
9
9
9
9
9
9
9
9
9
9
9
9
9
9
9
9
9
9
9
9
9
9
9
9
9
9
9
9
9
9
9
9
9
9
9
9
9
9
9
9
9
9
9
9
9
9
9
9
9
9
9
9
9
9
9
9
9
9
9
9
9
9
9
9
9
9
9
9
9
9
9
9
9
9
9
9
9
9
9
9
9
9
9
9
9
9
9
9
9
9
9
9
9
9
9
9
9
9
9
9
9
9
9
9
9
9
9
9
9
9
9
9
9
9
9
9
9
9
9
9
9
9
9
9
9
9
9
9
9
9
9
9
9
9
9
9
9
9
9
9
9
9
9
9
9
9
9
9
9
9
9
9
9
9
9
9
9
9
9
9
9
9
9
9
9
9
9
9
9
9
9
9
9
9
9
9
9
9
9
9
9
9
9
9
9
9
9
9
9
9
9
9
9
9
9
9
9
9
9
9
9
9
9
9
9
9
9
9
9
9
9
9
9
9
9
9
9
9
9
9
9
9
9
9
9
9
9
9
9
9
9
9
9
9
9
9
9
9
9
9
9
9
9
9
9
9
9
9
9
9
9
9
9
9
9
9
9
9
9
9
9
9
9
9
9
9
9
9
9
9
9
9
9
9
9
9
9
9
9
9
9
9
9
9
9
9
9
9
9
9
9
9
9
9
9
9
9
9
9
9
9
9
9
9
9
9
9
9
9
9
9
9
9
9
9
9
9
9
9
9
9
9
9
9
9
9
9
9
9
9
9
9
9
9
9
9
9
9
9
9
9
9
9
9
9
9
9
9
9
9
9
9
9
9
9
9
9
9
9
9
9
9
9
9
9
9
9
9
9
9
9
9
9
9
9
9
9
9
9
9
9
9
9
9
9
9
9
9
9
9
9
9
9
9
9
9
9
9
9
9
9
9
9
9
9
9
9
9
9
9
9
9
9
9
9
9
9
9
9
9
9
9
9
9
9
9
9
9
9
9
9
9
9
9
9
9
9
9
9
9
9
9
9
9
9
9
9
9
9
9
9
9
9
9
9
9
9
9
9
9
9
9
9
9
9
9
9
9
9
9
9
9
9
9
9
9
9
9
9
9
9
9
9
9
9
9
9
9
9
9
9
9
9
9
9
9
9
9
9
9
9
9
9
9
9
9
9
9
9
9
9
9
9
9
9
9
9
9
9
9
9
9
9
9
9
9
9
9
9
9
9
9
9
9
9
9
9
9
9
9
9
9
9
9
9
9
9
9
9
9
9
9
9
9
9
9
9
9
9
9
9
9
9
9
9
9
9
9
9
9
9
9
9
9
9
9
9
9
9
9
9
9
9
9
9
9
9
9
9
9
9
9
9
9
9
9
9
9
9
9
9
9
9
9
9
9
9
9
9
9
9
9
9
9
9
9
9
9
9
9
9
9
9
9
9
9
9
9
9
9
9
9
9
9
9
9
9
9
9
9
9
9
9
9
9
9
9
9
9
9
9
9
9
9
9
9
9
9
9
9
9
9
9
9
9
9
9
9
9
9
9
9
9
9
9
9
9
9
9
9
9
9
9
9
9
9
9
9
9
9
9
9
9
9
9
9
9
9
9
9
9
9
9
9
9
9
9
9
9
9
9
9
9
9
9
9
9
9
9
9
9
9
9
9
9
9
9
9
9
9
9
9
9
9
9
9
9
9
9
9
9
9
9
9
9
9
9
9
9
9
9
9
9
9
9
9
9
9
9
9
9
9
9
9
9
9
9
9
9
9
9
9
9
9
9
9
9
9
9
9
9
9
9
9
9
9
9
9
9
9
9
9
9
9
9
9
9
9
9
9
9
9
9
9
9
9
9
9
9
9
9
9
9
9
9
9
9
9
9
9
9
9
9
9
9
9
9
9
9
9
9
9
9
9
9
9
9
9
9
9
9
9
9
9
9
9
9
9
9
9
9
9
9
9
9
9
9
9
9
9
9
9
9
9
9
9
9
9
9
9
9
9
9
9
9
9
9
9
9
9
9
9
9
9
9
9
9
9
9
9
9
9
9
9
9
9
9
9
9
9
9
9
9
9
9
9
9
9
9
9
9
9
9
9
9
9
9
9
9
9
9
9
9
9
9
9
9
9
9
9
9
9
9
9
9
9
9
9
9
9
9
9
9
9
9
9
9
9
9
9
9
9
9
9
9
9
9
9
9
9
9
9
9
9
9
9
9
9
9
9
9
9
9
9
9
9
9
9
9
9
9
9
9
9
9
9
9
9
9
9
9
9
9
9
9
9
9
9
9
9
9
9
9
9
9
9
9
9
9
9
9
9
9
9
9
9
9
9
9
9
9
9
9
9
9
9
9
9
9
9
9
9
9
9
9
9
9
9
9
9
9
9
9
9
9
9
9
9
9
9
9
9
9
9
9
9
9
9
9
9
9
9
9
9
9
9
9
9
9
9
9
9
9
9
9
9
9
9
9
9
9
9
9
9
9
9
9
9
9
9
9
9
9
9
9
9
9
9
9
9
9
9
9
9
9
9
9
9
9
9
9
9
9
9
9
9
9
9
9
9
9
9
9
9
9
9
9
9
9
9
9
9
9
9
9
9
9
9
9
9
9
9
9
9
9
9
9
9
9
9
9
9
9
9
9
9
9
9
9
9
9
9
9
9
9
9
9
9
9
9
9
9
9
9
9
9
9
9
9
9
9
9
9
9
9
9
9
9
9
9
9
9
9
9
9
9
9
9
9
9
9
9
9
9
9
9
9
9
9
9
9
9
9
9
9
9
9
9
9
9
9
9
9
9
9
9
9
9
9
9
9
9
9
9
9
9
9
9
9
9
9
9
9
9
9
9
9
9
9
9
9
9
9
9
9
9
9
9
9
9
9
9
9
9
9
9
9
9
9
9
9
9
9
9
9
9
9
9
9
9
9
9
9
9
9
9
9
9
9
9
9
9
9
9
9
9
9
9
9
9
9
9
9
9
9
9
9
9
9
9
9
9
9
9
9
9
9
9
9
9
9
9
9
9
9
9
9
9
9
9
9
9
9
9
9
9
9
9
9
9
9
9
9
9
9
9
9
9
9
9
9
9
9
9
9
9
9
9
9
9
9
9
9
9
9
9
9
9
9
9
9
9
9
9
9
9
9
9
9
9
9
9
9
9
9
9
9
9
9
9
9
9
9
9
9
9
9
9
9
9
9
9
9
9
9
9
9
9
9
9
9
9
9
9
9
9
9
9
9
9
9
9
9
9
9
9
9
9
9
9
9
9
9
9
9
9
9
9
9
9
9
9
9
9
9
9
9
9
9
9
9
9
9
9
9
9
9
9
9
9
9
9
9
9
9
9
9
9
9
9
9
9
9
9
9
9
9
9
9
9
9
9
9
9
9
9
9
9
9
9
9
9
9
9
9
9
9
9
9
9
9
9
9
9
9
9
9
9
9
9
9
9
9
9
9
9
9
9
9
9
9
9
9
9
9
9
9
9
9
9
9
9
9
9
9
9
9
9
9
9
9
9
9
9
9
9
9
9
9
9
9
9
9
9
9
9
9
9
9
9
9
9
9
9
9
9
9
9
9
9
9
9
9
9
9
9
9
9
9
9
9
9
9
9
9
9
9
9
9
9
9
9
9
9
9
9
9
9
9
9
9
9
9
9
9
9
9
9
9
9
9
9
9
9
9
9
9
9
9
9
9
9
9
9
9
9
9
9
9
9
9
9
9
9
9
9
9
9
9
9
9
9
9
9
9
9
9
9
9
9
9
9
9
9
9
9
9
9
9
9
9
9
9
9
9
9
9
9
9
9
9
9
9
9
9
9
9
9
9
9
9
9
9
9
9
9
9
9
9
9
9
9
9
9
9
9
9
9
9
9
9
9
9
9
9
9
9
9
9
9
9
9
9
9
9
9
9
9
9
9
9
9
9
9
9
9
9
9
9
9
9
9
9
9
9
9
9
9
9
9
9
9
9
9
9
9
9
9
9
9
9
9
9
9
9
9
9
9
9
9
9
9
9
9
9
9
9
9
9
9
9
9
9
9
9
9
9
9
9
9
9
9
9
9
9
9
9
9
9
9
9
9
9
9
9
9
9
9
9
9
9
9
9
9
9
9
9
9
9
9
9
9
9
9
9
9
9
9
9
9
9
9
9
9
9
9
9
9
9
9
9
9
9
9
9
9
9
9
9
9
9
9
9
9
9
9
9
9
9
9
9
9
9
9
9
9
9
9
9
9
9
9
9
9
9
9
9
9
9
9
9
9
9
9
9
9
9
9
9
9
9
9
9
9
9
9
9
9
9
9
9
9
9
9
9
9
9
9
9
9
9
9
9
9
9
9
9
9
9
9
9
9
9
9
9
9
9
9
9
9
9
9
9
9
9
9
9
9
9
9
9
9
9
9
9
9
9
9
9
9
9
9
9
9
9
9
9
9
9
9
9
9
9
9
9
9
9
9
9
9
9
9
9
9
9
9
9
9
9
9
9
9
9
9
9
9
9
9
9
9
9
9
9
9
9
9
9
9
9
9
9
9
9
9
9
9
9
9
9
9
9
9
9
9
9
9
9
9
9
9
9
9
9
9
9
9
9
9
9
9
9
9
9
9
9
9
9
9
9
9
9
9
9
9
9
9
9
9
9
9
9
9
9
9
9
9
9
9
9
9
9
9
9
9
9
9
9
9
9
9
9
9
9
9
9
9
9
9
9
9
9
9
9
9
9
9
9
9
9
9
9
9
9
9
9
9
9
9
9
9
9
9
9
9
9
9
9
9
9
9
9
9
9
9
9
9
9
9
9
9
9
9
9
9
9
9
9
9
9
9
9
9
9
9
9
9
9
9
9
9
9
9
9
9
9
9
9
9
9
9
9
9
9
9
9
9
9
9
9
9
9
9
9
9
9
9
9
9
9
9
9
9
9
9
9
9
9
9
9
9
9
9
9
9
9
9
9
9
9
9
9
9
9
9
9
9
9
9
9
9
9
9
9
9
9
9
9
9
9
9
9
9
9
9
9
9
9
9
9
9
9
9
9
9
9
9
9
9
9
9
9
9
9
9
9
9
9
9
9
9
9
9
9
9
9
9
9
9
9
9
9
9
9
9
9
9
9
9
9
9
9
9
9
9
9
9
9
9
9
9
9
9
9
9
9
9
9
9
9
9
9
9
9
9
9
9
9
9
9
9
9
9
9
9
9
9
9
9
9
9
9
9
9
9
9
9
9
9
9
9
9
9
9
9
9
9
9
9
9
9
9
9
9
9
9
9
9
9
9
9
9
9
9
9
9
9
9
9
9
9
9
9
9
9
9
9
9
9
9
9
9
9
9
9
9
9
9
9
9
9
9
9
9
9
9
9
9
9
9
9
9
9
9
9
9
9
9
9
9
9
9
9
9
9
9
9
9
9
9
9
9
9
9
9
9
9
9
9
9
9
9
9
9
9
9
9
9
9
9
9
9
9
9
9
9
9
9
9
9
9
9
9
9
9
9
9
9
9
9
9
9
9
9
9
9
9
9
9
9
9
9
9
9
9
9
9
9
9
9
9
9
9
9
9
9
9
9
9
9
9
9
9
9
9
9
9
9
9
9
9
9
9
9
9
9
9
9
9
9
9
9
9
9
9
9
9
9
9
9
9
9
9
9
9
9
9
9
9
9
9
9
9
9
9
9
9
9
9
9
9
9
9
9
9
9
9
9
9
9
9
9
9
9
9
9
9
9
9
9
9
9
9
9
9
9
9
9
9
9
9
9
9
9
9
9
9
9
9
9
9
9
9
9
9
9
9
9
9
9
9
9
9
9
9
9
9
9
9
9
9
9
9
9
9
9
9
9
9
9
9
9
9
9
9
9
9
9
9
9
9
9
9
9
9
9
9
9
9
9
9
9
9
9
9
9
9
9
9
9
9
9
9
9
9
9
9
9
9
9
9
9
9
9
9
9
9
9
9
9
9
9
9
9
9
9
9
9
9
9
9
9
9
9
9
9
9
9
9
9
9
9
9
9
9
9
9
9
9
9
9
9
9
9
9
9
9
9
9
9
9
9
9
9
9
9
9
9
9
9
9
9
9
9
9
9
9
9
9
9
9
9
9
9
9
9
9
9
9
9
9
9
9
9
9
9
9
9
9
9
9
9
9
9
9
9
9
9
9
9
9
9
9
9
9
9
9
9
9
9
9
9
9
9
9
9
9
9
9
9
9
9
9
9
9
9
9
9
9
9
9
9
9
9
9
9
9
9
9
9
9
9
9
9
9
9
9
9
9
9
9
9
9
9
9
9
9
9
9
9
9
9
9
9
9
9
9
9
9
9
9
9
9
9
9
9
9
9
9
9
9
9
9
9
9
9
9
9
9
9
9
9
9
9
9
9
9
9
9
9
9
9
9
9
9
9
9
9
9
9
9
9
9
9
9
9
9
9
9
9
9
9
9
9
9
9
9
9
9
9
9
9
9
9
9
9
9
9
9
9
9
9
9
9
9
9
9
9
9
9
9
9
9
9
9
9
9
9
9
9
9
9
9
9
9
9
9
9
9
9
9
9
9
9
9
9
9
9
9
9
9
9
9
9
9
9
9
9
9
9
9
9
9
9
9
9
9
9
9
9
9
9
9
9
9
9
9
9
9
9
9
9
9
9
9
9
9
9
9
9
9
9
9
9
9
9
9
9
9
9
9
9
9
9
9
9
9
9
9
9
9
9
9
9
9
9
9
9
9
9
9
9
9
9
9
9
9
9
9
9
9
9
9
9
9
9
9
9
9
9
9
9
9
9
9
9
9
9
9
9
9
9
9
9
9
9
9
9
9
9
9
9
9
9
9
9
9
9
9
9
9
9
9
9
9
9
9
9
9
9
9
9
9
9
9
9
9
9
9
9
9
9
9
9
9
9
9
9
9
9
9
9
9
9
9
9
9
9
9
9
9
9
9
9
9
9
9
9
9
9
9
9
9
9
9
9
9
9
9
9
9
9
9
9
9
9
9
9
9
9
9
9
9
9
9
9
9
9
9
9
9
9
9
9
9
9
9
9
9
9
9
9
9
9
9
9
9
9
9
9
9
9
9
9
9
9
9
9
9
9
9
9
9
9
9
9
9
9
9
9
9
9
9
9
9
9
9
9
9
9
9
9
9
9
9
9
9
9
9
9
9
9
9
9
9
9
9
9
9
9
9
9
9
9
9
9
9
9
9
9
9
9
9
9
9
9
9
9
9
9
9
9
9
9
9
9
9
9
9
9
9
9
9
9
9
9
9
9
9
9
9
9
9
9
9
9
9
9
9
9
9
9
9
9
9
9
9
9
9
9
9
9
9
9
9
9
9
9
9
9
9
9
9
9
9
9
9
9
9
9
9
9
9
9
9
9
9
9
9
9
9
9
9
9
9
9
9
9
9
9
9
9
9
9
9
9
9
9
9
9
9
9
9
9
9
9
9
9
9
9
9
9
9
9
9
9
9
9
9
9
9
9
9
9
9
9
9
9
9
9
9
9
9
9
9
9
9
9
9
9
9
9
9
9
9
9
9
9
9
9
9
9
9
9
9
9
9
9
9
9
9
9
9
9
9
9
9
9
9
9
9
9
9
9
9
9
9
9
9
9
9
9
9
9
9
9
9
9
9
9
9
9
9
9
9
9
9
9
9
9
9
9
9
9
9
9
9
9
9
9
9
9
9
9
9
9
9
9
9
9
9
9
9
9
9
9
9
9
9
9
9
9
9
9
9
9
9
9
9
9
9
9
9
9
9
9
9
9
9
9
9
9
9
9
9
9
9
9
9
9
9
9
9
9
9
9
9
9
9
9
9
9
9
9
9
9
9
9
9
9
9
9
9
9
9
9
9
9
9
9
9
9
9
9
9
9
9
9
9
9
9
9
9
9
9
9
9
9
9
9
9
9
9
9
9
9
9
9
9
9
9
9
9
9
9
9
9
9
9
9
9
9
9
9
9
9
9
9
9
9
9
9
9
9
9
9
9
9
9
9
9
9
9
9
9
9
9
9
9
9
9
9
9
9
9
9
9
9
9
9
9
9
9
9
9
9
9
9
9
9
9
9
9
9
9
9
9
9
9
9
9
9
9
9
9
9
9
9
9
9
9
9
9
9
9
9
9
9
9
9
9
9
9
9
9
9
9
9
9
9
9
9
9
9
9
9
9
9
9
9
9
9
9
9
9
9
9
9
9
9
9
9
9
9
9
9
9
9
9
9
9
9
9
9
9
9
9
9
9
9
9
9
9
9
9
9
9
9
9
9
9
9
9
9
9
9
9
9
9
9
9
9
9
9
9
9
9
9
9
9
9
9
9
9
9
9
9
9
9
9
9
9
9
9
9
9
9
9
9
9
9
9
9
9
9
9
9
9
9
9
9
9
9
9
9
9
9
9
9
9
9
9
9
9
9
9
9
9
9
9
9
9
9
9
9
9
9
9
9
9
9
9
9
9
9
9
9
9
9
9
9
9
9
9
9
9
9
9
9
9
9
9
9
9
9
9
9
9
9
9
9
9
9
9
9
9
9
9
9
9
9
9
9
9
9
9
9
9
9
9
9
9
9
9
9
9
9
9
9
9
9
9
9
9
9
9
9
9
9
9
9
9
9
9
9
9
9
9
9
9
9
9
9
9
9
9
9
9
9
9
9
9
9
9
9
9
9
9
9
9
9
9
9
9
9
9
9
9
9
9
9
9
9
9
9
9
9
9
9
9
9
9
9
9
9
9
9
9
9
9
9
9
9
9
9
9
9
9
9
9
9
9
9
9
9
9
9
9
9
9
9
9
9
9
9
9
9
9
9
9
9
9
9
9
9
9
9
9
9
9
9
9
9
9
9
9
9
9
9
9
9
9
9
9
9
9
9
9
9
9
9
9
9
9
9
9
9
9
9
9
9
9
9
9
9
9
9
9
9
9
9
9
9
9
9
9
9
9
9
9
9
9
9
9
9
9
9
9
9
9
9
9
9
9
9
9
9
9
9
9
9
9
9
9
9
9
9
9
9
9
9
9
9
9
9
9
9
9
9
9
9
9
9
9
9
9
9
9
9
9
9
9
9
9
9
9
9
9
9
9
9
9
9
9
9
9
9
9
9
9
9
9
9
9
9
9
9
9
9
9
9
9
9
9
9
9
9
9
9
9
9
9
9
9
9
9
9
9
9
9
9
9
9
9
9
9
9
9
9
9
9
9
9
9
9
9
9
9
9
9
9
9
9
9
9
9
9
9
9
9
9
9
9
9
9
9
9
9
9
9
9
9
9
9
9
9
9
9
9
9
9
9
9
9
9
9
9
9
9
9
9
9
9
9
9
9
9
9
9
9
9
9
9
9
9
9
9
9
9
9
9
9
9
9
9
9
9
9
9
9
9
9
9
9
9
9
9
9
9
9
9
9
9
9
9
9
9
9
9
9
9
9
9
9
9
9
9
9
9
9
9
9
9
9
9
9
9
9
9
9
9
9
9
9
9
9
9
9
9
9
9
9
9
9
9
9
9
9
9
9
9
9
9
9
9
9
9
9
9
9
9
9
9
9
9
9
9
9
9
9
9
9
9
9
9
9
POINT_DATA      5151
SCALARS p double 
LOOKUP_TABLE default
   50000000.0000000     
   50000000.0000000     
   50000000.0000000     
   50000000.0000000     
   50000000.0000000     
   50000000.0000000     
   50000000.0000000     
   50000000.0000000     
   50000000.0000000     
   50000000.0000000     
   50000000.0000000     
   50000000.0000000     
   50000000.0000000     
   50000000.0000000     
   50000000.0000000     
   50000000.0000000     
   50000000.0000000     
   50000000.0000000     
   50000000.0000000     
   50000000.0000000     
   50000000.0000000     
   50000000.0000000     
   50000000.0000000     
   50000000.0000000     
   50000000.0000000     
   50000000.0000000     
   50000000.0000000     
   50000000.0000000     
   50000000.0000000     
   50000000.0000000     
   50000000.0000000     
   50000000.0000000     
   50000000.0000000     
   50000000.0000000     
   50000000.0000000     
   50000000.0000000     
   50000000.0000000     
   50000000.0000000     
   50000000.0000000     
   50000000.0000000     
   50000000.0000000     
   50000000.0000000     
   50000000.0000000     
   50000000.0000000     
   50000000.0000000     
   50000000.0000000     
   50000000.0000000     
   50000000.0000000     
   50000000.0000000     
   50000000.0000000     
   50000000.0000000     
   49999999.1461348     
   49999999.1461348     
   49999999.1461348     
   49999999.1461348     
   49999999.1461348     
   49999999.1461348     
   49999999.1461349     
   49999999.1461349     
   49999999.1461349     
   49999999.1461349     
   49999999.1461349     
   49999999.1461349     
   49999999.1461349     
   49999999.1461349     
   49999999.1461349     
   49999999.1461349     
   49999999.1461349     
   49999999.1461349     
   49999999.1461349     
   49999999.1461350     
   49999999.1461350     
   49999999.1461350     
   49999999.1461349     
   49999999.1461349     
   49999999.1461350     
   49999999.1461350     
   49999999.1461349     
   49999999.1461349     
   49999999.1461350     
   49999999.1461350     
   49999999.1461350     
   49999999.1461350     
   49999999.1461350     
   49999999.1461350     
   49999999.1461350     
   49999999.1461350     
   49999999.1461350     
   49999999.1461350     
   49999999.1461350     
   49999999.1461350     
   49999999.1461350     
   49999999.1461350     
   49999999.1461350     
   49999999.1461350     
   49999999.1461350     
   49999999.1461350     
   49999999.1461350     
   49999999.1461350     
   49999999.1461351     
   49999999.1461351     
   49999999.1461351     
   49999998.2597880     
   49999998.2597880     
   49999998.2597881     
   49999998.2597881     
   49999998.2597882     
   49999998.2597882     
   49999998.2597882     
   49999998.2597882     
   49999998.2597882     
   49999998.2597882     
   49999998.2597882     
   49999998.2597882     
   49999998.2597882     
   49999998.2597882     
   49999998.2597882     
   49999998.2597883     
   49999998.2597883     
   49999998.2597883     
   49999998.2597883     
   49999998.2597883     
   49999998.2597883     
   49999998.2597884     
   49999998.2597885     
   49999998.2597885     
   49999998.2597885     
   49999998.2597885     
   49999998.2597885     
   49999998.2597885     
   49999998.2597885     
   49999998.2597884     
   49999998.2597884     
   49999998.2597884     
   49999998.2597884     
   49999998.2597884     
   49999998.2597884     
   49999998.2597884     
   49999998.2597884     
   49999998.2597885     
   49999998.2597885     
   49999998.2597885     
   49999998.2597885     
   49999998.2597884     
   49999998.2597885     
   49999998.2597884     
   49999998.2597884     
   49999998.2597884     
   49999998.2597884     
   49999998.2597884     
   49999998.2597884     
   49999998.2597885     
   49999998.2597885     
   49999997.3072790     
   49999997.3072790     
   49999997.3072790     
   49999997.3072791     
   49999997.3072791     
   49999997.3072791     
   49999997.3072792     
   49999997.3072792     
   49999997.3072792     
   49999997.3072792     
   49999997.3072792     
   49999997.3072792     
   49999997.3072792     
   49999997.3072792     
   49999997.3072792     
   49999997.3072792     
   49999997.3072791     
   49999997.3072792     
   49999997.3072792     
   49999997.3072792     
   49999997.3072793     
   49999997.3072792     
   49999997.3072792     
   49999997.3072792     
   49999997.3072792     
   49999997.3072792     
   49999997.3072792     
   49999997.3072792     
   49999997.3072792     
   49999997.3072792     
   49999997.3072792     
   49999997.3072792     
   49999997.3072793     
   49999997.3072793     
   49999997.3072793     
   49999997.3072793     
   49999997.3072793     
   49999997.3072793     
   49999997.3072793     
   49999997.3072793     
   49999997.3072793     
   49999997.3072793     
   49999997.3072793     
   49999997.3072793     
   49999997.3072793     
   49999997.3072793     
   49999997.3072793     
   49999997.3072792     
   49999997.3072792     
   49999997.3072792     
   49999997.3072792     
   49999996.2524853     
   49999996.2524852     
   49999996.2524852     
   49999996.2524852     
   49999996.2524852     
   49999996.2524852     
   49999996.2524852     
   49999996.2524852     
   49999996.2524852     
   49999996.2524852     
   49999996.2524852     
   49999996.2524852     
   49999996.2524852     
   49999996.2524852     
   49999996.2524852     
   49999996.2524852     
   49999996.2524853     
   49999996.2524853     
   49999996.2524852     
   49999996.2524853     
   49999996.2524853     
   49999996.2524854     
   49999996.2524854     
   49999996.2524854     
   49999996.2524853     
   49999996.2524853     
   49999996.2524853     
   49999996.2524853     
   49999996.2524853     
   49999996.2524853     
   49999996.2524854     
   49999996.2524854     
   49999996.2524854     
   49999996.2524854     
   49999996.2524854     
   49999996.2524854     
   49999996.2524854     
   49999996.2524854     
   49999996.2524854     
   49999996.2524854     
   49999996.2524854     
   49999996.2524854     
   49999996.2524855     
   49999996.2524855     
   49999996.2524855     
   49999996.2524855     
   49999996.2524855     
   49999996.2524855     
   49999996.2524855     
   49999996.2524855     
   49999996.2524855     
   49999995.0555141     
   49999995.0555141     
   49999995.0555141     
   49999995.0555141     
   49999995.0555140     
   49999995.0555140     
   49999995.0555140     
   49999995.0555141     
   49999995.0555141     
   49999995.0555141     
   49999995.0555140     
   49999995.0555140     
   49999995.0555140     
   49999995.0555139     
   49999995.0555139     
   49999995.0555139     
   49999995.0555139     
   49999995.0555140     
   49999995.0555140     
   49999995.0555141     
   49999995.0555140     
   49999995.0555140     
   49999995.0555141     
   49999995.0555141     
   49999995.0555141     
   49999995.0555142     
   49999995.0555142     
   49999995.0555142     
   49999995.0555142     
   49999995.0555142     
   49999995.0555142     
   49999995.0555142     
   49999995.0555142     
   49999995.0555141     
   49999995.0555142     
   49999995.0555142     
   49999995.0555142     
   49999995.0555141     
   49999995.0555142     
   49999995.0555142     
   49999995.0555143     
   49999995.0555143     
   49999995.0555143     
   49999995.0555144     
   49999995.0555144     
   49999995.0555144     
   49999995.0555144     
   49999995.0555144     
   49999995.0555144     
   49999995.0555144     
   49999995.0555144     
   49999993.6712407     
   49999993.6712407     
   49999993.6712408     
   49999993.6712408     
   49999993.6712409     
   49999993.6712409     
   49999993.6712408     
   49999993.6712408     
   49999993.6712408     
   49999993.6712408     
   49999993.6712407     
   49999993.6712407     
   49999993.6712407     
   49999993.6712407     
   49999993.6712407     
   49999993.6712406     
   49999993.6712406     
   49999993.6712405     
   49999993.6712405     
   49999993.6712404     
   49999993.6712404     
   49999993.6712404     
   49999993.6712404     
   49999993.6712405     
   49999993.6712404     
   49999993.6712404     
   49999993.6712404     
   49999993.6712405     
   49999993.6712405     
   49999993.6712405     
   49999993.6712405     
   49999993.6712405     
   49999993.6712406     
   49999993.6712406     
   49999993.6712406     
   49999993.6712406     
   49999993.6712406     
   49999993.6712406     
   49999993.6712406     
   49999993.6712406     
   49999993.6712406     
   49999993.6712406     
   49999993.6712407     
   49999993.6712407     
   49999993.6712407     
   49999993.6712408     
   49999993.6712408     
   49999993.6712408     
   49999993.6712408     
   49999993.6712408     
   49999993.6712408     
   49999992.0476597     
   49999992.0476597     
   49999992.0476597     
   49999992.0476597     
   49999992.0476596     
   49999992.0476596     
   49999992.0476595     
   49999992.0476595     
   49999992.0476595     
   49999992.0476594     
   49999992.0476594     
   49999992.0476593     
   49999992.0476593     
   49999992.0476593     
   49999992.0476593     
   49999992.0476593     
   49999992.0476592     
   49999992.0476592     
   49999992.0476591     
   49999992.0476591     
   49999992.0476590     
   49999992.0476590     
   49999992.0476590     
   49999992.0476590     
   49999992.0476590     
   49999992.0476590     
   49999992.0476590     
   49999992.0476590     
   49999992.0476590     
   49999992.0476591     
   49999992.0476590     
   49999992.0476591     
   49999992.0476591     
   49999992.0476591     
   49999992.0476590     
   49999992.0476590     
   49999992.0476590     
   49999992.0476591     
   49999992.0476591     
   49999992.0476591     
   49999992.0476592     
   49999992.0476592     
   49999992.0476592     
   49999992.0476593     
   49999992.0476593     
   49999992.0476593     
   49999992.0476593     
   49999992.0476592     
   49999992.0476593     
   49999992.0476593     
   49999992.0476592     
   49999990.1239938     
   49999990.1239938     
   49999990.1239938     
   49999990.1239937     
   49999990.1239937     
   49999990.1239937     
   49999990.1239937     
   49999990.1239936     
   49999990.1239936     
   49999990.1239936     
   49999990.1239935     
   49999990.1239935     
   49999990.1239935     
   49999990.1239935     
   49999990.1239935     
   49999990.1239935     
   49999990.1239934     
   49999990.1239934     
   49999990.1239934     
   49999990.1239934     
   49999990.1239934     
   49999990.1239934     
   49999990.1239934     
   49999990.1239933     
   49999990.1239933     
   49999990.1239933     
   49999990.1239934     
   49999990.1239934     
   49999990.1239934     
   49999990.1239933     
   49999990.1239933     
   49999990.1239933     
   49999990.1239933     
   49999990.1239934     
   49999990.1239934     
   49999990.1239934     
   49999990.1239934     
   49999990.1239935     
   49999990.1239935     
   49999990.1239935     
   49999990.1239935     
   49999990.1239935     
   49999990.1239934     
   49999990.1239934     
   49999990.1239934     
   49999990.1239934     
   49999990.1239934     
   49999990.1239934     
   49999990.1239934     
   49999990.1239934     
   49999990.1239934     
   49999987.8284962     
   49999987.8284962     
   49999987.8284962     
   49999987.8284963     
   49999987.8284963     
   49999987.8284962     
   49999987.8284962     
   49999987.8284962     
   49999987.8284961     
   49999987.8284961     
   49999987.8284961     
   49999987.8284961     
   49999987.8284961     
   49999987.8284961     
   49999987.8284961     
   49999987.8284961     
   49999987.8284961     
   49999987.8284961     
   49999987.8284961     
   49999987.8284961     
   49999987.8284961     
   49999987.8284961     
   49999987.8284961     
   49999987.8284961     
   49999987.8284961     
   49999987.8284962     
   49999987.8284962     
   49999987.8284962     
   49999987.8284962     
   49999987.8284962     
   49999987.8284962     
   49999987.8284962     
   49999987.8284962     
   49999987.8284962     
   49999987.8284962     
   49999987.8284962     
   49999987.8284962     
   49999987.8284962     
   49999987.8284962     
   49999987.8284962     
   49999987.8284962     
   49999987.8284962     
   49999987.8284962     
   49999987.8284962     
   49999987.8284962     
   49999987.8284962     
   49999987.8284962     
   49999987.8284962     
   49999987.8284962     
   49999987.8284962     
   49999987.8284962     
   49999985.0758650     
   49999985.0758650     
   49999985.0758651     
   49999985.0758651     
   49999985.0758651     
   49999985.0758651     
   49999985.0758651     
   49999985.0758651     
   49999985.0758651     
   49999985.0758651     
   49999985.0758651     
   49999985.0758651     
   49999985.0758651     
   49999985.0758651     
   49999985.0758651     
   49999985.0758651     
   49999985.0758651     
   49999985.0758651     
   49999985.0758650     
   49999985.0758650     
   49999985.0758651     
   49999985.0758651     
   49999985.0758652     
   49999985.0758652     
   49999985.0758652     
   49999985.0758652     
   49999985.0758652     
   49999985.0758652     
   49999985.0758652     
   49999985.0758652     
   49999985.0758651     
   49999985.0758651     
   49999985.0758651     
   49999985.0758651     
   49999985.0758652     
   49999985.0758652     
   49999985.0758652     
   49999985.0758653     
   49999985.0758652     
   49999985.0758652     
   49999985.0758652     
   49999985.0758652     
   49999985.0758653     
   49999985.0758653     
   49999985.0758652     
   49999985.0758653     
   49999985.0758653     
   49999985.0758653     
   49999985.0758653     
   49999985.0758653     
   49999985.0758653     
   49999981.7641842     
   49999981.7641841     
   49999981.7641841     
   49999981.7641842     
   49999981.7641842     
   49999981.7641842     
   49999981.7641842     
   49999981.7641842     
   49999981.7641842     
   49999981.7641842     
   49999981.7641841     
   49999981.7641841     
   49999981.7641841     
   49999981.7641841     
   49999981.7641841     
   49999981.7641841     
   49999981.7641841     
   49999981.7641841     
   49999981.7641841     
   49999981.7641841     
   49999981.7641841     
   49999981.7641841     
   49999981.7641841     
   49999981.7641841     
   49999981.7641841     
   49999981.7641842     
   49999981.7641841     
   49999981.7641841     
   49999981.7641842     
   49999981.7641842     
   49999981.7641842     
   49999981.7641842     
   49999981.7641842     
   49999981.7641843     
   49999981.7641843     
   49999981.7641843     
   49999981.7641843     
   49999981.7641843     
   49999981.7641844     
   49999981.7641844     
   49999981.7641844     
   49999981.7641844     
   49999981.7641844     
   49999981.7641844     
   49999981.7641844     
   49999981.7641844     
   49999981.7641844     
   49999981.7641843     
   49999981.7641843     
   49999981.7641843     
   49999981.7641843     
   49999977.7712861     
   49999977.7712861     
   49999977.7712861     
   49999977.7712860     
   49999977.7712860     
   49999977.7712860     
   49999977.7712860     
   49999977.7712860     
   49999977.7712860     
   49999977.7712860     
   49999977.7712860     
   49999977.7712860     
   49999977.7712860     
   49999977.7712860     
   49999977.7712860     
   49999977.7712860     
   49999977.7712860     
   49999977.7712860     
   49999977.7712860     
   49999977.7712860     
   49999977.7712861     
   49999977.7712861     
   49999977.7712860     
   49999977.7712860     
   49999977.7712860     
   49999977.7712860     
   49999977.7712861     
   49999977.7712861     
   49999977.7712861     
   49999977.7712861     
   49999977.7712861     
   49999977.7712862     
   49999977.7712862     
   49999977.7712862     
   49999977.7712862     
   49999977.7712862     
   49999977.7712862     
   49999977.7712863     
   49999977.7712863     
   49999977.7712863     
   49999977.7712863     
   49999977.7712863     
   49999977.7712864     
   49999977.7712864     
   49999977.7712864     
   49999977.7712864     
   49999977.7712864     
   49999977.7712863     
   49999977.7712863     
   49999977.7712863     
   49999977.7712863     
   49999972.9504131     
   49999972.9504131     
   49999972.9504131     
   49999972.9504131     
   49999972.9504131     
   49999972.9504131     
   49999972.9504131     
   49999972.9504131     
   49999972.9504131     
   49999972.9504131     
   49999972.9504131     
   49999972.9504131     
   49999972.9504131     
   49999972.9504131     
   49999972.9504131     
   49999972.9504131     
   49999972.9504131     
   49999972.9504131     
   49999972.9504131     
   49999972.9504131     
   49999972.9504131     
   49999972.9504131     
   49999972.9504131     
   49999972.9504131     
   49999972.9504131     
   49999972.9504131     
   49999972.9504131     
   49999972.9504132     
   49999972.9504132     
   49999972.9504133     
   49999972.9504133     
   49999972.9504133     
   49999972.9504133     
   49999972.9504133     
   49999972.9504133     
   49999972.9504133     
   49999972.9504133     
   49999972.9504133     
   49999972.9504133     
   49999972.9504134     
   49999972.9504134     
   49999972.9504134     
   49999972.9504134     
   49999972.9504134     
   49999972.9504134     
   49999972.9504134     
   49999972.9504135     
   49999972.9504134     
   49999972.9504134     
   49999972.9504135     
   49999972.9504135     
   49999967.1250283     
   49999967.1250283     
   49999967.1250283     
   49999967.1250282     
   49999967.1250282     
   49999967.1250282     
   49999967.1250282     
   49999967.1250282     
   49999967.1250282     
   49999967.1250281     
   49999967.1250282     
   49999967.1250282     
   49999967.1250282     
   49999967.1250282     
   49999967.1250282     
   49999967.1250282     
   49999967.1250282     
   49999967.1250283     
   49999967.1250282     
   49999967.1250282     
   49999967.1250282     
   49999967.1250282     
   49999967.1250282     
   49999967.1250282     
   49999967.1250282     
   49999967.1250282     
   49999967.1250282     
   49999967.1250283     
   49999967.1250283     
   49999967.1250283     
   49999967.1250283     
   49999967.1250283     
   49999967.1250283     
   49999967.1250283     
   49999967.1250283     
   49999967.1250283     
   49999967.1250283     
   49999967.1250283     
   49999967.1250283     
   49999967.1250284     
   49999967.1250284     
   49999967.1250284     
   49999967.1250284     
   49999967.1250285     
   49999967.1250285     
   49999967.1250285     
   49999967.1250285     
   49999967.1250285     
   49999967.1250285     
   49999967.1250284     
   49999967.1250284     
   49999960.0826030     
   49999960.0826030     
   49999960.0826030     
   49999960.0826029     
   49999960.0826029     
   49999960.0826029     
   49999960.0826029     
   49999960.0826029     
   49999960.0826028     
   49999960.0826029     
   49999960.0826029     
   49999960.0826029     
   49999960.0826029     
   49999960.0826028     
   49999960.0826028     
   49999960.0826029     
   49999960.0826028     
   49999960.0826028     
   49999960.0826028     
   49999960.0826029     
   49999960.0826029     
   49999960.0826029     
   49999960.0826029     
   49999960.0826029     
   49999960.0826029     
   49999960.0826029     
   49999960.0826029     
   49999960.0826029     
   49999960.0826029     
   49999960.0826029     
   49999960.0826029     
   49999960.0826030     
   49999960.0826030     
   49999960.0826030     
   49999960.0826030     
   49999960.0826030     
   49999960.0826030     
   49999960.0826029     
   49999960.0826030     
   49999960.0826030     
   49999960.0826029     
   49999960.0826030     
   49999960.0826030     
   49999960.0826030     
   49999960.0826031     
   49999960.0826032     
   49999960.0826032     
   49999960.0826032     
   49999960.0826032     
   49999960.0826032     
   49999960.0826032     
   49999951.5671753     
   49999951.5671753     
   49999951.5671753     
   49999951.5671753     
   49999951.5671753     
   49999951.5671753     
   49999951.5671752     
   49999951.5671752     
   49999951.5671752     
   49999951.5671752     
   49999951.5671752     
   49999951.5671752     
   49999951.5671752     
   49999951.5671752     
   49999951.5671752     
   49999951.5671752     
   49999951.5671752     
   49999951.5671752     
   49999951.5671752     
   49999951.5671752     
   49999951.5671752     
   49999951.5671752     
   49999951.5671752     
   49999951.5671752     
   49999951.5671753     
   49999951.5671753     
   49999951.5671753     
   49999951.5671753     
   49999951.5671753     
   49999951.5671753     
   49999951.5671753     
   49999951.5671753     
   49999951.5671753     
   49999951.5671753     
   49999951.5671753     
   49999951.5671753     
   49999951.5671753     
   49999951.5671753     
   49999951.5671753     
   49999951.5671753     
   49999951.5671753     
   49999951.5671753     
   49999951.5671753     
   49999951.5671753     
   49999951.5671754     
   49999951.5671754     
   49999951.5671754     
   49999951.5671753     
   49999951.5671754     
   49999951.5671754     
   49999951.5671754     
   49999941.2704311     
   49999941.2704311     
   49999941.2704311     
   49999941.2704310     
   49999941.2704310     
   49999941.2704309     
   49999941.2704309     
   49999941.2704309     
   49999941.2704308     
   49999941.2704309     
   49999941.2704309     
   49999941.2704309     
   49999941.2704309     
   49999941.2704309     
   49999941.2704309     
   49999941.2704309     
   49999941.2704309     
   49999941.2704309     
   49999941.2704309     
   49999941.2704309     
   49999941.2704308     
   49999941.2704308     
   49999941.2704309     
   49999941.2704308     
   49999941.2704308     
   49999941.2704308     
   49999941.2704308     
   49999941.2704309     
   49999941.2704309     
   49999941.2704309     
   49999941.2704309     
   49999941.2704309     
   49999941.2704309     
   49999941.2704309     
   49999941.2704309     
   49999941.2704309     
   49999941.2704309     
   49999941.2704308     
   49999941.2704308     
   49999941.2704308     
   49999941.2704308     
   49999941.2704307     
   49999941.2704307     
   49999941.2704307     
   49999941.2704307     
   49999941.2704307     
   49999941.2704308     
   49999941.2704309     
   49999941.2704309     
   49999941.2704309     
   49999941.2704309     
   49999928.8210132     
   49999928.8210132     
   49999928.8210131     
   49999928.8210132     
   49999928.8210132     
   49999928.8210132     
   49999928.8210132     
   49999928.8210132     
   49999928.8210132     
   49999928.8210132     
   49999928.8210131     
   49999928.8210131     
   49999928.8210131     
   49999928.8210131     
   49999928.8210131     
   49999928.8210131     
   49999928.8210131     
   49999928.8210131     
   49999928.8210131     
   49999928.8210131     
   49999928.8210131     
   49999928.8210131     
   49999928.8210131     
   49999928.8210131     
   49999928.8210131     
   49999928.8210131     
   49999928.8210131     
   49999928.8210131     
   49999928.8210131     
   49999928.8210131     
   49999928.8210131     
   49999928.8210131     
   49999928.8210131     
   49999928.8210132     
   49999928.8210131     
   49999928.8210132     
   49999928.8210131     
   49999928.8210131     
   49999928.8210130     
   49999928.8210130     
   49999928.8210129     
   49999928.8210129     
   49999928.8210129     
   49999928.8210129     
   49999928.8210129     
   49999928.8210129     
   49999928.8210129     
   49999928.8210128     
   49999928.8210129     
   49999928.8210129     
   49999928.8210129     
   49999913.7717129     
   49999913.7717129     
   49999913.7717129     
   49999913.7717129     
   49999913.7717129     
   49999913.7717129     
   49999913.7717129     
   49999913.7717129     
   49999913.7717129     
   49999913.7717129     
   49999913.7717129     
   49999913.7717128     
   49999913.7717128     
   49999913.7717128     
   49999913.7717127     
   49999913.7717128     
   49999913.7717128     
   49999913.7717128     
   49999913.7717128     
   49999913.7717128     
   49999913.7717128     
   49999913.7717129     
   49999913.7717129     
   49999913.7717129     
   49999913.7717128     
   49999913.7717128     
   49999913.7717128     
   49999913.7717128     
   49999913.7717128     
   49999913.7717128     
   49999913.7717128     
   49999913.7717128     
   49999913.7717128     
   49999913.7717128     
   49999913.7717128     
   49999913.7717127     
   49999913.7717127     
   49999913.7717127     
   49999913.7717126     
   49999913.7717126     
   49999913.7717126     
   49999913.7717126     
   49999913.7717125     
   49999913.7717126     
   49999913.7717126     
   49999913.7717126     
   49999913.7717126     
   49999913.7717126     
   49999913.7717126     
   49999913.7717126     
   49999913.7717126     
   49999895.5841227     
   49999895.5841227     
   49999895.5841227     
   49999895.5841227     
   49999895.5841228     
   49999895.5841228     
   49999895.5841228     
   49999895.5841228     
   49999895.5841228     
   49999895.5841228     
   49999895.5841228     
   49999895.5841228     
   49999895.5841228     
   49999895.5841228     
   49999895.5841228     
   49999895.5841228     
   49999895.5841228     
   49999895.5841228     
   49999895.5841228     
   49999895.5841228     
   49999895.5841228     
   49999895.5841228     
   49999895.5841228     
   49999895.5841228     
   49999895.5841227     
   49999895.5841228     
   49999895.5841227     
   49999895.5841227     
   49999895.5841227     
   49999895.5841227     
   49999895.5841227     
   49999895.5841227     
   49999895.5841227     
   49999895.5841227     
   49999895.5841227     
   49999895.5841227     
   49999895.5841226     
   49999895.5841226     
   49999895.5841226     
   49999895.5841226     
   49999895.5841226     
   49999895.5841226     
   49999895.5841226     
   49999895.5841226     
   49999895.5841226     
   49999895.5841226     
   49999895.5841225     
   49999895.5841225     
   49999895.5841225     
   49999895.5841225     
   49999895.5841225     
   49999873.6102613     
   49999873.6102613     
   49999873.6102613     
   49999873.6102613     
   49999873.6102613     
   49999873.6102614     
   49999873.6102614     
   49999873.6102614     
   49999873.6102614     
   49999873.6102614     
   49999873.6102615     
   49999873.6102615     
   49999873.6102615     
   49999873.6102615     
   49999873.6102614     
   49999873.6102615     
   49999873.6102615     
   49999873.6102615     
   49999873.6102615     
   49999873.6102615     
   49999873.6102615     
   49999873.6102615     
   49999873.6102615     
   49999873.6102615     
   49999873.6102615     
   49999873.6102615     
   49999873.6102614     
   49999873.6102614     
   49999873.6102614     
   49999873.6102614     
   49999873.6102613     
   49999873.6102613     
   49999873.6102613     
   49999873.6102613     
   49999873.6102613     
   49999873.6102613     
   49999873.6102613     
   49999873.6102613     
   49999873.6102613     
   49999873.6102613     
   49999873.6102613     
   49999873.6102612     
   49999873.6102612     
   49999873.6102612     
   49999873.6102611     
   49999873.6102611     
   49999873.6102611     
   49999873.6102611     
   49999873.6102611     
   49999873.6102611     
   49999873.6102611     
   49999847.0705782     
   49999847.0705782     
   49999847.0705782     
   49999847.0705782     
   49999847.0705782     
   49999847.0705782     
   49999847.0705782     
   49999847.0705783     
   49999847.0705783     
   49999847.0705784     
   49999847.0705784     
   49999847.0705783     
   49999847.0705784     
   49999847.0705784     
   49999847.0705784     
   49999847.0705784     
   49999847.0705783     
   49999847.0705784     
   49999847.0705784     
   49999847.0705785     
   49999847.0705785     
   49999847.0705785     
   49999847.0705784     
   49999847.0705784     
   49999847.0705784     
   49999847.0705784     
   49999847.0705784     
   49999847.0705783     
   49999847.0705783     
   49999847.0705783     
   49999847.0705782     
   49999847.0705782     
   49999847.0705782     
   49999847.0705782     
   49999847.0705781     
   49999847.0705781     
   49999847.0705781     
   49999847.0705780     
   49999847.0705780     
   49999847.0705780     
   49999847.0705780     
   49999847.0705780     
   49999847.0705780     
   49999847.0705780     
   49999847.0705780     
   49999847.0705780     
   49999847.0705779     
   49999847.0705780     
   49999847.0705780     
   49999847.0705780     
   49999847.0705780     
   49999815.0276437     
   49999815.0276437     
   49999815.0276437     
   49999815.0276437     
   49999815.0276438     
   49999815.0276438     
   49999815.0276438     
   49999815.0276438     
   49999815.0276438     
   49999815.0276438     
   49999815.0276438     
   49999815.0276438     
   49999815.0276438     
   49999815.0276438     
   49999815.0276438     
   49999815.0276439     
   49999815.0276439     
   49999815.0276438     
   49999815.0276438     
   49999815.0276438     
   49999815.0276438     
   49999815.0276438     
   49999815.0276438     
   49999815.0276438     
   49999815.0276438     
   49999815.0276437     
   49999815.0276437     
   49999815.0276437     
   49999815.0276436     
   49999815.0276435     
   49999815.0276435     
   49999815.0276434     
   49999815.0276434     
   49999815.0276435     
   49999815.0276435     
   49999815.0276435     
   49999815.0276434     
   49999815.0276434     
   49999815.0276434     
   49999815.0276434     
   49999815.0276435     
   49999815.0276435     
   49999815.0276435     
   49999815.0276434     
   49999815.0276434     
   49999815.0276435     
   49999815.0276435     
   49999815.0276435     
   49999815.0276434     
   49999815.0276434     
   49999815.0276435     
   49999776.3546944     
   49999776.3546944     
   49999776.3546944     
   49999776.3546944     
   49999776.3546945     
   49999776.3546945     
   49999776.3546945     
   49999776.3546945     
   49999776.3546945     
   49999776.3546945     
   49999776.3546945     
   49999776.3546945     
   49999776.3546945     
   49999776.3546945     
   49999776.3546945     
   49999776.3546945     
   49999776.3546944     
   49999776.3546945     
   49999776.3546945     
   49999776.3546944     
   49999776.3546944     
   49999776.3546944     
   49999776.3546943     
   49999776.3546943     
   49999776.3546942     
   49999776.3546942     
   49999776.3546941     
   49999776.3546941     
   49999776.3546941     
   49999776.3546941     
   49999776.3546941     
   49999776.3546941     
   49999776.3546940     
   49999776.3546940     
   49999776.3546940     
   49999776.3546940     
   49999776.3546940     
   49999776.3546940     
   49999776.3546940     
   49999776.3546940     
   49999776.3546941     
   49999776.3546940     
   49999776.3546940     
   49999776.3546940     
   49999776.3546940     
   49999776.3546940     
   49999776.3546939     
   49999776.3546940     
   49999776.3546940     
   49999776.3546940     
   49999776.3546940     
   49999729.6980521     
   49999729.6980521     
   49999729.6980521     
   49999729.6980521     
   49999729.6980521     
   49999729.6980521     
   49999729.6980522     
   49999729.6980522     
   49999729.6980522     
   49999729.6980521     
   49999729.6980521     
   49999729.6980521     
   49999729.6980521     
   49999729.6980521     
   49999729.6980521     
   49999729.6980520     
   49999729.6980520     
   49999729.6980519     
   49999729.6980518     
   49999729.6980518     
   49999729.6980518     
   49999729.6980517     
   49999729.6980517     
   49999729.6980516     
   49999729.6980516     
   49999729.6980515     
   49999729.6980515     
   49999729.6980515     
   49999729.6980515     
   49999729.6980515     
   49999729.6980515     
   49999729.6980515     
   49999729.6980514     
   49999729.6980514     
   49999729.6980513     
   49999729.6980513     
   49999729.6980513     
   49999729.6980514     
   49999729.6980514     
   49999729.6980514     
   49999729.6980514     
   49999729.6980513     
   49999729.6980513     
   49999729.6980513     
   49999729.6980513     
   49999729.6980512     
   49999729.6980513     
   49999729.6980512     
   49999729.6980513     
   49999729.6980513     
   49999729.6980513     
   49999673.4322537     
   49999673.4322537     
   49999673.4322537     
   49999673.4322537     
   49999673.4322537     
   49999673.4322537     
   49999673.4322537     
   49999673.4322536     
   49999673.4322536     
   49999673.4322536     
   49999673.4322536     
   49999673.4322536     
   49999673.4322536     
   49999673.4322535     
   49999673.4322535     
   49999673.4322534     
   49999673.4322534     
   49999673.4322534     
   49999673.4322533     
   49999673.4322533     
   49999673.4322532     
   49999673.4322532     
   49999673.4322531     
   49999673.4322531     
   49999673.4322531     
   49999673.4322531     
   49999673.4322530     
   49999673.4322530     
   49999673.4322529     
   49999673.4322529     
   49999673.4322528     
   49999673.4322528     
   49999673.4322528     
   49999673.4322527     
   49999673.4322527     
   49999673.4322526     
   49999673.4322526     
   49999673.4322526     
   49999673.4322526     
   49999673.4322526     
   49999673.4322526     
   49999673.4322526     
   49999673.4322527     
   49999673.4322527     
   49999673.4322526     
   49999673.4322526     
   49999673.4322525     
   49999673.4322525     
   49999673.4322524     
   49999673.4322524     
   49999673.4322524     
   49999605.6065160     
   49999605.6065160     
   49999605.6065161     
   49999605.6065160     
   49999605.6065160     
   49999605.6065160     
   49999605.6065160     
   49999605.6065159     
   49999605.6065159     
   49999605.6065158     
   49999605.6065158     
   49999605.6065158     
   49999605.6065157     
   49999605.6065158     
   49999605.6065157     
   49999605.6065157     
   49999605.6065156     
   49999605.6065156     
   49999605.6065155     
   49999605.6065155     
   49999605.6065155     
   49999605.6065154     
   49999605.6065154     
   49999605.6065153     
   49999605.6065153     
   49999605.6065152     
   49999605.6065151     
   49999605.6065151     
   49999605.6065151     
   49999605.6065150     
   49999605.6065150     
   49999605.6065150     
   49999605.6065149     
   49999605.6065149     
   49999605.6065149     
   49999605.6065148     
   49999605.6065148     
   49999605.6065148     
   49999605.6065148     
   49999605.6065147     
   49999605.6065147     
   49999605.6065147     
   49999605.6065146     
   49999605.6065146     
   49999605.6065146     
   49999605.6065146     
   49999605.6065146     
   49999605.6065146     
   49999605.6065146     
   49999605.6065146     
   49999605.6065146     
   49999523.8809085     
   49999523.8809085     
   49999523.8809085     
   49999523.8809085     
   49999523.8809085     
   49999523.8809085     
   49999523.8809084     
   49999523.8809084     
   49999523.8809083     
   49999523.8809083     
   49999523.8809082     
   49999523.8809082     
   49999523.8809082     
   49999523.8809081     
   49999523.8809081     
   49999523.8809081     
   49999523.8809081     
   49999523.8809081     
   49999523.8809081     
   49999523.8809081     
   49999523.8809080     
   49999523.8809079     
   49999523.8809078     
   49999523.8809078     
   49999523.8809077     
   49999523.8809077     
   49999523.8809077     
   49999523.8809076     
   49999523.8809076     
   49999523.8809075     
   49999523.8809075     
   49999523.8809074     
   49999523.8809074     
   49999523.8809074     
   49999523.8809074     
   49999523.8809073     
   49999523.8809073     
   49999523.8809072     
   49999523.8809072     
   49999523.8809071     
   49999523.8809071     
   49999523.8809070     
   49999523.8809070     
   49999523.8809069     
   49999523.8809069     
   49999523.8809069     
   49999523.8809068     
   49999523.8809068     
   49999523.8809068     
   49999523.8809068     
   49999523.8809068     
   49999425.4503135     
   49999425.4503135     
   49999425.4503135     
   49999425.4503134     
   49999425.4503134     
   49999425.4503134     
   49999425.4503134     
   49999425.4503134     
   49999425.4503133     
   49999425.4503133     
   49999425.4503133     
   49999425.4503133     
   49999425.4503133     
   49999425.4503133     
   49999425.4503132     
   49999425.4503132     
   49999425.4503132     
   49999425.4503132     
   49999425.4503132     
   49999425.4503131     
   49999425.4503130     
   49999425.4503130     
   49999425.4503130     
   49999425.4503129     
   49999425.4503129     
   49999425.4503128     
   49999425.4503127     
   49999425.4503127     
   49999425.4503127     
   49999425.4503127     
   49999425.4503127     
   49999425.4503127     
   49999425.4503126     
   49999425.4503126     
   49999425.4503125     
   49999425.4503124     
   49999425.4503124     
   49999425.4503124     
   49999425.4503124     
   49999425.4503123     
   49999425.4503123     
   49999425.4503122     
   49999425.4503122     
   49999425.4503121     
   49999425.4503121     
   49999425.4503120     
   49999425.4503120     
   49999425.4503120     
   49999425.4503120     
   49999425.4503119     
   49999425.4503119     
   49999306.9539099     
   49999306.9539098     
   49999306.9539098     
   49999306.9539098     
   49999306.9539099     
   49999306.9539099     
   49999306.9539099     
   49999306.9539099     
   49999306.9539099     
   49999306.9539099     
   49999306.9539099     
   49999306.9539099     
   49999306.9539098     
   49999306.9539098     
   49999306.9539098     
   49999306.9539097     
   49999306.9539097     
   49999306.9539097     
   49999306.9539096     
   49999306.9539096     
   49999306.9539096     
   49999306.9539095     
   49999306.9539095     
   49999306.9539094     
   49999306.9539094     
   49999306.9539094     
   49999306.9539094     
   49999306.9539094     
   49999306.9539093     
   49999306.9539093     
   49999306.9539092     
   49999306.9539092     
   49999306.9539092     
   49999306.9539092     
   49999306.9539091     
   49999306.9539091     
   49999306.9539091     
   49999306.9539091     
   49999306.9539091     
   49999306.9539091     
   49999306.9539091     
   49999306.9539091     
   49999306.9539091     
   49999306.9539090     
   49999306.9539090     
   49999306.9539089     
   49999306.9539089     
   49999306.9539088     
   49999306.9539089     
   49999306.9539089     
   49999306.9539089     
   49999164.3675118     
   49999164.3675118     
   49999164.3675118     
   49999164.3675118     
   49999164.3675117     
   49999164.3675117     
   49999164.3675117     
   49999164.3675117     
   49999164.3675117     
   49999164.3675117     
   49999164.3675117     
   49999164.3675117     
   49999164.3675117     
   49999164.3675117     
   49999164.3675117     
   49999164.3675117     
   49999164.3675116     
   49999164.3675116     
   49999164.3675116     
   49999164.3675115     
   49999164.3675115     
   49999164.3675115     
   49999164.3675114     
   49999164.3675114     
   49999164.3675113     
   49999164.3675113     
   49999164.3675113     
   49999164.3675112     
   49999164.3675113     
   49999164.3675113     
   49999164.3675113     
   49999164.3675113     
   49999164.3675113     
   49999164.3675113     
   49999164.3675113     
   49999164.3675113     
   49999164.3675113     
   49999164.3675112     
   49999164.3675112     
   49999164.3675112     
   49999164.3675112     
   49999164.3675112     
   49999164.3675112     
   49999164.3675112     
   49999164.3675112     
   49999164.3675112     
   49999164.3675112     
   49999164.3675112     
   49999164.3675111     
   49999164.3675111     
   49999164.3675110     
   49998992.8756247     
   49998992.8756247     
   49998992.8756247     
   49998992.8756247     
   49998992.8756247     
   49998992.8756248     
   49998992.8756248     
   49998992.8756248     
   49998992.8756248     
   49998992.8756248     
   49998992.8756247     
   49998992.8756247     
   49998992.8756246     
   49998992.8756246     
   49998992.8756246     
   49998992.8756246     
   49998992.8756246     
   49998992.8756246     
   49998992.8756246     
   49998992.8756245     
   49998992.8756245     
   49998992.8756244     
   49998992.8756244     
   49998992.8756244     
   49998992.8756244     
   49998992.8756244     
   49998992.8756243     
   49998992.8756243     
   49998992.8756243     
   49998992.8756243     
   49998992.8756242     
   49998992.8756242     
   49998992.8756242     
   49998992.8756242     
   49998992.8756241     
   49998992.8756242     
   49998992.8756242     
   49998992.8756242     
   49998992.8756243     
   49998992.8756243     
   49998992.8756243     
   49998992.8756243     
   49998992.8756243     
   49998992.8756244     
   49998992.8756244     
   49998992.8756243     
   49998992.8756243     
   49998992.8756242     
   49998992.8756243     
   49998992.8756243     
   49998992.8756243     
   49998786.7195337     
   49998786.7195337     
   49998786.7195337     
   49998786.7195337     
   49998786.7195337     
   49998786.7195337     
   49998786.7195337     
   49998786.7195337     
   49998786.7195337     
   49998786.7195337     
   49998786.7195336     
   49998786.7195336     
   49998786.7195336     
   49998786.7195336     
   49998786.7195336     
   49998786.7195336     
   49998786.7195335     
   49998786.7195335     
   49998786.7195335     
   49998786.7195335     
   49998786.7195335     
   49998786.7195334     
   49998786.7195334     
   49998786.7195333     
   49998786.7195333     
   49998786.7195333     
   49998786.7195332     
   49998786.7195332     
   49998786.7195333     
   49998786.7195333     
   49998786.7195333     
   49998786.7195333     
   49998786.7195333     
   49998786.7195334     
   49998786.7195334     
   49998786.7195334     
   49998786.7195334     
   49998786.7195334     
   49998786.7195334     
   49998786.7195334     
   49998786.7195334     
   49998786.7195334     
   49998786.7195334     
   49998786.7195333     
   49998786.7195333     
   49998786.7195333     
   49998786.7195333     
   49998786.7195333     
   49998786.7195333     
   49998786.7195333     
   49998786.7195333     
   49998539.0170985     
   49998539.0170985     
   49998539.0170984     
   49998539.0170985     
   49998539.0170985     
   49998539.0170985     
   49998539.0170985     
   49998539.0170985     
   49998539.0170985     
   49998539.0170985     
   49998539.0170985     
   49998539.0170985     
   49998539.0170984     
   49998539.0170984     
   49998539.0170983     
   49998539.0170983     
   49998539.0170983     
   49998539.0170983     
   49998539.0170983     
   49998539.0170983     
   49998539.0170982     
   49998539.0170982     
   49998539.0170981     
   49998539.0170981     
   49998539.0170981     
   49998539.0170981     
   49998539.0170981     
   49998539.0170981     
   49998539.0170982     
   49998539.0170982     
   49998539.0170982     
   49998539.0170982     
   49998539.0170982     
   49998539.0170982     
   49998539.0170982     
   49998539.0170983     
   49998539.0170982     
   49998539.0170982     
   49998539.0170982     
   49998539.0170982     
   49998539.0170982     
   49998539.0170982     
   49998539.0170982     
   49998539.0170982     
   49998539.0170982     
   49998539.0170981     
   49998539.0170981     
   49998539.0170981     
   49998539.0170981     
   49998539.0170980     
   49998539.0170980     
   49998241.5491925     
   49998241.5491925     
   49998241.5491925     
   49998241.5491925     
   49998241.5491925     
   49998241.5491926     
   49998241.5491926     
   49998241.5491926     
   49998241.5491925     
   49998241.5491925     
   49998241.5491925     
   49998241.5491925     
   49998241.5491925     
   49998241.5491925     
   49998241.5491924     
   49998241.5491924     
   49998241.5491924     
   49998241.5491924     
   49998241.5491924     
   49998241.5491923     
   49998241.5491923     
   49998241.5491922     
   49998241.5491922     
   49998241.5491921     
   49998241.5491921     
   49998241.5491922     
   49998241.5491922     
   49998241.5491922     
   49998241.5491923     
   49998241.5491923     
   49998241.5491922     
   49998241.5491923     
   49998241.5491923     
   49998241.5491923     
   49998241.5491923     
   49998241.5491923     
   49998241.5491923     
   49998241.5491923     
   49998241.5491923     
   49998241.5491922     
   49998241.5491922     
   49998241.5491921     
   49998241.5491921     
   49998241.5491920     
   49998241.5491920     
   49998241.5491920     
   49998241.5491919     
   49998241.5491919     
   49998241.5491919     
   49998241.5491919     
   49998241.5491919     
   49997884.5068612     
   49997884.5068612     
   49997884.5068613     
   49997884.5068613     
   49997884.5068613     
   49997884.5068613     
   49997884.5068613     
   49997884.5068613     
   49997884.5068613     
   49997884.5068613     
   49997884.5068612     
   49997884.5068612     
   49997884.5068612     
   49997884.5068612     
   49997884.5068612     
   49997884.5068611     
   49997884.5068611     
   49997884.5068610     
   49997884.5068610     
   49997884.5068610     
   49997884.5068610     
   49997884.5068610     
   49997884.5068610     
   49997884.5068610     
   49997884.5068610     
   49997884.5068610     
   49997884.5068610     
   49997884.5068610     
   49997884.5068610     
   49997884.5068610     
   49997884.5068610     
   49997884.5068610     
   49997884.5068610     
   49997884.5068610     
   49997884.5068611     
   49997884.5068611     
   49997884.5068611     
   49997884.5068610     
   49997884.5068610     
   49997884.5068609     
   49997884.5068609     
   49997884.5068609     
   49997884.5068609     
   49997884.5068608     
   49997884.5068608     
   49997884.5068607     
   49997884.5068607     
   49997884.5068607     
   49997884.5068606     
   49997884.5068606     
   49997884.5068606     
   49997456.1922866     
   49997456.1922866     
   49997456.1922866     
   49997456.1922866     
   49997456.1922866     
   49997456.1922866     
   49997456.1922865     
   49997456.1922865     
   49997456.1922865     
   49997456.1922865     
   49997456.1922864     
   49997456.1922865     
   49997456.1922865     
   49997456.1922865     
   49997456.1922865     
   49997456.1922865     
   49997456.1922865     
   49997456.1922865     
   49997456.1922865     
   49997456.1922864     
   49997456.1922863     
   49997456.1922863     
   49997456.1922863     
   49997456.1922863     
   49997456.1922863     
   49997456.1922864     
   49997456.1922864     
   49997456.1922864     
   49997456.1922864     
   49997456.1922864     
   49997456.1922864     
   49997456.1922864     
   49997456.1922864     
   49997456.1922864     
   49997456.1922864     
   49997456.1922864     
   49997456.1922864     
   49997456.1922864     
   49997456.1922864     
   49997456.1922864     
   49997456.1922864     
   49997456.1922864     
   49997456.1922864     
   49997456.1922863     
   49997456.1922863     
   49997456.1922863     
   49997456.1922863     
   49997456.1922863     
   49997456.1922862     
   49997456.1922862     
   49997456.1922861     
   49996942.6654982     
   49996942.6654982     
   49996942.6654983     
   49996942.6654983     
   49996942.6654983     
   49996942.6654982     
   49996942.6654983     
   49996942.6654983     
   49996942.6654983     
   49996942.6654983     
   49996942.6654984     
   49996942.6654984     
   49996942.6654983     
   49996942.6654983     
   49996942.6654983     
   49996942.6654983     
   49996942.6654982     
   49996942.6654982     
   49996942.6654982     
   49996942.6654982     
   49996942.6654982     
   49996942.6654981     
   49996942.6654981     
   49996942.6654981     
   49996942.6654981     
   49996942.6654981     
   49996942.6654981     
   49996942.6654981     
   49996942.6654981     
   49996942.6654981     
   49996942.6654982     
   49996942.6654982     
   49996942.6654982     
   49996942.6654982     
   49996942.6654981     
   49996942.6654982     
   49996942.6654982     
   49996942.6654982     
   49996942.6654982     
   49996942.6654982     
   49996942.6654982     
   49996942.6654982     
   49996942.6654982     
   49996942.6654982     
   49996942.6654982     
   49996942.6654982     
   49996942.6654982     
   49996942.6654981     
   49996942.6654982     
   49996942.6654982     
   49996942.6654982     
   49996327.3274582     
   49996327.3274582     
   49996327.3274582     
   49996327.3274582     
   49996327.3274582     
   49996327.3274583     
   49996327.3274584     
   49996327.3274584     
   49996327.3274584     
   49996327.3274584     
   49996327.3274584     
   49996327.3274584     
   49996327.3274584     
   49996327.3274584     
   49996327.3274584     
   49996327.3274583     
   49996327.3274583     
   49996327.3274583     
   49996327.3274583     
   49996327.3274582     
   49996327.3274582     
   49996327.3274582     
   49996327.3274582     
   49996327.3274581     
   49996327.3274581     
   49996327.3274581     
   49996327.3274581     
   49996327.3274580     
   49996327.3274580     
   49996327.3274581     
   49996327.3274580     
   49996327.3274580     
   49996327.3274580     
   49996327.3274581     
   49996327.3274582     
   49996327.3274582     
   49996327.3274582     
   49996327.3274582     
   49996327.3274582     
   49996327.3274583     
   49996327.3274583     
   49996327.3274583     
   49996327.3274583     
   49996327.3274583     
   49996327.3274583     
   49996327.3274583     
   49996327.3274583     
   49996327.3274584     
   49996327.3274584     
   49996327.3274584     
   49996327.3274583     
   49995590.4286353     
   49995590.4286353     
   49995590.4286353     
   49995590.4286353     
   49995590.4286353     
   49995590.4286353     
   49995590.4286354     
   49995590.4286354     
   49995590.4286354     
   49995590.4286355     
   49995590.4286355     
   49995590.4286355     
   49995590.4286355     
   49995590.4286356     
   49995590.4286356     
   49995590.4286355     
   49995590.4286355     
   49995590.4286355     
   49995590.4286355     
   49995590.4286354     
   49995590.4286354     
   49995590.4286354     
   49995590.4286353     
   49995590.4286353     
   49995590.4286352     
   49995590.4286352     
   49995590.4286351     
   49995590.4286351     
   49995590.4286351     
   49995590.4286351     
   49995590.4286352     
   49995590.4286352     
   49995590.4286353     
   49995590.4286353     
   49995590.4286353     
   49995590.4286353     
   49995590.4286353     
   49995590.4286353     
   49995590.4286353     
   49995590.4286353     
   49995590.4286353     
   49995590.4286353     
   49995590.4286353     
   49995590.4286353     
   49995590.4286353     
   49995590.4286354     
   49995590.4286354     
   49995590.4286354     
   49995590.4286354     
   49995590.4286354     
   49995590.4286354     
   49994708.4904616     
   49994708.4904616     
   49994708.4904616     
   49994708.4904616     
   49994708.4904617     
   49994708.4904617     
   49994708.4904617     
   49994708.4904617     
   49994708.4904617     
   49994708.4904618     
   49994708.4904618     
   49994708.4904618     
   49994708.4904619     
   49994708.4904619     
   49994708.4904619     
   49994708.4904619     
   49994708.4904618     
   49994708.4904618     
   49994708.4904618     
   49994708.4904618     
   49994708.4904617     
   49994708.4904617     
   49994708.4904617     
   49994708.4904617     
   49994708.4904617     
   49994708.4904617     
   49994708.4904617     
   49994708.4904617     
   49994708.4904616     
   49994708.4904616     
   49994708.4904616     
   49994708.4904616     
   49994708.4904616     
   49994708.4904616     
   49994708.4904616     
   49994708.4904617     
   49994708.4904617     
   49994708.4904617     
   49994708.4904617     
   49994708.4904617     
   49994708.4904618     
   49994708.4904617     
   49994708.4904617     
   49994708.4904618     
   49994708.4904618     
   49994708.4904618     
   49994708.4904618     
   49994708.4904618     
   49994708.4904619     
   49994708.4904619     
   49994708.4904619     
   49993653.6250997     
   49993653.6250997     
   49993653.6250996     
   49993653.6250996     
   49993653.6250996     
   49993653.6250996     
   49993653.6250996     
   49993653.6250996     
   49993653.6250996     
   49993653.6250996     
   49993653.6250996     
   49993653.6250996     
   49993653.6250996     
   49993653.6250996     
   49993653.6250996     
   49993653.6250996     
   49993653.6250997     
   49993653.6250997     
   49993653.6250997     
   49993653.6250998     
   49993653.6250998     
   49993653.6250999     
   49993653.6250998     
   49993653.6250998     
   49993653.6250998     
   49993653.6250998     
   49993653.6250998     
   49993653.6250998     
   49993653.6250998     
   49993653.6250998     
   49993653.6250997     
   49993653.6250997     
   49993653.6250997     
   49993653.6250997     
   49993653.6250997     
   49993653.6250998     
   49993653.6250998     
   49993653.6250998     
   49993653.6250998     
   49993653.6250998     
   49993653.6250998     
   49993653.6250998     
   49993653.6250999     
   49993653.6250998     
   49993653.6250998     
   49993653.6250999     
   49993653.6250999     
   49993653.6250999     
   49993653.6250999     
   49993653.6250999     
   49993653.6250999     
   49992392.7367132     
   49992392.7367132     
   49992392.7367132     
   49992392.7367132     
   49992392.7367131     
   49992392.7367131     
   49992392.7367130     
   49992392.7367130     
   49992392.7367130     
   49992392.7367130     
   49992392.7367130     
   49992392.7367130     
   49992392.7367130     
   49992392.7367130     
   49992392.7367130     
   49992392.7367131     
   49992392.7367130     
   49992392.7367131     
   49992392.7367132     
   49992392.7367132     
   49992392.7367132     
   49992392.7367131     
   49992392.7367132     
   49992392.7367132     
   49992392.7367131     
   49992392.7367131     
   49992392.7367131     
   49992392.7367131     
   49992392.7367131     
   49992392.7367131     
   49992392.7367131     
   49992392.7367132     
   49992392.7367132     
   49992392.7367132     
   49992392.7367133     
   49992392.7367133     
   49992392.7367133     
   49992392.7367134     
   49992392.7367134     
   49992392.7367134     
   49992392.7367135     
   49992392.7367135     
   49992392.7367135     
   49992392.7367135     
   49992392.7367135     
   49992392.7367135     
   49992392.7367135     
   49992392.7367135     
   49992392.7367135     
   49992392.7367134     
   49992392.7367134     
   49990886.5849170     
   49990886.5849170     
   49990886.5849169     
   49990886.5849169     
   49990886.5849169     
   49990886.5849169     
   49990886.5849169     
   49990886.5849168     
   49990886.5849168     
   49990886.5849168     
   49990886.5849167     
   49990886.5849167     
   49990886.5849168     
   49990886.5849168     
   49990886.5849168     
   49990886.5849168     
   49990886.5849168     
   49990886.5849168     
   49990886.5849168     
   49990886.5849169     
   49990886.5849169     
   49990886.5849169     
   49990886.5849169     
   49990886.5849169     
   49990886.5849169     
   49990886.5849169     
   49990886.5849170     
   49990886.5849170     
   49990886.5849170     
   49990886.5849170     
   49990886.5849170     
   49990886.5849170     
   49990886.5849171     
   49990886.5849171     
   49990886.5849172     
   49990886.5849172     
   49990886.5849173     
   49990886.5849173     
   49990886.5849173     
   49990886.5849173     
   49990886.5849173     
   49990886.5849173     
   49990886.5849173     
   49990886.5849173     
   49990886.5849173     
   49990886.5849172     
   49990886.5849172     
   49990886.5849172     
   49990886.5849172     
   49990886.5849172     
   49990886.5849172     
   49989088.6882371     
   49989088.6882371     
   49989088.6882371     
   49989088.6882372     
   49989088.6882372     
   49989088.6882372     
   49989088.6882372     
   49989088.6882372     
   49989088.6882372     
   49989088.6882372     
   49989088.6882371     
   49989088.6882371     
   49989088.6882371     
   49989088.6882371     
   49989088.6882371     
   49989088.6882371     
   49989088.6882371     
   49989088.6882371     
   49989088.6882371     
   49989088.6882371     
   49989088.6882371     
   49989088.6882371     
   49989088.6882372     
   49989088.6882372     
   49989088.6882371     
   49989088.6882371     
   49989088.6882371     
   49989088.6882371     
   49989088.6882371     
   49989088.6882371     
   49989088.6882372     
   49989088.6882373     
   49989088.6882373     
   49989088.6882374     
   49989088.6882374     
   49989088.6882375     
   49989088.6882375     
   49989088.6882376     
   49989088.6882376     
   49989088.6882377     
   49989088.6882377     
   49989088.6882377     
   49989088.6882377     
   49989088.6882378     
   49989088.6882377     
   49989088.6882377     
   49989088.6882377     
   49989088.6882377     
   49989088.6882377     
   49989088.6882377     
   49989088.6882377     
   49986944.0422341     
   49986944.0422341     
   49986944.0422342     
   49986944.0422342     
   49986944.0422342     
   49986944.0422342     
   49986944.0422342     
   49986944.0422342     
   49986944.0422343     
   49986944.0422343     
   49986944.0422343     
   49986944.0422343     
   49986944.0422343     
   49986944.0422343     
   49986944.0422343     
   49986944.0422343     
   49986944.0422342     
   49986944.0422342     
   49986944.0422342     
   49986944.0422342     
   49986944.0422342     
   49986944.0422342     
   49986944.0422342     
   49986944.0422342     
   49986944.0422342     
   49986944.0422342     
   49986944.0422342     
   49986944.0422342     
   49986944.0422342     
   49986944.0422343     
   49986944.0422343     
   49986944.0422344     
   49986944.0422345     
   49986944.0422345     
   49986944.0422345     
   49986944.0422346     
   49986944.0422346     
   49986944.0422346     
   49986944.0422347     
   49986944.0422348     
   49986944.0422348     
   49986944.0422348     
   49986944.0422348     
   49986944.0422348     
   49986944.0422348     
   49986944.0422348     
   49986944.0422349     
   49986944.0422349     
   49986944.0422348     
   49986944.0422348     
   49986944.0422348     
   49984387.6233959     
   49984387.6233958     
   49984387.6233958     
   49984387.6233958     
   49984387.6233959     
   49984387.6233959     
   49984387.6233959     
   49984387.6233959     
   49984387.6233959     
   49984387.6233960     
   49984387.6233960     
   49984387.6233959     
   49984387.6233959     
   49984387.6233959     
   49984387.6233959     
   49984387.6233959     
   49984387.6233959     
   49984387.6233959     
   49984387.6233958     
   49984387.6233958     
   49984387.6233958     
   49984387.6233958     
   49984387.6233958     
   49984387.6233957     
   49984387.6233957     
   49984387.6233957     
   49984387.6233957     
   49984387.6233957     
   49984387.6233958     
   49984387.6233958     
   49984387.6233958     
   49984387.6233959     
   49984387.6233960     
   49984387.6233961     
   49984387.6233961     
   49984387.6233962     
   49984387.6233962     
   49984387.6233962     
   49984387.6233962     
   49984387.6233962     
   49984387.6233962     
   49984387.6233963     
   49984387.6233963     
   49984387.6233962     
   49984387.6233963     
   49984387.6233962     
   49984387.6233963     
   49984387.6233963     
   49984387.6233963     
   49984387.6233964     
   49984387.6233964     
   49981342.6459876     
   49981342.6459876     
   49981342.6459876     
   49981342.6459876     
   49981342.6459876     
   49981342.6459876     
   49981342.6459876     
   49981342.6459876     
   49981342.6459876     
   49981342.6459876     
   49981342.6459876     
   49981342.6459876     
   49981342.6459876     
   49981342.6459876     
   49981342.6459876     
   49981342.6459875     
   49981342.6459875     
   49981342.6459875     
   49981342.6459875     
   49981342.6459874     
   49981342.6459874     
   49981342.6459874     
   49981342.6459873     
   49981342.6459873     
   49981342.6459873     
   49981342.6459873     
   49981342.6459873     
   49981342.6459873     
   49981342.6459873     
   49981342.6459874     
   49981342.6459874     
   49981342.6459875     
   49981342.6459875     
   49981342.6459875     
   49981342.6459875     
   49981342.6459875     
   49981342.6459875     
   49981342.6459875     
   49981342.6459876     
   49981342.6459876     
   49981342.6459877     
   49981342.6459877     
   49981342.6459878     
   49981342.6459878     
   49981342.6459878     
   49981342.6459878     
   49981342.6459878     
   49981342.6459878     
   49981342.6459878     
   49981342.6459878     
   49981342.6459878     
   49977718.5347334     
   49977718.5347334     
   49977718.5347334     
   49977718.5347334     
   49977718.5347334     
   49977718.5347333     
   49977718.5347333     
   49977718.5347333     
   49977718.5347333     
   49977718.5347333     
   49977718.5347333     
   49977718.5347332     
   49977718.5347332     
   49977718.5347331     
   49977718.5347332     
   49977718.5347332     
   49977718.5347333     
   49977718.5347333     
   49977718.5347333     
   49977718.5347333     
   49977718.5347332     
   49977718.5347332     
   49977718.5347332     
   49977718.5347331     
   49977718.5347331     
   49977718.5347331     
   49977718.5347330     
   49977718.5347330     
   49977718.5347331     
   49977718.5347331     
   49977718.5347331     
   49977718.5347331     
   49977718.5347331     
   49977718.5347331     
   49977718.5347332     
   49977718.5347332     
   49977718.5347332     
   49977718.5347332     
   49977718.5347332     
   49977718.5347332     
   49977718.5347333     
   49977718.5347333     
   49977718.5347333     
   49977718.5347333     
   49977718.5347333     
   49977718.5347333     
   49977718.5347333     
   49977718.5347334     
   49977718.5347334     
   49977718.5347335     
   49977718.5347335     
   49973408.5715032     
   49973408.5715032     
   49973408.5715032     
   49973408.5715032     
   49973408.5715032     
   49973408.5715032     
   49973408.5715033     
   49973408.5715032     
   49973408.5715032     
   49973408.5715032     
   49973408.5715032     
   49973408.5715032     
   49973408.5715032     
   49973408.5715032     
   49973408.5715033     
   49973408.5715033     
   49973408.5715032     
   49973408.5715032     
   49973408.5715032     
   49973408.5715032     
   49973408.5715032     
   49973408.5715032     
   49973408.5715032     
   49973408.5715032     
   49973408.5715031     
   49973408.5715032     
   49973408.5715032     
   49973408.5715031     
   49973408.5715031     
   49973408.5715031     
   49973408.5715031     
   49973408.5715032     
   49973408.5715033     
   49973408.5715033     
   49973408.5715033     
   49973408.5715033     
   49973408.5715033     
   49973408.5715033     
   49973408.5715033     
   49973408.5715033     
   49973408.5715032     
   49973408.5715032     
   49973408.5715032     
   49973408.5715032     
   49973408.5715032     
   49973408.5715032     
   49973408.5715032     
   49973408.5715032     
   49973408.5715033     
   49973408.5715033     
   49973408.5715033     
   49968287.1691106     
   49968287.1691106     
   49968287.1691106     
   49968287.1691107     
   49968287.1691107     
   49968287.1691107     
   49968287.1691108     
   49968287.1691108     
   49968287.1691108     
   49968287.1691108     
   49968287.1691108     
   49968287.1691109     
   49968287.1691109     
   49968287.1691109     
   49968287.1691109     
   49968287.1691109     
   49968287.1691110     
   49968287.1691110     
   49968287.1691110     
   49968287.1691110     
   49968287.1691110     
   49968287.1691110     
   49968287.1691110     
   49968287.1691110     
   49968287.1691110     
   49968287.1691110     
   49968287.1691110     
   49968287.1691110     
   49968287.1691110     
   49968287.1691110     
   49968287.1691110     
   49968287.1691110     
   49968287.1691110     
   49968287.1691110     
   49968287.1691110     
   49968287.1691111     
   49968287.1691111     
   49968287.1691111     
   49968287.1691111     
   49968287.1691111     
   49968287.1691111     
   49968287.1691111     
   49968287.1691111     
   49968287.1691111     
   49968287.1691110     
   49968287.1691110     
   49968287.1691110     
   49968287.1691110     
   49968287.1691109     
   49968287.1691109     
   49968287.1691110     
   49962206.7199122     
   49962206.7199122     
   49962206.7199122     
   49962206.7199122     
   49962206.7199122     
   49962206.7199122     
   49962206.7199122     
   49962206.7199122     
   49962206.7199122     
   49962206.7199123     
   49962206.7199124     
   49962206.7199124     
   49962206.7199124     
   49962206.7199124     
   49962206.7199125     
   49962206.7199125     
   49962206.7199125     
   49962206.7199124     
   49962206.7199125     
   49962206.7199124     
   49962206.7199124     
   49962206.7199124     
   49962206.7199124     
   49962206.7199123     
   49962206.7199123     
   49962206.7199123     
   49962206.7199123     
   49962206.7199123     
   49962206.7199123     
   49962206.7199124     
   49962206.7199124     
   49962206.7199124     
   49962206.7199124     
   49962206.7199124     
   49962206.7199124     
   49962206.7199124     
   49962206.7199124     
   49962206.7199124     
   49962206.7199124     
   49962206.7199125     
   49962206.7199124     
   49962206.7199124     
   49962206.7199124     
   49962206.7199124     
   49962206.7199124     
   49962206.7199124     
   49962206.7199123     
   49962206.7199123     
   49962206.7199123     
   49962206.7199123     
   49962206.7199123     
   49954993.9612035     
   49954993.9612035     
   49954993.9612035     
   49954993.9612035     
   49954993.9612035     
   49954993.9612035     
   49954993.9612035     
   49954993.9612036     
   49954993.9612036     
   49954993.9612036     
   49954993.9612036     
   49954993.9612035     
   49954993.9612035     
   49954993.9612035     
   49954993.9612034     
   49954993.9612034     
   49954993.9612034     
   49954993.9612035     
   49954993.9612035     
   49954993.9612035     
   49954993.9612035     
   49954993.9612035     
   49954993.9612035     
   49954993.9612035     
   49954993.9612035     
   49954993.9612034     
   49954993.9612035     
   49954993.9612035     
   49954993.9612035     
   49954993.9612035     
   49954993.9612035     
   49954993.9612035     
   49954993.9612035     
   49954993.9612035     
   49954993.9612035     
   49954993.9612035     
   49954993.9612035     
   49954993.9612035     
   49954993.9612036     
   49954993.9612036     
   49954993.9612036     
   49954993.9612036     
   49954993.9612036     
   49954993.9612036     
   49954993.9612036     
   49954993.9612036     
   49954993.9612036     
   49954993.9612035     
   49954993.9612035     
   49954993.9612036     
   49954993.9612036     
   49946445.7935293     
   49946445.7935293     
   49946445.7935293     
   49946445.7935293     
   49946445.7935294     
   49946445.7935295     
   49946445.7935295     
   49946445.7935295     
   49946445.7935295     
   49946445.7935295     
   49946445.7935295     
   49946445.7935295     
   49946445.7935295     
   49946445.7935295     
   49946445.7935294     
   49946445.7935294     
   49946445.7935294     
   49946445.7935294     
   49946445.7935294     
   49946445.7935294     
   49946445.7935294     
   49946445.7935294     
   49946445.7935294     
   49946445.7935294     
   49946445.7935294     
   49946445.7935294     
   49946445.7935294     
   49946445.7935294     
   49946445.7935294     
   49946445.7935293     
   49946445.7935293     
   49946445.7935294     
   49946445.7935294     
   49946445.7935294     
   49946445.7935294     
   49946445.7935294     
   49946445.7935293     
   49946445.7935293     
   49946445.7935293     
   49946445.7935293     
   49946445.7935293     
   49946445.7935293     
   49946445.7935294     
   49946445.7935294     
   49946445.7935294     
   49946445.7935294     
   49946445.7935294     
   49946445.7935294     
   49946445.7935294     
   49946445.7935293     
   49946445.7935293     
   49936324.4820702     
   49936324.4820702     
   49936324.4820702     
   49936324.4820702     
   49936324.4820702     
   49936324.4820701     
   49936324.4820702     
   49936324.4820702     
   49936324.4820702     
   49936324.4820702     
   49936324.4820702     
   49936324.4820702     
   49936324.4820702     
   49936324.4820701     
   49936324.4820701     
   49936324.4820701     
   49936324.4820700     
   49936324.4820701     
   49936324.4820701     
   49936324.4820701     
   49936324.4820701     
   49936324.4820701     
   49936324.4820702     
   49936324.4820702     
   49936324.4820702     
   49936324.4820701     
   49936324.4820702     
   49936324.4820701     
   49936324.4820701     
   49936324.4820701     
   49936324.4820701     
   49936324.4820701     
   49936324.4820701     
   49936324.4820701     
   49936324.4820701     
   49936324.4820701     
   49936324.4820701     
   49936324.4820700     
   49936324.4820700     
   49936324.4820700     
   49936324.4820700     
   49936324.4820700     
   49936324.4820700     
   49936324.4820700     
   49936324.4820700     
   49936324.4820700     
   49936324.4820700     
   49936324.4820700     
   49936324.4820700     
   49936324.4820700     
   49936324.4820700     
   49924352.1654464     
   49924352.1654464     
   49924352.1654464     
   49924352.1654463     
   49924352.1654463     
   49924352.1654463     
   49924352.1654463     
   49924352.1654463     
   49924352.1654463     
   49924352.1654463     
   49924352.1654463     
   49924352.1654463     
   49924352.1654463     
   49924352.1654462     
   49924352.1654462     
   49924352.1654462     
   49924352.1654462     
   49924352.1654462     
   49924352.1654461     
   49924352.1654461     
   49924352.1654461     
   49924352.1654461     
   49924352.1654461     
   49924352.1654461     
   49924352.1654461     
   49924352.1654461     
   49924352.1654461     
   49924352.1654461     
   49924352.1654461     
   49924352.1654461     
   49924352.1654461     
   49924352.1654461     
   49924352.1654462     
   49924352.1654462     
   49924352.1654462     
   49924352.1654462     
   49924352.1654462     
   49924352.1654462     
   49924352.1654462     
   49924352.1654462     
   49924352.1654462     
   49924352.1654462     
   49924352.1654462     
   49924352.1654461     
   49924352.1654461     
   49924352.1654461     
   49924352.1654461     
   49924352.1654462     
   49924352.1654462     
   49924352.1654462     
   49924352.1654462     
   49910204.5908254     
   49910204.5908254     
   49910204.5908254     
   49910204.5908254     
   49910204.5908254     
   49910204.5908254     
   49910204.5908254     
   49910204.5908254     
   49910204.5908255     
   49910204.5908255     
   49910204.5908255     
   49910204.5908255     
   49910204.5908255     
   49910204.5908255     
   49910204.5908255     
   49910204.5908255     
   49910204.5908254     
   49910204.5908254     
   49910204.5908254     
   49910204.5908254     
   49910204.5908253     
   49910204.5908253     
   49910204.5908253     
   49910204.5908253     
   49910204.5908253     
   49910204.5908252     
   49910204.5908252     
   49910204.5908252     
   49910204.5908252     
   49910204.5908253     
   49910204.5908253     
   49910204.5908253     
   49910204.5908253     
   49910204.5908253     
   49910204.5908253     
   49910204.5908253     
   49910204.5908253     
   49910204.5908254     
   49910204.5908254     
   49910204.5908254     
   49910204.5908253     
   49910204.5908253     
   49910204.5908253     
   49910204.5908253     
   49910204.5908254     
   49910204.5908254     
   49910204.5908254     
   49910204.5908254     
   49910204.5908254     
   49910204.5908255     
   49910204.5908255     
   49893503.9894446     
   49893503.9894446     
   49893503.9894446     
   49893503.9894446     
   49893503.9894446     
   49893503.9894446     
   49893503.9894446     
   49893503.9894447     
   49893503.9894447     
   49893503.9894447     
   49893503.9894447     
   49893503.9894447     
   49893503.9894448     
   49893503.9894447     
   49893503.9894447     
   49893503.9894447     
   49893503.9894447     
   49893503.9894447     
   49893503.9894447     
   49893503.9894447     
   49893503.9894447     
   49893503.9894447     
   49893503.9894447     
   49893503.9894447     
   49893503.9894446     
   49893503.9894446     
   49893503.9894446     
   49893503.9894446     
   49893503.9894446     
   49893503.9894446     
   49893503.9894446     
   49893503.9894447     
   49893503.9894447     
   49893503.9894447     
   49893503.9894447     
   49893503.9894447     
   49893503.9894447     
   49893503.9894447     
   49893503.9894447     
   49893503.9894447     
   49893503.9894447     
   49893503.9894447     
   49893503.9894447     
   49893503.9894446     
   49893503.9894446     
   49893503.9894447     
   49893503.9894447     
   49893503.9894447     
   49893503.9894447     
   49893503.9894447     
   49893503.9894447     
   49873811.0029972     
   49873811.0029972     
   49873811.0029972     
   49873811.0029973     
   49873811.0029973     
   49873811.0029973     
   49873811.0029974     
   49873811.0029974     
   49873811.0029975     
   49873811.0029976     
   49873811.0029976     
   49873811.0029976     
   49873811.0029976     
   49873811.0029976     
   49873811.0029976     
   49873811.0029976     
   49873811.0029976     
   49873811.0029975     
   49873811.0029975     
   49873811.0029975     
   49873811.0029975     
   49873811.0029975     
   49873811.0029975     
   49873811.0029975     
   49873811.0029975     
   49873811.0029975     
   49873811.0029975     
   49873811.0029975     
   49873811.0029975     
   49873811.0029976     
   49873811.0029976     
   49873811.0029976     
   49873811.0029976     
   49873811.0029976     
   49873811.0029976     
   49873811.0029976     
   49873811.0029976     
   49873811.0029976     
   49873811.0029976     
   49873811.0029976     
   49873811.0029976     
   49873811.0029976     
   49873811.0029976     
   49873811.0029976     
   49873811.0029977     
   49873811.0029977     
   49873811.0029977     
   49873811.0029977     
   49873811.0029978     
   49873811.0029978     
   49873811.0029978     
   49850615.5693098     
   49850615.5693098     
   49850615.5693098     
   49850615.5693098     
   49850615.5693098     
   49850615.5693098     
   49850615.5693099     
   49850615.5693099     
   49850615.5693100     
   49850615.5693100     
   49850615.5693100     
   49850615.5693100     
   49850615.5693101     
   49850615.5693101     
   49850615.5693101     
   49850615.5693100     
   49850615.5693100     
   49850615.5693100     
   49850615.5693099     
   49850615.5693099     
   49850615.5693099     
   49850615.5693099     
   49850615.5693100     
   49850615.5693100     
   49850615.5693100     
   49850615.5693100     
   49850615.5693100     
   49850615.5693100     
   49850615.5693100     
   49850615.5693100     
   49850615.5693100     
   49850615.5693101     
   49850615.5693101     
   49850615.5693100     
   49850615.5693100     
   49850615.5693100     
   49850615.5693100     
   49850615.5693100     
   49850615.5693100     
   49850615.5693101     
   49850615.5693101     
   49850615.5693100     
   49850615.5693100     
   49850615.5693101     
   49850615.5693101     
   49850615.5693102     
   49850615.5693102     
   49850615.5693103     
   49850615.5693103     
   49850615.5693103     
   49850615.5693103     
   49823326.6760001     
   49823326.6760001     
   49823326.6760001     
   49823326.6760001     
   49823326.6760001     
   49823326.6760002     
   49823326.6760002     
   49823326.6760002     
   49823326.6760002     
   49823326.6760002     
   49823326.6760002     
   49823326.6760002     
   49823326.6760002     
   49823326.6760002     
   49823326.6760001     
   49823326.6760001     
   49823326.6760001     
   49823326.6760000     
   49823326.6760000     
   49823326.6760000     
   49823326.6760000     
   49823326.6760001     
   49823326.6760001     
   49823326.6760001     
   49823326.6760002     
   49823326.6760002     
   49823326.6760001     
   49823326.6760001     
   49823326.6760001     
   49823326.6760001     
   49823326.6760001     
   49823326.6760001     
   49823326.6760001     
   49823326.6760001     
   49823326.6760001     
   49823326.6760001     
   49823326.6760001     
   49823326.6760001     
   49823326.6760001     
   49823326.6760002     
   49823326.6760002     
   49823326.6760002     
   49823326.6760003     
   49823326.6760003     
   49823326.6760003     
   49823326.6760004     
   49823326.6760004     
   49823326.6760004     
   49823326.6760004     
   49823326.6760004     
   49823326.6760004     
   49791260.8942082     
   49791260.8942082     
   49791260.8942082     
   49791260.8942082     
   49791260.8942083     
   49791260.8942083     
   49791260.8942083     
   49791260.8942084     
   49791260.8942084     
   49791260.8942084     
   49791260.8942084     
   49791260.8942084     
   49791260.8942084     
   49791260.8942084     
   49791260.8942084     
   49791260.8942083     
   49791260.8942082     
   49791260.8942082     
   49791260.8942082     
   49791260.8942082     
   49791260.8942082     
   49791260.8942082     
   49791260.8942083     
   49791260.8942083     
   49791260.8942084     
   49791260.8942084     
   49791260.8942084     
   49791260.8942084     
   49791260.8942084     
   49791260.8942084     
   49791260.8942084     
   49791260.8942084     
   49791260.8942084     
   49791260.8942083     
   49791260.8942083     
   49791260.8942083     
   49791260.8942083     
   49791260.8942082     
   49791260.8942082     
   49791260.8942083     
   49791260.8942083     
   49791260.8942083     
   49791260.8942083     
   49791260.8942084     
   49791260.8942084     
   49791260.8942085     
   49791260.8942085     
   49791260.8942085     
   49791260.8942085     
   49791260.8942085     
   49791260.8942085     
   49753629.6119974     
   49753629.6119974     
   49753629.6119974     
   49753629.6119975     
   49753629.6119974     
   49753629.6119975     
   49753629.6119976     
   49753629.6119976     
   49753629.6119976     
   49753629.6119977     
   49753629.6119977     
   49753629.6119977     
   49753629.6119977     
   49753629.6119977     
   49753629.6119977     
   49753629.6119977     
   49753629.6119977     
   49753629.6119976     
   49753629.6119976     
   49753629.6119976     
   49753629.6119976     
   49753629.6119976     
   49753629.6119976     
   49753629.6119977     
   49753629.6119977     
   49753629.6119977     
   49753629.6119977     
   49753629.6119977     
   49753629.6119978     
   49753629.6119978     
   49753629.6119978     
   49753629.6119978     
   49753629.6119977     
   49753629.6119977     
   49753629.6119976     
   49753629.6119975     
   49753629.6119975     
   49753629.6119975     
   49753629.6119975     
   49753629.6119975     
   49753629.6119974     
   49753629.6119975     
   49753629.6119975     
   49753629.6119975     
   49753629.6119976     
   49753629.6119976     
   49753629.6119976     
   49753629.6119976     
   49753629.6119976     
   49753629.6119976     
   49753629.6119976     
   49709524.8998610     
   49709524.8998610     
   49709524.8998610     
   49709524.8998610     
   49709524.8998610     
   49709524.8998611     
   49709524.8998611     
   49709524.8998612     
   49709524.8998612     
   49709524.8998613     
   49709524.8998613     
   49709524.8998613     
   49709524.8998614     
   49709524.8998614     
   49709524.8998614     
   49709524.8998614     
   49709524.8998614     
   49709524.8998614     
   49709524.8998613     
   49709524.8998614     
   49709524.8998613     
   49709524.8998613     
   49709524.8998614     
   49709524.8998614     
   49709524.8998614     
   49709524.8998615     
   49709524.8998615     
   49709524.8998614     
   49709524.8998614     
   49709524.8998614     
   49709524.8998614     
   49709524.8998614     
   49709524.8998614     
   49709524.8998613     
   49709524.8998613     
   49709524.8998612     
   49709524.8998612     
   49709524.8998611     
   49709524.8998611     
   49709524.8998610     
   49709524.8998610     
   49709524.8998610     
   49709524.8998610     
   49709524.8998611     
   49709524.8998611     
   49709524.8998611     
   49709524.8998611     
   49709524.8998611     
   49709524.8998611     
   49709524.8998611     
   49709524.8998611     
   49657903.9603733     
   49657903.9603733     
   49657903.9603734     
   49657903.9603734     
   49657903.9603734     
   49657903.9603735     
   49657903.9603736     
   49657903.9603736     
   49657903.9603736     
   49657903.9603737     
   49657903.9603737     
   49657903.9603738     
   49657903.9603738     
   49657903.9603738     
   49657903.9603739     
   49657903.9603739     
   49657903.9603739     
   49657903.9603738     
   49657903.9603738     
   49657903.9603738     
   49657903.9603738     
   49657903.9603738     
   49657903.9603738     
   49657903.9603739     
   49657903.9603739     
   49657903.9603739     
   49657903.9603739     
   49657903.9603739     
   49657903.9603739     
   49657903.9603739     
   49657903.9603739     
   49657903.9603738     
   49657903.9603738     
   49657903.9603738     
   49657903.9603737     
   49657903.9603736     
   49657903.9603736     
   49657903.9603735     
   49657903.9603735     
   49657903.9603734     
   49657903.9603734     
   49657903.9603734     
   49657903.9603734     
   49657903.9603734     
   49657903.9603735     
   49657903.9603735     
   49657903.9603735     
   49657903.9603735     
   49657903.9603735     
   49657903.9603735     
   49657903.9603735     
   49597572.1420676     
   49597572.1420676     
   49597572.1420676     
   49597572.1420677     
   49597572.1420677     
   49597572.1420677     
   49597572.1420678     
   49597572.1420679     
   49597572.1420680     
   49597572.1420680     
   49597572.1420681     
   49597572.1420681     
   49597572.1420681     
   49597572.1420682     
   49597572.1420682     
   49597572.1420682     
   49597572.1420682     
   49597572.1420681     
   49597572.1420681     
   49597572.1420681     
   49597572.1420681     
   49597572.1420681     
   49597572.1420681     
   49597572.1420681     
   49597572.1420681     
   49597572.1420682     
   49597572.1420682     
   49597572.1420682     
   49597572.1420682     
   49597572.1420682     
   49597572.1420682     
   49597572.1420681     
   49597572.1420681     
   49597572.1420680     
   49597572.1420680     
   49597572.1420679     
   49597572.1420679     
   49597572.1420678     
   49597572.1420678     
   49597572.1420677     
   49597572.1420677     
   49597572.1420677     
   49597572.1420677     
   49597572.1420678     
   49597572.1420678     
   49597572.1420678     
   49597572.1420678     
   49597572.1420678     
   49597572.1420678     
   49597572.1420678     
   49597572.1420678     
   49527164.5360685     
   49527164.5360685     
   49527164.5360685     
   49527164.5360685     
   49527164.5360685     
   49527164.5360686     
   49527164.5360687     
   49527164.5360688     
   49527164.5360688     
   49527164.5360689     
   49527164.5360689     
   49527164.5360689     
   49527164.5360690     
   49527164.5360690     
   49527164.5360691     
   49527164.5360690     
   49527164.5360690     
   49527164.5360690     
   49527164.5360690     
   49527164.5360690     
   49527164.5360689     
   49527164.5360689     
   49527164.5360690     
   49527164.5360690     
   49527164.5360690     
   49527164.5360690     
   49527164.5360690     
   49527164.5360690     
   49527164.5360690     
   49527164.5360690     
   49527164.5360690     
   49527164.5360690     
   49527164.5360690     
   49527164.5360689     
   49527164.5360688     
   49527164.5360687     
   49527164.5360687     
   49527164.5360687     
   49527164.5360686     
   49527164.5360686     
   49527164.5360686     
   49527164.5360686     
   49527164.5360686     
   49527164.5360686     
   49527164.5360686     
   49527164.5360686     
   49527164.5360686     
   49527164.5360686     
   49527164.5360686     
   49527164.5360686     
   49527164.5360686     
   49445126.2250785     
   49445126.2250785     
   49445126.2250785     
   49445126.2250785     
   49445126.2250786     
   49445126.2250786     
   49445126.2250787     
   49445126.2250788     
   49445126.2250789     
   49445126.2250789     
   49445126.2250790     
   49445126.2250790     
   49445126.2250790     
   49445126.2250791     
   49445126.2250791     
   49445126.2250791     
   49445126.2250791     
   49445126.2250791     
   49445126.2250791     
   49445126.2250791     
   49445126.2250791     
   49445126.2250791     
   49445126.2250791     
   49445126.2250791     
   49445126.2250791     
   49445126.2250791     
   49445126.2250791     
   49445126.2250791     
   49445126.2250791     
   49445126.2250791     
   49445126.2250791     
   49445126.2250790     
   49445126.2250790     
   49445126.2250790     
   49445126.2250789     
   49445126.2250789     
   49445126.2250788     
   49445126.2250788     
   49445126.2250788     
   49445126.2250787     
   49445126.2250787     
   49445126.2250787     
   49445126.2250787     
   49445126.2250787     
   49445126.2250787     
   49445126.2250787     
   49445126.2250788     
   49445126.2250787     
   49445126.2250787     
   49445126.2250787     
   49445126.2250787     
   49349691.3205012     
   49349691.3205012     
   49349691.3205012     
   49349691.3205013     
   49349691.3205013     
   49349691.3205013     
   49349691.3205014     
   49349691.3205015     
   49349691.3205015     
   49349691.3205016     
   49349691.3205016     
   49349691.3205016     
   49349691.3205016     
   49349691.3205017     
   49349691.3205018     
   49349691.3205018     
   49349691.3205018     
   49349691.3205018     
   49349691.3205018     
   49349691.3205018     
   49349691.3205019     
   49349691.3205019     
   49349691.3205019     
   49349691.3205019     
   49349691.3205019     
   49349691.3205019     
   49349691.3205019     
   49349691.3205019     
   49349691.3205019     
   49349691.3205018     
   49349691.3205018     
   49349691.3205017     
   49349691.3205017     
   49349691.3205016     
   49349691.3205016     
   49349691.3205015     
   49349691.3205015     
   49349691.3205014     
   49349691.3205014     
   49349691.3205014     
   49349691.3205014     
   49349691.3205014     
   49349691.3205014     
   49349691.3205015     
   49349691.3205015     
   49349691.3205015     
   49349691.3205015     
   49349691.3205016     
   49349691.3205016     
   49349691.3205016     
   49349691.3205016     
   49238861.0075052     
   49238861.0075053     
   49238861.0075053     
   49238861.0075053     
   49238861.0075054     
   49238861.0075054     
   49238861.0075055     
   49238861.0075056     
   49238861.0075057     
   49238861.0075057     
   49238861.0075058     
   49238861.0075058     
   49238861.0075058     
   49238861.0075059     
   49238861.0075059     
   49238861.0075060     
   49238861.0075060     
   49238861.0075060     
   49238861.0075060     
   49238861.0075060     
   49238861.0075060     
   49238861.0075061     
   49238861.0075061     
   49238861.0075061     
   49238861.0075061     
   49238861.0075061     
   49238861.0075062     
   49238861.0075062     
   49238861.0075061     
   49238861.0075061     
   49238861.0075061     
   49238861.0075060     
   49238861.0075060     
   49238861.0075059     
   49238861.0075059     
   49238861.0075058     
   49238861.0075058     
   49238861.0075057     
   49238861.0075057     
   49238861.0075057     
   49238861.0075057     
   49238861.0075057     
   49238861.0075057     
   49238861.0075057     
   49238861.0075057     
   49238861.0075057     
   49238861.0075057     
   49238861.0075057     
   49238861.0075057     
   49238861.0075057     
   49238861.0075057     
   49110380.9226022     
   49110380.9226022     
   49110380.9226022     
   49110380.9226023     
   49110380.9226023     
   49110380.9226023     
   49110380.9226024     
   49110380.9226025     
   49110380.9226025     
   49110380.9226026     
   49110380.9226026     
   49110380.9226027     
   49110380.9226028     
   49110380.9226028     
   49110380.9226028     
   49110380.9226028     
   49110380.9226028     
   49110380.9226028     
   49110380.9226028     
   49110380.9226029     
   49110380.9226029     
   49110380.9226029     
   49110380.9226029     
   49110380.9226029     
   49110380.9226030     
   49110380.9226030     
   49110380.9226030     
   49110380.9226030     
   49110380.9226029     
   49110380.9226029     
   49110380.9226028     
   49110380.9226028     
   49110380.9226028     
   49110380.9226028     
   49110380.9226027     
   49110380.9226026     
   49110380.9226026     
   49110380.9226026     
   49110380.9226026     
   49110380.9226025     
   49110380.9226025     
   49110380.9226025     
   49110380.9226026     
   49110380.9226026     
   49110380.9226026     
   49110380.9226026     
   49110380.9226026     
   49110380.9226026     
   49110380.9226027     
   49110380.9226026     
   49110380.9226027     
   48961718.3167904     
   48961718.3167904     
   48961718.3167905     
   48961718.3167905     
   48961718.3167905     
   48961718.3167906     
   48961718.3167907     
   48961718.3167907     
   48961718.3167908     
   48961718.3167908     
   48961718.3167908     
   48961718.3167909     
   48961718.3167909     
   48961718.3167910     
   48961718.3167910     
   48961718.3167910     
   48961718.3167911     
   48961718.3167911     
   48961718.3167911     
   48961718.3167911     
   48961718.3167911     
   48961718.3167910     
   48961718.3167910     
   48961718.3167911     
   48961718.3167911     
   48961718.3167911     
   48961718.3167911     
   48961718.3167911     
   48961718.3167911     
   48961718.3167911     
   48961718.3167911     
   48961718.3167910     
   48961718.3167910     
   48961718.3167909     
   48961718.3167909     
   48961718.3167908     
   48961718.3167908     
   48961718.3167907     
   48961718.3167907     
   48961718.3167907     
   48961718.3167907     
   48961718.3167907     
   48961718.3167907     
   48961718.3167908     
   48961718.3167908     
   48961718.3167908     
   48961718.3167908     
   48961718.3167908     
   48961718.3167908     
   48961718.3167908     
   48961718.3167908     
   48790039.6124219     
   48790039.6124219     
   48790039.6124219     
   48790039.6124219     
   48790039.6124219     
   48790039.6124220     
   48790039.6124220     
   48790039.6124221     
   48790039.6124221     
   48790039.6124222     
   48790039.6124222     
   48790039.6124223     
   48790039.6124223     
   48790039.6124223     
   48790039.6124224     
   48790039.6124224     
   48790039.6124224     
   48790039.6124224     
   48790039.6124223     
   48790039.6124224     
   48790039.6124224     
   48790039.6124224     
   48790039.6124224     
   48790039.6124224     
   48790039.6124225     
   48790039.6124225     
   48790039.6124225     
   48790039.6124225     
   48790039.6124225     
   48790039.6124224     
   48790039.6124224     
   48790039.6124224     
   48790039.6124224     
   48790039.6124223     
   48790039.6124223     
   48790039.6124222     
   48790039.6124221     
   48790039.6124221     
   48790039.6124221     
   48790039.6124220     
   48790039.6124220     
   48790039.6124220     
   48790039.6124220     
   48790039.6124221     
   48790039.6124221     
   48790039.6124221     
   48790039.6124221     
   48790039.6124221     
   48790039.6124221     
   48790039.6124221     
   48790039.6124221     
   48592189.1462424     
   48592189.1462424     
   48592189.1462425     
   48592189.1462425     
   48592189.1462425     
   48592189.1462426     
   48592189.1462426     
   48592189.1462427     
   48592189.1462428     
   48592189.1462428     
   48592189.1462428     
   48592189.1462429     
   48592189.1462429     
   48592189.1462430     
   48592189.1462431     
   48592189.1462430     
   48592189.1462430     
   48592189.1462430     
   48592189.1462430     
   48592189.1462431     
   48592189.1462431     
   48592189.1462431     
   48592189.1462431     
   48592189.1462431     
   48592189.1462431     
   48592189.1462431     
   48592189.1462431     
   48592189.1462431     
   48592189.1462431     
   48592189.1462431     
   48592189.1462431     
   48592189.1462430     
   48592189.1462430     
   48592189.1462430     
   48592189.1462429     
   48592189.1462428     
   48592189.1462428     
   48592189.1462428     
   48592189.1462428     
   48592189.1462427     
   48592189.1462427     
   48592189.1462427     
   48592189.1462427     
   48592189.1462427     
   48592189.1462427     
   48592189.1462427     
   48592189.1462427     
   48592189.1462427     
   48592189.1462427     
   48592189.1462427     
   48592189.1462427     
   48364670.1065138     
   48364670.1065138     
   48364670.1065138     
   48364670.1065139     
   48364670.1065139     
   48364670.1065140     
   48364670.1065141     
   48364670.1065141     
   48364670.1065142     
   48364670.1065143     
   48364670.1065144     
   48364670.1065144     
   48364670.1065145     
   48364670.1065145     
   48364670.1065146     
   48364670.1065146     
   48364670.1065146     
   48364670.1065146     
   48364670.1065146     
   48364670.1065146     
   48364670.1065146     
   48364670.1065146     
   48364670.1065146     
   48364670.1065147     
   48364670.1065147     
   48364670.1065147     
   48364670.1065147     
   48364670.1065147     
   48364670.1065147     
   48364670.1065146     
   48364670.1065146     
   48364670.1065146     
   48364670.1065145     
   48364670.1065145     
   48364670.1065144     
   48364670.1065144     
   48364670.1065144     
   48364670.1065143     
   48364670.1065143     
   48364670.1065143     
   48364670.1065142     
   48364670.1065142     
   48364670.1065142     
   48364670.1065143     
   48364670.1065143     
   48364670.1065143     
   48364670.1065142     
   48364670.1065142     
   48364670.1065142     
   48364670.1065142     
   48364670.1065142     
   48103628.9195927     
   48103628.9195927     
   48103628.9195927     
   48103628.9195927     
   48103628.9195927     
   48103628.9195928     
   48103628.9195928     
   48103628.9195929     
   48103628.9195930     
   48103628.9195930     
   48103628.9195931     
   48103628.9195932     
   48103628.9195932     
   48103628.9195933     
   48103628.9195933     
   48103628.9195934     
   48103628.9195934     
   48103628.9195934     
   48103628.9195934     
   48103628.9195935     
   48103628.9195935     
   48103628.9195935     
   48103628.9195935     
   48103628.9195935     
   48103628.9195935     
   48103628.9195936     
   48103628.9195936     
   48103628.9195936     
   48103628.9195936     
   48103628.9195935     
   48103628.9195935     
   48103628.9195934     
   48103628.9195934     
   48103628.9195934     
   48103628.9195933     
   48103628.9195932     
   48103628.9195932     
   48103628.9195931     
   48103628.9195931     
   48103628.9195931     
   48103628.9195931     
   48103628.9195931     
   48103628.9195931     
   48103628.9195931     
   48103628.9195931     
   48103628.9195931     
   48103628.9195931     
   48103628.9195931     
   48103628.9195931     
   48103628.9195931     
   48103628.9195931     
   47804844.6200415     
   47804844.6200415     
   47804844.6200415     
   47804844.6200415     
   47804844.6200415     
   47804844.6200416     
   47804844.6200417     
   47804844.6200418     
   47804844.6200419     
   47804844.6200420     
   47804844.6200420     
   47804844.6200421     
   47804844.6200421     
   47804844.6200421     
   47804844.6200422     
   47804844.6200422     
   47804844.6200422     
   47804844.6200422     
   47804844.6200422     
   47804844.6200423     
   47804844.6200423     
   47804844.6200423     
   47804844.6200423     
   47804844.6200424     
   47804844.6200424     
   47804844.6200424     
   47804844.6200424     
   47804844.6200424     
   47804844.6200424     
   47804844.6200423     
   47804844.6200423     
   47804844.6200423     
   47804844.6200422     
   47804844.6200421     
   47804844.6200420     
   47804844.6200420     
   47804844.6200419     
   47804844.6200419     
   47804844.6200419     
   47804844.6200419     
   47804844.6200418     
   47804844.6200418     
   47804844.6200419     
   47804844.6200419     
   47804844.6200419     
   47804844.6200419     
   47804844.6200419     
   47804844.6200420     
   47804844.6200420     
   47804844.6200420     
   47804844.6200420     
   47463725.0450265     
   47463725.0450265     
   47463725.0450265     
   47463725.0450266     
   47463725.0450266     
   47463725.0450267     
   47463725.0450268     
   47463725.0450269     
   47463725.0450269     
   47463725.0450270     
   47463725.0450270     
   47463725.0450271     
   47463725.0450271     
   47463725.0450272     
   47463725.0450272     
   47463725.0450273     
   47463725.0450273     
   47463725.0450273     
   47463725.0450273     
   47463725.0450274     
   47463725.0450274     
   47463725.0450274     
   47463725.0450274     
   47463725.0450274     
   47463725.0450274     
   47463725.0450274     
   47463725.0450275     
   47463725.0450274     
   47463725.0450274     
   47463725.0450274     
   47463725.0450273     
   47463725.0450273     
   47463725.0450272     
   47463725.0450271     
   47463725.0450271     
   47463725.0450270     
   47463725.0450270     
   47463725.0450270     
   47463725.0450270     
   47463725.0450270     
   47463725.0450270     
   47463725.0450270     
   47463725.0450270     
   47463725.0450270     
   47463725.0450270     
   47463725.0450270     
   47463725.0450270     
   47463725.0450270     
   47463725.0450270     
   47463725.0450270     
   47463725.0450270     
   47075312.0217429     
   47075312.0217429     
   47075312.0217430     
   47075312.0217430     
   47075312.0217430     
   47075312.0217431     
   47075312.0217432     
   47075312.0217433     
   47075312.0217433     
   47075312.0217434     
   47075312.0217435     
   47075312.0217435     
   47075312.0217436     
   47075312.0217437     
   47075312.0217437     
   47075312.0217438     
   47075312.0217438     
   47075312.0217438     
   47075312.0217438     
   47075312.0217438     
   47075312.0217438     
   47075312.0217438     
   47075312.0217438     
   47075312.0217438     
   47075312.0217438     
   47075312.0217438     
   47075312.0217438     
   47075312.0217438     
   47075312.0217438     
   47075312.0217437     
   47075312.0217437     
   47075312.0217437     
   47075312.0217436     
   47075312.0217436     
   47075312.0217435     
   47075312.0217435     
   47075312.0217434     
   47075312.0217434     
   47075312.0217434     
   47075312.0217434     
   47075312.0217433     
   47075312.0217433     
   47075312.0217433     
   47075312.0217433     
   47075312.0217433     
   47075312.0217433     
   47075312.0217433     
   47075312.0217433     
   47075312.0217433     
   47075312.0217433     
   47075312.0217433     
   46634298.0545998     
   46634298.0545999     
   46634298.0545999     
   46634298.0545999     
   46634298.0545999     
   46634298.0546000     
   46634298.0546001     
   46634298.0546002     
   46634298.0546002     
   46634298.0546003     
   46634298.0546004     
   46634298.0546004     
   46634298.0546005     
   46634298.0546006     
   46634298.0546006     
   46634298.0546007     
   46634298.0546007     
   46634298.0546007     
   46634298.0546007     
   46634298.0546007     
   46634298.0546007     
   46634298.0546006     
   46634298.0546006     
   46634298.0546006     
   46634298.0546007     
   46634298.0546007     
   46634298.0546007     
   46634298.0546007     
   46634298.0546007     
   46634298.0546006     
   46634298.0546006     
   46634298.0546005     
   46634298.0546005     
   46634298.0546004     
   46634298.0546004     
   46634298.0546003     
   46634298.0546003     
   46634298.0546002     
   46634298.0546002     
   46634298.0546001     
   46634298.0546001     
   46634298.0546001     
   46634298.0546001     
   46634298.0546001     
   46634298.0546001     
   46634298.0546001     
   46634298.0546001     
   46634298.0546001     
   46634298.0546001     
   46634298.0546001     
   46634298.0546001     
   46135057.3494080     
   46135057.3494080     
   46135057.3494080     
   46135057.3494081     
   46135057.3494081     
   46135057.3494081     
   46135057.3494082     
   46135057.3494083     
   46135057.3494083     
   46135057.3494084     
   46135057.3494084     
   46135057.3494085     
   46135057.3494085     
   46135057.3494086     
   46135057.3494086     
   46135057.3494086     
   46135057.3494086     
   46135057.3494087     
   46135057.3494087     
   46135057.3494087     
   46135057.3494087     
   46135057.3494087     
   46135057.3494087     
   46135057.3494087     
   46135057.3494087     
   46135057.3494087     
   46135057.3494088     
   46135057.3494088     
   46135057.3494087     
   46135057.3494087     
   46135057.3494087     
   46135057.3494086     
   46135057.3494086     
   46135057.3494085     
   46135057.3494084     
   46135057.3494084     
   46135057.3494083     
   46135057.3494083     
   46135057.3494082     
   46135057.3494082     
   46135057.3494081     
   46135057.3494081     
   46135057.3494081     
   46135057.3494081     
   46135057.3494081     
   46135057.3494081     
   46135057.3494081     
   46135057.3494081     
   46135057.3494082     
   46135057.3494082     
   46135057.3494082     
   45571694.3094707     
   45571694.3094707     
   45571694.3094708     
   45571694.3094708     
   45571694.3094708     
   45571694.3094708     
   45571694.3094709     
   45571694.3094709     
   45571694.3094710     
   45571694.3094710     
   45571694.3094711     
   45571694.3094711     
   45571694.3094711     
   45571694.3094712     
   45571694.3094713     
   45571694.3094713     
   45571694.3094713     
   45571694.3094713     
   45571694.3094713     
   45571694.3094713     
   45571694.3094713     
   45571694.3094713     
   45571694.3094713     
   45571694.3094713     
   45571694.3094714     
   45571694.3094714     
   45571694.3094714     
   45571694.3094714     
   45571694.3094713     
   45571694.3094713     
   45571694.3094712     
   45571694.3094712     
   45571694.3094712     
   45571694.3094711     
   45571694.3094710     
   45571694.3094709     
   45571694.3094709     
   45571694.3094709     
   45571694.3094709     
   45571694.3094708     
   45571694.3094708     
   45571694.3094708     
   45571694.3094708     
   45571694.3094708     
   45571694.3094709     
   45571694.3094709     
   45571694.3094709     
   45571694.3094709     
   45571694.3094709     
   45571694.3094709     
   45571694.3094709     
   44938112.8679568     
   44938112.8679568     
   44938112.8679568     
   44938112.8679568     
   44938112.8679568     
   44938112.8679568     
   44938112.8679569     
   44938112.8679570     
   44938112.8679570     
   44938112.8679571     
   44938112.8679571     
   44938112.8679571     
   44938112.8679572     
   44938112.8679572     
   44938112.8679572     
   44938112.8679573     
   44938112.8679573     
   44938112.8679573     
   44938112.8679573     
   44938112.8679573     
   44938112.8679573     
   44938112.8679573     
   44938112.8679573     
   44938112.8679573     
   44938112.8679573     
   44938112.8679573     
   44938112.8679572     
   44938112.8679572     
   44938112.8679572     
   44938112.8679571     
   44938112.8679571     
   44938112.8679571     
   44938112.8679570     
   44938112.8679570     
   44938112.8679569     
   44938112.8679569     
   44938112.8679568     
   44938112.8679567     
   44938112.8679567     
   44938112.8679567     
   44938112.8679567     
   44938112.8679567     
   44938112.8679567     
   44938112.8679568     
   44938112.8679568     
   44938112.8679568     
   44938112.8679568     
   44938112.8679569     
   44938112.8679569     
   44938112.8679568     
   44938112.8679569     
   44228110.1347463     
   44228110.1347463     
   44228110.1347463     
   44228110.1347463     
   44228110.1347463     
   44228110.1347463     
   44228110.1347464     
   44228110.1347465     
   44228110.1347465     
   44228110.1347466     
   44228110.1347466     
   44228110.1347466     
   44228110.1347467     
   44228110.1347467     
   44228110.1347467     
   44228110.1347467     
   44228110.1347467     
   44228110.1347467     
   44228110.1347467     
   44228110.1347467     
   44228110.1347467     
   44228110.1347467     
   44228110.1347467     
   44228110.1347466     
   44228110.1347466     
   44228110.1347466     
   44228110.1347466     
   44228110.1347466     
   44228110.1347465     
   44228110.1347465     
   44228110.1347464     
   44228110.1347464     
   44228110.1347464     
   44228110.1347463     
   44228110.1347462     
   44228110.1347462     
   44228110.1347461     
   44228110.1347461     
   44228110.1347461     
   44228110.1347461     
   44228110.1347460     
   44228110.1347461     
   44228110.1347461     
   44228110.1347461     
   44228110.1347462     
   44228110.1347462     
   44228110.1347462     
   44228110.1347462     
   44228110.1347462     
   44228110.1347462     
   44228110.1347462     
   43435497.7721980     
   43435497.7721980     
   43435497.7721980     
   43435497.7721981     
   43435497.7721981     
   43435497.7721981     
   43435497.7721982     
   43435497.7721983     
   43435497.7721983     
   43435497.7721983     
   43435497.7721984     
   43435497.7721984     
   43435497.7721984     
   43435497.7721984     
   43435497.7721984     
   43435497.7721985     
   43435497.7721984     
   43435497.7721984     
   43435497.7721984     
   43435497.7721984     
   43435497.7721984     
   43435497.7721983     
   43435497.7721983     
   43435497.7721983     
   43435497.7721983     
   43435497.7721983     
   43435497.7721983     
   43435497.7721983     
   43435497.7721983     
   43435497.7721983     
   43435497.7721982     
   43435497.7721982     
   43435497.7721982     
   43435497.7721981     
   43435497.7721980     
   43435497.7721980     
   43435497.7721979     
   43435497.7721979     
   43435497.7721979     
   43435497.7721979     
   43435497.7721978     
   43435497.7721979     
   43435497.7721979     
   43435497.7721979     
   43435497.7721979     
   43435497.7721979     
   43435497.7721979     
   43435497.7721980     
   43435497.7721980     
   43435497.7721980     
   43435497.7721980     
   42554254.1946375     
   42554254.1946375     
   42554254.1946376     
   42554254.1946376     
   42554254.1946376     
   42554254.1946376     
   42554254.1946377     
   42554254.1946378     
   42554254.1946379     
   42554254.1946379     
   42554254.1946380     
   42554254.1946380     
   42554254.1946380     
   42554254.1946380     
   42554254.1946380     
   42554254.1946380     
   42554254.1946380     
   42554254.1946379     
   42554254.1946379     
   42554254.1946379     
   42554254.1946379     
   42554254.1946379     
   42554254.1946379     
   42554254.1946379     
   42554254.1946379     
   42554254.1946379     
   42554254.1946379     
   42554254.1946379     
   42554254.1946379     
   42554254.1946379     
   42554254.1946379     
   42554254.1946378     
   42554254.1946378     
   42554254.1946378     
   42554254.1946377     
   42554254.1946377     
   42554254.1946376     
   42554254.1946376     
   42554254.1946376     
   42554254.1946376     
   42554254.1946375     
   42554254.1946375     
   42554254.1946376     
   42554254.1946376     
   42554254.1946376     
   42554254.1946376     
   42554254.1946376     
   42554254.1946376     
   42554254.1946376     
   42554254.1946376     
   42554254.1946376     
   41578710.0146333     
   41578710.0146333     
   41578710.0146333     
   41578710.0146333     
   41578710.0146334     
   41578710.0146334     
   41578710.0146335     
   41578710.0146336     
   41578710.0146337     
   41578710.0146337     
   41578710.0146337     
   41578710.0146337     
   41578710.0146338     
   41578710.0146338     
   41578710.0146338     
   41578710.0146338     
   41578710.0146338     
   41578710.0146338     
   41578710.0146337     
   41578710.0146337     
   41578710.0146337     
   41578710.0146337     
   41578710.0146337     
   41578710.0146337     
   41578710.0146337     
   41578710.0146337     
   41578710.0146336     
   41578710.0146336     
   41578710.0146336     
   41578710.0146336     
   41578710.0146336     
   41578710.0146336     
   41578710.0146336     
   41578710.0146335     
   41578710.0146335     
   41578710.0146334     
   41578710.0146334     
   41578710.0146333     
   41578710.0146333     
   41578710.0146333     
   41578710.0146333     
   41578710.0146333     
   41578710.0146333     
   41578710.0146334     
   41578710.0146334     
   41578710.0146334     
   41578710.0146334     
   41578710.0146334     
   41578710.0146334     
   41578710.0146334     
   41578710.0146334     
   40503768.0213241     
   40503768.0213241     
   40503768.0213241     
   40503768.0213242     
   40503768.0213242     
   40503768.0213243     
   40503768.0213243     
   40503768.0213244     
   40503768.0213244     
   40503768.0213245     
   40503768.0213245     
   40503768.0213245     
   40503768.0213245     
   40503768.0213245     
   40503768.0213245     
   40503768.0213245     
   40503768.0213245     
   40503768.0213245     
   40503768.0213244     
   40503768.0213244     
   40503768.0213244     
   40503768.0213244     
   40503768.0213244     
   40503768.0213244     
   40503768.0213244     
   40503768.0213244     
   40503768.0213244     
   40503768.0213244     
   40503768.0213243     
   40503768.0213243     
   40503768.0213243     
   40503768.0213243     
   40503768.0213243     
   40503768.0213242     
   40503768.0213242     
   40503768.0213241     
   40503768.0213241     
   40503768.0213241     
   40503768.0213241     
   40503768.0213241     
   40503768.0213240     
   40503768.0213241     
   40503768.0213241     
   40503768.0213241     
   40503768.0213241     
   40503768.0213241     
   40503768.0213241     
   40503768.0213241     
   40503768.0213242     
   40503768.0213242     
   40503768.0213242     
   39325157.2428540     
   39325157.2428540     
   39325157.2428540     
   39325157.2428541     
   39325157.2428541     
   39325157.2428541     
   39325157.2428541     
   39325157.2428542     
   39325157.2428542     
   39325157.2428543     
   39325157.2428543     
   39325157.2428543     
   39325157.2428543     
   39325157.2428543     
   39325157.2428543     
   39325157.2428543     
   39325157.2428543     
   39325157.2428543     
   39325157.2428542     
   39325157.2428542     
   39325157.2428541     
   39325157.2428542     
   39325157.2428542     
   39325157.2428542     
   39325157.2428542     
   39325157.2428542     
   39325157.2428542     
   39325157.2428542     
   39325157.2428542     
   39325157.2428542     
   39325157.2428542     
   39325157.2428541     
   39325157.2428541     
   39325157.2428541     
   39325157.2428540     
   39325157.2428539     
   39325157.2428539     
   39325157.2428539     
   39325157.2428539     
   39325157.2428538     
   39325157.2428538     
   39325157.2428538     
   39325157.2428538     
   39325157.2428539     
   39325157.2428539     
   39325157.2428539     
   39325157.2428539     
   39325157.2428539     
   39325157.2428539     
   39325157.2428539     
   39325157.2428539     
   38039718.1783413     
   38039718.1783413     
   38039718.1783413     
   38039718.1783413     
   38039718.1783413     
   38039718.1783414     
   38039718.1783414     
   38039718.1783414     
   38039718.1783415     
   38039718.1783415     
   38039718.1783415     
   38039718.1783415     
   38039718.1783415     
   38039718.1783415     
   38039718.1783416     
   38039718.1783416     
   38039718.1783415     
   38039718.1783415     
   38039718.1783415     
   38039718.1783415     
   38039718.1783415     
   38039718.1783415     
   38039718.1783415     
   38039718.1783415     
   38039718.1783416     
   38039718.1783415     
   38039718.1783415     
   38039718.1783415     
   38039718.1783415     
   38039718.1783415     
   38039718.1783414     
   38039718.1783414     
   38039718.1783414     
   38039718.1783413     
   38039718.1783412     
   38039718.1783412     
   38039718.1783412     
   38039718.1783412     
   38039718.1783411     
   38039718.1783411     
   38039718.1783411     
   38039718.1783411     
   38039718.1783411     
   38039718.1783411     
   38039718.1783411     
   38039718.1783411     
   38039718.1783412     
   38039718.1783412     
   38039718.1783412     
   38039718.1783412     
   38039718.1783412     
   36645712.9513510     
   36645712.9513510     
   36645712.9513510     
   36645712.9513510     
   36645712.9513511     
   36645712.9513511     
   36645712.9513511     
   36645712.9513512     
   36645712.9513512     
   36645712.9513512     
   36645712.9513513     
   36645712.9513513     
   36645712.9513513     
   36645712.9513513     
   36645712.9513514     
   36645712.9513514     
   36645712.9513514     
   36645712.9513514     
   36645712.9513513     
   36645712.9513513     
   36645712.9513513     
   36645712.9513513     
   36645712.9513513     
   36645712.9513513     
   36645712.9513513     
   36645712.9513513     
   36645712.9513513     
   36645712.9513512     
   36645712.9513512     
   36645712.9513512     
   36645712.9513512     
   36645712.9513511     
   36645712.9513511     
   36645712.9513510     
   36645712.9513510     
   36645712.9513510     
   36645712.9513509     
   36645712.9513509     
   36645712.9513509     
   36645712.9513508     
   36645712.9513508     
   36645712.9513508     
   36645712.9513509     
   36645712.9513509     
   36645712.9513509     
   36645712.9513509     
   36645712.9513509     
   36645712.9513509     
   36645712.9513509     
   36645712.9513509     
   36645712.9513509     
   35143149.8313075     
   35143149.8313075     
   35143149.8313075     
   35143149.8313075     
   35143149.8313075     
   35143149.8313075     
   35143149.8313076     
   35143149.8313076     
   35143149.8313076     
   35143149.8313077     
   35143149.8313077     
   35143149.8313077     
   35143149.8313078     
   35143149.8313078     
   35143149.8313078     
   35143149.8313078     
   35143149.8313078     
   35143149.8313078     
   35143149.8313078     
   35143149.8313078     
   35143149.8313078     
   35143149.8313078     
   35143149.8313077     
   35143149.8313077     
   35143149.8313077     
   35143149.8313076     
   35143149.8313076     
   35143149.8313076     
   35143149.8313076     
   35143149.8313076     
   35143149.8313075     
   35143149.8313075     
   35143149.8313075     
   35143149.8313075     
   35143149.8313074     
   35143149.8313073     
   35143149.8313072     
   35143149.8313072     
   35143149.8313072     
   35143149.8313072     
   35143149.8313072     
   35143149.8313072     
   35143149.8313072     
   35143149.8313072     
   35143149.8313073     
   35143149.8313073     
   35143149.8313073     
   35143149.8313073     
   35143149.8313073     
   35143149.8313073     
   35143149.8313073     
   33534106.2537156     
   33534106.2537156     
   33534106.2537156     
   33534106.2537156     
   33534106.2537156     
   33534106.2537156     
   33534106.2537157     
   33534106.2537157     
   33534106.2537158     
   33534106.2537158     
   33534106.2537158     
   33534106.2537158     
   33534106.2537159     
   33534106.2537159     
   33534106.2537159     
   33534106.2537159     
   33534106.2537159     
   33534106.2537159     
   33534106.2537159     
   33534106.2537159     
   33534106.2537158     
   33534106.2537159     
   33534106.2537158     
   33534106.2537158     
   33534106.2537158     
   33534106.2537158     
   33534106.2537158     
   33534106.2537157     
   33534106.2537157     
   33534106.2537156     
   33534106.2537156     
   33534106.2537156     
   33534106.2537156     
   33534106.2537155     
   33534106.2537155     
   33534106.2537154     
   33534106.2537154     
   33534106.2537154     
   33534106.2537154     
   33534106.2537153     
   33534106.2537153     
   33534106.2537153     
   33534106.2537153     
   33534106.2537153     
   33534106.2537153     
   33534106.2537153     
   33534106.2537153     
   33534106.2537153     
   33534106.2537154     
   33534106.2537154     
   33534106.2537153     
   31823028.2359478     
   31823028.2359478     
   31823028.2359478     
   31823028.2359478     
   31823028.2359478     
   31823028.2359478     
   31823028.2359479     
   31823028.2359479     
   31823028.2359480     
   31823028.2359480     
   31823028.2359480     
   31823028.2359480     
   31823028.2359480     
   31823028.2359480     
   31823028.2359480     
   31823028.2359480     
   31823028.2359480     
   31823028.2359480     
   31823028.2359479     
   31823028.2359479     
   31823028.2359479     
   31823028.2359479     
   31823028.2359479     
   31823028.2359479     
   31823028.2359479     
   31823028.2359478     
   31823028.2359478     
   31823028.2359478     
   31823028.2359478     
   31823028.2359477     
   31823028.2359478     
   31823028.2359477     
   31823028.2359477     
   31823028.2359477     
   31823028.2359476     
   31823028.2359476     
   31823028.2359475     
   31823028.2359475     
   31823028.2359475     
   31823028.2359474     
   31823028.2359474     
   31823028.2359474     
   31823028.2359474     
   31823028.2359474     
   31823028.2359474     
   31823028.2359474     
   31823028.2359474     
   31823028.2359474     
   31823028.2359474     
   31823028.2359474     
   31823028.2359474     
   30016977.2495438     
   30016977.2495438     
   30016977.2495438     
   30016977.2495438     
   30016977.2495438     
   30016977.2495439     
   30016977.2495439     
   30016977.2495439     
   30016977.2495439     
   30016977.2495440     
   30016977.2495440     
   30016977.2495440     
   30016977.2495440     
   30016977.2495440     
   30016977.2495440     
   30016977.2495440     
   30016977.2495439     
   30016977.2495439     
   30016977.2495439     
   30016977.2495439     
   30016977.2495438     
   30016977.2495438     
   30016977.2495438     
   30016977.2495438     
   30016977.2495438     
   30016977.2495438     
   30016977.2495439     
   30016977.2495438     
   30016977.2495439     
   30016977.2495438     
   30016977.2495438     
   30016977.2495437     
   30016977.2495437     
   30016977.2495436     
   30016977.2495436     
   30016977.2495435     
   30016977.2495435     
   30016977.2495434     
   30016977.2495434     
   30016977.2495434     
   30016977.2495434     
   30016977.2495434     
   30016977.2495434     
   30016977.2495434     
   30016977.2495434     
   30016977.2495434     
   30016977.2495434     
   30016977.2495434     
   30016977.2495434     
   30016977.2495434     
   30016977.2495434     
   28125788.8593969     
   28125788.8593969     
   28125788.8593969     
   28125788.8593969     
   28125788.8593969     
   28125788.8593970     
   28125788.8593970     
   28125788.8593970     
   28125788.8593971     
   28125788.8593971     
   28125788.8593971     
   28125788.8593971     
   28125788.8593972     
   28125788.8593972     
   28125788.8593972     
   28125788.8593972     
   28125788.8593971     
   28125788.8593971     
   28125788.8593970     
   28125788.8593970     
   28125788.8593970     
   28125788.8593970     
   28125788.8593970     
   28125788.8593970     
   28125788.8593970     
   28125788.8593970     
   28125788.8593970     
   28125788.8593970     
   28125788.8593970     
   28125788.8593969     
   28125788.8593969     
   28125788.8593969     
   28125788.8593968     
   28125788.8593968     
   28125788.8593967     
   28125788.8593967     
   28125788.8593967     
   28125788.8593966     
   28125788.8593966     
   28125788.8593966     
   28125788.8593966     
   28125788.8593965     
   28125788.8593966     
   28125788.8593966     
   28125788.8593966     
   28125788.8593966     
   28125788.8593966     
   28125788.8593966     
   28125788.8593966     
   28125788.8593966     
   28125788.8593966     
   26162102.0463703     
   26162102.0463703     
   26162102.0463703     
   26162102.0463703     
   26162102.0463703     
   26162102.0463704     
   26162102.0463704     
   26162102.0463704     
   26162102.0463704     
   26162102.0463705     
   26162102.0463705     
   26162102.0463705     
   26162102.0463705     
   26162102.0463705     
   26162102.0463706     
   26162102.0463706     
   26162102.0463705     
   26162102.0463706     
   26162102.0463705     
   26162102.0463705     
   26162102.0463705     
   26162102.0463705     
   26162102.0463704     
   26162102.0463704     
   26162102.0463704     
   26162102.0463704     
   26162102.0463705     
   26162102.0463704     
   26162102.0463704     
   26162102.0463704     
   26162102.0463703     
   26162102.0463703     
   26162102.0463703     
   26162102.0463703     
   26162102.0463702     
   26162102.0463702     
   26162102.0463701     
   26162102.0463701     
   26162102.0463701     
   26162102.0463701     
   26162102.0463700     
   26162102.0463701     
   26162102.0463700     
   26162102.0463701     
   26162102.0463701     
   26162102.0463700     
   26162102.0463700     
   26162102.0463700     
   26162102.0463700     
   26162102.0463700     
   26162102.0463700     
   24141216.2626151     
   24141216.2626152     
   24141216.2626152     
   24141216.2626151     
   24141216.2626152     
   24141216.2626152     
   24141216.2626152     
   24141216.2626152     
   24141216.2626153     
   24141216.2626153     
   24141216.2626153     
   24141216.2626153     
   24141216.2626153     
   24141216.2626153     
   24141216.2626153     
   24141216.2626153     
   24141216.2626153     
   24141216.2626153     
   24141216.2626153     
   24141216.2626153     
   24141216.2626153     
   24141216.2626153     
   24141216.2626153     
   24141216.2626153     
   24141216.2626153     
   24141216.2626153     
   24141216.2626153     
   24141216.2626153     
   24141216.2626152     
   24141216.2626152     
   24141216.2626152     
   24141216.2626152     
   24141216.2626152     
   24141216.2626151     
   24141216.2626151     
   24141216.2626151     
   24141216.2626150     
   24141216.2626150     
   24141216.2626150     
   24141216.2626150     
   24141216.2626149     
   24141216.2626150     
   24141216.2626149     
   24141216.2626149     
   24141216.2626149     
   24141216.2626149     
   24141216.2626150     
   24141216.2626150     
   24141216.2626150     
   24141216.2626150     
   24141216.2626150     
   22080738.4496198     
   22080738.4496198     
   22080738.4496199     
   22080738.4496198     
   22080738.4496198     
   22080738.4496198     
   22080738.4496199     
   22080738.4496199     
   22080738.4496199     
   22080738.4496199     
   22080738.4496199     
   22080738.4496199     
   22080738.4496199     
   22080738.4496199     
   22080738.4496199     
   22080738.4496199     
   22080738.4496199     
   22080738.4496199     
   22080738.4496199     
   22080738.4496199     
   22080738.4496199     
   22080738.4496199     
   22080738.4496199     
   22080738.4496199     
   22080738.4496199     
   22080738.4496199     
   22080738.4496200     
   22080738.4496199     
   22080738.4496199     
   22080738.4496199     
   22080738.4496199     
   22080738.4496199     
   22080738.4496199     
   22080738.4496199     
   22080738.4496198     
   22080738.4496198     
   22080738.4496198     
   22080738.4496198     
   22080738.4496197     
   22080738.4496197     
   22080738.4496197     
   22080738.4496197     
   22080738.4496197     
   22080738.4496197     
   22080738.4496198     
   22080738.4496198     
   22080738.4496198     
   22080738.4496198     
   22080738.4496198     
   22080738.4496198     
   22080738.4496197     
   20000000.0000000     
   20000000.0000000     
   20000000.0000000     
   20000000.0000000     
   20000000.0000000     
   20000000.0000000     
   20000000.0000000     
   20000000.0000000     
   20000000.0000000     
   20000000.0000000     
   20000000.0000000     
   20000000.0000000     
   20000000.0000000     
   20000000.0000000     
   20000000.0000000     
   20000000.0000000     
   20000000.0000000     
   20000000.0000000     
   20000000.0000000     
   20000000.0000000     
   20000000.0000000     
   20000000.0000000     
   20000000.0000000     
   20000000.0000000     
   20000000.0000000     
   20000000.0000000     
   20000000.0000000     
   20000000.0000000     
   20000000.0000000     
   20000000.0000000     
   20000000.0000000     
   20000000.0000000     
   20000000.0000000     
   20000000.0000000     
   20000000.0000000     
   20000000.0000000     
   20000000.0000000     
   20000000.0000000     
   20000000.0000000     
   20000000.0000000     
   20000000.0000000     
   20000000.0000000     
   20000000.0000000     
   20000000.0000000     
   20000000.0000000     
   20000000.0000000     
   20000000.0000000     
   20000000.0000000     
   20000000.0000000     
   20000000.0000000     
   20000000.0000000     
VECTORS u double 
    0.00000E+00         0.24008E-05         0.00000E+00
    0.00000E+00         0.24008E-05         0.00000E+00
    0.00000E+00         0.24007E-05         0.00000E+00
    0.00000E+00         0.24003E-05         0.00000E+00
    0.00000E+00         0.23995E-05         0.00000E+00
    0.00000E+00         0.23983E-05         0.00000E+00
    0.00000E+00         0.23964E-05         0.00000E+00
    0.00000E+00         0.23938E-05         0.00000E+00
    0.00000E+00         0.23904E-05         0.00000E+00
    0.00000E+00         0.23859E-05         0.00000E+00
    0.00000E+00         0.23803E-05         0.00000E+00
    0.00000E+00         0.23735E-05         0.00000E+00
    0.00000E+00         0.23653E-05         0.00000E+00
    0.00000E+00         0.23556E-05         0.00000E+00
    0.00000E+00         0.23442E-05         0.00000E+00
    0.00000E+00         0.23312E-05         0.00000E+00
    0.00000E+00         0.23163E-05         0.00000E+00
    0.00000E+00         0.22994E-05         0.00000E+00
    0.00000E+00         0.22805E-05         0.00000E+00
    0.00000E+00         0.22593E-05         0.00000E+00
    0.00000E+00         0.22358E-05         0.00000E+00
    0.00000E+00         0.22099E-05         0.00000E+00
    0.00000E+00         0.21814E-05         0.00000E+00
    0.00000E+00         0.21503E-05         0.00000E+00
    0.00000E+00         0.21165E-05         0.00000E+00
    0.00000E+00         0.20798E-05         0.00000E+00
    0.00000E+00         0.20402E-05         0.00000E+00
    0.00000E+00         0.19975E-05         0.00000E+00
    0.00000E+00         0.19516E-05         0.00000E+00
    0.00000E+00         0.19026E-05         0.00000E+00
    0.00000E+00         0.18502E-05         0.00000E+00
    0.00000E+00         0.17944E-05         0.00000E+00
    0.00000E+00         0.17351E-05         0.00000E+00
    0.00000E+00         0.16722E-05         0.00000E+00
    0.00000E+00         0.16057E-05         0.00000E+00
    0.00000E+00         0.15355E-05         0.00000E+00
    0.00000E+00         0.14615E-05         0.00000E+00
    0.00000E+00         0.13837E-05         0.00000E+00
    0.00000E+00         0.13019E-05         0.00000E+00
    0.00000E+00         0.12162E-05         0.00000E+00
    0.00000E+00         0.11265E-05         0.00000E+00
    0.00000E+00         0.10327E-05         0.00000E+00
    0.00000E+00         0.93483E-06         0.00000E+00
    0.00000E+00         0.83280E-06         0.00000E+00
    0.00000E+00         0.72658E-06         0.00000E+00
    0.00000E+00         0.61615E-06         0.00000E+00
    0.00000E+00         0.50148E-06         0.00000E+00
    0.00000E+00         0.38255E-06         0.00000E+00
    0.00000E+00         0.25933E-06         0.00000E+00
    0.00000E+00         0.13182E-06         0.00000E+00
    0.00000E+00         0.00000E+00         0.00000E+00
    0.10997E-05         0.24168E-05         0.00000E+00
    0.11055E-05         0.24168E-05         0.00000E+00
    0.11101E-05         0.24167E-05         0.00000E+00
    0.11135E-05         0.24164E-05         0.00000E+00
    0.11156E-05         0.24157E-05         0.00000E+00
    0.11165E-05         0.24145E-05         0.00000E+00
    0.11161E-05         0.24126E-05         0.00000E+00
    0.11145E-05         0.24100E-05         0.00000E+00
    0.11116E-05         0.24066E-05         0.00000E+00
    0.11075E-05         0.24021E-05         0.00000E+00
    0.11021E-05         0.23965E-05         0.00000E+00
    0.10955E-05         0.23896E-05         0.00000E+00
    0.10876E-05         0.23814E-05         0.00000E+00
    0.10784E-05         0.23716E-05         0.00000E+00
    0.10681E-05         0.23603E-05         0.00000E+00
    0.10565E-05         0.23471E-05         0.00000E+00
    0.10436E-05         0.23321E-05         0.00000E+00
    0.10296E-05         0.23152E-05         0.00000E+00
    0.10143E-05         0.22961E-05         0.00000E+00
    0.99790E-06         0.22748E-05         0.00000E+00
    0.98028E-06         0.22511E-05         0.00000E+00
    0.96148E-06         0.22251E-05         0.00000E+00
    0.94153E-06         0.21964E-05         0.00000E+00
    0.92044E-06         0.21651E-05         0.00000E+00
    0.89823E-06         0.21311E-05         0.00000E+00
    0.87491E-06         0.20941E-05         0.00000E+00
    0.85051E-06         0.20542E-05         0.00000E+00
    0.82503E-06         0.20112E-05         0.00000E+00
    0.79851E-06         0.19651E-05         0.00000E+00
    0.77095E-06         0.19157E-05         0.00000E+00
    0.74239E-06         0.18629E-05         0.00000E+00
    0.71285E-06         0.18067E-05         0.00000E+00
    0.68235E-06         0.17470E-05         0.00000E+00
    0.65091E-06         0.16837E-05         0.00000E+00
    0.61855E-06         0.16168E-05         0.00000E+00
    0.58531E-06         0.15461E-05         0.00000E+00
    0.55122E-06         0.14716E-05         0.00000E+00
    0.51629E-06         0.13932E-05         0.00000E+00
    0.48055E-06         0.13109E-05         0.00000E+00
    0.44404E-06         0.12246E-05         0.00000E+00
    0.40679E-06         0.11343E-05         0.00000E+00
    0.36881E-06         0.10398E-05         0.00000E+00
    0.33016E-06         0.94128E-06         0.00000E+00
    0.29084E-06         0.83854E-06         0.00000E+00
    0.25091E-06         0.73159E-06         0.00000E+00
    0.21038E-06         0.62039E-06         0.00000E+00
    0.16930E-06         0.50493E-06         0.00000E+00
    0.12768E-06         0.38517E-06         0.00000E+00
    0.85575E-07         0.26111E-06         0.00000E+00
    0.43004E-07         0.13272E-06         0.00000E+00
    0.00000E+00         0.00000E+00         0.00000E+00
    0.22143E-05         0.24654E-05         0.00000E+00
    0.22261E-05         0.24655E-05         0.00000E+00
    0.22354E-05         0.24655E-05         0.00000E+00
    0.22423E-05         0.24652E-05         0.00000E+00
    0.22466E-05         0.24646E-05         0.00000E+00
    0.22484E-05         0.24634E-05         0.00000E+00
    0.22476E-05         0.24616E-05         0.00000E+00
    0.22444E-05         0.24590E-05         0.00000E+00
    0.22386E-05         0.24555E-05         0.00000E+00
    0.22303E-05         0.24510E-05         0.00000E+00
    0.22194E-05         0.24453E-05         0.00000E+00
    0.22061E-05         0.24384E-05         0.00000E+00
    0.21902E-05         0.24300E-05         0.00000E+00
    0.21718E-05         0.24201E-05         0.00000E+00
    0.21509E-05         0.24086E-05         0.00000E+00
    0.21275E-05         0.23952E-05         0.00000E+00
    0.21016E-05         0.23799E-05         0.00000E+00
    0.20734E-05         0.23626E-05         0.00000E+00
    0.20426E-05         0.23432E-05         0.00000E+00
    0.20095E-05         0.23215E-05         0.00000E+00
    0.19740E-05         0.22974E-05         0.00000E+00
    0.19362E-05         0.22708E-05         0.00000E+00
    0.18960E-05         0.22416E-05         0.00000E+00
    0.18535E-05         0.22097E-05         0.00000E+00
    0.18088E-05         0.21749E-05         0.00000E+00
    0.17618E-05         0.21372E-05         0.00000E+00
    0.17126E-05         0.20965E-05         0.00000E+00
    0.16613E-05         0.20526E-05         0.00000E+00
    0.16079E-05         0.20056E-05         0.00000E+00
    0.15524E-05         0.19551E-05         0.00000E+00
    0.14949E-05         0.19013E-05         0.00000E+00
    0.14354E-05         0.18440E-05         0.00000E+00
    0.13740E-05         0.17831E-05         0.00000E+00
    0.13106E-05         0.17185E-05         0.00000E+00
    0.12455E-05         0.16502E-05         0.00000E+00
    0.11785E-05         0.15780E-05         0.00000E+00
    0.11099E-05         0.15020E-05         0.00000E+00
    0.10395E-05         0.14220E-05         0.00000E+00
    0.96755E-06         0.13380E-05         0.00000E+00
    0.89402E-06         0.12499E-05         0.00000E+00
    0.81899E-06         0.11577E-05         0.00000E+00
    0.74253E-06         0.10613E-05         0.00000E+00
    0.66468E-06         0.96071E-06         0.00000E+00
    0.58551E-06         0.85585E-06         0.00000E+00
    0.50509E-06         0.74669E-06         0.00000E+00
    0.42349E-06         0.63320E-06         0.00000E+00
    0.34076E-06         0.51535E-06         0.00000E+00
    0.25698E-06         0.39312E-06         0.00000E+00
    0.17221E-06         0.26649E-06         0.00000E+00
    0.86530E-07         0.13545E-06         0.00000E+00
    0.00000E+00         0.00000E+00         0.00000E+00
    0.33596E-05         0.25476E-05         0.00000E+00
    0.33776E-05         0.25478E-05         0.00000E+00
    0.33919E-05         0.25479E-05         0.00000E+00
    0.34023E-05         0.25477E-05         0.00000E+00
    0.34089E-05         0.25471E-05         0.00000E+00
    0.34116E-05         0.25460E-05         0.00000E+00
    0.34105E-05         0.25442E-05         0.00000E+00
    0.34056E-05         0.25416E-05         0.00000E+00
    0.33968E-05         0.25381E-05         0.00000E+00
    0.33842E-05         0.25335E-05         0.00000E+00
    0.33677E-05         0.25277E-05         0.00000E+00
    0.33474E-05         0.25205E-05         0.00000E+00
    0.33233E-05         0.25119E-05         0.00000E+00
    0.32954E-05         0.25018E-05         0.00000E+00
    0.32637E-05         0.24899E-05         0.00000E+00
    0.32282E-05         0.24761E-05         0.00000E+00
    0.31889E-05         0.24604E-05         0.00000E+00
    0.31460E-05         0.24425E-05         0.00000E+00
    0.30994E-05         0.24225E-05         0.00000E+00
    0.30491E-05         0.24001E-05         0.00000E+00
    0.29952E-05         0.23752E-05         0.00000E+00
    0.29378E-05         0.23477E-05         0.00000E+00
    0.28768E-05         0.23176E-05         0.00000E+00
    0.28123E-05         0.22846E-05         0.00000E+00
    0.27444E-05         0.22487E-05         0.00000E+00
    0.26731E-05         0.22098E-05         0.00000E+00
    0.25985E-05         0.21677E-05         0.00000E+00
    0.25207E-05         0.21224E-05         0.00000E+00
    0.24396E-05         0.20737E-05         0.00000E+00
    0.23554E-05         0.20216E-05         0.00000E+00
    0.22681E-05         0.19659E-05         0.00000E+00
    0.21778E-05         0.19067E-05         0.00000E+00
    0.20846E-05         0.18437E-05         0.00000E+00
    0.19885E-05         0.17769E-05         0.00000E+00
    0.18896E-05         0.17063E-05         0.00000E+00
    0.17880E-05         0.16317E-05         0.00000E+00
    0.16838E-05         0.15531E-05         0.00000E+00
    0.15771E-05         0.14704E-05         0.00000E+00
    0.14679E-05         0.13835E-05         0.00000E+00
    0.13563E-05         0.12925E-05         0.00000E+00
    0.12425E-05         0.11971E-05         0.00000E+00
    0.11264E-05         0.10975E-05         0.00000E+00
    0.10083E-05         0.99343E-06         0.00000E+00
    0.88821E-06         0.88499E-06         0.00000E+00
    0.76620E-06         0.77211E-06         0.00000E+00
    0.64239E-06         0.65476E-06         0.00000E+00
    0.51689E-06         0.53290E-06         0.00000E+00
    0.38979E-06         0.40650E-06         0.00000E+00
    0.26121E-06         0.27557E-06         0.00000E+00
    0.13124E-06         0.14007E-06         0.00000E+00
    0.00000E+00         0.00000E+00         0.00000E+00
    0.45520E-05         0.26648E-05         0.00000E+00
    0.45764E-05         0.26651E-05         0.00000E+00
    0.45958E-05         0.26652E-05         0.00000E+00
    0.46099E-05         0.26651E-05         0.00000E+00
    0.46189E-05         0.26646E-05         0.00000E+00
    0.46226E-05         0.26635E-05         0.00000E+00
    0.46212E-05         0.26617E-05         0.00000E+00
    0.46145E-05         0.26590E-05         0.00000E+00
    0.46026E-05         0.26554E-05         0.00000E+00
    0.45855E-05         0.26507E-05         0.00000E+00
    0.45631E-05         0.26447E-05         0.00000E+00
    0.45356E-05         0.26373E-05         0.00000E+00
    0.45029E-05         0.26284E-05         0.00000E+00
    0.44651E-05         0.26178E-05         0.00000E+00
    0.44221E-05         0.26054E-05         0.00000E+00
    0.43740E-05         0.25910E-05         0.00000E+00
    0.43208E-05         0.25746E-05         0.00000E+00
    0.42626E-05         0.25560E-05         0.00000E+00
    0.41994E-05         0.25351E-05         0.00000E+00
    0.41313E-05         0.25117E-05         0.00000E+00
    0.40583E-05         0.24857E-05         0.00000E+00
    0.39804E-05         0.24570E-05         0.00000E+00
    0.38977E-05         0.24255E-05         0.00000E+00
    0.38104E-05         0.23910E-05         0.00000E+00
    0.37184E-05         0.23535E-05         0.00000E+00
    0.36218E-05         0.23127E-05         0.00000E+00
    0.35207E-05         0.22687E-05         0.00000E+00
    0.34152E-05         0.22213E-05         0.00000E+00
    0.33053E-05         0.21704E-05         0.00000E+00
    0.31912E-05         0.21159E-05         0.00000E+00
    0.30729E-05         0.20577E-05         0.00000E+00
    0.29505E-05         0.19957E-05         0.00000E+00
    0.28242E-05         0.19298E-05         0.00000E+00
    0.26940E-05         0.18599E-05         0.00000E+00
    0.25600E-05         0.17860E-05         0.00000E+00
    0.24224E-05         0.17079E-05         0.00000E+00
    0.22812E-05         0.16256E-05         0.00000E+00
    0.21366E-05         0.15391E-05         0.00000E+00
    0.19886E-05         0.14482E-05         0.00000E+00
    0.18374E-05         0.13529E-05         0.00000E+00
    0.16832E-05         0.12531E-05         0.00000E+00
    0.15260E-05         0.11488E-05         0.00000E+00
    0.13660E-05         0.10399E-05         0.00000E+00
    0.12032E-05         0.92638E-06         0.00000E+00
    0.10379E-05         0.80823E-06         0.00000E+00
    0.87021E-06         0.68538E-06         0.00000E+00
    0.70019E-06         0.55782E-06         0.00000E+00
    0.52801E-06         0.42552E-06         0.00000E+00
    0.35383E-06         0.28846E-06         0.00000E+00
    0.17777E-06         0.14662E-06         0.00000E+00
    0.00000E+00         0.00000E+00         0.00000E+00
    0.58082E-05         0.28185E-05         0.00000E+00
    0.58395E-05         0.28189E-05         0.00000E+00
    0.58642E-05         0.28191E-05         0.00000E+00
    0.58822E-05         0.28191E-05         0.00000E+00
    0.58937E-05         0.28186E-05         0.00000E+00
    0.58985E-05         0.28175E-05         0.00000E+00
    0.58966E-05         0.28157E-05         0.00000E+00
    0.58881E-05         0.28130E-05         0.00000E+00
    0.58729E-05         0.28092E-05         0.00000E+00
    0.58510E-05         0.28043E-05         0.00000E+00
    0.58225E-05         0.27980E-05         0.00000E+00
    0.57874E-05         0.27903E-05         0.00000E+00
    0.57456E-05         0.27809E-05         0.00000E+00
    0.56973E-05         0.27698E-05         0.00000E+00
    0.56424E-05         0.27567E-05         0.00000E+00
    0.55810E-05         0.27416E-05         0.00000E+00
    0.55132E-05         0.27243E-05         0.00000E+00
    0.54389E-05         0.27047E-05         0.00000E+00
    0.53582E-05         0.26826E-05         0.00000E+00
    0.52712E-05         0.26579E-05         0.00000E+00
    0.51780E-05         0.26304E-05         0.00000E+00
    0.50787E-05         0.26001E-05         0.00000E+00
    0.49732E-05         0.25668E-05         0.00000E+00
    0.48617E-05         0.25303E-05         0.00000E+00
    0.47443E-05         0.24907E-05         0.00000E+00
    0.46210E-05         0.24476E-05         0.00000E+00
    0.44920E-05         0.24011E-05         0.00000E+00
    0.43573E-05         0.23509E-05         0.00000E+00
    0.42171E-05         0.22971E-05         0.00000E+00
    0.40715E-05         0.22394E-05         0.00000E+00
    0.39206E-05         0.21778E-05         0.00000E+00
    0.37644E-05         0.21122E-05         0.00000E+00
    0.36032E-05         0.20425E-05         0.00000E+00
    0.34371E-05         0.19686E-05         0.00000E+00
    0.32661E-05         0.18903E-05         0.00000E+00
    0.30905E-05         0.18077E-05         0.00000E+00
    0.29104E-05         0.17207E-05         0.00000E+00
    0.27258E-05         0.16291E-05         0.00000E+00
    0.25370E-05         0.15329E-05         0.00000E+00
    0.23442E-05         0.14320E-05         0.00000E+00
    0.21474E-05         0.13264E-05         0.00000E+00
    0.19468E-05         0.12160E-05         0.00000E+00
    0.17426E-05         0.11007E-05         0.00000E+00
    0.15350E-05         0.98058E-06         0.00000E+00
    0.13241E-05         0.85552E-06         0.00000E+00
    0.11101E-05         0.72549E-06         0.00000E+00
    0.89322E-06         0.59047E-06         0.00000E+00
    0.67358E-06         0.45043E-06         0.00000E+00
    0.45137E-06         0.30535E-06         0.00000E+00
    0.22678E-06         0.15521E-06         0.00000E+00
    0.00000E+00         0.00000E+00         0.00000E+00
    0.71462E-05         0.30108E-05         0.00000E+00
    0.71847E-05         0.30113E-05         0.00000E+00
    0.72150E-05         0.30117E-05         0.00000E+00
    0.72372E-05         0.30117E-05         0.00000E+00
    0.72513E-05         0.30113E-05         0.00000E+00
    0.72572E-05         0.30102E-05         0.00000E+00
    0.72548E-05         0.30083E-05         0.00000E+00
    0.72443E-05         0.30055E-05         0.00000E+00
    0.72256E-05         0.30016E-05         0.00000E+00
    0.71987E-05         0.29964E-05         0.00000E+00
    0.71636E-05         0.29898E-05         0.00000E+00
    0.71203E-05         0.29816E-05         0.00000E+00
    0.70689E-05         0.29716E-05         0.00000E+00
    0.70094E-05         0.29598E-05         0.00000E+00
    0.69419E-05         0.29459E-05         0.00000E+00
    0.68663E-05         0.29299E-05         0.00000E+00
    0.67827E-05         0.29114E-05         0.00000E+00
    0.66913E-05         0.28905E-05         0.00000E+00
    0.65920E-05         0.28670E-05         0.00000E+00
    0.64850E-05         0.28406E-05         0.00000E+00
    0.63703E-05         0.28113E-05         0.00000E+00
    0.62480E-05         0.27790E-05         0.00000E+00
    0.61182E-05         0.27434E-05         0.00000E+00
    0.59810E-05         0.27045E-05         0.00000E+00
    0.58365E-05         0.26621E-05         0.00000E+00
    0.56848E-05         0.26162E-05         0.00000E+00
    0.55260E-05         0.25665E-05         0.00000E+00
    0.53603E-05         0.25129E-05         0.00000E+00
    0.51878E-05         0.24554E-05         0.00000E+00
    0.50087E-05         0.23938E-05         0.00000E+00
    0.48230E-05         0.23280E-05         0.00000E+00
    0.46309E-05         0.22579E-05         0.00000E+00
    0.44325E-05         0.21834E-05         0.00000E+00
    0.42281E-05         0.21044E-05         0.00000E+00
    0.40178E-05         0.20208E-05         0.00000E+00
    0.38017E-05         0.19325E-05         0.00000E+00
    0.35801E-05         0.18394E-05         0.00000E+00
    0.33531E-05         0.17415E-05         0.00000E+00
    0.31208E-05         0.16387E-05         0.00000E+00
    0.28836E-05         0.15308E-05         0.00000E+00
    0.26415E-05         0.14180E-05         0.00000E+00
    0.23947E-05         0.12999E-05         0.00000E+00
    0.21436E-05         0.11767E-05         0.00000E+00
    0.18882E-05         0.10483E-05         0.00000E+00
    0.16287E-05         0.91463E-06         0.00000E+00
    0.13655E-05         0.77563E-06         0.00000E+00
    0.10987E-05         0.63128E-06         0.00000E+00
    0.82853E-06         0.48156E-06         0.00000E+00
    0.55520E-06         0.32645E-06         0.00000E+00
    0.27894E-06         0.16594E-06         0.00000E+00
    0.00000E+00         0.00000E+00         0.00000E+00
    0.85848E-05         0.32443E-05         0.00000E+00
    0.86309E-05         0.32449E-05         0.00000E+00
    0.86674E-05         0.32454E-05         0.00000E+00
    0.86940E-05         0.32455E-05         0.00000E+00
    0.87109E-05         0.32451E-05         0.00000E+00
    0.87179E-05         0.32441E-05         0.00000E+00
    0.87150E-05         0.32421E-05         0.00000E+00
    0.87023E-05         0.32392E-05         0.00000E+00
    0.86798E-05         0.32351E-05         0.00000E+00
    0.86474E-05         0.32296E-05         0.00000E+00
    0.86052E-05         0.32225E-05         0.00000E+00
    0.85532E-05         0.32138E-05         0.00000E+00
    0.84914E-05         0.32031E-05         0.00000E+00
    0.84198E-05         0.31905E-05         0.00000E+00
    0.83386E-05         0.31756E-05         0.00000E+00
    0.82478E-05         0.31583E-05         0.00000E+00
    0.81473E-05         0.31385E-05         0.00000E+00
    0.80374E-05         0.31161E-05         0.00000E+00
    0.79181E-05         0.30907E-05         0.00000E+00
    0.77895E-05         0.30624E-05         0.00000E+00
    0.76517E-05         0.30309E-05         0.00000E+00
    0.75047E-05         0.29961E-05         0.00000E+00
    0.73487E-05         0.29578E-05         0.00000E+00
    0.71839E-05         0.29159E-05         0.00000E+00
    0.70103E-05         0.28702E-05         0.00000E+00
    0.68280E-05         0.28207E-05         0.00000E+00
    0.66373E-05         0.27672E-05         0.00000E+00
    0.64383E-05         0.27095E-05         0.00000E+00
    0.62310E-05         0.26475E-05         0.00000E+00
    0.60158E-05         0.25811E-05         0.00000E+00
    0.57927E-05         0.25102E-05         0.00000E+00
    0.55620E-05         0.24346E-05         0.00000E+00
    0.53237E-05         0.23543E-05         0.00000E+00
    0.50782E-05         0.22691E-05         0.00000E+00
    0.48255E-05         0.21790E-05         0.00000E+00
    0.45660E-05         0.20838E-05         0.00000E+00
    0.42998E-05         0.19835E-05         0.00000E+00
    0.40271E-05         0.18780E-05         0.00000E+00
    0.37481E-05         0.17671E-05         0.00000E+00
    0.34632E-05         0.16508E-05         0.00000E+00
    0.31724E-05         0.15291E-05         0.00000E+00
    0.28760E-05         0.14018E-05         0.00000E+00
    0.25744E-05         0.12690E-05         0.00000E+00
    0.22676E-05         0.11305E-05         0.00000E+00
    0.19561E-05         0.98636E-06         0.00000E+00
    0.16399E-05         0.83646E-06         0.00000E+00
    0.13195E-05         0.68080E-06         0.00000E+00
    0.99502E-06         0.51934E-06         0.00000E+00
    0.66676E-06         0.35207E-06         0.00000E+00
    0.33500E-06         0.17896E-06         0.00000E+00
    0.00000E+00         0.00000E+00         0.00000E+00
    0.10144E-04         0.35220E-05         0.00000E+00
    0.10199E-04         0.35228E-05         0.00000E+00
    0.10242E-04         0.35234E-05         0.00000E+00
    0.10273E-04         0.35236E-05         0.00000E+00
    0.10293E-04         0.35233E-05         0.00000E+00
    0.10301E-04         0.35222E-05         0.00000E+00
    0.10298E-04         0.35203E-05         0.00000E+00
    0.10283E-04         0.35172E-05         0.00000E+00
    0.10256E-04         0.35128E-05         0.00000E+00
    0.10218E-04         0.35069E-05         0.00000E+00
    0.10168E-04         0.34993E-05         0.00000E+00
    0.10106E-04         0.34899E-05         0.00000E+00
    0.10033E-04         0.34785E-05         0.00000E+00
    0.99483E-05         0.34648E-05         0.00000E+00
    0.98522E-05         0.34487E-05         0.00000E+00
    0.97448E-05         0.34300E-05         0.00000E+00
    0.96261E-05         0.34086E-05         0.00000E+00
    0.94962E-05         0.33843E-05         0.00000E+00
    0.93551E-05         0.33569E-05         0.00000E+00
    0.92031E-05         0.33261E-05         0.00000E+00
    0.90401E-05         0.32920E-05         0.00000E+00
    0.88664E-05         0.32542E-05         0.00000E+00
    0.86821E-05         0.32127E-05         0.00000E+00
    0.84873E-05         0.31673E-05         0.00000E+00
    0.82821E-05         0.31177E-05         0.00000E+00
    0.80667E-05         0.30640E-05         0.00000E+00
    0.78414E-05         0.30059E-05         0.00000E+00
    0.76061E-05         0.29432E-05         0.00000E+00
    0.73613E-05         0.28759E-05         0.00000E+00
    0.71069E-05         0.28039E-05         0.00000E+00
    0.68433E-05         0.27269E-05         0.00000E+00
    0.65707E-05         0.26448E-05         0.00000E+00
    0.62892E-05         0.25576E-05         0.00000E+00
    0.59991E-05         0.24651E-05         0.00000E+00
    0.57006E-05         0.23672E-05         0.00000E+00
    0.53940E-05         0.22639E-05         0.00000E+00
    0.50794E-05         0.21549E-05         0.00000E+00
    0.47573E-05         0.20403E-05         0.00000E+00
    0.44277E-05         0.19198E-05         0.00000E+00
    0.40910E-05         0.17935E-05         0.00000E+00
    0.37475E-05         0.16613E-05         0.00000E+00
    0.33974E-05         0.15231E-05         0.00000E+00
    0.30411E-05         0.13787E-05         0.00000E+00
    0.26787E-05         0.12283E-05         0.00000E+00
    0.23107E-05         0.10717E-05         0.00000E+00
    0.19372E-05         0.90882E-06         0.00000E+00
    0.15587E-05         0.73970E-06         0.00000E+00
    0.11754E-05         0.56428E-06         0.00000E+00
    0.78762E-06         0.38253E-06         0.00000E+00
    0.39571E-06         0.19444E-06         0.00000E+00
    0.00000E+00         0.00000E+00         0.00000E+00
    0.11847E-04         0.38475E-05         0.00000E+00
    0.11910E-04         0.38485E-05         0.00000E+00
    0.11960E-04         0.38492E-05         0.00000E+00
    0.11997E-04         0.38496E-05         0.00000E+00
    0.12020E-04         0.38494E-05         0.00000E+00
    0.12029E-04         0.38484E-05         0.00000E+00
    0.12025E-04         0.38463E-05         0.00000E+00
    0.12007E-04         0.38430E-05         0.00000E+00
    0.11976E-04         0.38383E-05         0.00000E+00
    0.11931E-04         0.38320E-05         0.00000E+00
    0.11873E-04         0.38239E-05         0.00000E+00
    0.11801E-04         0.38137E-05         0.00000E+00
    0.11715E-04         0.38012E-05         0.00000E+00
    0.11616E-04         0.37864E-05         0.00000E+00
    0.11504E-04         0.37689E-05         0.00000E+00
    0.11378E-04         0.37486E-05         0.00000E+00
    0.11240E-04         0.37253E-05         0.00000E+00
    0.11088E-04         0.36988E-05         0.00000E+00
    0.10923E-04         0.36689E-05         0.00000E+00
    0.10745E-04         0.36354E-05         0.00000E+00
    0.10555E-04         0.35981E-05         0.00000E+00
    0.10352E-04         0.35569E-05         0.00000E+00
    0.10137E-04         0.35116E-05         0.00000E+00
    0.99093E-05         0.34620E-05         0.00000E+00
    0.96696E-05         0.34079E-05         0.00000E+00
    0.94181E-05         0.33492E-05         0.00000E+00
    0.91549E-05         0.32857E-05         0.00000E+00
    0.88802E-05         0.32173E-05         0.00000E+00
    0.85942E-05         0.31438E-05         0.00000E+00
    0.82972E-05         0.30651E-05         0.00000E+00
    0.79894E-05         0.29809E-05         0.00000E+00
    0.76710E-05         0.28913E-05         0.00000E+00
    0.73424E-05         0.27960E-05         0.00000E+00
    0.70036E-05         0.26949E-05         0.00000E+00
    0.66551E-05         0.25879E-05         0.00000E+00
    0.62971E-05         0.24750E-05         0.00000E+00
    0.59299E-05         0.23559E-05         0.00000E+00
    0.55537E-05         0.22305E-05         0.00000E+00
    0.51690E-05         0.20989E-05         0.00000E+00
    0.47759E-05         0.19608E-05         0.00000E+00
    0.43749E-05         0.18163E-05         0.00000E+00
    0.39661E-05         0.16652E-05         0.00000E+00
    0.35501E-05         0.15074E-05         0.00000E+00
    0.31271E-05         0.13429E-05         0.00000E+00
    0.26974E-05         0.11717E-05         0.00000E+00
    0.22615E-05         0.99365E-06         0.00000E+00
    0.18196E-05         0.80875E-06         0.00000E+00
    0.13721E-05         0.61696E-06         0.00000E+00
    0.91943E-06         0.41825E-06         0.00000E+00
    0.46194E-06         0.21260E-06         0.00000E+00
    0.00000E+00         0.00000E+00         0.00000E+00
    0.13716E-04         0.42250E-05         0.00000E+00
    0.13790E-04         0.42262E-05         0.00000E+00
    0.13847E-04         0.42272E-05         0.00000E+00
    0.13889E-04         0.42278E-05         0.00000E+00
    0.13916E-04         0.42277E-05         0.00000E+00
    0.13927E-04         0.42266E-05         0.00000E+00
    0.13922E-04         0.42245E-05         0.00000E+00
    0.13901E-04         0.42210E-05         0.00000E+00
    0.13864E-04         0.42160E-05         0.00000E+00
    0.13812E-04         0.42092E-05         0.00000E+00
    0.13744E-04         0.42003E-05         0.00000E+00
    0.13661E-04         0.41893E-05         0.00000E+00
    0.13562E-04         0.41757E-05         0.00000E+00
    0.13447E-04         0.41595E-05         0.00000E+00
    0.13317E-04         0.41404E-05         0.00000E+00
    0.13171E-04         0.41182E-05         0.00000E+00
    0.13011E-04         0.40927E-05         0.00000E+00
    0.12835E-04         0.40636E-05         0.00000E+00
    0.12644E-04         0.40309E-05         0.00000E+00
    0.12438E-04         0.39941E-05         0.00000E+00
    0.12218E-04         0.39533E-05         0.00000E+00
    0.11983E-04         0.39081E-05         0.00000E+00
    0.11733E-04         0.38584E-05         0.00000E+00
    0.11470E-04         0.38039E-05         0.00000E+00
    0.11192E-04         0.37446E-05         0.00000E+00
    0.10901E-04         0.36801E-05         0.00000E+00
    0.10596E-04         0.36105E-05         0.00000E+00
    0.10278E-04         0.35353E-05         0.00000E+00
    0.99471E-05         0.34546E-05         0.00000E+00
    0.96033E-05         0.33681E-05         0.00000E+00
    0.92469E-05         0.32757E-05         0.00000E+00
    0.88784E-05         0.31772E-05         0.00000E+00
    0.84979E-05         0.30726E-05         0.00000E+00
    0.81058E-05         0.29615E-05         0.00000E+00
    0.77024E-05         0.28440E-05         0.00000E+00
    0.72880E-05         0.27199E-05         0.00000E+00
    0.68629E-05         0.25890E-05         0.00000E+00
    0.64275E-05         0.24513E-05         0.00000E+00
    0.59822E-05         0.23067E-05         0.00000E+00
    0.55273E-05         0.21550E-05         0.00000E+00
    0.50631E-05         0.19961E-05         0.00000E+00
    0.45901E-05         0.18301E-05         0.00000E+00
    0.41086E-05         0.16567E-05         0.00000E+00
    0.36190E-05         0.14759E-05         0.00000E+00
    0.31217E-05         0.12878E-05         0.00000E+00
    0.26172E-05         0.10921E-05         0.00000E+00
    0.21057E-05         0.88889E-06         0.00000E+00
    0.15879E-05         0.67810E-06         0.00000E+00
    0.10640E-05         0.45970E-06         0.00000E+00
    0.53459E-06         0.23367E-06         0.00000E+00
    0.00000E+00         0.00000E+00         0.00000E+00
    0.15779E-04         0.46594E-05         0.00000E+00
    0.15863E-04         0.46609E-05         0.00000E+00
    0.15929E-04         0.46622E-05         0.00000E+00
    0.15977E-04         0.46629E-05         0.00000E+00
    0.16007E-04         0.46630E-05         0.00000E+00
    0.16020E-04         0.46620E-05         0.00000E+00
    0.16014E-04         0.46598E-05         0.00000E+00
    0.15989E-04         0.46561E-05         0.00000E+00
    0.15947E-04         0.46507E-05         0.00000E+00
    0.15887E-04         0.46433E-05         0.00000E+00
    0.15809E-04         0.46337E-05         0.00000E+00
    0.15712E-04         0.46216E-05         0.00000E+00
    0.15598E-04         0.46067E-05         0.00000E+00
    0.15466E-04         0.45890E-05         0.00000E+00
    0.15316E-04         0.45680E-05         0.00000E+00
    0.15148E-04         0.45436E-05         0.00000E+00
    0.14963E-04         0.45156E-05         0.00000E+00
    0.14761E-04         0.44836E-05         0.00000E+00
    0.14541E-04         0.44476E-05         0.00000E+00
    0.14304E-04         0.44072E-05         0.00000E+00
    0.14051E-04         0.43622E-05         0.00000E+00
    0.13780E-04         0.43124E-05         0.00000E+00
    0.13493E-04         0.42576E-05         0.00000E+00
    0.13190E-04         0.41976E-05         0.00000E+00
    0.12871E-04         0.41322E-05         0.00000E+00
    0.12536E-04         0.40611E-05         0.00000E+00
    0.12185E-04         0.39843E-05         0.00000E+00
    0.11819E-04         0.39015E-05         0.00000E+00
    0.11439E-04         0.38124E-05         0.00000E+00
    0.11043E-04         0.37170E-05         0.00000E+00
    0.10633E-04         0.36151E-05         0.00000E+00
    0.10209E-04         0.35065E-05         0.00000E+00
    0.97717E-05         0.33910E-05         0.00000E+00
    0.93208E-05         0.32685E-05         0.00000E+00
    0.88568E-05         0.31388E-05         0.00000E+00
    0.83802E-05         0.30019E-05         0.00000E+00
    0.78914E-05         0.28575E-05         0.00000E+00
    0.73907E-05         0.27055E-05         0.00000E+00
    0.68786E-05         0.25459E-05         0.00000E+00
    0.63555E-05         0.23785E-05         0.00000E+00
    0.58217E-05         0.22032E-05         0.00000E+00
    0.52778E-05         0.20199E-05         0.00000E+00
    0.47241E-05         0.18286E-05         0.00000E+00
    0.41611E-05         0.16291E-05         0.00000E+00
    0.35894E-05         0.14214E-05         0.00000E+00
    0.30092E-05         0.12055E-05         0.00000E+00
    0.24212E-05         0.98116E-06         0.00000E+00
    0.18258E-05         0.74849E-06         0.00000E+00
    0.12234E-05         0.50743E-06         0.00000E+00
    0.61467E-06         0.25794E-06         0.00000E+00
    0.00000E+00         0.00000E+00         0.00000E+00
    0.18064E-04         0.51563E-05         0.00000E+00
    0.18160E-04         0.51581E-05         0.00000E+00
    0.18235E-04         0.51597E-05         0.00000E+00
    0.18290E-04         0.51607E-05         0.00000E+00
    0.18324E-04         0.51609E-05         0.00000E+00
    0.18338E-04         0.51600E-05         0.00000E+00
    0.18330E-04         0.51577E-05         0.00000E+00
    0.18303E-04         0.51538E-05         0.00000E+00
    0.18254E-04         0.51479E-05         0.00000E+00
    0.18185E-04         0.51399E-05         0.00000E+00
    0.18095E-04         0.51294E-05         0.00000E+00
    0.17984E-04         0.51161E-05         0.00000E+00
    0.17853E-04         0.50999E-05         0.00000E+00
    0.17701E-04         0.50804E-05         0.00000E+00
    0.17530E-04         0.50573E-05         0.00000E+00
    0.17338E-04         0.50304E-05         0.00000E+00
    0.17126E-04         0.49995E-05         0.00000E+00
    0.16894E-04         0.49642E-05         0.00000E+00
    0.16642E-04         0.49244E-05         0.00000E+00
    0.16371E-04         0.48798E-05         0.00000E+00
    0.16080E-04         0.48300E-05         0.00000E+00
    0.15770E-04         0.47750E-05         0.00000E+00
    0.15442E-04         0.47144E-05         0.00000E+00
    0.15095E-04         0.46481E-05         0.00000E+00
    0.14729E-04         0.45757E-05         0.00000E+00
    0.14345E-04         0.44972E-05         0.00000E+00
    0.13944E-04         0.44121E-05         0.00000E+00
    0.13525E-04         0.43205E-05         0.00000E+00
    0.13089E-04         0.42220E-05         0.00000E+00
    0.12637E-04         0.41164E-05         0.00000E+00
    0.12168E-04         0.40036E-05         0.00000E+00
    0.11682E-04         0.38833E-05         0.00000E+00
    0.11181E-04         0.37555E-05         0.00000E+00
    0.10665E-04         0.36198E-05         0.00000E+00
    0.10134E-04         0.34763E-05         0.00000E+00
    0.95890E-05         0.33246E-05         0.00000E+00
    0.90296E-05         0.31648E-05         0.00000E+00
    0.84566E-05         0.29965E-05         0.00000E+00
    0.78706E-05         0.28198E-05         0.00000E+00
    0.72720E-05         0.26344E-05         0.00000E+00
    0.66612E-05         0.24402E-05         0.00000E+00
    0.60388E-05         0.22373E-05         0.00000E+00
    0.54053E-05         0.20254E-05         0.00000E+00
    0.47611E-05         0.18044E-05         0.00000E+00
    0.41069E-05         0.15744E-05         0.00000E+00
    0.34430E-05         0.13352E-05         0.00000E+00
    0.27702E-05         0.10868E-05         0.00000E+00
    0.20890E-05         0.82908E-06         0.00000E+00
    0.13998E-05         0.56207E-06         0.00000E+00
    0.70327E-06         0.28571E-06         0.00000E+00
    0.00000E+00         0.00000E+00         0.00000E+00
    0.20604E-04         0.57218E-05         0.00000E+00
    0.20712E-04         0.57240E-05         0.00000E+00
    0.20798E-04         0.57260E-05         0.00000E+00
    0.20860E-04         0.57273E-05         0.00000E+00
    0.20898E-04         0.57277E-05         0.00000E+00
    0.20913E-04         0.57269E-05         0.00000E+00
    0.20905E-04         0.57246E-05         0.00000E+00
    0.20872E-04         0.57204E-05         0.00000E+00
    0.20816E-04         0.57141E-05         0.00000E+00
    0.20737E-04         0.57054E-05         0.00000E+00
    0.20634E-04         0.56939E-05         0.00000E+00
    0.20508E-04         0.56794E-05         0.00000E+00
    0.20358E-04         0.56615E-05         0.00000E+00
    0.20185E-04         0.56400E-05         0.00000E+00
    0.19988E-04         0.56145E-05         0.00000E+00
    0.19769E-04         0.55848E-05         0.00000E+00
    0.19527E-04         0.55506E-05         0.00000E+00
    0.19262E-04         0.55116E-05         0.00000E+00
    0.18975E-04         0.54675E-05         0.00000E+00
    0.18665E-04         0.54181E-05         0.00000E+00
    0.18334E-04         0.53630E-05         0.00000E+00
    0.17980E-04         0.53020E-05         0.00000E+00
    0.17605E-04         0.52349E-05         0.00000E+00
    0.17209E-04         0.51613E-05         0.00000E+00
    0.16792E-04         0.50810E-05         0.00000E+00
    0.16355E-04         0.49939E-05         0.00000E+00
    0.15897E-04         0.48996E-05         0.00000E+00
    0.15419E-04         0.47978E-05         0.00000E+00
    0.14922E-04         0.46885E-05         0.00000E+00
    0.14406E-04         0.45713E-05         0.00000E+00
    0.13871E-04         0.44461E-05         0.00000E+00
    0.13318E-04         0.43126E-05         0.00000E+00
    0.12747E-04         0.41707E-05         0.00000E+00
    0.12158E-04         0.40201E-05         0.00000E+00
    0.11553E-04         0.38608E-05         0.00000E+00
    0.10931E-04         0.36924E-05         0.00000E+00
    0.10293E-04         0.35149E-05         0.00000E+00
    0.96399E-05         0.33280E-05         0.00000E+00
    0.89718E-05         0.31318E-05         0.00000E+00
    0.82894E-05         0.29259E-05         0.00000E+00
    0.75931E-05         0.27103E-05         0.00000E+00
    0.68836E-05         0.24849E-05         0.00000E+00
    0.61613E-05         0.22496E-05         0.00000E+00
    0.54271E-05         0.20042E-05         0.00000E+00
    0.46813E-05         0.17487E-05         0.00000E+00
    0.39246E-05         0.14831E-05         0.00000E+00
    0.31577E-05         0.12071E-05         0.00000E+00
    0.23811E-05         0.92090E-06         0.00000E+00
    0.15955E-05         0.62432E-06         0.00000E+00
    0.80162E-06         0.31736E-06         0.00000E+00
    0.00000E+00         0.00000E+00         0.00000E+00
    0.23433E-04         0.63631E-05         0.00000E+00
    0.23556E-04         0.63659E-05         0.00000E+00
    0.23653E-04         0.63683E-05         0.00000E+00
    0.23723E-04         0.63700E-05         0.00000E+00
    0.23766E-04         0.63707E-05         0.00000E+00
    0.23782E-04         0.63700E-05         0.00000E+00
    0.23772E-04         0.63676E-05         0.00000E+00
    0.23735E-04         0.63632E-05         0.00000E+00
    0.23671E-04         0.63564E-05         0.00000E+00
    0.23580E-04         0.63469E-05         0.00000E+00
    0.23462E-04         0.63343E-05         0.00000E+00
    0.23318E-04         0.63184E-05         0.00000E+00
    0.23147E-04         0.62987E-05         0.00000E+00
    0.22950E-04         0.62749E-05         0.00000E+00
    0.22726E-04         0.62468E-05         0.00000E+00
    0.22476E-04         0.62139E-05         0.00000E+00
    0.22201E-04         0.61760E-05         0.00000E+00
    0.21899E-04         0.61328E-05         0.00000E+00
    0.21572E-04         0.60839E-05         0.00000E+00
    0.21220E-04         0.60290E-05         0.00000E+00
    0.20843E-04         0.59679E-05         0.00000E+00
    0.20441E-04         0.59001E-05         0.00000E+00
    0.20014E-04         0.58255E-05         0.00000E+00
    0.19564E-04         0.57438E-05         0.00000E+00
    0.19089E-04         0.56546E-05         0.00000E+00
    0.18592E-04         0.55577E-05         0.00000E+00
    0.18071E-04         0.54528E-05         0.00000E+00
    0.17528E-04         0.53397E-05         0.00000E+00
    0.16962E-04         0.52181E-05         0.00000E+00
    0.16375E-04         0.50878E-05         0.00000E+00
    0.15767E-04         0.49485E-05         0.00000E+00
    0.15138E-04         0.48000E-05         0.00000E+00
    0.14489E-04         0.46421E-05         0.00000E+00
    0.13820E-04         0.44746E-05         0.00000E+00
    0.13131E-04         0.42972E-05         0.00000E+00
    0.12424E-04         0.41099E-05         0.00000E+00
    0.11699E-04         0.39124E-05         0.00000E+00
    0.10957E-04         0.37044E-05         0.00000E+00
    0.10197E-04         0.34860E-05         0.00000E+00
    0.94216E-05         0.32569E-05         0.00000E+00
    0.86301E-05         0.30170E-05         0.00000E+00
    0.78236E-05         0.27661E-05         0.00000E+00
    0.70028E-05         0.25041E-05         0.00000E+00
    0.61682E-05         0.22310E-05         0.00000E+00
    0.53205E-05         0.19467E-05         0.00000E+00
    0.44605E-05         0.16509E-05         0.00000E+00
    0.35888E-05         0.13438E-05         0.00000E+00
    0.27062E-05         0.10252E-05         0.00000E+00
    0.18134E-05         0.69502E-06         0.00000E+00
    0.91106E-06         0.35330E-06         0.00000E+00
    0.00000E+00         0.00000E+00         0.00000E+00
    0.26592E-04         0.70883E-05         0.00000E+00
    0.26731E-04         0.70916E-05         0.00000E+00
    0.26840E-04         0.70945E-05         0.00000E+00
    0.26919E-04         0.70967E-05         0.00000E+00
    0.26967E-04         0.70977E-05         0.00000E+00
    0.26985E-04         0.70973E-05         0.00000E+00
    0.26973E-04         0.70949E-05         0.00000E+00
    0.26930E-04         0.70902E-05         0.00000E+00
    0.26856E-04         0.70829E-05         0.00000E+00
    0.26753E-04         0.70726E-05         0.00000E+00
    0.26619E-04         0.70588E-05         0.00000E+00
    0.26454E-04         0.70413E-05         0.00000E+00
    0.26260E-04         0.70195E-05         0.00000E+00
    0.26035E-04         0.69933E-05         0.00000E+00
    0.25781E-04         0.69621E-05         0.00000E+00
    0.25497E-04         0.69257E-05         0.00000E+00
    0.25184E-04         0.68837E-05         0.00000E+00
    0.24842E-04         0.68357E-05         0.00000E+00
    0.24470E-04         0.67813E-05         0.00000E+00
    0.24070E-04         0.67203E-05         0.00000E+00
    0.23642E-04         0.66523E-05         0.00000E+00
    0.23185E-04         0.65770E-05         0.00000E+00
    0.22701E-04         0.64940E-05         0.00000E+00
    0.22190E-04         0.64030E-05         0.00000E+00
    0.21651E-04         0.63037E-05         0.00000E+00
    0.21087E-04         0.61958E-05         0.00000E+00
    0.20496E-04         0.60790E-05         0.00000E+00
    0.19879E-04         0.59530E-05         0.00000E+00
    0.19238E-04         0.58175E-05         0.00000E+00
    0.18572E-04         0.56723E-05         0.00000E+00
    0.17882E-04         0.55171E-05         0.00000E+00
    0.17168E-04         0.53517E-05         0.00000E+00
    0.16431E-04         0.51757E-05         0.00000E+00
    0.15672E-04         0.49890E-05         0.00000E+00
    0.14892E-04         0.47914E-05         0.00000E+00
    0.14090E-04         0.45825E-05         0.00000E+00
    0.13268E-04         0.43623E-05         0.00000E+00
    0.12425E-04         0.41305E-05         0.00000E+00
    0.11564E-04         0.38870E-05         0.00000E+00
    0.10684E-04         0.36316E-05         0.00000E+00
    0.97866E-05         0.33641E-05         0.00000E+00
    0.88719E-05         0.30844E-05         0.00000E+00
    0.79410E-05         0.27924E-05         0.00000E+00
    0.69945E-05         0.24878E-05         0.00000E+00
    0.60333E-05         0.21708E-05         0.00000E+00
    0.50580E-05         0.18410E-05         0.00000E+00
    0.40695E-05         0.14985E-05         0.00000E+00
    0.30687E-05         0.11432E-05         0.00000E+00
    0.20563E-05         0.77506E-06         0.00000E+00
    0.10331E-05         0.39399E-06         0.00000E+00
    0.00000E+00         0.00000E+00         0.00000E+00
    0.30126E-04         0.79061E-05         0.00000E+00
    0.30282E-04         0.79101E-05         0.00000E+00
    0.30405E-04         0.79137E-05         0.00000E+00
    0.30493E-04         0.79165E-05         0.00000E+00
    0.30547E-04         0.79180E-05         0.00000E+00
    0.30566E-04         0.79178E-05         0.00000E+00
    0.30551E-04         0.79155E-05         0.00000E+00
    0.30501E-04         0.79106E-05         0.00000E+00
    0.30418E-04         0.79027E-05         0.00000E+00
    0.30299E-04         0.78915E-05         0.00000E+00
    0.30147E-04         0.78764E-05         0.00000E+00
    0.29960E-04         0.78571E-05         0.00000E+00
    0.29739E-04         0.78331E-05         0.00000E+00
    0.29484E-04         0.78041E-05         0.00000E+00
    0.29196E-04         0.77695E-05         0.00000E+00
    0.28874E-04         0.77292E-05         0.00000E+00
    0.28518E-04         0.76825E-05         0.00000E+00
    0.28130E-04         0.76291E-05         0.00000E+00
    0.27709E-04         0.75687E-05         0.00000E+00
    0.27255E-04         0.75008E-05         0.00000E+00
    0.26769E-04         0.74251E-05         0.00000E+00
    0.26252E-04         0.73412E-05         0.00000E+00
    0.25703E-04         0.72487E-05         0.00000E+00
    0.25124E-04         0.71473E-05         0.00000E+00
    0.24514E-04         0.70366E-05         0.00000E+00
    0.23874E-04         0.69163E-05         0.00000E+00
    0.23205E-04         0.67861E-05         0.00000E+00
    0.22507E-04         0.66455E-05         0.00000E+00
    0.21780E-04         0.64945E-05         0.00000E+00
    0.21026E-04         0.63325E-05         0.00000E+00
    0.20244E-04         0.61593E-05         0.00000E+00
    0.19436E-04         0.59747E-05         0.00000E+00
    0.18602E-04         0.57783E-05         0.00000E+00
    0.17742E-04         0.55700E-05         0.00000E+00
    0.16858E-04         0.53494E-05         0.00000E+00
    0.15950E-04         0.51163E-05         0.00000E+00
    0.15019E-04         0.48705E-05         0.00000E+00
    0.14066E-04         0.46118E-05         0.00000E+00
    0.13090E-04         0.43400E-05         0.00000E+00
    0.12094E-04         0.40549E-05         0.00000E+00
    0.11078E-04         0.37562E-05         0.00000E+00
    0.10043E-04         0.34440E-05         0.00000E+00
    0.89888E-05         0.31179E-05         0.00000E+00
    0.79174E-05         0.27779E-05         0.00000E+00
    0.68293E-05         0.24239E-05         0.00000E+00
    0.57253E-05         0.20557E-05         0.00000E+00
    0.46064E-05         0.16733E-05         0.00000E+00
    0.34735E-05         0.12766E-05         0.00000E+00
    0.23275E-05         0.86548E-06         0.00000E+00
    0.11693E-05         0.43996E-06         0.00000E+00
    0.00000E+00         0.00000E+00         0.00000E+00
    0.34082E-04         0.88266E-05         0.00000E+00
    0.34258E-04         0.88315E-05         0.00000E+00
    0.34395E-04         0.88359E-05         0.00000E+00
    0.34494E-04         0.88394E-05         0.00000E+00
    0.34554E-04         0.88415E-05         0.00000E+00
    0.34575E-04         0.88416E-05         0.00000E+00
    0.34557E-04         0.88394E-05         0.00000E+00
    0.34500E-04         0.88343E-05         0.00000E+00
    0.34404E-04         0.88259E-05         0.00000E+00
    0.34269E-04         0.88137E-05         0.00000E+00
    0.34096E-04         0.87972E-05         0.00000E+00
    0.33883E-04         0.87759E-05         0.00000E+00
    0.33633E-04         0.87495E-05         0.00000E+00
    0.33344E-04         0.87174E-05         0.00000E+00
    0.33017E-04         0.86791E-05         0.00000E+00
    0.32652E-04         0.86343E-05         0.00000E+00
    0.32249E-04         0.85824E-05         0.00000E+00
    0.31809E-04         0.85231E-05         0.00000E+00
    0.31332E-04         0.84558E-05         0.00000E+00
    0.30818E-04         0.83802E-05         0.00000E+00
    0.30269E-04         0.82958E-05         0.00000E+00
    0.29683E-04         0.82023E-05         0.00000E+00
    0.29062E-04         0.80992E-05         0.00000E+00
    0.28406E-04         0.79861E-05         0.00000E+00
    0.27716E-04         0.78626E-05         0.00000E+00
    0.26992E-04         0.77283E-05         0.00000E+00
    0.26235E-04         0.75830E-05         0.00000E+00
    0.25445E-04         0.74261E-05         0.00000E+00
    0.24623E-04         0.72574E-05         0.00000E+00
    0.23770E-04         0.70765E-05         0.00000E+00
    0.22886E-04         0.68832E-05         0.00000E+00
    0.21972E-04         0.66770E-05         0.00000E+00
    0.21029E-04         0.64577E-05         0.00000E+00
    0.20057E-04         0.62249E-05         0.00000E+00
    0.19057E-04         0.59785E-05         0.00000E+00
    0.18031E-04         0.57181E-05         0.00000E+00
    0.16978E-04         0.54435E-05         0.00000E+00
    0.15900E-04         0.51544E-05         0.00000E+00
    0.14797E-04         0.48507E-05         0.00000E+00
    0.13671E-04         0.45320E-05         0.00000E+00
    0.12522E-04         0.41983E-05         0.00000E+00
    0.11352E-04         0.38494E-05         0.00000E+00
    0.10160E-04         0.34850E-05         0.00000E+00
    0.89493E-05         0.31050E-05         0.00000E+00
    0.77193E-05         0.27093E-05         0.00000E+00
    0.64714E-05         0.22978E-05         0.00000E+00
    0.52067E-05         0.18704E-05         0.00000E+00
    0.39261E-05         0.14270E-05         0.00000E+00
    0.26308E-05         0.96744E-06         0.00000E+00
    0.13217E-05         0.49180E-06         0.00000E+00
    0.00000E+00         0.00000E+00         0.00000E+00
    0.38518E-04         0.98609E-05         0.00000E+00
    0.38715E-04         0.98669E-05         0.00000E+00
    0.38869E-04         0.98723E-05         0.00000E+00
    0.38979E-04         0.98766E-05         0.00000E+00
    0.39045E-04         0.98794E-05         0.00000E+00
    0.39067E-04         0.98800E-05         0.00000E+00
    0.39046E-04         0.98780E-05         0.00000E+00
    0.38980E-04         0.98728E-05         0.00000E+00
    0.38870E-04         0.98638E-05         0.00000E+00
    0.38717E-04         0.98505E-05         0.00000E+00
    0.38520E-04         0.98325E-05         0.00000E+00
    0.38279E-04         0.98092E-05         0.00000E+00
    0.37995E-04         0.97800E-05         0.00000E+00
    0.37667E-04         0.97444E-05         0.00000E+00
    0.37297E-04         0.97020E-05         0.00000E+00
    0.36883E-04         0.96523E-05         0.00000E+00
    0.36427E-04         0.95946E-05         0.00000E+00
    0.35930E-04         0.95286E-05         0.00000E+00
    0.35390E-04         0.94537E-05         0.00000E+00
    0.34809E-04         0.93694E-05         0.00000E+00
    0.34187E-04         0.92754E-05         0.00000E+00
    0.33525E-04         0.91711E-05         0.00000E+00
    0.32823E-04         0.90560E-05         0.00000E+00
    0.32082E-04         0.89298E-05         0.00000E+00
    0.31302E-04         0.87919E-05         0.00000E+00
    0.30483E-04         0.86420E-05         0.00000E+00
    0.29628E-04         0.84797E-05         0.00000E+00
    0.28735E-04         0.83044E-05         0.00000E+00
    0.27807E-04         0.81160E-05         0.00000E+00
    0.26842E-04         0.79139E-05         0.00000E+00
    0.25844E-04         0.76978E-05         0.00000E+00
    0.24811E-04         0.74673E-05         0.00000E+00
    0.23746E-04         0.72222E-05         0.00000E+00
    0.22648E-04         0.69620E-05         0.00000E+00
    0.21519E-04         0.66865E-05         0.00000E+00
    0.20359E-04         0.63954E-05         0.00000E+00
    0.19170E-04         0.60883E-05         0.00000E+00
    0.17953E-04         0.57651E-05         0.00000E+00
    0.16708E-04         0.54255E-05         0.00000E+00
    0.15436E-04         0.50692E-05         0.00000E+00
    0.14139E-04         0.46960E-05         0.00000E+00
    0.12817E-04         0.43057E-05         0.00000E+00
    0.11472E-04         0.38982E-05         0.00000E+00
    0.10104E-04         0.34732E-05         0.00000E+00
    0.87154E-05         0.30306E-05         0.00000E+00
    0.73065E-05         0.25704E-05         0.00000E+00
    0.58785E-05         0.20923E-05         0.00000E+00
    0.44327E-05         0.15962E-05         0.00000E+00
    0.29702E-05         0.10822E-05         0.00000E+00
    0.14922E-05         0.55016E-06         0.00000E+00
    0.00000E+00         0.00000E+00         0.00000E+00
    0.43493E-04         0.11021E-04         0.00000E+00
    0.43714E-04         0.11029E-04         0.00000E+00
    0.43886E-04         0.11035E-04         0.00000E+00
    0.44009E-04         0.11041E-04         0.00000E+00
    0.44082E-04         0.11044E-04         0.00000E+00
    0.44106E-04         0.11046E-04         0.00000E+00
    0.44080E-04         0.11044E-04         0.00000E+00
    0.44004E-04         0.11038E-04         0.00000E+00
    0.43879E-04         0.11029E-04         0.00000E+00
    0.43704E-04         0.11015E-04         0.00000E+00
    0.43480E-04         0.10995E-04         0.00000E+00
    0.43207E-04         0.10969E-04         0.00000E+00
    0.42885E-04         0.10937E-04         0.00000E+00
    0.42514E-04         0.10898E-04         0.00000E+00
    0.42094E-04         0.10851E-04         0.00000E+00
    0.41627E-04         0.10796E-04         0.00000E+00
    0.41111E-04         0.10731E-04         0.00000E+00
    0.40548E-04         0.10658E-04         0.00000E+00
    0.39938E-04         0.10575E-04         0.00000E+00
    0.39282E-04         0.10481E-04         0.00000E+00
    0.38579E-04         0.10376E-04         0.00000E+00
    0.37831E-04         0.10259E-04         0.00000E+00
    0.37038E-04         0.10131E-04         0.00000E+00
    0.36200E-04         0.99901E-05         0.00000E+00
    0.35319E-04         0.98361E-05         0.00000E+00
    0.34395E-04         0.96687E-05         0.00000E+00
    0.33429E-04         0.94873E-05         0.00000E+00
    0.32421E-04         0.92915E-05         0.00000E+00
    0.31373E-04         0.90808E-05         0.00000E+00
    0.30285E-04         0.88549E-05         0.00000E+00
    0.29157E-04         0.86133E-05         0.00000E+00
    0.27992E-04         0.83556E-05         0.00000E+00
    0.26789E-04         0.80814E-05         0.00000E+00
    0.25550E-04         0.77905E-05         0.00000E+00
    0.24276E-04         0.74823E-05         0.00000E+00
    0.22968E-04         0.71567E-05         0.00000E+00
    0.21626E-04         0.68132E-05         0.00000E+00
    0.20253E-04         0.64516E-05         0.00000E+00
    0.18848E-04         0.60716E-05         0.00000E+00
    0.17413E-04         0.56730E-05         0.00000E+00
    0.15949E-04         0.52554E-05         0.00000E+00
    0.14458E-04         0.48187E-05         0.00000E+00
    0.12941E-04         0.43627E-05         0.00000E+00
    0.11398E-04         0.38871E-05         0.00000E+00
    0.98311E-05         0.33919E-05         0.00000E+00
    0.82417E-05         0.28768E-05         0.00000E+00
    0.66309E-05         0.23417E-05         0.00000E+00
    0.50000E-05         0.17866E-05         0.00000E+00
    0.33503E-05         0.12113E-05         0.00000E+00
    0.16832E-05         0.61578E-06         0.00000E+00
    0.00000E+00         0.00000E+00         0.00000E+00
    0.49079E-04         0.12321E-04         0.00000E+00
    0.49326E-04         0.12330E-04         0.00000E+00
    0.49518E-04         0.12338E-04         0.00000E+00
    0.49654E-04         0.12345E-04         0.00000E+00
    0.49735E-04         0.12350E-04         0.00000E+00
    0.49760E-04         0.12352E-04         0.00000E+00
    0.49728E-04         0.12351E-04         0.00000E+00
    0.49641E-04         0.12345E-04         0.00000E+00
    0.49498E-04         0.12335E-04         0.00000E+00
    0.49300E-04         0.12320E-04         0.00000E+00
    0.49045E-04         0.12298E-04         0.00000E+00
    0.48735E-04         0.12270E-04         0.00000E+00
    0.48370E-04         0.12235E-04         0.00000E+00
    0.47950E-04         0.12191E-04         0.00000E+00
    0.47476E-04         0.12139E-04         0.00000E+00
    0.46947E-04         0.12078E-04         0.00000E+00
    0.46364E-04         0.12007E-04         0.00000E+00
    0.45728E-04         0.11925E-04         0.00000E+00
    0.45038E-04         0.11832E-04         0.00000E+00
    0.44297E-04         0.11728E-04         0.00000E+00
    0.43503E-04         0.11611E-04         0.00000E+00
    0.42659E-04         0.11481E-04         0.00000E+00
    0.41763E-04         0.11337E-04         0.00000E+00
    0.40818E-04         0.11180E-04         0.00000E+00
    0.39824E-04         0.11008E-04         0.00000E+00
    0.38781E-04         0.10821E-04         0.00000E+00
    0.37691E-04         0.10618E-04         0.00000E+00
    0.36554E-04         0.10399E-04         0.00000E+00
    0.35371E-04         0.10164E-04         0.00000E+00
    0.34143E-04         0.99112E-05         0.00000E+00
    0.32872E-04         0.96410E-05         0.00000E+00
    0.31557E-04         0.93527E-05         0.00000E+00
    0.30201E-04         0.90461E-05         0.00000E+00
    0.28804E-04         0.87205E-05         0.00000E+00
    0.27367E-04         0.83758E-05         0.00000E+00
    0.25892E-04         0.80114E-05         0.00000E+00
    0.24379E-04         0.76270E-05         0.00000E+00
    0.22830E-04         0.72224E-05         0.00000E+00
    0.21246E-04         0.67971E-05         0.00000E+00
    0.19628E-04         0.63509E-05         0.00000E+00
    0.17978E-04         0.58836E-05         0.00000E+00
    0.16297E-04         0.53948E-05         0.00000E+00
    0.14586E-04         0.48843E-05         0.00000E+00
    0.12847E-04         0.43520E-05         0.00000E+00
    0.11081E-04         0.37975E-05         0.00000E+00
    0.92897E-05         0.32209E-05         0.00000E+00
    0.74740E-05         0.26219E-05         0.00000E+00
    0.56357E-05         0.20004E-05         0.00000E+00
    0.37762E-05         0.13563E-05         0.00000E+00
    0.18972E-05         0.68948E-06         0.00000E+00
    0.00000E+00         0.00000E+00         0.00000E+00
    0.55352E-04         0.13776E-04         0.00000E+00
    0.55628E-04         0.13787E-04         0.00000E+00
    0.55842E-04         0.13797E-04         0.00000E+00
    0.55993E-04         0.13805E-04         0.00000E+00
    0.56082E-04         0.13811E-04         0.00000E+00
    0.56107E-04         0.13814E-04         0.00000E+00
    0.56070E-04         0.13814E-04         0.00000E+00
    0.55969E-04         0.13809E-04         0.00000E+00
    0.55806E-04         0.13798E-04         0.00000E+00
    0.55580E-04         0.13782E-04         0.00000E+00
    0.55291E-04         0.13758E-04         0.00000E+00
    0.54940E-04         0.13728E-04         0.00000E+00
    0.54526E-04         0.13689E-04         0.00000E+00
    0.54051E-04         0.13641E-04         0.00000E+00
    0.53514E-04         0.13583E-04         0.00000E+00
    0.52916E-04         0.13515E-04         0.00000E+00
    0.52258E-04         0.13436E-04         0.00000E+00
    0.51539E-04         0.13345E-04         0.00000E+00
    0.50760E-04         0.13242E-04         0.00000E+00
    0.49923E-04         0.13125E-04         0.00000E+00
    0.49027E-04         0.12995E-04         0.00000E+00
    0.48074E-04         0.12850E-04         0.00000E+00
    0.47064E-04         0.12690E-04         0.00000E+00
    0.45997E-04         0.12514E-04         0.00000E+00
    0.44876E-04         0.12322E-04         0.00000E+00
    0.43700E-04         0.12113E-04         0.00000E+00
    0.42470E-04         0.11886E-04         0.00000E+00
    0.41188E-04         0.11641E-04         0.00000E+00
    0.39854E-04         0.11378E-04         0.00000E+00
    0.38470E-04         0.11096E-04         0.00000E+00
    0.37037E-04         0.10793E-04         0.00000E+00
    0.35555E-04         0.10471E-04         0.00000E+00
    0.34026E-04         0.10128E-04         0.00000E+00
    0.32452E-04         0.97636E-05         0.00000E+00
    0.30832E-04         0.93778E-05         0.00000E+00
    0.29169E-04         0.89700E-05         0.00000E+00
    0.27465E-04         0.85398E-05         0.00000E+00
    0.25719E-04         0.80869E-05         0.00000E+00
    0.23935E-04         0.76109E-05         0.00000E+00
    0.22112E-04         0.71114E-05         0.00000E+00
    0.20253E-04         0.65882E-05         0.00000E+00
    0.18359E-04         0.60410E-05         0.00000E+00
    0.16432E-04         0.54695E-05         0.00000E+00
    0.14472E-04         0.48734E-05         0.00000E+00
    0.12483E-04         0.42527E-05         0.00000E+00
    0.10464E-04         0.36070E-05         0.00000E+00
    0.84190E-05         0.29362E-05         0.00000E+00
    0.63482E-05         0.22402E-05         0.00000E+00
    0.42536E-05         0.15189E-05         0.00000E+00
    0.21370E-05         0.77217E-06         0.00000E+00
    0.00000E+00         0.00000E+00         0.00000E+00
    0.62399E-04         0.15403E-04         0.00000E+00
    0.62708E-04         0.15416E-04         0.00000E+00
    0.62946E-04         0.15428E-04         0.00000E+00
    0.63113E-04         0.15438E-04         0.00000E+00
    0.63210E-04         0.15446E-04         0.00000E+00
    0.63236E-04         0.15450E-04         0.00000E+00
    0.63191E-04         0.15450E-04         0.00000E+00
    0.63075E-04         0.15445E-04         0.00000E+00
    0.62888E-04         0.15435E-04         0.00000E+00
    0.62631E-04         0.15417E-04         0.00000E+00
    0.62303E-04         0.15392E-04         0.00000E+00
    0.61905E-04         0.15358E-04         0.00000E+00
    0.61437E-04         0.15316E-04         0.00000E+00
    0.60899E-04         0.15263E-04         0.00000E+00
    0.60292E-04         0.15199E-04         0.00000E+00
    0.59616E-04         0.15123E-04         0.00000E+00
    0.58872E-04         0.15036E-04         0.00000E+00
    0.58060E-04         0.14935E-04         0.00000E+00
    0.57182E-04         0.14819E-04         0.00000E+00
    0.56237E-04         0.14690E-04         0.00000E+00
    0.55226E-04         0.14544E-04         0.00000E+00
    0.54150E-04         0.14383E-04         0.00000E+00
    0.53011E-04         0.14204E-04         0.00000E+00
    0.51808E-04         0.14008E-04         0.00000E+00
    0.50544E-04         0.13793E-04         0.00000E+00
    0.49218E-04         0.13560E-04         0.00000E+00
    0.47832E-04         0.13306E-04         0.00000E+00
    0.46387E-04         0.13033E-04         0.00000E+00
    0.44884E-04         0.12738E-04         0.00000E+00
    0.43324E-04         0.12422E-04         0.00000E+00
    0.41708E-04         0.12084E-04         0.00000E+00
    0.40039E-04         0.11724E-04         0.00000E+00
    0.38317E-04         0.11340E-04         0.00000E+00
    0.36543E-04         0.10932E-04         0.00000E+00
    0.34718E-04         0.10501E-04         0.00000E+00
    0.32845E-04         0.10044E-04         0.00000E+00
    0.30925E-04         0.95627E-05         0.00000E+00
    0.28959E-04         0.90557E-05         0.00000E+00
    0.26949E-04         0.85228E-05         0.00000E+00
    0.24897E-04         0.79637E-05         0.00000E+00
    0.22803E-04         0.73779E-05         0.00000E+00
    0.20671E-04         0.67652E-05         0.00000E+00
    0.18500E-04         0.61253E-05         0.00000E+00
    0.16294E-04         0.54579E-05         0.00000E+00
    0.14054E-04         0.47627E-05         0.00000E+00
    0.11782E-04         0.40397E-05         0.00000E+00
    0.94786E-05         0.32885E-05         0.00000E+00
    0.71471E-05         0.25090E-05         0.00000E+00
    0.47889E-05         0.17012E-05         0.00000E+00
    0.24059E-05         0.86487E-06         0.00000E+00
    0.00000E+00         0.00000E+00         0.00000E+00
    0.70319E-04         0.17219E-04         0.00000E+00
    0.70663E-04         0.17234E-04         0.00000E+00
    0.70927E-04         0.17249E-04         0.00000E+00
    0.71112E-04         0.17261E-04         0.00000E+00
    0.71218E-04         0.17271E-04         0.00000E+00
    0.71244E-04         0.17277E-04         0.00000E+00
    0.71190E-04         0.17279E-04         0.00000E+00
    0.71056E-04         0.17274E-04         0.00000E+00
    0.70842E-04         0.17263E-04         0.00000E+00
    0.70549E-04         0.17245E-04         0.00000E+00
    0.70177E-04         0.17218E-04         0.00000E+00
    0.69725E-04         0.17181E-04         0.00000E+00
    0.69195E-04         0.17134E-04         0.00000E+00
    0.68587E-04         0.17076E-04         0.00000E+00
    0.67901E-04         0.17006E-04         0.00000E+00
    0.67137E-04         0.16922E-04         0.00000E+00
    0.66297E-04         0.16825E-04         0.00000E+00
    0.65380E-04         0.16712E-04         0.00000E+00
    0.64389E-04         0.16584E-04         0.00000E+00
    0.63322E-04         0.16440E-04         0.00000E+00
    0.62182E-04         0.16278E-04         0.00000E+00
    0.60970E-04         0.16097E-04         0.00000E+00
    0.59685E-04         0.15898E-04         0.00000E+00
    0.58329E-04         0.15679E-04         0.00000E+00
    0.56903E-04         0.15439E-04         0.00000E+00
    0.55409E-04         0.15179E-04         0.00000E+00
    0.53847E-04         0.14896E-04         0.00000E+00
    0.52219E-04         0.14590E-04         0.00000E+00
    0.50526E-04         0.14261E-04         0.00000E+00
    0.48769E-04         0.13907E-04         0.00000E+00
    0.46949E-04         0.13529E-04         0.00000E+00
    0.45069E-04         0.13126E-04         0.00000E+00
    0.43129E-04         0.12696E-04         0.00000E+00
    0.41131E-04         0.12240E-04         0.00000E+00
    0.39077E-04         0.11757E-04         0.00000E+00
    0.36969E-04         0.11247E-04         0.00000E+00
    0.34807E-04         0.10708E-04         0.00000E+00
    0.32594E-04         0.10140E-04         0.00000E+00
    0.30331E-04         0.95439E-05         0.00000E+00
    0.28020E-04         0.89179E-05         0.00000E+00
    0.25664E-04         0.82621E-05         0.00000E+00
    0.23263E-04         0.75762E-05         0.00000E+00
    0.20820E-04         0.68597E-05         0.00000E+00
    0.18337E-04         0.61124E-05         0.00000E+00
    0.15816E-04         0.53340E-05         0.00000E+00
    0.13259E-04         0.45243E-05         0.00000E+00
    0.10667E-04         0.36830E-05         0.00000E+00
    0.80430E-05         0.28101E-05         0.00000E+00
    0.53891E-05         0.19054E-05         0.00000E+00
    0.27074E-05         0.96869E-06         0.00000E+00
    0.00000E+00         0.00000E+00         0.00000E+00
    0.79220E-04         0.19244E-04         0.00000E+00
    0.79603E-04         0.19263E-04         0.00000E+00
    0.79896E-04         0.19280E-04         0.00000E+00
    0.80101E-04         0.19296E-04         0.00000E+00
    0.80215E-04         0.19308E-04         0.00000E+00
    0.80240E-04         0.19317E-04         0.00000E+00
    0.80175E-04         0.19319E-04         0.00000E+00
    0.80021E-04         0.19316E-04         0.00000E+00
    0.79776E-04         0.19305E-04         0.00000E+00
    0.79443E-04         0.19285E-04         0.00000E+00
    0.79020E-04         0.19256E-04         0.00000E+00
    0.78508E-04         0.19217E-04         0.00000E+00
    0.77908E-04         0.19165E-04         0.00000E+00
    0.77220E-04         0.19101E-04         0.00000E+00
    0.76444E-04         0.19024E-04         0.00000E+00
    0.75581E-04         0.18931E-04         0.00000E+00
    0.74632E-04         0.18823E-04         0.00000E+00
    0.73598E-04         0.18699E-04         0.00000E+00
    0.72479E-04         0.18556E-04         0.00000E+00
    0.71276E-04         0.18395E-04         0.00000E+00
    0.69990E-04         0.18215E-04         0.00000E+00
    0.68623E-04         0.18014E-04         0.00000E+00
    0.67175E-04         0.17792E-04         0.00000E+00
    0.65647E-04         0.17547E-04         0.00000E+00
    0.64040E-04         0.17280E-04         0.00000E+00
    0.62356E-04         0.16989E-04         0.00000E+00
    0.60597E-04         0.16672E-04         0.00000E+00
    0.58763E-04         0.16331E-04         0.00000E+00
    0.56856E-04         0.15963E-04         0.00000E+00
    0.54877E-04         0.15568E-04         0.00000E+00
    0.52829E-04         0.15145E-04         0.00000E+00
    0.50712E-04         0.14694E-04         0.00000E+00
    0.48528E-04         0.14214E-04         0.00000E+00
    0.46279E-04         0.13704E-04         0.00000E+00
    0.43967E-04         0.13163E-04         0.00000E+00
    0.41593E-04         0.12592E-04         0.00000E+00
    0.39160E-04         0.11989E-04         0.00000E+00
    0.36670E-04         0.11354E-04         0.00000E+00
    0.34123E-04         0.10686E-04         0.00000E+00
    0.31523E-04         0.99855E-05         0.00000E+00
    0.28872E-04         0.92514E-05         0.00000E+00
    0.26171E-04         0.84835E-05         0.00000E+00
    0.23422E-04         0.76814E-05         0.00000E+00
    0.20629E-04         0.68447E-05         0.00000E+00
    0.17792E-04         0.59732E-05         0.00000E+00
    0.14915E-04         0.50665E-05         0.00000E+00
    0.11999E-04         0.41246E-05         0.00000E+00
    0.90476E-05         0.31471E-05         0.00000E+00
    0.60622E-05         0.21339E-05         0.00000E+00
    0.30455E-05         0.10849E-05         0.00000E+00
    0.00000E+00         0.00000E+00         0.00000E+00
    0.89225E-04         0.21500E-04         0.00000E+00
    0.89651E-04         0.21523E-04         0.00000E+00
    0.89977E-04         0.21544E-04         0.00000E+00
    0.90201E-04         0.21564E-04         0.00000E+00
    0.90325E-04         0.21579E-04         0.00000E+00
    0.90349E-04         0.21590E-04         0.00000E+00
    0.90271E-04         0.21595E-04         0.00000E+00
    0.90092E-04         0.21593E-04         0.00000E+00
    0.89812E-04         0.21582E-04         0.00000E+00
    0.89432E-04         0.21562E-04         0.00000E+00
    0.88952E-04         0.21531E-04         0.00000E+00
    0.88372E-04         0.21488E-04         0.00000E+00
    0.87692E-04         0.21432E-04         0.00000E+00
    0.86913E-04         0.21361E-04         0.00000E+00
    0.86036E-04         0.21276E-04         0.00000E+00
    0.85062E-04         0.21174E-04         0.00000E+00
    0.83990E-04         0.21054E-04         0.00000E+00
    0.82823E-04         0.20916E-04         0.00000E+00
    0.81560E-04         0.20758E-04         0.00000E+00
    0.80204E-04         0.20579E-04         0.00000E+00
    0.78754E-04         0.20378E-04         0.00000E+00
    0.77213E-04         0.20154E-04         0.00000E+00
    0.75580E-04         0.19907E-04         0.00000E+00
    0.73859E-04         0.19634E-04         0.00000E+00
    0.72049E-04         0.19336E-04         0.00000E+00
    0.70152E-04         0.19010E-04         0.00000E+00
    0.68171E-04         0.18657E-04         0.00000E+00
    0.66106E-04         0.18276E-04         0.00000E+00
    0.63958E-04         0.17865E-04         0.00000E+00
    0.61731E-04         0.17423E-04         0.00000E+00
    0.59425E-04         0.16951E-04         0.00000E+00
    0.57042E-04         0.16446E-04         0.00000E+00
    0.54584E-04         0.15909E-04         0.00000E+00
    0.52053E-04         0.15339E-04         0.00000E+00
    0.49452E-04         0.14734E-04         0.00000E+00
    0.46781E-04         0.14095E-04         0.00000E+00
    0.44044E-04         0.13420E-04         0.00000E+00
    0.41241E-04         0.12710E-04         0.00000E+00
    0.38377E-04         0.11963E-04         0.00000E+00
    0.35452E-04         0.11179E-04         0.00000E+00
    0.32470E-04         0.10357E-04         0.00000E+00
    0.29431E-04         0.94978E-05         0.00000E+00
    0.26340E-04         0.86000E-05         0.00000E+00
    0.23198E-04         0.76634E-05         0.00000E+00
    0.20008E-04         0.66878E-05         0.00000E+00
    0.16772E-04         0.56728E-05         0.00000E+00
    0.13493E-04         0.46183E-05         0.00000E+00
    0.10174E-04         0.35238E-05         0.00000E+00
    0.68169E-05         0.23894E-05         0.00000E+00
    0.34247E-05         0.12148E-05         0.00000E+00
    0.00000E+00         0.00000E+00         0.00000E+00
    0.10047E-03         0.24011E-04         0.00000E+00
    0.10095E-03         0.24038E-04         0.00000E+00
    0.10131E-03         0.24065E-04         0.00000E+00
    0.10155E-03         0.24088E-04         0.00000E+00
    0.10169E-03         0.24108E-04         0.00000E+00
    0.10171E-03         0.24122E-04         0.00000E+00
    0.10161E-03         0.24129E-04         0.00000E+00
    0.10141E-03         0.24129E-04         0.00000E+00
    0.10109E-03         0.24118E-04         0.00000E+00
    0.10065E-03         0.24098E-04         0.00000E+00
    0.10011E-03         0.24065E-04         0.00000E+00
    0.99449E-04         0.24019E-04         0.00000E+00
    0.98679E-04         0.23958E-04         0.00000E+00
    0.97798E-04         0.23881E-04         0.00000E+00
    0.96807E-04         0.23787E-04         0.00000E+00
    0.95706E-04         0.23674E-04         0.00000E+00
    0.94497E-04         0.23542E-04         0.00000E+00
    0.93179E-04         0.23389E-04         0.00000E+00
    0.91755E-04         0.23213E-04         0.00000E+00
    0.90225E-04         0.23014E-04         0.00000E+00
    0.88591E-04         0.22791E-04         0.00000E+00
    0.86853E-04         0.22542E-04         0.00000E+00
    0.85014E-04         0.22266E-04         0.00000E+00
    0.83074E-04         0.21962E-04         0.00000E+00
    0.81036E-04         0.21630E-04         0.00000E+00
    0.78900E-04         0.21267E-04         0.00000E+00
    0.76669E-04         0.20873E-04         0.00000E+00
    0.74344E-04         0.20447E-04         0.00000E+00
    0.71927E-04         0.19988E-04         0.00000E+00
    0.69420E-04         0.19494E-04         0.00000E+00
    0.66824E-04         0.18966E-04         0.00000E+00
    0.64143E-04         0.18403E-04         0.00000E+00
    0.61378E-04         0.17802E-04         0.00000E+00
    0.58530E-04         0.17165E-04         0.00000E+00
    0.55604E-04         0.16489E-04         0.00000E+00
    0.52599E-04         0.15774E-04         0.00000E+00
    0.49520E-04         0.15019E-04         0.00000E+00
    0.46369E-04         0.14225E-04         0.00000E+00
    0.43147E-04         0.13389E-04         0.00000E+00
    0.39858E-04         0.12512E-04         0.00000E+00
    0.36504E-04         0.11593E-04         0.00000E+00
    0.33088E-04         0.10631E-04         0.00000E+00
    0.29612E-04         0.96262E-05         0.00000E+00
    0.26080E-04         0.85781E-05         0.00000E+00
    0.22493E-04         0.74862E-05         0.00000E+00
    0.18855E-04         0.63502E-05         0.00000E+00
    0.15169E-04         0.51698E-05         0.00000E+00
    0.11437E-04         0.39448E-05         0.00000E+00
    0.76632E-05         0.26749E-05         0.00000E+00
    0.38498E-05         0.13600E-05         0.00000E+00
    0.00000E+00         0.00000E+00         0.00000E+00
    0.11312E-03         0.26802E-04         0.00000E+00
    0.11364E-03         0.26835E-04         0.00000E+00
    0.11404E-03         0.26867E-04         0.00000E+00
    0.11431E-03         0.26896E-04         0.00000E+00
    0.11445E-03         0.26920E-04         0.00000E+00
    0.11447E-03         0.26938E-04         0.00000E+00
    0.11436E-03         0.26949E-04         0.00000E+00
    0.11412E-03         0.26951E-04         0.00000E+00
    0.11375E-03         0.26942E-04         0.00000E+00
    0.11326E-03         0.26921E-04         0.00000E+00
    0.11264E-03         0.26886E-04         0.00000E+00
    0.11189E-03         0.26837E-04         0.00000E+00
    0.11102E-03         0.26771E-04         0.00000E+00
    0.11002E-03         0.26687E-04         0.00000E+00
    0.10890E-03         0.26584E-04         0.00000E+00
    0.10766E-03         0.26460E-04         0.00000E+00
    0.10629E-03         0.26314E-04         0.00000E+00
    0.10480E-03         0.26144E-04         0.00000E+00
    0.10320E-03         0.25950E-04         0.00000E+00
    0.10147E-03         0.25729E-04         0.00000E+00
    0.99630E-04         0.25481E-04         0.00000E+00
    0.97672E-04         0.25204E-04         0.00000E+00
    0.95600E-04         0.24897E-04         0.00000E+00
    0.93415E-04         0.24558E-04         0.00000E+00
    0.91120E-04         0.24187E-04         0.00000E+00
    0.88715E-04         0.23783E-04         0.00000E+00
    0.86203E-04         0.23343E-04         0.00000E+00
    0.83586E-04         0.22868E-04         0.00000E+00
    0.80866E-04         0.22355E-04         0.00000E+00
    0.78044E-04         0.21805E-04         0.00000E+00
    0.75124E-04         0.21215E-04         0.00000E+00
    0.72108E-04         0.20585E-04         0.00000E+00
    0.68997E-04         0.19914E-04         0.00000E+00
    0.65795E-04         0.19202E-04         0.00000E+00
    0.62503E-04         0.18446E-04         0.00000E+00
    0.59125E-04         0.17647E-04         0.00000E+00
    0.55662E-04         0.16803E-04         0.00000E+00
    0.52119E-04         0.15915E-04         0.00000E+00
    0.48497E-04         0.14980E-04         0.00000E+00
    0.44799E-04         0.13999E-04         0.00000E+00
    0.41028E-04         0.12971E-04         0.00000E+00
    0.37188E-04         0.11896E-04         0.00000E+00
    0.33281E-04         0.10772E-04         0.00000E+00
    0.29310E-04         0.95991E-05         0.00000E+00
    0.25279E-04         0.83775E-05         0.00000E+00
    0.21190E-04         0.71064E-05         0.00000E+00
    0.17047E-04         0.57856E-05         0.00000E+00
    0.12853E-04         0.44148E-05         0.00000E+00
    0.86119E-05         0.29937E-05         0.00000E+00
    0.43264E-05         0.15221E-05         0.00000E+00
    0.00000E+00         0.00000E+00         0.00000E+00
    0.12733E-03         0.29900E-04         0.00000E+00
    0.12791E-03         0.29941E-04         0.00000E+00
    0.12835E-03         0.29979E-04         0.00000E+00
    0.12865E-03         0.30014E-04         0.00000E+00
    0.12880E-03         0.30045E-04         0.00000E+00
    0.12881E-03         0.30068E-04         0.00000E+00
    0.12867E-03         0.30083E-04         0.00000E+00
    0.12839E-03         0.30087E-04         0.00000E+00
    0.12797E-03         0.30080E-04         0.00000E+00
    0.12741E-03         0.30059E-04         0.00000E+00
    0.12671E-03         0.30024E-04         0.00000E+00
    0.12586E-03         0.29971E-04         0.00000E+00
    0.12487E-03         0.29900E-04         0.00000E+00
    0.12374E-03         0.29808E-04         0.00000E+00
    0.12248E-03         0.29696E-04         0.00000E+00
    0.12107E-03         0.29559E-04         0.00000E+00
    0.11953E-03         0.29398E-04         0.00000E+00
    0.11785E-03         0.29211E-04         0.00000E+00
    0.11604E-03         0.28996E-04         0.00000E+00
    0.11410E-03         0.28751E-04         0.00000E+00
    0.11202E-03         0.28475E-04         0.00000E+00
    0.10981E-03         0.28167E-04         0.00000E+00
    0.10748E-03         0.27826E-04         0.00000E+00
    0.10502E-03         0.27449E-04         0.00000E+00
    0.10243E-03         0.27036E-04         0.00000E+00
    0.99725E-04         0.26585E-04         0.00000E+00
    0.96898E-04         0.26095E-04         0.00000E+00
    0.93953E-04         0.25565E-04         0.00000E+00
    0.90892E-04         0.24993E-04         0.00000E+00
    0.87718E-04         0.24379E-04         0.00000E+00
    0.84433E-04         0.23721E-04         0.00000E+00
    0.81040E-04         0.23017E-04         0.00000E+00
    0.77542E-04         0.22268E-04         0.00000E+00
    0.73941E-04         0.21472E-04         0.00000E+00
    0.70240E-04         0.20628E-04         0.00000E+00
    0.66441E-04         0.19735E-04         0.00000E+00
    0.62549E-04         0.18793E-04         0.00000E+00
    0.58566E-04         0.17799E-04         0.00000E+00
    0.54494E-04         0.16755E-04         0.00000E+00
    0.50338E-04         0.15658E-04         0.00000E+00
    0.46100E-04         0.14509E-04         0.00000E+00
    0.41784E-04         0.13306E-04         0.00000E+00
    0.37394E-04         0.12049E-04         0.00000E+00
    0.32932E-04         0.10738E-04         0.00000E+00
    0.28402E-04         0.93716E-05         0.00000E+00
    0.23807E-04         0.79500E-05         0.00000E+00
    0.19153E-04         0.64726E-05         0.00000E+00
    0.14441E-04         0.49391E-05         0.00000E+00
    0.96753E-05         0.33493E-05         0.00000E+00
    0.48605E-05         0.17030E-05         0.00000E+00
    0.00000E+00         0.00000E+00         0.00000E+00
    0.14331E-03         0.33336E-04         0.00000E+00
    0.14395E-03         0.33385E-04         0.00000E+00
    0.14443E-03         0.33431E-04         0.00000E+00
    0.14476E-03         0.33474E-04         0.00000E+00
    0.14492E-03         0.33512E-04         0.00000E+00
    0.14492E-03         0.33541E-04         0.00000E+00
    0.14475E-03         0.33561E-04         0.00000E+00
    0.14443E-03         0.33570E-04         0.00000E+00
    0.14395E-03         0.33565E-04         0.00000E+00
    0.14331E-03         0.33545E-04         0.00000E+00
    0.14250E-03         0.33509E-04         0.00000E+00
    0.14154E-03         0.33453E-04         0.00000E+00
    0.14042E-03         0.33377E-04         0.00000E+00
    0.13915E-03         0.33278E-04         0.00000E+00
    0.13772E-03         0.33154E-04         0.00000E+00
    0.13613E-03         0.33005E-04         0.00000E+00
    0.13439E-03         0.32828E-04         0.00000E+00
    0.13250E-03         0.32621E-04         0.00000E+00
    0.13045E-03         0.32383E-04         0.00000E+00
    0.12826E-03         0.32112E-04         0.00000E+00
    0.12592E-03         0.31806E-04         0.00000E+00
    0.12343E-03         0.31465E-04         0.00000E+00
    0.12080E-03         0.31085E-04         0.00000E+00
    0.11803E-03         0.30666E-04         0.00000E+00
    0.11512E-03         0.30207E-04         0.00000E+00
    0.11208E-03         0.29704E-04         0.00000E+00
    0.10889E-03         0.29159E-04         0.00000E+00
    0.10558E-03         0.28568E-04         0.00000E+00
    0.10214E-03         0.27930E-04         0.00000E+00
    0.98566E-04         0.27245E-04         0.00000E+00
    0.94872E-04         0.26511E-04         0.00000E+00
    0.91056E-04         0.25726E-04         0.00000E+00
    0.87123E-04         0.24890E-04         0.00000E+00
    0.83074E-04         0.24001E-04         0.00000E+00
    0.78913E-04         0.23058E-04         0.00000E+00
    0.74644E-04         0.22061E-04         0.00000E+00
    0.70269E-04         0.21008E-04         0.00000E+00
    0.65792E-04         0.19899E-04         0.00000E+00
    0.61217E-04         0.18732E-04         0.00000E+00
    0.56547E-04         0.17506E-04         0.00000E+00
    0.51785E-04         0.16222E-04         0.00000E+00
    0.46936E-04         0.14877E-04         0.00000E+00
    0.42003E-04         0.13473E-04         0.00000E+00
    0.36990E-04         0.12007E-04         0.00000E+00
    0.31902E-04         0.10479E-04         0.00000E+00
    0.26741E-04         0.88901E-05         0.00000E+00
    0.21512E-04         0.72382E-05         0.00000E+00
    0.16219E-04         0.55235E-05         0.00000E+00
    0.10867E-04         0.37457E-05         0.00000E+00
    0.54592E-05         0.19046E-05         0.00000E+00
    0.00000E+00         0.00000E+00         0.00000E+00
    0.16127E-03         0.37140E-04         0.00000E+00
    0.16198E-03         0.37199E-04         0.00000E+00
    0.16251E-03         0.37256E-04         0.00000E+00
    0.16286E-03         0.37308E-04         0.00000E+00
    0.16302E-03         0.37354E-04         0.00000E+00
    0.16301E-03         0.37391E-04         0.00000E+00
    0.16282E-03         0.37418E-04         0.00000E+00
    0.16244E-03         0.37432E-04         0.00000E+00
    0.16189E-03         0.37431E-04         0.00000E+00
    0.16116E-03         0.37412E-04         0.00000E+00
    0.16024E-03         0.37375E-04         0.00000E+00
    0.15915E-03         0.37317E-04         0.00000E+00
    0.15788E-03         0.37235E-04         0.00000E+00
    0.15644E-03         0.37128E-04         0.00000E+00
    0.15482E-03         0.36994E-04         0.00000E+00
    0.15303E-03         0.36831E-04         0.00000E+00
    0.15106E-03         0.36636E-04         0.00000E+00
    0.14893E-03         0.36409E-04         0.00000E+00
    0.14662E-03         0.36146E-04         0.00000E+00
    0.14415E-03         0.35846E-04         0.00000E+00
    0.14151E-03         0.35508E-04         0.00000E+00
    0.13871E-03         0.35129E-04         0.00000E+00
    0.13575E-03         0.34708E-04         0.00000E+00
    0.13263E-03         0.34242E-04         0.00000E+00
    0.12935E-03         0.33731E-04         0.00000E+00
    0.12592E-03         0.33172E-04         0.00000E+00
    0.12234E-03         0.32565E-04         0.00000E+00
    0.11862E-03         0.31907E-04         0.00000E+00
    0.11474E-03         0.31196E-04         0.00000E+00
    0.11073E-03         0.30433E-04         0.00000E+00
    0.10657E-03         0.29614E-04         0.00000E+00
    0.10228E-03         0.28739E-04         0.00000E+00
    0.97862E-04         0.27806E-04         0.00000E+00
    0.93311E-04         0.26814E-04         0.00000E+00
    0.88635E-04         0.25763E-04         0.00000E+00
    0.83837E-04         0.24649E-04         0.00000E+00
    0.78921E-04         0.23474E-04         0.00000E+00
    0.73891E-04         0.22235E-04         0.00000E+00
    0.68751E-04         0.20932E-04         0.00000E+00
    0.63504E-04         0.19563E-04         0.00000E+00
    0.58156E-04         0.18129E-04         0.00000E+00
    0.52709E-04         0.16627E-04         0.00000E+00
    0.47168E-04         0.15057E-04         0.00000E+00
    0.41538E-04         0.13420E-04         0.00000E+00
    0.35823E-04         0.11713E-04         0.00000E+00
    0.30028E-04         0.99369E-05         0.00000E+00
    0.24156E-04         0.80908E-05         0.00000E+00
    0.18212E-04         0.61743E-05         0.00000E+00
    0.12202E-04         0.41872E-05         0.00000E+00
    0.61298E-05         0.21292E-05         0.00000E+00
    0.00000E+00         0.00000E+00         0.00000E+00
    0.18145E-03         0.41347E-04         0.00000E+00
    0.18223E-03         0.41417E-04         0.00000E+00
    0.18281E-03         0.41486E-04         0.00000E+00
    0.18319E-03         0.41549E-04         0.00000E+00
    0.18336E-03         0.41606E-04         0.00000E+00
    0.18334E-03         0.41653E-04         0.00000E+00
    0.18310E-03         0.41687E-04         0.00000E+00
    0.18267E-03         0.41708E-04         0.00000E+00
    0.18203E-03         0.41712E-04         0.00000E+00
    0.18120E-03         0.41696E-04         0.00000E+00
    0.18016E-03         0.41660E-04         0.00000E+00
    0.17892E-03         0.41599E-04         0.00000E+00
    0.17748E-03         0.41513E-04         0.00000E+00
    0.17585E-03         0.41398E-04         0.00000E+00
    0.17401E-03         0.41252E-04         0.00000E+00
    0.17199E-03         0.41074E-04         0.00000E+00
    0.16977E-03         0.40861E-04         0.00000E+00
    0.16736E-03         0.40611E-04         0.00000E+00
    0.16476E-03         0.40321E-04         0.00000E+00
    0.16197E-03         0.39990E-04         0.00000E+00
    0.15900E-03         0.39616E-04         0.00000E+00
    0.15584E-03         0.39196E-04         0.00000E+00
    0.15251E-03         0.38729E-04         0.00000E+00
    0.14900E-03         0.38213E-04         0.00000E+00
    0.14531E-03         0.37645E-04         0.00000E+00
    0.14145E-03         0.37024E-04         0.00000E+00
    0.13742E-03         0.36348E-04         0.00000E+00
    0.13323E-03         0.35616E-04         0.00000E+00
    0.12887E-03         0.34825E-04         0.00000E+00
    0.12436E-03         0.33975E-04         0.00000E+00
    0.11969E-03         0.33062E-04         0.00000E+00
    0.11487E-03         0.32087E-04         0.00000E+00
    0.10990E-03         0.31047E-04         0.00000E+00
    0.10478E-03         0.29942E-04         0.00000E+00
    0.99529E-04         0.28769E-04         0.00000E+00
    0.94138E-04         0.27527E-04         0.00000E+00
    0.88616E-04         0.26215E-04         0.00000E+00
    0.82965E-04         0.24833E-04         0.00000E+00
    0.77192E-04         0.23378E-04         0.00000E+00
    0.71299E-04         0.21851E-04         0.00000E+00
    0.65292E-04         0.20249E-04         0.00000E+00
    0.59176E-04         0.18573E-04         0.00000E+00
    0.52954E-04         0.16820E-04         0.00000E+00
    0.46633E-04         0.14991E-04         0.00000E+00
    0.40216E-04         0.13085E-04         0.00000E+00
    0.33709E-04         0.11101E-04         0.00000E+00
    0.27117E-04         0.90394E-05         0.00000E+00
    0.20445E-04         0.68985E-05         0.00000E+00
    0.13698E-04         0.46785E-05         0.00000E+00
    0.68809E-05         0.23791E-05         0.00000E+00
    0.00000E+00         0.00000E+00         0.00000E+00
    0.20413E-03         0.45990E-04         0.00000E+00
    0.20499E-03         0.46075E-04         0.00000E+00
    0.20563E-03         0.46158E-04         0.00000E+00
    0.20603E-03         0.46235E-04         0.00000E+00
    0.20621E-03         0.46304E-04         0.00000E+00
    0.20616E-03         0.46363E-04         0.00000E+00
    0.20588E-03         0.46408E-04         0.00000E+00
    0.20538E-03         0.46437E-04         0.00000E+00
    0.20465E-03         0.46447E-04         0.00000E+00
    0.20369E-03         0.46436E-04         0.00000E+00
    0.20251E-03         0.46400E-04         0.00000E+00
    0.20110E-03         0.46339E-04         0.00000E+00
    0.19947E-03         0.46248E-04         0.00000E+00
    0.19762E-03         0.46125E-04         0.00000E+00
    0.19555E-03         0.45968E-04         0.00000E+00
    0.19326E-03         0.45774E-04         0.00000E+00
    0.19075E-03         0.45541E-04         0.00000E+00
    0.18803E-03         0.45267E-04         0.00000E+00
    0.18510E-03         0.44948E-04         0.00000E+00
    0.18196E-03         0.44584E-04         0.00000E+00
    0.17861E-03         0.44170E-04         0.00000E+00
    0.17505E-03         0.43706E-04         0.00000E+00
    0.17130E-03         0.43189E-04         0.00000E+00
    0.16735E-03         0.42616E-04         0.00000E+00
    0.16320E-03         0.41986E-04         0.00000E+00
    0.15885E-03         0.41297E-04         0.00000E+00
    0.15432E-03         0.40546E-04         0.00000E+00
    0.14961E-03         0.39732E-04         0.00000E+00
    0.14471E-03         0.38852E-04         0.00000E+00
    0.13963E-03         0.37905E-04         0.00000E+00
    0.13439E-03         0.36890E-04         0.00000E+00
    0.12897E-03         0.35804E-04         0.00000E+00
    0.12338E-03         0.34646E-04         0.00000E+00
    0.11764E-03         0.33414E-04         0.00000E+00
    0.11173E-03         0.32106E-04         0.00000E+00
    0.10568E-03         0.30722E-04         0.00000E+00
    0.99475E-04         0.29260E-04         0.00000E+00
    0.93129E-04         0.27719E-04         0.00000E+00
    0.86646E-04         0.26096E-04         0.00000E+00
    0.80029E-04         0.24392E-04         0.00000E+00
    0.73285E-04         0.22605E-04         0.00000E+00
    0.66418E-04         0.20735E-04         0.00000E+00
    0.59434E-04         0.18779E-04         0.00000E+00
    0.52337E-04         0.16738E-04         0.00000E+00
    0.45135E-04         0.14610E-04         0.00000E+00
    0.37831E-04         0.12396E-04         0.00000E+00
    0.30432E-04         0.10094E-04         0.00000E+00
    0.22944E-04         0.77034E-05         0.00000E+00
    0.15372E-04         0.52246E-05         0.00000E+00
    0.77220E-05         0.26569E-05         0.00000E+00
    0.00000E+00         0.00000E+00         0.00000E+00
    0.22962E-03         0.51106E-04         0.00000E+00
    0.23056E-03         0.51209E-04         0.00000E+00
    0.23125E-03         0.51309E-04         0.00000E+00
    0.23169E-03         0.51403E-04         0.00000E+00
    0.23186E-03         0.51488E-04         0.00000E+00
    0.23179E-03         0.51560E-04         0.00000E+00
    0.23146E-03         0.51618E-04         0.00000E+00
    0.23087E-03         0.51658E-04         0.00000E+00
    0.23003E-03         0.51676E-04         0.00000E+00
    0.22893E-03         0.51671E-04         0.00000E+00
    0.22758E-03         0.51639E-04         0.00000E+00
    0.22598E-03         0.51576E-04         0.00000E+00
    0.22414E-03         0.51482E-04         0.00000E+00
    0.22204E-03         0.51351E-04         0.00000E+00
    0.21970E-03         0.51183E-04         0.00000E+00
    0.21711E-03         0.50973E-04         0.00000E+00
    0.21428E-03         0.50719E-04         0.00000E+00
    0.21121E-03         0.50419E-04         0.00000E+00
    0.20790E-03         0.50069E-04         0.00000E+00
    0.20436E-03         0.49668E-04         0.00000E+00
    0.20059E-03         0.49212E-04         0.00000E+00
    0.19659E-03         0.48699E-04         0.00000E+00
    0.19236E-03         0.48127E-04         0.00000E+00
    0.18791E-03         0.47493E-04         0.00000E+00
    0.18324E-03         0.46795E-04         0.00000E+00
    0.17835E-03         0.46030E-04         0.00000E+00
    0.17326E-03         0.45197E-04         0.00000E+00
    0.16796E-03         0.44293E-04         0.00000E+00
    0.16245E-03         0.43316E-04         0.00000E+00
    0.15675E-03         0.42263E-04         0.00000E+00
    0.15085E-03         0.41134E-04         0.00000E+00
    0.14476E-03         0.39925E-04         0.00000E+00
    0.13848E-03         0.38636E-04         0.00000E+00
    0.13203E-03         0.37265E-04         0.00000E+00
    0.12540E-03         0.35809E-04         0.00000E+00
    0.11860E-03         0.34267E-04         0.00000E+00
    0.11163E-03         0.32638E-04         0.00000E+00
    0.10451E-03         0.30920E-04         0.00000E+00
    0.97230E-04         0.29112E-04         0.00000E+00
    0.89803E-04         0.27212E-04         0.00000E+00
    0.82233E-04         0.25220E-04         0.00000E+00
    0.74525E-04         0.23134E-04         0.00000E+00
    0.66687E-04         0.20953E-04         0.00000E+00
    0.58723E-04         0.18677E-04         0.00000E+00
    0.50641E-04         0.16303E-04         0.00000E+00
    0.42446E-04         0.13833E-04         0.00000E+00
    0.34144E-04         0.11264E-04         0.00000E+00
    0.25742E-04         0.85973E-05         0.00000E+00
    0.17246E-04         0.58311E-05         0.00000E+00
    0.86632E-05         0.29654E-05         0.00000E+00
    0.00000E+00         0.00000E+00         0.00000E+00
    0.25824E-03         0.56734E-04         0.00000E+00
    0.25928E-03         0.56858E-04         0.00000E+00
    0.26003E-03         0.56978E-04         0.00000E+00
    0.26049E-03         0.57092E-04         0.00000E+00
    0.26067E-03         0.57196E-04         0.00000E+00
    0.26056E-03         0.57286E-04         0.00000E+00
    0.26016E-03         0.57359E-04         0.00000E+00
    0.25947E-03         0.57412E-04         0.00000E+00
    0.25851E-03         0.57442E-04         0.00000E+00
    0.25725E-03         0.57444E-04         0.00000E+00
    0.25572E-03         0.57417E-04         0.00000E+00
    0.25390E-03         0.57356E-04         0.00000E+00
    0.25180E-03         0.57258E-04         0.00000E+00
    0.24943E-03         0.57121E-04         0.00000E+00
    0.24678E-03         0.56941E-04         0.00000E+00
    0.24385E-03         0.56714E-04         0.00000E+00
    0.24066E-03         0.56439E-04         0.00000E+00
    0.23719E-03         0.56111E-04         0.00000E+00
    0.23346E-03         0.55729E-04         0.00000E+00
    0.22947E-03         0.55288E-04         0.00000E+00
    0.22522E-03         0.54786E-04         0.00000E+00
    0.22071E-03         0.54221E-04         0.00000E+00
    0.21595E-03         0.53589E-04         0.00000E+00
    0.21094E-03         0.52888E-04         0.00000E+00
    0.20569E-03         0.52116E-04         0.00000E+00
    0.20020E-03         0.51269E-04         0.00000E+00
    0.19447E-03         0.50345E-04         0.00000E+00
    0.18851E-03         0.49341E-04         0.00000E+00
    0.18232E-03         0.48257E-04         0.00000E+00
    0.17591E-03         0.47088E-04         0.00000E+00
    0.16928E-03         0.45833E-04         0.00000E+00
    0.16244E-03         0.44490E-04         0.00000E+00
    0.15539E-03         0.43056E-04         0.00000E+00
    0.14814E-03         0.41530E-04         0.00000E+00
    0.14070E-03         0.39910E-04         0.00000E+00
    0.13306E-03         0.38194E-04         0.00000E+00
    0.12524E-03         0.36381E-04         0.00000E+00
    0.11725E-03         0.34468E-04         0.00000E+00
    0.10908E-03         0.32454E-04         0.00000E+00
    0.10074E-03         0.30338E-04         0.00000E+00
    0.92247E-04         0.28119E-04         0.00000E+00
    0.83598E-04         0.25794E-04         0.00000E+00
    0.74804E-04         0.23364E-04         0.00000E+00
    0.65869E-04         0.20826E-04         0.00000E+00
    0.56802E-04         0.18181E-04         0.00000E+00
    0.47609E-04         0.15427E-04         0.00000E+00
    0.38296E-04         0.12563E-04         0.00000E+00
    0.28872E-04         0.95887E-05         0.00000E+00
    0.19343E-04         0.65038E-05         0.00000E+00
    0.97164E-05         0.33077E-05         0.00000E+00
    0.00000E+00         0.00000E+00         0.00000E+00
    0.29040E-03         0.62910E-04         0.00000E+00
    0.29153E-03         0.63060E-04         0.00000E+00
    0.29234E-03         0.63205E-04         0.00000E+00
    0.29283E-03         0.63343E-04         0.00000E+00
    0.29300E-03         0.63470E-04         0.00000E+00
    0.29284E-03         0.63581E-04         0.00000E+00
    0.29237E-03         0.63674E-04         0.00000E+00
    0.29157E-03         0.63743E-04         0.00000E+00
    0.29045E-03         0.63787E-04         0.00000E+00
    0.28902E-03         0.63800E-04         0.00000E+00
    0.28727E-03         0.63780E-04         0.00000E+00
    0.28520E-03         0.63722E-04         0.00000E+00
    0.28282E-03         0.63623E-04         0.00000E+00
    0.28013E-03         0.63480E-04         0.00000E+00
    0.27713E-03         0.63288E-04         0.00000E+00
    0.27383E-03         0.63045E-04         0.00000E+00
    0.27022E-03         0.62747E-04         0.00000E+00
    0.26631E-03         0.62391E-04         0.00000E+00
    0.26210E-03         0.61973E-04         0.00000E+00
    0.25760E-03         0.61491E-04         0.00000E+00
    0.25281E-03         0.60940E-04         0.00000E+00
    0.24774E-03         0.60318E-04         0.00000E+00
    0.24238E-03         0.59621E-04         0.00000E+00
    0.23674E-03         0.58847E-04         0.00000E+00
    0.23083E-03         0.57993E-04         0.00000E+00
    0.22466E-03         0.57056E-04         0.00000E+00
    0.21821E-03         0.56033E-04         0.00000E+00
    0.21151E-03         0.54922E-04         0.00000E+00
    0.20456E-03         0.53719E-04         0.00000E+00
    0.19735E-03         0.52422E-04         0.00000E+00
    0.18991E-03         0.51029E-04         0.00000E+00
    0.18223E-03         0.49537E-04         0.00000E+00
    0.17431E-03         0.47945E-04         0.00000E+00
    0.16617E-03         0.46249E-04         0.00000E+00
    0.15782E-03         0.44448E-04         0.00000E+00
    0.14925E-03         0.42540E-04         0.00000E+00
    0.14047E-03         0.40523E-04         0.00000E+00
    0.13150E-03         0.38395E-04         0.00000E+00
    0.12233E-03         0.36154E-04         0.00000E+00
    0.11298E-03         0.33799E-04         0.00000E+00
    0.10345E-03         0.31328E-04         0.00000E+00
    0.93748E-04         0.28740E-04         0.00000E+00
    0.83883E-04         0.26033E-04         0.00000E+00
    0.73862E-04         0.23207E-04         0.00000E+00
    0.63693E-04         0.20261E-04         0.00000E+00
    0.53383E-04         0.17192E-04         0.00000E+00
    0.42940E-04         0.14001E-04         0.00000E+00
    0.32372E-04         0.10687E-04         0.00000E+00
    0.21688E-04         0.72493E-05         0.00000E+00
    0.10894E-04         0.36870E-05         0.00000E+00
    0.00000E+00         0.00000E+00         0.00000E+00
    0.32651E-03         0.69675E-04         0.00000E+00
    0.32774E-03         0.69854E-04         0.00000E+00
    0.32862E-03         0.70030E-04         0.00000E+00
    0.32913E-03         0.70197E-04         0.00000E+00
    0.32928E-03         0.70351E-04         0.00000E+00
    0.32907E-03         0.70488E-04         0.00000E+00
    0.32850E-03         0.70604E-04         0.00000E+00
    0.32757E-03         0.70695E-04         0.00000E+00
    0.32629E-03         0.70756E-04         0.00000E+00
    0.32464E-03         0.70783E-04         0.00000E+00
    0.32265E-03         0.70773E-04         0.00000E+00
    0.32030E-03         0.70721E-04         0.00000E+00
    0.31760E-03         0.70623E-04         0.00000E+00
    0.31455E-03         0.70475E-04         0.00000E+00
    0.31115E-03         0.70273E-04         0.00000E+00
    0.30742E-03         0.70014E-04         0.00000E+00
    0.30334E-03         0.69693E-04         0.00000E+00
    0.29893E-03         0.69307E-04         0.00000E+00
    0.29419E-03         0.68852E-04         0.00000E+00
    0.28911E-03         0.68325E-04         0.00000E+00
    0.28372E-03         0.67721E-04         0.00000E+00
    0.27800E-03         0.67038E-04         0.00000E+00
    0.27197E-03         0.66272E-04         0.00000E+00
    0.26563E-03         0.65419E-04         0.00000E+00
    0.25898E-03         0.64477E-04         0.00000E+00
    0.25203E-03         0.63441E-04         0.00000E+00
    0.24479E-03         0.62310E-04         0.00000E+00
    0.23726E-03         0.61080E-04         0.00000E+00
    0.22945E-03         0.59748E-04         0.00000E+00
    0.22136E-03         0.58311E-04         0.00000E+00
    0.21299E-03         0.56766E-04         0.00000E+00
    0.20437E-03         0.55112E-04         0.00000E+00
    0.19548E-03         0.53344E-04         0.00000E+00
    0.18635E-03         0.51462E-04         0.00000E+00
    0.17697E-03         0.49462E-04         0.00000E+00
    0.16735E-03         0.47342E-04         0.00000E+00
    0.15750E-03         0.45100E-04         0.00000E+00
    0.14744E-03         0.42735E-04         0.00000E+00
    0.13715E-03         0.40243E-04         0.00000E+00
    0.12666E-03         0.37624E-04         0.00000E+00
    0.11598E-03         0.34876E-04         0.00000E+00
    0.10510E-03         0.31997E-04         0.00000E+00
    0.94034E-04         0.28986E-04         0.00000E+00
    0.82799E-04         0.25841E-04         0.00000E+00
    0.71397E-04         0.22561E-04         0.00000E+00
    0.59839E-04         0.19145E-04         0.00000E+00
    0.48132E-04         0.15593E-04         0.00000E+00
    0.36286E-04         0.11903E-04         0.00000E+00
    0.24309E-04         0.80742E-05         0.00000E+00
    0.12211E-04         0.41068E-05         0.00000E+00
    0.00000E+00         0.00000E+00         0.00000E+00
    0.36705E-03         0.77063E-04         0.00000E+00
    0.36839E-03         0.77280E-04         0.00000E+00
    0.36932E-03         0.77491E-04         0.00000E+00
    0.36986E-03         0.77693E-04         0.00000E+00
    0.36998E-03         0.77881E-04         0.00000E+00
    0.36970E-03         0.78049E-04         0.00000E+00
    0.36902E-03         0.78194E-04         0.00000E+00
    0.36794E-03         0.78311E-04         0.00000E+00
    0.36646E-03         0.78394E-04         0.00000E+00
    0.36458E-03         0.78440E-04         0.00000E+00
    0.36230E-03         0.78443E-04         0.00000E+00
    0.35962E-03         0.78400E-04         0.00000E+00
    0.35656E-03         0.78305E-04         0.00000E+00
    0.35310E-03         0.78155E-04         0.00000E+00
    0.34926E-03         0.77944E-04         0.00000E+00
    0.34504E-03         0.77669E-04         0.00000E+00
    0.34043E-03         0.77326E-04         0.00000E+00
    0.33546E-03         0.76909E-04         0.00000E+00
    0.33011E-03         0.76416E-04         0.00000E+00
    0.32439E-03         0.75841E-04         0.00000E+00
    0.31831E-03         0.75181E-04         0.00000E+00
    0.31187E-03         0.74433E-04         0.00000E+00
    0.30509E-03         0.73591E-04         0.00000E+00
    0.29795E-03         0.72653E-04         0.00000E+00
    0.29048E-03         0.71615E-04         0.00000E+00
    0.28267E-03         0.70474E-04         0.00000E+00
    0.27453E-03         0.69225E-04         0.00000E+00
    0.26606E-03         0.67865E-04         0.00000E+00
    0.25729E-03         0.66392E-04         0.00000E+00
    0.24820E-03         0.64802E-04         0.00000E+00
    0.23881E-03         0.63091E-04         0.00000E+00
    0.22912E-03         0.61258E-04         0.00000E+00
    0.21915E-03         0.59299E-04         0.00000E+00
    0.20890E-03         0.57211E-04         0.00000E+00
    0.19838E-03         0.54992E-04         0.00000E+00
    0.18759E-03         0.52640E-04         0.00000E+00
    0.17654E-03         0.50151E-04         0.00000E+00
    0.16525E-03         0.47524E-04         0.00000E+00
    0.15372E-03         0.44757E-04         0.00000E+00
    0.14196E-03         0.41848E-04         0.00000E+00
    0.12998E-03         0.38794E-04         0.00000E+00
    0.11778E-03         0.35594E-04         0.00000E+00
    0.10538E-03         0.32246E-04         0.00000E+00
    0.92786E-04         0.28749E-04         0.00000E+00
    0.80007E-04         0.25102E-04         0.00000E+00
    0.67053E-04         0.21303E-04         0.00000E+00
    0.53934E-04         0.17351E-04         0.00000E+00
    0.40659E-04         0.13246E-04         0.00000E+00
    0.27238E-04         0.89858E-05         0.00000E+00
    0.13682E-04         0.45707E-05         0.00000E+00
    0.00000E+00         0.00000E+00         0.00000E+00
    0.41255E-03         0.85112E-04         0.00000E+00
    0.41400E-03         0.85372E-04         0.00000E+00
    0.41500E-03         0.85627E-04         0.00000E+00
    0.41554E-03         0.85870E-04         0.00000E+00
    0.41563E-03         0.86098E-04         0.00000E+00
    0.41527E-03         0.86305E-04         0.00000E+00
    0.41446E-03         0.86485E-04         0.00000E+00
    0.41320E-03         0.86633E-04         0.00000E+00
    0.41149E-03         0.86745E-04         0.00000E+00
    0.40933E-03         0.86814E-04         0.00000E+00
    0.40673E-03         0.86836E-04         0.00000E+00
    0.40368E-03         0.86805E-04         0.00000E+00
    0.40020E-03         0.86718E-04         0.00000E+00
    0.39629E-03         0.86568E-04         0.00000E+00
    0.39194E-03         0.86350E-04         0.00000E+00
    0.38716E-03         0.86061E-04         0.00000E+00
    0.38196E-03         0.85695E-04         0.00000E+00
    0.37634E-03         0.85248E-04         0.00000E+00
    0.37031E-03         0.84715E-04         0.00000E+00
    0.36387E-03         0.84091E-04         0.00000E+00
    0.35702E-03         0.83372E-04         0.00000E+00
    0.34977E-03         0.82554E-04         0.00000E+00
    0.34213E-03         0.81632E-04         0.00000E+00
    0.33411E-03         0.80603E-04         0.00000E+00
    0.32570E-03         0.79461E-04         0.00000E+00
    0.31692E-03         0.78204E-04         0.00000E+00
    0.30778E-03         0.76828E-04         0.00000E+00
    0.29827E-03         0.75328E-04         0.00000E+00
    0.28841E-03         0.73701E-04         0.00000E+00
    0.27821E-03         0.71943E-04         0.00000E+00
    0.26767E-03         0.70052E-04         0.00000E+00
    0.25680E-03         0.68023E-04         0.00000E+00
    0.24561E-03         0.65854E-04         0.00000E+00
    0.23411E-03         0.63542E-04         0.00000E+00
    0.22230E-03         0.61083E-04         0.00000E+00
    0.21020E-03         0.58475E-04         0.00000E+00
    0.19782E-03         0.55716E-04         0.00000E+00
    0.18516E-03         0.52802E-04         0.00000E+00
    0.17223E-03         0.49732E-04         0.00000E+00
    0.15905E-03         0.46502E-04         0.00000E+00
    0.14562E-03         0.43112E-04         0.00000E+00
    0.13195E-03         0.39559E-04         0.00000E+00
    0.11805E-03         0.35841E-04         0.00000E+00
    0.10394E-03         0.31957E-04         0.00000E+00
    0.89623E-04         0.27905E-04         0.00000E+00
    0.75110E-04         0.23683E-04         0.00000E+00
    0.60413E-04         0.19291E-04         0.00000E+00
    0.45542E-04         0.14728E-04         0.00000E+00
    0.30509E-04         0.99918E-05         0.00000E+00
    0.15325E-04         0.50828E-05         0.00000E+00
    0.00000E+00         0.00000E+00         0.00000E+00
    0.46361E-03         0.93852E-04         0.00000E+00
    0.46518E-03         0.94164E-04         0.00000E+00
    0.46623E-03         0.94470E-04         0.00000E+00
    0.46678E-03         0.94765E-04         0.00000E+00
    0.46682E-03         0.95041E-04         0.00000E+00
    0.46636E-03         0.95294E-04         0.00000E+00
    0.46539E-03         0.95517E-04         0.00000E+00
    0.46391E-03         0.95705E-04         0.00000E+00
    0.46194E-03         0.95851E-04         0.00000E+00
    0.45946E-03         0.95950E-04         0.00000E+00
    0.45649E-03         0.95996E-04         0.00000E+00
    0.45303E-03         0.95984E-04         0.00000E+00
    0.44907E-03         0.95908E-04         0.00000E+00
    0.44463E-03         0.95762E-04         0.00000E+00
    0.43971E-03         0.95541E-04         0.00000E+00
    0.43431E-03         0.95240E-04         0.00000E+00
    0.42843E-03         0.94853E-04         0.00000E+00
    0.42209E-03         0.94375E-04         0.00000E+00
    0.41529E-03         0.93801E-04         0.00000E+00
    0.40803E-03         0.93126E-04         0.00000E+00
    0.40031E-03         0.92346E-04         0.00000E+00
    0.39216E-03         0.91454E-04         0.00000E+00
    0.38356E-03         0.90447E-04         0.00000E+00
    0.37454E-03         0.89319E-04         0.00000E+00
    0.36509E-03         0.88067E-04         0.00000E+00
    0.35522E-03         0.86686E-04         0.00000E+00
    0.34494E-03         0.85172E-04         0.00000E+00
    0.33427E-03         0.83519E-04         0.00000E+00
    0.32320E-03         0.81726E-04         0.00000E+00
    0.31174E-03         0.79786E-04         0.00000E+00
    0.29991E-03         0.77698E-04         0.00000E+00
    0.28772E-03         0.75456E-04         0.00000E+00
    0.27517E-03         0.73058E-04         0.00000E+00
    0.26227E-03         0.70500E-04         0.00000E+00
    0.24903E-03         0.67779E-04         0.00000E+00
    0.23546E-03         0.64892E-04         0.00000E+00
    0.22158E-03         0.61836E-04         0.00000E+00
    0.20739E-03         0.58607E-04         0.00000E+00
    0.19290E-03         0.55204E-04         0.00000E+00
    0.17813E-03         0.51624E-04         0.00000E+00
    0.16308E-03         0.47865E-04         0.00000E+00
    0.14777E-03         0.43923E-04         0.00000E+00
    0.13220E-03         0.39799E-04         0.00000E+00
    0.11639E-03         0.35488E-04         0.00000E+00
    0.10036E-03         0.30991E-04         0.00000E+00
    0.84105E-04         0.26304E-04         0.00000E+00
    0.67646E-04         0.21428E-04         0.00000E+00
    0.50993E-04         0.16360E-04         0.00000E+00
    0.34160E-04         0.11100E-04         0.00000E+00
    0.17158E-04         0.56470E-05         0.00000E+00
    0.00000E+00         0.00000E+00         0.00000E+00
    0.52089E-03         0.10331E-03         0.00000E+00
    0.52257E-03         0.10368E-03         0.00000E+00
    0.52368E-03         0.10405E-03         0.00000E+00
    0.52422E-03         0.10441E-03         0.00000E+00
    0.52420E-03         0.10474E-03         0.00000E+00
    0.52360E-03         0.10505E-03         0.00000E+00
    0.52245E-03         0.10533E-03         0.00000E+00
    0.52072E-03         0.10556E-03         0.00000E+00
    0.51844E-03         0.10575E-03         0.00000E+00
    0.51560E-03         0.10589E-03         0.00000E+00
    0.51221E-03         0.10597E-03         0.00000E+00
    0.50826E-03         0.10598E-03         0.00000E+00
    0.50377E-03         0.10592E-03         0.00000E+00
    0.49873E-03         0.10578E-03         0.00000E+00
    0.49316E-03         0.10556E-03         0.00000E+00
    0.48705E-03         0.10525E-03         0.00000E+00
    0.48042E-03         0.10485E-03         0.00000E+00
    0.47326E-03         0.10434E-03         0.00000E+00
    0.46559E-03         0.10373E-03         0.00000E+00
    0.45740E-03         0.10300E-03         0.00000E+00
    0.44872E-03         0.10215E-03         0.00000E+00
    0.43954E-03         0.10118E-03         0.00000E+00
    0.42987E-03         0.10009E-03         0.00000E+00
    0.41972E-03         0.98856E-04         0.00000E+00
    0.40909E-03         0.97486E-04         0.00000E+00
    0.39801E-03         0.95971E-04         0.00000E+00
    0.38647E-03         0.94308E-04         0.00000E+00
    0.37448E-03         0.92492E-04         0.00000E+00
    0.36205E-03         0.90518E-04         0.00000E+00
    0.34920E-03         0.88382E-04         0.00000E+00
    0.33593E-03         0.86079E-04         0.00000E+00
    0.32225E-03         0.83606E-04         0.00000E+00
    0.30817E-03         0.80959E-04         0.00000E+00
    0.29370E-03         0.78133E-04         0.00000E+00
    0.27886E-03         0.75126E-04         0.00000E+00
    0.26366E-03         0.71933E-04         0.00000E+00
    0.24810E-03         0.68553E-04         0.00000E+00
    0.23220E-03         0.64980E-04         0.00000E+00
    0.21597E-03         0.61213E-04         0.00000E+00
    0.19942E-03         0.57249E-04         0.00000E+00
    0.18257E-03         0.53085E-04         0.00000E+00
    0.16542E-03         0.48718E-04         0.00000E+00
    0.14799E-03         0.44147E-04         0.00000E+00
    0.13029E-03         0.39369E-04         0.00000E+00
    0.11233E-03         0.34383E-04         0.00000E+00
    0.94139E-04         0.29186E-04         0.00000E+00
    0.75714E-04         0.23778E-04         0.00000E+00
    0.57075E-04         0.18156E-04         0.00000E+00
    0.38233E-04         0.12319E-04         0.00000E+00
    0.19203E-04         0.62678E-05         0.00000E+00
    0.00000E+00         0.00000E+00         0.00000E+00
    0.58512E-03         0.11350E-03         0.00000E+00
    0.58692E-03         0.11395E-03         0.00000E+00
    0.58808E-03         0.11439E-03         0.00000E+00
    0.58860E-03         0.11482E-03         0.00000E+00
    0.58848E-03         0.11523E-03         0.00000E+00
    0.58773E-03         0.11560E-03         0.00000E+00
    0.58635E-03         0.11594E-03         0.00000E+00
    0.58434E-03         0.11624E-03         0.00000E+00
    0.58171E-03         0.11648E-03         0.00000E+00
    0.57845E-03         0.11666E-03         0.00000E+00
    0.57457E-03         0.11678E-03         0.00000E+00
    0.57007E-03         0.11683E-03         0.00000E+00
    0.56497E-03         0.11679E-03         0.00000E+00
    0.55925E-03         0.11667E-03         0.00000E+00
    0.55294E-03         0.11646E-03         0.00000E+00
    0.54603E-03         0.11614E-03         0.00000E+00
    0.53854E-03         0.11572E-03         0.00000E+00
    0.53046E-03         0.11519E-03         0.00000E+00
    0.52181E-03         0.11453E-03         0.00000E+00
    0.51259E-03         0.11376E-03         0.00000E+00
    0.50281E-03         0.11284E-03         0.00000E+00
    0.49247E-03         0.11180E-03         0.00000E+00
    0.48160E-03         0.11060E-03         0.00000E+00
    0.47018E-03         0.10926E-03         0.00000E+00
    0.45825E-03         0.10777E-03         0.00000E+00
    0.44579E-03         0.10611E-03         0.00000E+00
    0.43283E-03         0.10429E-03         0.00000E+00
    0.41937E-03         0.10230E-03         0.00000E+00
    0.40543E-03         0.10013E-03         0.00000E+00
    0.39100E-03         0.97780E-04         0.00000E+00
    0.37612E-03         0.95246E-04         0.00000E+00
    0.36078E-03         0.92522E-04         0.00000E+00
    0.34500E-03         0.89604E-04         0.00000E+00
    0.32878E-03         0.86488E-04         0.00000E+00
    0.31215E-03         0.83169E-04         0.00000E+00
    0.29512E-03         0.79644E-04         0.00000E+00
    0.27769E-03         0.75910E-04         0.00000E+00
    0.25988E-03         0.71962E-04         0.00000E+00
    0.24170E-03         0.67798E-04         0.00000E+00
    0.22317E-03         0.63414E-04         0.00000E+00
    0.20430E-03         0.58808E-04         0.00000E+00
    0.18510E-03         0.53976E-04         0.00000E+00
    0.16559E-03         0.48916E-04         0.00000E+00
    0.14578E-03         0.43627E-04         0.00000E+00
    0.12569E-03         0.38105E-04         0.00000E+00
    0.10533E-03         0.32348E-04         0.00000E+00
    0.84710E-04         0.26356E-04         0.00000E+00
    0.63854E-04         0.20126E-04         0.00000E+00
    0.42774E-04         0.13658E-04         0.00000E+00
    0.21484E-04         0.69493E-05         0.00000E+00
    0.00000E+00         0.00000E+00         0.00000E+00
    0.65714E-03         0.12444E-03         0.00000E+00
    0.65904E-03         0.12498E-03         0.00000E+00
    0.66023E-03         0.12551E-03         0.00000E+00
    0.66071E-03         0.12602E-03         0.00000E+00
    0.66048E-03         0.12651E-03         0.00000E+00
    0.65954E-03         0.12697E-03         0.00000E+00
    0.65790E-03         0.12739E-03         0.00000E+00
    0.65555E-03         0.12775E-03         0.00000E+00
    0.65250E-03         0.12806E-03         0.00000E+00
    0.64876E-03         0.12831E-03         0.00000E+00
    0.64432E-03         0.12847E-03         0.00000E+00
    0.63920E-03         0.12856E-03         0.00000E+00
    0.63340E-03         0.12856E-03         0.00000E+00
    0.62692E-03         0.12847E-03         0.00000E+00
    0.61977E-03         0.12826E-03         0.00000E+00
    0.61196E-03         0.12795E-03         0.00000E+00
    0.60349E-03         0.12752E-03         0.00000E+00
    0.59437E-03         0.12696E-03         0.00000E+00
    0.58462E-03         0.12627E-03         0.00000E+00
    0.57423E-03         0.12544E-03         0.00000E+00
    0.56321E-03         0.12447E-03         0.00000E+00
    0.55159E-03         0.12334E-03         0.00000E+00
    0.53935E-03         0.12205E-03         0.00000E+00
    0.52652E-03         0.12059E-03         0.00000E+00
    0.51311E-03         0.11896E-03         0.00000E+00
    0.49912E-03         0.11716E-03         0.00000E+00
    0.48457E-03         0.11516E-03         0.00000E+00
    0.46946E-03         0.11298E-03         0.00000E+00
    0.45382E-03         0.11061E-03         0.00000E+00
    0.43764E-03         0.10803E-03         0.00000E+00
    0.42095E-03         0.10525E-03         0.00000E+00
    0.40376E-03         0.10225E-03         0.00000E+00
    0.38607E-03         0.99041E-04         0.00000E+00
    0.36790E-03         0.95610E-04         0.00000E+00
    0.34927E-03         0.91954E-04         0.00000E+00
    0.33019E-03         0.88069E-04         0.00000E+00
    0.31067E-03         0.83950E-04         0.00000E+00
    0.29073E-03         0.79594E-04         0.00000E+00
    0.27038E-03         0.74998E-04         0.00000E+00
    0.24964E-03         0.70156E-04         0.00000E+00
    0.22852E-03         0.65068E-04         0.00000E+00
    0.20704E-03         0.59728E-04         0.00000E+00
    0.18521E-03         0.54135E-04         0.00000E+00
    0.16305E-03         0.48286E-04         0.00000E+00
    0.14057E-03         0.42179E-04         0.00000E+00
    0.11779E-03         0.35811E-04         0.00000E+00
    0.94734E-04         0.29180E-04         0.00000E+00
    0.71408E-04         0.22285E-04         0.00000E+00
    0.47832E-04         0.15124E-04         0.00000E+00
    0.24024E-04         0.76962E-05         0.00000E+00
    0.00000E+00         0.00000E+00         0.00000E+00
    0.73784E-03         0.13611E-03         0.00000E+00
    0.73985E-03         0.13676E-03         0.00000E+00
    0.74106E-03         0.13740E-03         0.00000E+00
    0.74147E-03         0.13802E-03         0.00000E+00
    0.74109E-03         0.13861E-03         0.00000E+00
    0.73992E-03         0.13916E-03         0.00000E+00
    0.73796E-03         0.13967E-03         0.00000E+00
    0.73522E-03         0.14013E-03         0.00000E+00
    0.73169E-03         0.14051E-03         0.00000E+00
    0.72739E-03         0.14083E-03         0.00000E+00
    0.72232E-03         0.14107E-03         0.00000E+00
    0.71648E-03         0.14121E-03         0.00000E+00
    0.70988E-03         0.14125E-03         0.00000E+00
    0.70253E-03         0.14119E-03         0.00000E+00
    0.69443E-03         0.14101E-03         0.00000E+00
    0.68560E-03         0.14071E-03         0.00000E+00
    0.67603E-03         0.14028E-03         0.00000E+00
    0.66574E-03         0.13970E-03         0.00000E+00
    0.65474E-03         0.13898E-03         0.00000E+00
    0.64304E-03         0.13810E-03         0.00000E+00
    0.63064E-03         0.13706E-03         0.00000E+00
    0.61756E-03         0.13584E-03         0.00000E+00
    0.60380E-03         0.13445E-03         0.00000E+00
    0.58938E-03         0.13288E-03         0.00000E+00
    0.57432E-03         0.13111E-03         0.00000E+00
    0.55861E-03         0.12915E-03         0.00000E+00
    0.54227E-03         0.12698E-03         0.00000E+00
    0.52533E-03         0.12460E-03         0.00000E+00
    0.50778E-03         0.12200E-03         0.00000E+00
    0.48964E-03         0.11918E-03         0.00000E+00
    0.47093E-03         0.11613E-03         0.00000E+00
    0.45166E-03         0.11284E-03         0.00000E+00
    0.43184E-03         0.10932E-03         0.00000E+00
    0.41150E-03         0.10555E-03         0.00000E+00
    0.39063E-03         0.10152E-03         0.00000E+00
    0.36927E-03         0.97249E-04         0.00000E+00
    0.34742E-03         0.92714E-04         0.00000E+00
    0.32511E-03         0.87916E-04         0.00000E+00
    0.30233E-03         0.82849E-04         0.00000E+00
    0.27913E-03         0.77512E-04         0.00000E+00
    0.25550E-03         0.71898E-04         0.00000E+00
    0.23147E-03         0.66007E-04         0.00000E+00
    0.20706E-03         0.59833E-04         0.00000E+00
    0.18227E-03         0.53375E-04         0.00000E+00
    0.15714E-03         0.46629E-04         0.00000E+00
    0.13167E-03         0.39594E-04         0.00000E+00
    0.10589E-03         0.32266E-04         0.00000E+00
    0.79818E-04         0.24645E-04         0.00000E+00
    0.53465E-04         0.16727E-04         0.00000E+00
    0.26852E-04         0.85129E-05         0.00000E+00
    0.00000E+00         0.00000E+00         0.00000E+00
    0.82824E-03         0.14850E-03         0.00000E+00
    0.83034E-03         0.14927E-03         0.00000E+00
    0.83155E-03         0.15004E-03         0.00000E+00
    0.83187E-03         0.15078E-03         0.00000E+00
    0.83130E-03         0.15150E-03         0.00000E+00
    0.82985E-03         0.15217E-03         0.00000E+00
    0.82752E-03         0.15279E-03         0.00000E+00
    0.82431E-03         0.15335E-03         0.00000E+00
    0.82023E-03         0.15384E-03         0.00000E+00
    0.81529E-03         0.15425E-03         0.00000E+00
    0.80948E-03         0.15456E-03         0.00000E+00
    0.80283E-03         0.15478E-03         0.00000E+00
    0.79532E-03         0.15488E-03         0.00000E+00
    0.78698E-03         0.15487E-03         0.00000E+00
    0.77781E-03         0.15472E-03         0.00000E+00
    0.76782E-03         0.15444E-03         0.00000E+00
    0.75701E-03         0.15401E-03         0.00000E+00
    0.74540E-03         0.15342E-03         0.00000E+00
    0.73300E-03         0.15268E-03         0.00000E+00
    0.71981E-03         0.15175E-03         0.00000E+00
    0.70586E-03         0.15065E-03         0.00000E+00
    0.69114E-03         0.14936E-03         0.00000E+00
    0.67567E-03         0.14786E-03         0.00000E+00
    0.65947E-03         0.14617E-03         0.00000E+00
    0.64255E-03         0.14426E-03         0.00000E+00
    0.62492E-03         0.14213E-03         0.00000E+00
    0.60659E-03         0.13977E-03         0.00000E+00
    0.58758E-03         0.13718E-03         0.00000E+00
    0.56790E-03         0.13435E-03         0.00000E+00
    0.54758E-03         0.13126E-03         0.00000E+00
    0.52661E-03         0.12793E-03         0.00000E+00
    0.50502E-03         0.12433E-03         0.00000E+00
    0.48283E-03         0.12047E-03         0.00000E+00
    0.46005E-03         0.11633E-03         0.00000E+00
    0.43670E-03         0.11192E-03         0.00000E+00
    0.41279E-03         0.10722E-03         0.00000E+00
    0.38834E-03         0.10224E-03         0.00000E+00
    0.36337E-03         0.96964E-04         0.00000E+00
    0.33790E-03         0.91390E-04         0.00000E+00
    0.31195E-03         0.85514E-04         0.00000E+00
    0.28553E-03         0.79332E-04         0.00000E+00
    0.25866E-03         0.72841E-04         0.00000E+00
    0.23137E-03         0.66038E-04         0.00000E+00
    0.20367E-03         0.58917E-04         0.00000E+00
    0.17558E-03         0.51478E-04         0.00000E+00
    0.14712E-03         0.43716E-04         0.00000E+00
    0.11831E-03         0.35630E-04         0.00000E+00
    0.89176E-04         0.27217E-04         0.00000E+00
    0.59731E-04         0.18476E-04         0.00000E+00
    0.29999E-04         0.94037E-05         0.00000E+00
    0.00000E+00         0.00000E+00         0.00000E+00
    0.92947E-03         0.16154E-03         0.00000E+00
    0.93165E-03         0.16247E-03         0.00000E+00
    0.93282E-03         0.16339E-03         0.00000E+00
    0.93301E-03         0.16429E-03         0.00000E+00
    0.93220E-03         0.16515E-03         0.00000E+00
    0.93041E-03         0.16596E-03         0.00000E+00
    0.92764E-03         0.16672E-03         0.00000E+00
    0.92389E-03         0.16741E-03         0.00000E+00
    0.91917E-03         0.16802E-03         0.00000E+00
    0.91349E-03         0.16853E-03         0.00000E+00
    0.90684E-03         0.16895E-03         0.00000E+00
    0.89925E-03         0.16926E-03         0.00000E+00
    0.89072E-03         0.16944E-03         0.00000E+00
    0.88125E-03         0.16949E-03         0.00000E+00
    0.87086E-03         0.16939E-03         0.00000E+00
    0.85956E-03         0.16914E-03         0.00000E+00
    0.84735E-03         0.16873E-03         0.00000E+00
    0.83425E-03         0.16815E-03         0.00000E+00
    0.82027E-03         0.16738E-03         0.00000E+00
    0.80542E-03         0.16642E-03         0.00000E+00
    0.78971E-03         0.16526E-03         0.00000E+00
    0.77316E-03         0.16389E-03         0.00000E+00
    0.75577E-03         0.16230E-03         0.00000E+00
    0.73758E-03         0.16048E-03         0.00000E+00
    0.71857E-03         0.15843E-03         0.00000E+00
    0.69879E-03         0.15613E-03         0.00000E+00
    0.67823E-03         0.15357E-03         0.00000E+00
    0.65691E-03         0.15076E-03         0.00000E+00
    0.63486E-03         0.14768E-03         0.00000E+00
    0.61208E-03         0.14432E-03         0.00000E+00
    0.58859E-03         0.14069E-03         0.00000E+00
    0.56442E-03         0.13676E-03         0.00000E+00
    0.53958E-03         0.13254E-03         0.00000E+00
    0.51408E-03         0.12801E-03         0.00000E+00
    0.48795E-03         0.12318E-03         0.00000E+00
    0.46120E-03         0.11803E-03         0.00000E+00
    0.43386E-03         0.11256E-03         0.00000E+00
    0.40594E-03         0.10677E-03         0.00000E+00
    0.37747E-03         0.10065E-03         0.00000E+00
    0.34846E-03         0.94194E-04         0.00000E+00
    0.31893E-03         0.87399E-04         0.00000E+00
    0.28891E-03         0.80260E-04         0.00000E+00
    0.25841E-03         0.72774E-04         0.00000E+00
    0.22746E-03         0.64937E-04         0.00000E+00
    0.19608E-03         0.56745E-04         0.00000E+00
    0.16429E-03         0.48196E-04         0.00000E+00
    0.13212E-03         0.39287E-04         0.00000E+00
    0.99579E-04         0.30015E-04         0.00000E+00
    0.66697E-04         0.20377E-04         0.00000E+00
    0.33497E-04         0.10373E-04         0.00000E+00
    0.00000E+00         0.00000E+00         0.00000E+00
    0.10428E-02         0.17518E-03         0.00000E+00
    0.10450E-02         0.17629E-03         0.00000E+00
    0.10461E-02         0.17739E-03         0.00000E+00
    0.10461E-02         0.17847E-03         0.00000E+00
    0.10450E-02         0.17950E-03         0.00000E+00
    0.10428E-02         0.18049E-03         0.00000E+00
    0.10395E-02         0.18141E-03         0.00000E+00
    0.10351E-02         0.18225E-03         0.00000E+00
    0.10297E-02         0.18301E-03         0.00000E+00
    0.10231E-02         0.18366E-03         0.00000E+00
    0.10155E-02         0.18420E-03         0.00000E+00
    0.10069E-02         0.18462E-03         0.00000E+00
    0.99716E-03         0.18490E-03         0.00000E+00
    0.98642E-03         0.18504E-03         0.00000E+00
    0.97465E-03         0.18501E-03         0.00000E+00
    0.96186E-03         0.18481E-03         0.00000E+00
    0.94807E-03         0.18444E-03         0.00000E+00
    0.93329E-03         0.18387E-03         0.00000E+00
    0.91753E-03         0.18309E-03         0.00000E+00
    0.90080E-03         0.18211E-03         0.00000E+00
    0.88312E-03         0.18090E-03         0.00000E+00
    0.86451E-03         0.17946E-03         0.00000E+00
    0.84498E-03         0.17777E-03         0.00000E+00
    0.82454E-03         0.17583E-03         0.00000E+00
    0.80321E-03         0.17363E-03         0.00000E+00
    0.78102E-03         0.17116E-03         0.00000E+00
    0.75796E-03         0.16840E-03         0.00000E+00
    0.73407E-03         0.16536E-03         0.00000E+00
    0.70936E-03         0.16202E-03         0.00000E+00
    0.68384E-03         0.15838E-03         0.00000E+00
    0.65755E-03         0.15442E-03         0.00000E+00
    0.63049E-03         0.15015E-03         0.00000E+00
    0.60269E-03         0.14554E-03         0.00000E+00
    0.57417E-03         0.14060E-03         0.00000E+00
    0.54494E-03         0.13532E-03         0.00000E+00
    0.51503E-03         0.12969E-03         0.00000E+00
    0.48447E-03         0.12371E-03         0.00000E+00
    0.45326E-03         0.11737E-03         0.00000E+00
    0.42144E-03         0.11066E-03         0.00000E+00
    0.38903E-03         0.10358E-03         0.00000E+00
    0.35604E-03         0.96124E-04         0.00000E+00
    0.32251E-03         0.88287E-04         0.00000E+00
    0.28845E-03         0.80065E-04         0.00000E+00
    0.25390E-03         0.71454E-04         0.00000E+00
    0.21886E-03         0.62450E-04         0.00000E+00
    0.18337E-03         0.53050E-04         0.00000E+00
    0.14746E-03         0.43250E-04         0.00000E+00
    0.11114E-03         0.33047E-04         0.00000E+00
    0.74435E-04         0.22439E-04         0.00000E+00
    0.37382E-04         0.11424E-04         0.00000E+00
    0.00000E+00         0.00000E+00         0.00000E+00
    0.11695E-02         0.18929E-03         0.00000E+00
    0.11718E-02         0.19062E-03         0.00000E+00
    0.11728E-02         0.19193E-03         0.00000E+00
    0.11725E-02         0.19322E-03         0.00000E+00
    0.11711E-02         0.19447E-03         0.00000E+00
    0.11684E-02         0.19565E-03         0.00000E+00
    0.11644E-02         0.19677E-03         0.00000E+00
    0.11593E-02         0.19780E-03         0.00000E+00
    0.11530E-02         0.19874E-03         0.00000E+00
    0.11455E-02         0.19956E-03         0.00000E+00
    0.11368E-02         0.20026E-03         0.00000E+00
    0.11269E-02         0.20081E-03         0.00000E+00
    0.11159E-02         0.20122E-03         0.00000E+00
    0.11037E-02         0.20146E-03         0.00000E+00
    0.10903E-02         0.20153E-03         0.00000E+00
    0.10759E-02         0.20141E-03         0.00000E+00
    0.10603E-02         0.20109E-03         0.00000E+00
    0.10436E-02         0.20055E-03         0.00000E+00
    0.10258E-02         0.19979E-03         0.00000E+00
    0.10070E-02         0.19879E-03         0.00000E+00
    0.98712E-03         0.19754E-03         0.00000E+00
    0.96620E-03         0.19604E-03         0.00000E+00
    0.94426E-03         0.19426E-03         0.00000E+00
    0.92131E-03         0.19221E-03         0.00000E+00
    0.89738E-03         0.18987E-03         0.00000E+00
    0.87248E-03         0.18722E-03         0.00000E+00
    0.84664E-03         0.18427E-03         0.00000E+00
    0.81986E-03         0.18099E-03         0.00000E+00
    0.79219E-03         0.17739E-03         0.00000E+00
    0.76362E-03         0.17344E-03         0.00000E+00
    0.73419E-03         0.16916E-03         0.00000E+00
    0.70392E-03         0.16451E-03         0.00000E+00
    0.67282E-03         0.15951E-03         0.00000E+00
    0.64093E-03         0.15413E-03         0.00000E+00
    0.60826E-03         0.14838E-03         0.00000E+00
    0.57483E-03         0.14224E-03         0.00000E+00
    0.54068E-03         0.13570E-03         0.00000E+00
    0.50582E-03         0.12877E-03         0.00000E+00
    0.47028E-03         0.12144E-03         0.00000E+00
    0.43409E-03         0.11369E-03         0.00000E+00
    0.39726E-03         0.10553E-03         0.00000E+00
    0.35982E-03         0.96940E-04         0.00000E+00
    0.32181E-03         0.87929E-04         0.00000E+00
    0.28324E-03         0.78486E-04         0.00000E+00
    0.24415E-03         0.68608E-04         0.00000E+00
    0.20455E-03         0.58291E-04         0.00000E+00
    0.16448E-03         0.47530E-04         0.00000E+00
    0.12396E-03         0.36324E-04         0.00000E+00
    0.83024E-04         0.24668E-04         0.00000E+00
    0.41694E-04         0.12561E-04         0.00000E+00
    0.00000E+00         0.00000E+00         0.00000E+00
    0.13112E-02         0.20370E-03         0.00000E+00
    0.13134E-02         0.20529E-03         0.00000E+00
    0.13143E-02         0.20687E-03         0.00000E+00
    0.13137E-02         0.20841E-03         0.00000E+00
    0.13118E-02         0.20990E-03         0.00000E+00
    0.13085E-02         0.21134E-03         0.00000E+00
    0.13039E-02         0.21269E-03         0.00000E+00
    0.12979E-02         0.21395E-03         0.00000E+00
    0.12906E-02         0.21510E-03         0.00000E+00
    0.12819E-02         0.21612E-03         0.00000E+00
    0.12719E-02         0.21701E-03         0.00000E+00
    0.12607E-02         0.21774E-03         0.00000E+00
    0.12481E-02         0.21831E-03         0.00000E+00
    0.12343E-02         0.21869E-03         0.00000E+00
    0.12192E-02         0.21888E-03         0.00000E+00
    0.12028E-02         0.21886E-03         0.00000E+00
    0.11852E-02         0.21862E-03         0.00000E+00
    0.11664E-02         0.21814E-03         0.00000E+00
    0.11464E-02         0.21741E-03         0.00000E+00
    0.11252E-02         0.21642E-03         0.00000E+00
    0.11028E-02         0.21515E-03         0.00000E+00
    0.10793E-02         0.21360E-03         0.00000E+00
    0.10546E-02         0.21175E-03         0.00000E+00
    0.10289E-02         0.20959E-03         0.00000E+00
    0.10020E-02         0.20711E-03         0.00000E+00
    0.97414E-03         0.20430E-03         0.00000E+00
    0.94518E-03         0.20114E-03         0.00000E+00
    0.91519E-03         0.19763E-03         0.00000E+00
    0.88420E-03         0.19375E-03         0.00000E+00
    0.85224E-03         0.18951E-03         0.00000E+00
    0.81931E-03         0.18488E-03         0.00000E+00
    0.78546E-03         0.17985E-03         0.00000E+00
    0.75069E-03         0.17443E-03         0.00000E+00
    0.71505E-03         0.16859E-03         0.00000E+00
    0.67854E-03         0.16234E-03         0.00000E+00
    0.64121E-03         0.15566E-03         0.00000E+00
    0.60307E-03         0.14855E-03         0.00000E+00
    0.56415E-03         0.14099E-03         0.00000E+00
    0.52447E-03         0.13299E-03         0.00000E+00
    0.48407E-03         0.12453E-03         0.00000E+00
    0.44298E-03         0.11562E-03         0.00000E+00
    0.40121E-03         0.10623E-03         0.00000E+00
    0.35881E-03         0.96376E-04         0.00000E+00
    0.31579E-03         0.86044E-04         0.00000E+00
    0.27219E-03         0.75229E-04         0.00000E+00
    0.22804E-03         0.63928E-04         0.00000E+00
    0.18336E-03         0.52137E-04         0.00000E+00
    0.13818E-03         0.39851E-04         0.00000E+00
    0.92546E-04         0.27069E-04         0.00000E+00
    0.46475E-04         0.13786E-04         0.00000E+00
    0.00000E+00         0.00000E+00         0.00000E+00
    0.14696E-02         0.21821E-03         0.00000E+00
    0.14717E-02         0.22011E-03         0.00000E+00
    0.14723E-02         0.22199E-03         0.00000E+00
    0.14714E-02         0.22383E-03         0.00000E+00
    0.14689E-02         0.22563E-03         0.00000E+00
    0.14649E-02         0.22735E-03         0.00000E+00
    0.14594E-02         0.22899E-03         0.00000E+00
    0.14524E-02         0.23052E-03         0.00000E+00
    0.14439E-02         0.23193E-03         0.00000E+00
    0.14340E-02         0.23320E-03         0.00000E+00
    0.14225E-02         0.23432E-03         0.00000E+00
    0.14097E-02         0.23527E-03         0.00000E+00
    0.13954E-02         0.23604E-03         0.00000E+00
    0.13797E-02         0.23660E-03         0.00000E+00
    0.13626E-02         0.23695E-03         0.00000E+00
    0.13440E-02         0.23706E-03         0.00000E+00
    0.13242E-02         0.23693E-03         0.00000E+00
    0.13030E-02         0.23654E-03         0.00000E+00
    0.12804E-02         0.23587E-03         0.00000E+00
    0.12566E-02         0.23491E-03         0.00000E+00
    0.12314E-02         0.23365E-03         0.00000E+00
    0.12050E-02         0.23207E-03         0.00000E+00
    0.11773E-02         0.23016E-03         0.00000E+00
    0.11484E-02         0.22791E-03         0.00000E+00
    0.11183E-02         0.22531E-03         0.00000E+00
    0.10870E-02         0.22233E-03         0.00000E+00
    0.10546E-02         0.21898E-03         0.00000E+00
    0.10210E-02         0.21524E-03         0.00000E+00
    0.98634E-03         0.21109E-03         0.00000E+00
    0.95058E-03         0.20654E-03         0.00000E+00
    0.91377E-03         0.20155E-03         0.00000E+00
    0.87592E-03         0.19614E-03         0.00000E+00
    0.83708E-03         0.19028E-03         0.00000E+00
    0.79726E-03         0.18397E-03         0.00000E+00
    0.75649E-03         0.17720E-03         0.00000E+00
    0.71481E-03         0.16995E-03         0.00000E+00
    0.67224E-03         0.16223E-03         0.00000E+00
    0.62881E-03         0.15402E-03         0.00000E+00
    0.58455E-03         0.14532E-03         0.00000E+00
    0.53949E-03         0.13611E-03         0.00000E+00
    0.49366E-03         0.12639E-03         0.00000E+00
    0.44709E-03         0.11616E-03         0.00000E+00
    0.39981E-03         0.10541E-03         0.00000E+00
    0.35186E-03         0.94130E-04         0.00000E+00
    0.30326E-03         0.82317E-04         0.00000E+00
    0.25406E-03         0.69966E-04         0.00000E+00
    0.20427E-03         0.57073E-04         0.00000E+00
    0.15394E-03         0.43633E-04         0.00000E+00
    0.10310E-03         0.29643E-04         0.00000E+00
    0.51771E-04         0.15100E-04         0.00000E+00
    0.00000E+00         0.00000E+00         0.00000E+00
    0.16465E-02         0.23251E-03         0.00000E+00
    0.16484E-02         0.23478E-03         0.00000E+00
    0.16487E-02         0.23703E-03         0.00000E+00
    0.16472E-02         0.23924E-03         0.00000E+00
    0.16441E-02         0.24139E-03         0.00000E+00
    0.16392E-02         0.24346E-03         0.00000E+00
    0.16327E-02         0.24543E-03         0.00000E+00
    0.16245E-02         0.24729E-03         0.00000E+00
    0.16147E-02         0.24902E-03         0.00000E+00
    0.16033E-02         0.25059E-03         0.00000E+00
    0.15902E-02         0.25200E-03         0.00000E+00
    0.15755E-02         0.25321E-03         0.00000E+00
    0.15592E-02         0.25423E-03         0.00000E+00
    0.15414E-02         0.25501E-03         0.00000E+00
    0.15220E-02         0.25556E-03         0.00000E+00
    0.15011E-02         0.25585E-03         0.00000E+00
    0.14787E-02         0.25587E-03         0.00000E+00
    0.14547E-02         0.25561E-03         0.00000E+00
    0.14293E-02         0.25503E-03         0.00000E+00
    0.14025E-02         0.25414E-03         0.00000E+00
    0.13742E-02         0.25291E-03         0.00000E+00
    0.13445E-02         0.25134E-03         0.00000E+00
    0.13135E-02         0.24939E-03         0.00000E+00
    0.12811E-02         0.24707E-03         0.00000E+00
    0.12473E-02         0.24436E-03         0.00000E+00
    0.12123E-02         0.24125E-03         0.00000E+00
    0.11760E-02         0.23771E-03         0.00000E+00
    0.11384E-02         0.23375E-03         0.00000E+00
    0.10996E-02         0.22934E-03         0.00000E+00
    0.10596E-02         0.22447E-03         0.00000E+00
    0.10185E-02         0.21914E-03         0.00000E+00
    0.97620E-03         0.21333E-03         0.00000E+00
    0.93281E-03         0.20703E-03         0.00000E+00
    0.88836E-03         0.20023E-03         0.00000E+00
    0.84286E-03         0.19292E-03         0.00000E+00
    0.79635E-03         0.18509E-03         0.00000E+00
    0.74886E-03         0.17673E-03         0.00000E+00
    0.70043E-03         0.16784E-03         0.00000E+00
    0.65108E-03         0.15840E-03         0.00000E+00
    0.60084E-03         0.14841E-03         0.00000E+00
    0.54977E-03         0.13785E-03         0.00000E+00
    0.49787E-03         0.12672E-03         0.00000E+00
    0.44520E-03         0.11502E-03         0.00000E+00
    0.39179E-03         0.10274E-03         0.00000E+00
    0.33766E-03         0.89867E-04         0.00000E+00
    0.28286E-03         0.76402E-04         0.00000E+00
    0.22742E-03         0.62337E-04         0.00000E+00
    0.17138E-03         0.47668E-04         0.00000E+00
    0.11477E-03         0.32392E-04         0.00000E+00
    0.57632E-04         0.16504E-04         0.00000E+00
    0.00000E+00         0.00000E+00         0.00000E+00
    0.18439E-02         0.24624E-03         0.00000E+00
    0.18456E-02         0.24895E-03         0.00000E+00
    0.18454E-02         0.25163E-03         0.00000E+00
    0.18433E-02         0.25427E-03         0.00000E+00
    0.18393E-02         0.25685E-03         0.00000E+00
    0.18335E-02         0.25934E-03         0.00000E+00
    0.18258E-02         0.26172E-03         0.00000E+00
    0.18162E-02         0.26397E-03         0.00000E+00
    0.18048E-02         0.26608E-03         0.00000E+00
    0.17917E-02         0.26801E-03         0.00000E+00
    0.17767E-02         0.26976E-03         0.00000E+00
    0.17599E-02         0.27131E-03         0.00000E+00
    0.17414E-02         0.27262E-03         0.00000E+00
    0.17212E-02         0.27369E-03         0.00000E+00
    0.16992E-02         0.27450E-03         0.00000E+00
    0.16755E-02         0.27502E-03         0.00000E+00
    0.16502E-02         0.27524E-03         0.00000E+00
    0.16232E-02         0.27514E-03         0.00000E+00
    0.15946E-02         0.27471E-03         0.00000E+00
    0.15644E-02         0.27393E-03         0.00000E+00
    0.15326E-02         0.27277E-03         0.00000E+00
    0.14993E-02         0.27123E-03         0.00000E+00
    0.14645E-02         0.26929E-03         0.00000E+00
    0.14281E-02         0.26693E-03         0.00000E+00
    0.13903E-02         0.26414E-03         0.00000E+00
    0.13511E-02         0.26091E-03         0.00000E+00
    0.13104E-02         0.25721E-03         0.00000E+00
    0.12684E-02         0.25304E-03         0.00000E+00
    0.12251E-02         0.24838E-03         0.00000E+00
    0.11804E-02         0.24321E-03         0.00000E+00
    0.11344E-02         0.23754E-03         0.00000E+00
    0.10872E-02         0.23133E-03         0.00000E+00
    0.10388E-02         0.22459E-03         0.00000E+00
    0.98920E-03         0.21729E-03         0.00000E+00
    0.93845E-03         0.20944E-03         0.00000E+00
    0.88659E-03         0.20101E-03         0.00000E+00
    0.83365E-03         0.19200E-03         0.00000E+00
    0.77967E-03         0.18240E-03         0.00000E+00
    0.72468E-03         0.17220E-03         0.00000E+00
    0.66872E-03         0.16138E-03         0.00000E+00
    0.61183E-03         0.14995E-03         0.00000E+00
    0.55404E-03         0.13789E-03         0.00000E+00
    0.49540E-03         0.12519E-03         0.00000E+00
    0.43594E-03         0.11185E-03         0.00000E+00
    0.37569E-03         0.97865E-04         0.00000E+00
    0.31470E-03         0.83224E-04         0.00000E+00
    0.25301E-03         0.67921E-04         0.00000E+00
    0.19066E-03         0.51952E-04         0.00000E+00
    0.12768E-03         0.35311E-04         0.00000E+00
    0.64110E-04         0.17995E-04         0.00000E+00
    0.00000E+00         0.00000E+00         0.00000E+00
    0.20640E-02         0.25893E-03         0.00000E+00
    0.20654E-02         0.26215E-03         0.00000E+00
    0.20646E-02         0.26535E-03         0.00000E+00
    0.20617E-02         0.26851E-03         0.00000E+00
    0.20567E-02         0.27159E-03         0.00000E+00
    0.20497E-02         0.27457E-03         0.00000E+00
    0.20406E-02         0.27744E-03         0.00000E+00
    0.20294E-02         0.28016E-03         0.00000E+00
    0.20163E-02         0.28272E-03         0.00000E+00
    0.20011E-02         0.28510E-03         0.00000E+00
    0.19839E-02         0.28727E-03         0.00000E+00
    0.19648E-02         0.28921E-03         0.00000E+00
    0.19437E-02         0.29090E-03         0.00000E+00
    0.19208E-02         0.29232E-03         0.00000E+00
    0.18959E-02         0.29345E-03         0.00000E+00
    0.18691E-02         0.29426E-03         0.00000E+00
    0.18405E-02         0.29475E-03         0.00000E+00
    0.18101E-02         0.29488E-03         0.00000E+00
    0.17779E-02         0.29465E-03         0.00000E+00
    0.17440E-02         0.29402E-03         0.00000E+00
    0.17083E-02         0.29299E-03         0.00000E+00
    0.16709E-02         0.29154E-03         0.00000E+00
    0.16318E-02         0.28964E-03         0.00000E+00
    0.15911E-02         0.28729E-03         0.00000E+00
    0.15487E-02         0.28446E-03         0.00000E+00
    0.15048E-02         0.28114E-03         0.00000E+00
    0.14593E-02         0.27731E-03         0.00000E+00
    0.14124E-02         0.27295E-03         0.00000E+00
    0.13639E-02         0.26806E-03         0.00000E+00
    0.13140E-02         0.26262E-03         0.00000E+00
    0.12627E-02         0.25661E-03         0.00000E+00
    0.12100E-02         0.25003E-03         0.00000E+00
    0.11560E-02         0.24285E-03         0.00000E+00
    0.11007E-02         0.23506E-03         0.00000E+00
    0.10441E-02         0.22666E-03         0.00000E+00
    0.98634E-03         0.21762E-03         0.00000E+00
    0.92737E-03         0.20795E-03         0.00000E+00
    0.86724E-03         0.19763E-03         0.00000E+00
    0.80601E-03         0.18664E-03         0.00000E+00
    0.74372E-03         0.17498E-03         0.00000E+00
    0.68040E-03         0.16264E-03         0.00000E+00
    0.61610E-03         0.14960E-03         0.00000E+00
    0.55085E-03         0.13587E-03         0.00000E+00
    0.48470E-03         0.12144E-03         0.00000E+00
    0.41770E-03         0.10628E-03         0.00000E+00
    0.34987E-03         0.90409E-04         0.00000E+00
    0.28127E-03         0.73807E-04         0.00000E+00
    0.21194E-03         0.56470E-04         0.00000E+00
    0.14193E-03         0.38393E-04         0.00000E+00
    0.71263E-04         0.19571E-04         0.00000E+00
    0.00000E+00         0.00000E+00         0.00000E+00
    0.23094E-02         0.26997E-03         0.00000E+00
    0.23102E-02         0.27381E-03         0.00000E+00
    0.23087E-02         0.27762E-03         0.00000E+00
    0.23048E-02         0.28138E-03         0.00000E+00
    0.22986E-02         0.28506E-03         0.00000E+00
    0.22902E-02         0.28864E-03         0.00000E+00
    0.22794E-02         0.29208E-03         0.00000E+00
    0.22664E-02         0.29537E-03         0.00000E+00
    0.22512E-02         0.29848E-03         0.00000E+00
    0.22337E-02         0.30139E-03         0.00000E+00
    0.22141E-02         0.30406E-03         0.00000E+00
    0.21922E-02         0.30649E-03         0.00000E+00
    0.21683E-02         0.30864E-03         0.00000E+00
    0.21422E-02         0.31049E-03         0.00000E+00
    0.21140E-02         0.31202E-03         0.00000E+00
    0.20838E-02         0.31321E-03         0.00000E+00
    0.20515E-02         0.31403E-03         0.00000E+00
    0.20172E-02         0.31447E-03         0.00000E+00
    0.19810E-02         0.31450E-03         0.00000E+00
    0.19428E-02         0.31410E-03         0.00000E+00
    0.19027E-02         0.31326E-03         0.00000E+00
    0.18608E-02         0.31195E-03         0.00000E+00
    0.18170E-02         0.31016E-03         0.00000E+00
    0.17713E-02         0.30786E-03         0.00000E+00
    0.17239E-02         0.30504E-03         0.00000E+00
    0.16748E-02         0.30168E-03         0.00000E+00
    0.16240E-02         0.29776E-03         0.00000E+00
    0.15715E-02         0.29327E-03         0.00000E+00
    0.15174E-02         0.28818E-03         0.00000E+00
    0.14617E-02         0.28250E-03         0.00000E+00
    0.14045E-02         0.27618E-03         0.00000E+00
    0.13457E-02         0.26924E-03         0.00000E+00
    0.12855E-02         0.26164E-03         0.00000E+00
    0.12239E-02         0.25337E-03         0.00000E+00
    0.11609E-02         0.24443E-03         0.00000E+00
    0.10965E-02         0.23480E-03         0.00000E+00
    0.10308E-02         0.22446E-03         0.00000E+00
    0.96392E-03         0.21341E-03         0.00000E+00
    0.89579E-03         0.20162E-03         0.00000E+00
    0.82649E-03         0.18910E-03         0.00000E+00
    0.75607E-03         0.17584E-03         0.00000E+00
    0.68457E-03         0.16181E-03         0.00000E+00
    0.61203E-03         0.14701E-03         0.00000E+00
    0.53850E-03         0.13144E-03         0.00000E+00
    0.46403E-03         0.11508E-03         0.00000E+00
    0.38866E-03         0.97922E-04         0.00000E+00
    0.31245E-03         0.79967E-04         0.00000E+00
    0.23542E-03         0.61203E-04         0.00000E+00
    0.15764E-03         0.41624E-04         0.00000E+00
    0.79152E-04         0.21225E-04         0.00000E+00
    0.00000E+00         0.00000E+00         0.00000E+00
    0.25826E-02         0.27861E-03         0.00000E+00
    0.25827E-02         0.28318E-03         0.00000E+00
    0.25802E-02         0.28772E-03         0.00000E+00
    0.25752E-02         0.29220E-03         0.00000E+00
    0.25676E-02         0.29660E-03         0.00000E+00
    0.25574E-02         0.30088E-03         0.00000E+00
    0.25447E-02         0.30501E-03         0.00000E+00
    0.25296E-02         0.30898E-03         0.00000E+00
    0.25119E-02         0.31274E-03         0.00000E+00
    0.24918E-02         0.31628E-03         0.00000E+00
    0.24693E-02         0.31957E-03         0.00000E+00
    0.24444E-02         0.32258E-03         0.00000E+00
    0.24172E-02         0.32529E-03         0.00000E+00
    0.23876E-02         0.32768E-03         0.00000E+00
    0.23557E-02         0.32971E-03         0.00000E+00
    0.23215E-02         0.33136E-03         0.00000E+00
    0.22851E-02         0.33261E-03         0.00000E+00
    0.22465E-02         0.33344E-03         0.00000E+00
    0.22057E-02         0.33383E-03         0.00000E+00
    0.21628E-02         0.33374E-03         0.00000E+00
    0.21178E-02         0.33317E-03         0.00000E+00
    0.20708E-02         0.33208E-03         0.00000E+00
    0.20217E-02         0.33046E-03         0.00000E+00
    0.19706E-02         0.32829E-03         0.00000E+00
    0.19176E-02         0.32554E-03         0.00000E+00
    0.18627E-02         0.32221E-03         0.00000E+00
    0.18059E-02         0.31826E-03         0.00000E+00
    0.17473E-02         0.31368E-03         0.00000E+00
    0.16869E-02         0.30845E-03         0.00000E+00
    0.16248E-02         0.30256E-03         0.00000E+00
    0.15609E-02         0.29599E-03         0.00000E+00
    0.14955E-02         0.28872E-03         0.00000E+00
    0.14284E-02         0.28074E-03         0.00000E+00
    0.13597E-02         0.27202E-03         0.00000E+00
    0.12896E-02         0.26257E-03         0.00000E+00
    0.12180E-02         0.25235E-03         0.00000E+00
    0.11449E-02         0.24136E-03         0.00000E+00
    0.10705E-02         0.22959E-03         0.00000E+00
    0.99476E-03         0.21702E-03         0.00000E+00
    0.91773E-03         0.20363E-03         0.00000E+00
    0.83947E-03         0.18943E-03         0.00000E+00
    0.76003E-03         0.17439E-03         0.00000E+00
    0.67945E-03         0.15851E-03         0.00000E+00
    0.59778E-03         0.14178E-03         0.00000E+00
    0.51509E-03         0.12418E-03         0.00000E+00
    0.43140E-03         0.10571E-03         0.00000E+00
    0.34679E-03         0.86358E-04         0.00000E+00
    0.26129E-03         0.66119E-04         0.00000E+00
    0.17495E-03         0.44984E-04         0.00000E+00
    0.87841E-04         0.22946E-04         0.00000E+00
    0.00000E+00         0.00000E+00         0.00000E+00
    0.28866E-02         0.28394E-03         0.00000E+00
    0.28858E-02         0.28938E-03         0.00000E+00
    0.28821E-02         0.29478E-03         0.00000E+00
    0.28756E-02         0.30011E-03         0.00000E+00
    0.28663E-02         0.30536E-03         0.00000E+00
    0.28541E-02         0.31047E-03         0.00000E+00
    0.28392E-02         0.31543E-03         0.00000E+00
    0.28215E-02         0.32019E-03         0.00000E+00
    0.28011E-02         0.32474E-03         0.00000E+00
    0.27780E-02         0.32905E-03         0.00000E+00
    0.27522E-02         0.33308E-03         0.00000E+00
    0.27238E-02         0.33680E-03         0.00000E+00
    0.26928E-02         0.34019E-03         0.00000E+00
    0.26592E-02         0.34322E-03         0.00000E+00
    0.26231E-02         0.34587E-03         0.00000E+00
    0.25845E-02         0.34810E-03         0.00000E+00
    0.25435E-02         0.34990E-03         0.00000E+00
    0.25000E-02         0.35123E-03         0.00000E+00
    0.24541E-02         0.35207E-03         0.00000E+00
    0.24059E-02         0.35240E-03         0.00000E+00
    0.23554E-02         0.35219E-03         0.00000E+00
    0.23027E-02         0.35142E-03         0.00000E+00
    0.22477E-02         0.35007E-03         0.00000E+00
    0.21906E-02         0.34811E-03         0.00000E+00
    0.21313E-02         0.34553E-03         0.00000E+00
    0.20699E-02         0.34230E-03         0.00000E+00
    0.20065E-02         0.33840E-03         0.00000E+00
    0.19411E-02         0.33381E-03         0.00000E+00
    0.18738E-02         0.32851E-03         0.00000E+00
    0.18045E-02         0.32248E-03         0.00000E+00
    0.17334E-02         0.31571E-03         0.00000E+00
    0.16605E-02         0.30817E-03         0.00000E+00
    0.15858E-02         0.29985E-03         0.00000E+00
    0.15094E-02         0.29073E-03         0.00000E+00
    0.14314E-02         0.28080E-03         0.00000E+00
    0.13518E-02         0.27004E-03         0.00000E+00
    0.12706E-02         0.25843E-03         0.00000E+00
    0.11879E-02         0.24597E-03         0.00000E+00
    0.11037E-02         0.23262E-03         0.00000E+00
    0.10182E-02         0.21840E-03         0.00000E+00
    0.93127E-03         0.20327E-03         0.00000E+00
    0.84308E-03         0.18722E-03         0.00000E+00
    0.75364E-03         0.17026E-03         0.00000E+00
    0.66302E-03         0.15235E-03         0.00000E+00
    0.57126E-03         0.13350E-03         0.00000E+00
    0.47842E-03         0.11370E-03         0.00000E+00
    0.38456E-03         0.92923E-04         0.00000E+00
    0.28974E-03         0.71175E-04         0.00000E+00
    0.19400E-03         0.48444E-04         0.00000E+00
    0.97398E-04         0.24721E-04         0.00000E+00
    0.00000E+00         0.00000E+00         0.00000E+00
    0.32244E-02         0.28483E-03         0.00000E+00
    0.32225E-02         0.29129E-03         0.00000E+00
    0.32174E-02         0.29771E-03         0.00000E+00
    0.32091E-02         0.30406E-03         0.00000E+00
    0.31977E-02         0.31030E-03         0.00000E+00
    0.31832E-02         0.31641E-03         0.00000E+00
    0.31656E-02         0.32234E-03         0.00000E+00
    0.31450E-02         0.32807E-03         0.00000E+00
    0.31214E-02         0.33355E-03         0.00000E+00
    0.30948E-02         0.33877E-03         0.00000E+00
    0.30653E-02         0.34369E-03         0.00000E+00
    0.30329E-02         0.34827E-03         0.00000E+00
    0.29977E-02         0.35249E-03         0.00000E+00
    0.29596E-02         0.35631E-03         0.00000E+00
    0.29187E-02         0.35971E-03         0.00000E+00
    0.28751E-02         0.36266E-03         0.00000E+00
    0.28289E-02         0.36513E-03         0.00000E+00
    0.27799E-02         0.36710E-03         0.00000E+00
    0.27284E-02         0.36853E-03         0.00000E+00
    0.26743E-02         0.36940E-03         0.00000E+00
    0.26176E-02         0.36968E-03         0.00000E+00
    0.25585E-02         0.36935E-03         0.00000E+00
    0.24970E-02         0.36838E-03         0.00000E+00
    0.24331E-02         0.36675E-03         0.00000E+00
    0.23668E-02         0.36443E-03         0.00000E+00
    0.22983E-02         0.36141E-03         0.00000E+00
    0.22276E-02         0.35766E-03         0.00000E+00
    0.21546E-02         0.35315E-03         0.00000E+00
    0.20796E-02         0.34787E-03         0.00000E+00
    0.20024E-02         0.34179E-03         0.00000E+00
    0.19233E-02         0.33490E-03         0.00000E+00
    0.18421E-02         0.32718E-03         0.00000E+00
    0.17591E-02         0.31860E-03         0.00000E+00
    0.16741E-02         0.30914E-03         0.00000E+00
    0.15874E-02         0.29880E-03         0.00000E+00
    0.14989E-02         0.28755E-03         0.00000E+00
    0.14088E-02         0.27538E-03         0.00000E+00
    0.13169E-02         0.26227E-03         0.00000E+00
    0.12235E-02         0.24820E-03         0.00000E+00
    0.11286E-02         0.23316E-03         0.00000E+00
    0.10322E-02         0.21714E-03         0.00000E+00
    0.93435E-03         0.20011E-03         0.00000E+00
    0.83517E-03         0.18208E-03         0.00000E+00
    0.73469E-03         0.16302E-03         0.00000E+00
    0.63298E-03         0.14293E-03         0.00000E+00
    0.53008E-03         0.12178E-03         0.00000E+00
    0.42606E-03         0.99582E-04         0.00000E+00
    0.32099E-03         0.76312E-04         0.00000E+00
    0.21491E-03         0.51965E-04         0.00000E+00
    0.10790E-03         0.26530E-04         0.00000E+00
    0.00000E+00         0.00000E+00         0.00000E+00
    0.35996E-02         0.27991E-03         0.00000E+00
    0.35962E-02         0.28757E-03         0.00000E+00
    0.35892E-02         0.29520E-03         0.00000E+00
    0.35788E-02         0.30275E-03         0.00000E+00
    0.35650E-02         0.31018E-03         0.00000E+00
    0.35477E-02         0.31746E-03         0.00000E+00
    0.35270E-02         0.32455E-03         0.00000E+00
    0.35031E-02         0.33141E-03         0.00000E+00
    0.34758E-02         0.33802E-03         0.00000E+00
    0.34452E-02         0.34433E-03         0.00000E+00
    0.34115E-02         0.35030E-03         0.00000E+00
    0.33745E-02         0.35592E-03         0.00000E+00
    0.33345E-02         0.36114E-03         0.00000E+00
    0.32913E-02         0.36592E-03         0.00000E+00
    0.32451E-02         0.37025E-03         0.00000E+00
    0.31959E-02         0.37408E-03         0.00000E+00
    0.31437E-02         0.37739E-03         0.00000E+00
    0.30886E-02         0.38015E-03         0.00000E+00
    0.30307E-02         0.38232E-03         0.00000E+00
    0.29700E-02         0.38388E-03         0.00000E+00
    0.29065E-02         0.38480E-03         0.00000E+00
    0.28403E-02         0.38506E-03         0.00000E+00
    0.27715E-02         0.38462E-03         0.00000E+00
    0.27001E-02         0.38345E-03         0.00000E+00
    0.26261E-02         0.38154E-03         0.00000E+00
    0.25496E-02         0.37886E-03         0.00000E+00
    0.24707E-02         0.37538E-03         0.00000E+00
    0.23895E-02         0.37108E-03         0.00000E+00
    0.23059E-02         0.36594E-03         0.00000E+00
    0.22200E-02         0.35993E-03         0.00000E+00
    0.21320E-02         0.35304E-03         0.00000E+00
    0.20417E-02         0.34523E-03         0.00000E+00
    0.19494E-02         0.33649E-03         0.00000E+00
    0.18551E-02         0.32680E-03         0.00000E+00
    0.17588E-02         0.31614E-03         0.00000E+00
    0.16606E-02         0.30449E-03         0.00000E+00
    0.15605E-02         0.29183E-03         0.00000E+00
    0.14586E-02         0.27815E-03         0.00000E+00
    0.13550E-02         0.26342E-03         0.00000E+00
    0.12498E-02         0.24764E-03         0.00000E+00
    0.11429E-02         0.23078E-03         0.00000E+00
    0.10345E-02         0.21283E-03         0.00000E+00
    0.92463E-03         0.19377E-03         0.00000E+00
    0.81334E-03         0.17360E-03         0.00000E+00
    0.70069E-03         0.15229E-03         0.00000E+00
    0.58675E-03         0.12984E-03         0.00000E+00
    0.47159E-03         0.10623E-03         0.00000E+00
    0.35527E-03         0.81454E-04         0.00000E+00
    0.23785E-03         0.55496E-04         0.00000E+00
    0.11941E-03         0.28348E-04         0.00000E+00
    0.00000E+00         0.00000E+00         0.00000E+00
    0.40158E-02         0.26751E-03         0.00000E+00
    0.40105E-02         0.27660E-03         0.00000E+00
    0.40013E-02         0.28565E-03         0.00000E+00
    0.39884E-02         0.29462E-03         0.00000E+00
    0.39716E-02         0.30345E-03         0.00000E+00
    0.39511E-02         0.31212E-03         0.00000E+00
    0.39268E-02         0.32059E-03         0.00000E+00
    0.38989E-02         0.32881E-03         0.00000E+00
    0.38674E-02         0.33674E-03         0.00000E+00
    0.38323E-02         0.34435E-03         0.00000E+00
    0.37937E-02         0.35160E-03         0.00000E+00
    0.37516E-02         0.35845E-03         0.00000E+00
    0.37060E-02         0.36488E-03         0.00000E+00
    0.36571E-02         0.37083E-03         0.00000E+00
    0.36049E-02         0.37628E-03         0.00000E+00
    0.35493E-02         0.38119E-03         0.00000E+00
    0.34906E-02         0.38554E-03         0.00000E+00
    0.34287E-02         0.38928E-03         0.00000E+00
    0.33636E-02         0.39238E-03         0.00000E+00
    0.32955E-02         0.39482E-03         0.00000E+00
    0.32244E-02         0.39657E-03         0.00000E+00
    0.31503E-02         0.39759E-03         0.00000E+00
    0.30734E-02         0.39785E-03         0.00000E+00
    0.29936E-02         0.39733E-03         0.00000E+00
    0.29111E-02         0.39599E-03         0.00000E+00
    0.28258E-02         0.39382E-03         0.00000E+00
    0.27379E-02         0.39077E-03         0.00000E+00
    0.26474E-02         0.38684E-03         0.00000E+00
    0.25544E-02         0.38199E-03         0.00000E+00
    0.24589E-02         0.37620E-03         0.00000E+00
    0.23610E-02         0.36944E-03         0.00000E+00
    0.22608E-02         0.36169E-03         0.00000E+00
    0.21583E-02         0.35292E-03         0.00000E+00
    0.20536E-02         0.34313E-03         0.00000E+00
    0.19467E-02         0.33228E-03         0.00000E+00
    0.18378E-02         0.32035E-03         0.00000E+00
    0.17268E-02         0.30732E-03         0.00000E+00
    0.16140E-02         0.29318E-03         0.00000E+00
    0.14992E-02         0.27790E-03         0.00000E+00
    0.13826E-02         0.26146E-03         0.00000E+00
    0.12643E-02         0.24386E-03         0.00000E+00
    0.11443E-02         0.22507E-03         0.00000E+00
    0.10226E-02         0.20507E-03         0.00000E+00
    0.89948E-03         0.18386E-03         0.00000E+00
    0.77485E-03         0.16141E-03         0.00000E+00
    0.64881E-03         0.13771E-03         0.00000E+00
    0.52144E-03         0.11274E-03         0.00000E+00
    0.39281E-03         0.86501E-04         0.00000E+00
    0.26297E-03         0.58972E-04         0.00000E+00
    0.13201E-03         0.30142E-04         0.00000E+00
    0.00000E+00         0.00000E+00         0.00000E+00
    0.44769E-02         0.24566E-03         0.00000E+00
    0.44693E-02         0.25643E-03         0.00000E+00
    0.44574E-02         0.26716E-03         0.00000E+00
    0.44414E-02         0.27779E-03         0.00000E+00
    0.44211E-02         0.28829E-03         0.00000E+00
    0.43968E-02         0.29860E-03         0.00000E+00
    0.43684E-02         0.30869E-03         0.00000E+00
    0.43360E-02         0.31851E-03         0.00000E+00
    0.42996E-02         0.32803E-03         0.00000E+00
    0.42593E-02         0.33719E-03         0.00000E+00
    0.42151E-02         0.34596E-03         0.00000E+00
    0.41671E-02         0.35430E-03         0.00000E+00
    0.41154E-02         0.36216E-03         0.00000E+00
    0.40600E-02         0.36952E-03         0.00000E+00
    0.40010E-02         0.37634E-03         0.00000E+00
    0.39383E-02         0.38257E-03         0.00000E+00
    0.38722E-02         0.38818E-03         0.00000E+00
    0.38026E-02         0.39313E-03         0.00000E+00
    0.37296E-02         0.39740E-03         0.00000E+00
    0.36533E-02         0.40095E-03         0.00000E+00
    0.35737E-02         0.40374E-03         0.00000E+00
    0.34908E-02         0.40574E-03         0.00000E+00
    0.34049E-02         0.40692E-03         0.00000E+00
    0.33159E-02         0.40725E-03         0.00000E+00
    0.32238E-02         0.40670E-03         0.00000E+00
    0.31288E-02         0.40524E-03         0.00000E+00
    0.30309E-02         0.40284E-03         0.00000E+00
    0.29303E-02         0.39947E-03         0.00000E+00
    0.28268E-02         0.39510E-03         0.00000E+00
    0.27207E-02         0.38971E-03         0.00000E+00
    0.26120E-02         0.38328E-03         0.00000E+00
    0.25008E-02         0.37576E-03         0.00000E+00
    0.23871E-02         0.36715E-03         0.00000E+00
    0.22709E-02         0.35742E-03         0.00000E+00
    0.21525E-02         0.34654E-03         0.00000E+00
    0.20318E-02         0.33450E-03         0.00000E+00
    0.19089E-02         0.32126E-03         0.00000E+00
    0.17839E-02         0.30680E-03         0.00000E+00
    0.16569E-02         0.29112E-03         0.00000E+00
    0.15279E-02         0.27418E-03         0.00000E+00
    0.13970E-02         0.25597E-03         0.00000E+00
    0.12643E-02         0.23646E-03         0.00000E+00
    0.11298E-02         0.21565E-03         0.00000E+00
    0.99369E-03         0.19350E-03         0.00000E+00
    0.85595E-03         0.17002E-03         0.00000E+00
    0.71667E-03         0.14517E-03         0.00000E+00
    0.57595E-03         0.11895E-03         0.00000E+00
    0.43384E-03         0.91331E-04         0.00000E+00
    0.29043E-03         0.62311E-04         0.00000E+00
    0.14579E-03         0.31871E-04         0.00000E+00
    0.00000E+00         0.00000E+00         0.00000E+00
    0.49872E-02         0.21196E-03         0.00000E+00
    0.49767E-02         0.22471E-03         0.00000E+00
    0.49616E-02         0.23742E-03         0.00000E+00
    0.49418E-02         0.25002E-03         0.00000E+00
    0.49175E-02         0.26247E-03         0.00000E+00
    0.48887E-02         0.27473E-03         0.00000E+00
    0.48555E-02         0.28674E-03         0.00000E+00
    0.48178E-02         0.29846E-03         0.00000E+00
    0.47759E-02         0.30985E-03         0.00000E+00
    0.47296E-02         0.32085E-03         0.00000E+00
    0.46791E-02         0.33143E-03         0.00000E+00
    0.46245E-02         0.34154E-03         0.00000E+00
    0.45658E-02         0.35115E-03         0.00000E+00
    0.45031E-02         0.36020E-03         0.00000E+00
    0.44364E-02         0.36866E-03         0.00000E+00
    0.43658E-02         0.37649E-03         0.00000E+00
    0.42913E-02         0.38364E-03         0.00000E+00
    0.42132E-02         0.39009E-03         0.00000E+00
    0.41313E-02         0.39580E-03         0.00000E+00
    0.40458E-02         0.40072E-03         0.00000E+00
    0.39567E-02         0.40482E-03         0.00000E+00
    0.38642E-02         0.40807E-03         0.00000E+00
    0.37682E-02         0.41044E-03         0.00000E+00
    0.36690E-02         0.41188E-03         0.00000E+00
    0.35664E-02         0.41237E-03         0.00000E+00
    0.34607E-02         0.41187E-03         0.00000E+00
    0.33518E-02         0.41036E-03         0.00000E+00
    0.32399E-02         0.40780E-03         0.00000E+00
    0.31250E-02         0.40416E-03         0.00000E+00
    0.30072E-02         0.39942E-03         0.00000E+00
    0.28866E-02         0.39354E-03         0.00000E+00
    0.27632E-02         0.38649E-03         0.00000E+00
    0.26372E-02         0.37826E-03         0.00000E+00
    0.25086E-02         0.36882E-03         0.00000E+00
    0.23774E-02         0.35813E-03         0.00000E+00
    0.22438E-02         0.34617E-03         0.00000E+00
    0.21079E-02         0.33293E-03         0.00000E+00
    0.19697E-02         0.31837E-03         0.00000E+00
    0.18292E-02         0.30247E-03         0.00000E+00
    0.16866E-02         0.28522E-03         0.00000E+00
    0.15420E-02         0.26658E-03         0.00000E+00
    0.13954E-02         0.24654E-03         0.00000E+00
    0.12469E-02         0.22508E-03         0.00000E+00
    0.10965E-02         0.20218E-03         0.00000E+00
    0.94447E-03         0.17782E-03         0.00000E+00
    0.79074E-03         0.15198E-03         0.00000E+00
    0.63543E-03         0.12464E-03         0.00000E+00
    0.47862E-03         0.95789E-04         0.00000E+00
    0.32040E-03         0.65410E-04         0.00000E+00
    0.16083E-03         0.33485E-04         0.00000E+00
    0.00000E+00         0.00000E+00         0.00000E+00
    0.55510E-02         0.16358E-03         0.00000E+00
    0.55371E-02         0.17867E-03         0.00000E+00
    0.55180E-02         0.19370E-03         0.00000E+00
    0.54939E-02         0.20862E-03         0.00000E+00
    0.54649E-02         0.22338E-03         0.00000E+00
    0.54309E-02         0.23793E-03         0.00000E+00
    0.53920E-02         0.25221E-03         0.00000E+00
    0.53483E-02         0.26618E-03         0.00000E+00
    0.52999E-02         0.27978E-03         0.00000E+00
    0.52469E-02         0.29297E-03         0.00000E+00
    0.51892E-02         0.30571E-03         0.00000E+00
    0.51271E-02         0.31793E-03         0.00000E+00
    0.50605E-02         0.32961E-03         0.00000E+00
    0.49895E-02         0.34069E-03         0.00000E+00
    0.49142E-02         0.35113E-03         0.00000E+00
    0.48346E-02         0.36089E-03         0.00000E+00
    0.47510E-02         0.36993E-03         0.00000E+00
    0.46632E-02         0.37820E-03         0.00000E+00
    0.45714E-02         0.38567E-03         0.00000E+00
    0.44757E-02         0.39229E-03         0.00000E+00
    0.43762E-02         0.39803E-03         0.00000E+00
    0.42729E-02         0.40285E-03         0.00000E+00
    0.41659E-02         0.40672E-03         0.00000E+00
    0.40552E-02         0.40959E-03         0.00000E+00
    0.39411E-02         0.41143E-03         0.00000E+00
    0.38235E-02         0.41220E-03         0.00000E+00
    0.37025E-02         0.41189E-03         0.00000E+00
    0.35782E-02         0.41044E-03         0.00000E+00
    0.34507E-02         0.40783E-03         0.00000E+00
    0.33201E-02         0.40402E-03         0.00000E+00
    0.31864E-02         0.39899E-03         0.00000E+00
    0.30498E-02         0.39271E-03         0.00000E+00
    0.29102E-02         0.38514E-03         0.00000E+00
    0.27679E-02         0.37626E-03         0.00000E+00
    0.26228E-02         0.36604E-03         0.00000E+00
    0.24751E-02         0.35445E-03         0.00000E+00
    0.23249E-02         0.34146E-03         0.00000E+00
    0.21721E-02         0.32706E-03         0.00000E+00
    0.20170E-02         0.31121E-03         0.00000E+00
    0.18596E-02         0.29389E-03         0.00000E+00
    0.17000E-02         0.27508E-03         0.00000E+00
    0.15382E-02         0.25474E-03         0.00000E+00
    0.13744E-02         0.23287E-03         0.00000E+00
    0.12086E-02         0.20944E-03         0.00000E+00
    0.10409E-02         0.18443E-03         0.00000E+00
    0.87142E-03         0.15781E-03         0.00000E+00
    0.70022E-03         0.12957E-03         0.00000E+00
    0.52740E-03         0.99686E-04         0.00000E+00
    0.35303E-03         0.68142E-04         0.00000E+00
    0.17720E-03         0.34919E-04         0.00000E+00
    0.00000E+00         0.00000E+00         0.00000E+00
    0.61732E-02         0.97190E-04         0.00000E+00
    0.61551E-02         0.11502E-03         0.00000E+00
    0.61313E-02         0.13278E-03         0.00000E+00
    0.61021E-02         0.15043E-03         0.00000E+00
    0.60674E-02         0.16790E-03         0.00000E+00
    0.60273E-02         0.18515E-03         0.00000E+00
    0.59819E-02         0.20210E-03         0.00000E+00
    0.59314E-02         0.21872E-03         0.00000E+00
    0.58756E-02         0.23495E-03         0.00000E+00
    0.58148E-02         0.25073E-03         0.00000E+00
    0.57490E-02         0.26601E-03         0.00000E+00
    0.56783E-02         0.28076E-03         0.00000E+00
    0.56028E-02         0.29491E-03         0.00000E+00
    0.55225E-02         0.30842E-03         0.00000E+00
    0.54376E-02         0.32124E-03         0.00000E+00
    0.53481E-02         0.33332E-03         0.00000E+00
    0.52540E-02         0.34463E-03         0.00000E+00
    0.51556E-02         0.35512E-03         0.00000E+00
    0.50528E-02         0.36474E-03         0.00000E+00
    0.49458E-02         0.37345E-03         0.00000E+00
    0.48346E-02         0.38122E-03         0.00000E+00
    0.47194E-02         0.38799E-03         0.00000E+00
    0.46001E-02         0.39374E-03         0.00000E+00
    0.44770E-02         0.39842E-03         0.00000E+00
    0.43500E-02         0.40199E-03         0.00000E+00
    0.42194E-02         0.40442E-03         0.00000E+00
    0.40850E-02         0.40566E-03         0.00000E+00
    0.39472E-02         0.40570E-03         0.00000E+00
    0.38058E-02         0.40448E-03         0.00000E+00
    0.36611E-02         0.40198E-03         0.00000E+00
    0.35131E-02         0.39816E-03         0.00000E+00
    0.33619E-02         0.39299E-03         0.00000E+00
    0.32076E-02         0.38644E-03         0.00000E+00
    0.30503E-02         0.37848E-03         0.00000E+00
    0.28900E-02         0.36907E-03         0.00000E+00
    0.27269E-02         0.35819E-03         0.00000E+00
    0.25610E-02         0.34581E-03         0.00000E+00
    0.23925E-02         0.33189E-03         0.00000E+00
    0.22214E-02         0.31642E-03         0.00000E+00
    0.20478E-02         0.29936E-03         0.00000E+00
    0.18718E-02         0.28070E-03         0.00000E+00
    0.16935E-02         0.26039E-03         0.00000E+00
    0.15130E-02         0.23842E-03         0.00000E+00
    0.13304E-02         0.21476E-03         0.00000E+00
    0.11457E-02         0.18939E-03         0.00000E+00
    0.95913E-03         0.16229E-03         0.00000E+00
    0.77066E-03         0.13343E-03         0.00000E+00
    0.58042E-03         0.10279E-03         0.00000E+00
    0.38850E-03         0.70355E-04         0.00000E+00
    0.19500E-03         0.36098E-04         0.00000E+00
    0.00000E+00         0.00000E+00         0.00000E+00
    0.68587E-02         0.88268E-05         0.00000E+00
    0.68355E-02         0.29868E-04         0.00000E+00
    0.68062E-02         0.50845E-04         0.00000E+00
    0.67708E-02         0.71695E-04         0.00000E+00
    0.67296E-02         0.92357E-04         0.00000E+00
    0.66825E-02         0.11277E-03         0.00000E+00
    0.66296E-02         0.13288E-03         0.00000E+00
    0.65711E-02         0.15262E-03         0.00000E+00
    0.65069E-02         0.17194E-03         0.00000E+00
    0.64373E-02         0.19078E-03         0.00000E+00
    0.63623E-02         0.20910E-03         0.00000E+00
    0.62819E-02         0.22682E-03         0.00000E+00
    0.61964E-02         0.24392E-03         0.00000E+00
    0.61057E-02         0.26032E-03         0.00000E+00
    0.60099E-02         0.27599E-03         0.00000E+00
    0.59092E-02         0.29087E-03         0.00000E+00
    0.58037E-02         0.30492E-03         0.00000E+00
    0.56933E-02         0.31809E-03         0.00000E+00
    0.55783E-02         0.33032E-03         0.00000E+00
    0.54588E-02         0.34159E-03         0.00000E+00
    0.53347E-02         0.35184E-03         0.00000E+00
    0.52063E-02         0.36103E-03         0.00000E+00
    0.50735E-02         0.36911E-03         0.00000E+00
    0.49366E-02         0.37605E-03         0.00000E+00
    0.47955E-02         0.38181E-03         0.00000E+00
    0.46505E-02         0.38634E-03         0.00000E+00
    0.45015E-02         0.38961E-03         0.00000E+00
    0.43487E-02         0.39158E-03         0.00000E+00
    0.41922E-02         0.39220E-03         0.00000E+00
    0.40321E-02         0.39145E-03         0.00000E+00
    0.38684E-02         0.38929E-03         0.00000E+00
    0.37013E-02         0.38567E-03         0.00000E+00
    0.35308E-02         0.38058E-03         0.00000E+00
    0.33571E-02         0.37397E-03         0.00000E+00
    0.31803E-02         0.36581E-03         0.00000E+00
    0.30004E-02         0.35606E-03         0.00000E+00
    0.28175E-02         0.34471E-03         0.00000E+00
    0.26318E-02         0.33171E-03         0.00000E+00
    0.24433E-02         0.31703E-03         0.00000E+00
    0.22521E-02         0.30065E-03         0.00000E+00
    0.20584E-02         0.28253E-03         0.00000E+00
    0.18621E-02         0.26265E-03         0.00000E+00
    0.16635E-02         0.24098E-03         0.00000E+00
    0.14626E-02         0.21749E-03         0.00000E+00
    0.12595E-02         0.19216E-03         0.00000E+00
    0.10543E-02         0.16495E-03         0.00000E+00
    0.84705E-03         0.13585E-03         0.00000E+00
    0.63792E-03         0.10483E-03         0.00000E+00
    0.42697E-03         0.71864E-04         0.00000E+00
    0.21430E-03         0.36928E-04         0.00000E+00
    0.00000E+00         0.00000E+00         0.00000E+00
    0.76128E-02        -0.10613E-03         0.00000E+00
    0.75834E-02        -0.81319E-04         0.00000E+00
    0.75475E-02        -0.56578E-04         0.00000E+00
    0.75050E-02        -0.31974E-04         0.00000E+00
    0.74560E-02        -0.75710E-05         0.00000E+00
    0.74008E-02         0.16566E-04         0.00000E+00
    0.73392E-02         0.40374E-04         0.00000E+00
    0.72716E-02         0.63792E-04         0.00000E+00
    0.71979E-02         0.86760E-04         0.00000E+00
    0.71183E-02         0.10922E-03         0.00000E+00
    0.70328E-02         0.13111E-03         0.00000E+00
    0.69415E-02         0.15237E-03         0.00000E+00
    0.68447E-02         0.17296E-03         0.00000E+00
    0.67423E-02         0.19281E-03         0.00000E+00
    0.66344E-02         0.21188E-03         0.00000E+00
    0.65213E-02         0.23010E-03         0.00000E+00
    0.64029E-02         0.24744E-03         0.00000E+00
    0.62793E-02         0.26383E-03         0.00000E+00
    0.61508E-02         0.27924E-03         0.00000E+00
    0.60173E-02         0.29360E-03         0.00000E+00
    0.58790E-02         0.30689E-03         0.00000E+00
    0.57360E-02         0.31903E-03         0.00000E+00
    0.55884E-02         0.33001E-03         0.00000E+00
    0.54362E-02         0.33976E-03         0.00000E+00
    0.52797E-02         0.34825E-03         0.00000E+00
    0.51189E-02         0.35543E-03         0.00000E+00
    0.49539E-02         0.36126E-03         0.00000E+00
    0.47847E-02         0.36570E-03         0.00000E+00
    0.46116E-02         0.36870E-03         0.00000E+00
    0.44346E-02         0.37024E-03         0.00000E+00
    0.42539E-02         0.37027E-03         0.00000E+00
    0.40694E-02         0.36875E-03         0.00000E+00
    0.38814E-02         0.36565E-03         0.00000E+00
    0.36898E-02         0.36092E-03         0.00000E+00
    0.34949E-02         0.35454E-03         0.00000E+00
    0.32968E-02         0.34646E-03         0.00000E+00
    0.30954E-02         0.33666E-03         0.00000E+00
    0.28910E-02         0.32509E-03         0.00000E+00
    0.26836E-02         0.31173E-03         0.00000E+00
    0.24734E-02         0.29654E-03         0.00000E+00
    0.22603E-02         0.27949E-03         0.00000E+00
    0.20447E-02         0.26055E-03         0.00000E+00
    0.18264E-02         0.23969E-03         0.00000E+00
    0.16057E-02         0.21687E-03         0.00000E+00
    0.13826E-02         0.19207E-03         0.00000E+00
    0.11572E-02         0.16525E-03         0.00000E+00
    0.92973E-03         0.13640E-03         0.00000E+00
    0.70014E-03         0.10547E-03         0.00000E+00
    0.46859E-03         0.72447E-04         0.00000E+00
    0.23518E-03         0.37299E-04         0.00000E+00
    0.00000E+00         0.00000E+00         0.00000E+00
    0.84406E-02        -0.25308E-03         0.00000E+00
    0.84040E-02        -0.22386E-03         0.00000E+00
    0.83602E-02        -0.19471E-03         0.00000E+00
    0.83093E-02        -0.16571E-03         0.00000E+00
    0.82514E-02        -0.13692E-03         0.00000E+00
    0.81867E-02        -0.10842E-03         0.00000E+00
    0.81153E-02        -0.80264E-04         0.00000E+00
    0.80372E-02        -0.52527E-04         0.00000E+00
    0.79526E-02        -0.25270E-04         0.00000E+00
    0.78616E-02         0.14454E-05         0.00000E+00
    0.77643E-02         0.27557E-04         0.00000E+00
    0.76608E-02         0.53004E-04         0.00000E+00
    0.75513E-02         0.77729E-04         0.00000E+00
    0.74358E-02         0.10167E-03         0.00000E+00
    0.73144E-02         0.12478E-03         0.00000E+00
    0.71874E-02         0.14700E-03         0.00000E+00
    0.70547E-02         0.16826E-03         0.00000E+00
    0.69165E-02         0.18853E-03         0.00000E+00
    0.67729E-02         0.20775E-03         0.00000E+00
    0.66241E-02         0.22587E-03         0.00000E+00
    0.64701E-02         0.24283E-03         0.00000E+00
    0.63110E-02         0.25859E-03         0.00000E+00
    0.61471E-02         0.27310E-03         0.00000E+00
    0.59783E-02         0.28631E-03         0.00000E+00
    0.58048E-02         0.29817E-03         0.00000E+00
    0.56267E-02         0.30865E-03         0.00000E+00
    0.54441E-02         0.31770E-03         0.00000E+00
    0.52571E-02         0.32526E-03         0.00000E+00
    0.50659E-02         0.33130E-03         0.00000E+00
    0.48705E-02         0.33578E-03         0.00000E+00
    0.46711E-02         0.33865E-03         0.00000E+00
    0.44677E-02         0.33988E-03         0.00000E+00
    0.42606E-02         0.33942E-03         0.00000E+00
    0.40497E-02         0.33722E-03         0.00000E+00
    0.38352E-02         0.33327E-03         0.00000E+00
    0.36172E-02         0.32751E-03         0.00000E+00
    0.33958E-02         0.31990E-03         0.00000E+00
    0.31711E-02         0.31041E-03         0.00000E+00
    0.29433E-02         0.29901E-03         0.00000E+00
    0.27124E-02         0.28565E-03         0.00000E+00
    0.24785E-02         0.27031E-03         0.00000E+00
    0.22418E-02         0.25294E-03         0.00000E+00
    0.20023E-02         0.23351E-03         0.00000E+00
    0.17602E-02         0.21199E-03         0.00000E+00
    0.15155E-02         0.18834E-03         0.00000E+00
    0.12684E-02         0.16254E-03         0.00000E+00
    0.10190E-02         0.13454E-03         0.00000E+00
    0.76731E-03         0.10432E-03         0.00000E+00
    0.51352E-03         0.71842E-04         0.00000E+00
    0.25772E-03         0.37079E-04         0.00000E+00
    0.00000E+00         0.00000E+00         0.00000E+00
    0.93477E-02        -0.43829E-03         0.00000E+00
    0.93024E-02        -0.40391E-03         0.00000E+00
    0.92494E-02        -0.36961E-03         0.00000E+00
    0.91887E-02        -0.33547E-03         0.00000E+00
    0.91205E-02        -0.30155E-03         0.00000E+00
    0.90450E-02        -0.26794E-03         0.00000E+00
    0.89621E-02        -0.23469E-03         0.00000E+00
    0.88721E-02        -0.20189E-03         0.00000E+00
    0.87752E-02        -0.16960E-03         0.00000E+00
    0.86713E-02        -0.13788E-03         0.00000E+00
    0.85606E-02        -0.10679E-03         0.00000E+00
    0.84434E-02        -0.76415E-04         0.00000E+00
    0.83196E-02        -0.46800E-04         0.00000E+00
    0.81895E-02        -0.18011E-04         0.00000E+00
    0.80531E-02         0.98928E-05         0.00000E+00
    0.79105E-02         0.36853E-04         0.00000E+00
    0.77620E-02         0.62813E-04         0.00000E+00
    0.76076E-02         0.87717E-04         0.00000E+00
    0.74475E-02         0.11151E-03         0.00000E+00
    0.72817E-02         0.13413E-03         0.00000E+00
    0.71104E-02         0.15554E-03         0.00000E+00
    0.69337E-02         0.17568E-03         0.00000E+00
    0.67518E-02         0.19449E-03         0.00000E+00
    0.65647E-02         0.21193E-03         0.00000E+00
    0.63726E-02         0.22795E-03         0.00000E+00
    0.61757E-02         0.24250E-03         0.00000E+00
    0.59739E-02         0.25553E-03         0.00000E+00
    0.57675E-02         0.26700E-03         0.00000E+00
    0.55566E-02         0.27685E-03         0.00000E+00
    0.53412E-02         0.28505E-03         0.00000E+00
    0.51215E-02         0.29155E-03         0.00000E+00
    0.48977E-02         0.29630E-03         0.00000E+00
    0.46698E-02         0.29926E-03         0.00000E+00
    0.44379E-02         0.30039E-03         0.00000E+00
    0.42022E-02         0.29964E-03         0.00000E+00
    0.39627E-02         0.29698E-03         0.00000E+00
    0.37197E-02         0.29235E-03         0.00000E+00
    0.34731E-02         0.28573E-03         0.00000E+00
    0.32232E-02         0.27707E-03         0.00000E+00
    0.29700E-02         0.26633E-03         0.00000E+00
    0.27136E-02         0.25347E-03         0.00000E+00
    0.24541E-02         0.23845E-03         0.00000E+00
    0.21918E-02         0.22124E-03         0.00000E+00
    0.19266E-02         0.20179E-03         0.00000E+00
    0.16586E-02         0.18007E-03         0.00000E+00
    0.13881E-02         0.15604E-03         0.00000E+00
    0.11151E-02         0.12967E-03         0.00000E+00
    0.83962E-03         0.10091E-03         0.00000E+00
    0.56189E-03         0.69739E-04         0.00000E+00
    0.28198E-03         0.36114E-04         0.00000E+00
    0.00000E+00         0.00000E+00         0.00000E+00
    0.10339E-01        -0.66901E-03         0.00000E+00
    0.10284E-01        -0.62862E-03         0.00000E+00
    0.10220E-01        -0.58831E-03         0.00000E+00
    0.10148E-01        -0.54816E-03         0.00000E+00
    0.10068E-01        -0.50825E-03         0.00000E+00
    0.99799E-02        -0.46866E-03         0.00000E+00
    0.98840E-02        -0.42946E-03         0.00000E+00
    0.97805E-02        -0.39073E-03         0.00000E+00
    0.96695E-02        -0.35253E-03         0.00000E+00
    0.95511E-02        -0.31494E-03         0.00000E+00
    0.94254E-02        -0.27801E-03         0.00000E+00
    0.92927E-02        -0.24183E-03         0.00000E+00
    0.91530E-02        -0.20645E-03         0.00000E+00
    0.90065E-02        -0.17194E-03         0.00000E+00
    0.88534E-02        -0.13836E-03         0.00000E+00
    0.86937E-02        -0.10577E-03         0.00000E+00
    0.85277E-02        -0.74232E-04         0.00000E+00
    0.83553E-02        -0.43806E-04         0.00000E+00
    0.81769E-02        -0.14549E-04         0.00000E+00
    0.79925E-02         0.13483E-04         0.00000E+00
    0.78022E-02         0.40233E-04         0.00000E+00
    0.76062E-02         0.65647E-04         0.00000E+00
    0.74046E-02         0.89670E-04         0.00000E+00
    0.71976E-02         0.11225E-03         0.00000E+00
    0.69852E-02         0.13333E-03         0.00000E+00
    0.67677E-02         0.15287E-03         0.00000E+00
    0.65451E-02         0.17081E-03         0.00000E+00
    0.63175E-02         0.18710E-03         0.00000E+00
    0.60851E-02         0.20169E-03         0.00000E+00
    0.58481E-02         0.21454E-03         0.00000E+00
    0.56065E-02         0.22559E-03         0.00000E+00
    0.53604E-02         0.23480E-03         0.00000E+00
    0.51100E-02         0.24212E-03         0.00000E+00
    0.48555E-02         0.24751E-03         0.00000E+00
    0.45968E-02         0.25092E-03         0.00000E+00
    0.43342E-02         0.25229E-03         0.00000E+00
    0.40678E-02         0.25160E-03         0.00000E+00
    0.37977E-02         0.24879E-03         0.00000E+00
    0.35239E-02         0.24381E-03         0.00000E+00
    0.32467E-02         0.23664E-03         0.00000E+00
    0.29661E-02         0.22721E-03         0.00000E+00
    0.26822E-02         0.21550E-03         0.00000E+00
    0.23953E-02         0.20145E-03         0.00000E+00
    0.21053E-02         0.18502E-03         0.00000E+00
    0.18123E-02         0.16617E-03         0.00000E+00
    0.15166E-02         0.14487E-03         0.00000E+00
    0.12182E-02         0.12106E-03         0.00000E+00
    0.91725E-03         0.94711E-04         0.00000E+00
    0.61381E-03         0.65778E-04         0.00000E+00
    0.30803E-03         0.34221E-04         0.00000E+00
    0.00000E+00         0.00000E+00         0.00000E+00
    0.11421E-01        -0.95360E-03         0.00000E+00
    0.11354E-01        -0.90619E-03         0.00000E+00
    0.11278E-01        -0.85888E-03         0.00000E+00
    0.11192E-01        -0.81173E-03         0.00000E+00
    0.11098E-01        -0.76484E-03         0.00000E+00
    0.10996E-01        -0.71827E-03         0.00000E+00
    0.10885E-01        -0.67212E-03         0.00000E+00
    0.10766E-01        -0.62645E-03         0.00000E+00
    0.10639E-01        -0.58135E-03         0.00000E+00
    0.10505E-01        -0.53687E-03         0.00000E+00
    0.10362E-01        -0.49310E-03         0.00000E+00
    0.10212E-01        -0.45010E-03         0.00000E+00
    0.10055E-01        -0.40794E-03         0.00000E+00
    0.98899E-02        -0.36669E-03         0.00000E+00
    0.97182E-02        -0.32640E-03         0.00000E+00
    0.95395E-02        -0.28716E-03         0.00000E+00
    0.93541E-02        -0.24901E-03         0.00000E+00
    0.91620E-02        -0.21203E-03         0.00000E+00
    0.89634E-02        -0.17626E-03         0.00000E+00
    0.87585E-02        -0.14178E-03         0.00000E+00
    0.85474E-02        -0.10863E-03         0.00000E+00
    0.83303E-02        -0.76882E-04         0.00000E+00
    0.81073E-02        -0.46586E-04         0.00000E+00
    0.78785E-02        -0.17799E-04         0.00000E+00
    0.76440E-02         0.94230E-05         0.00000E+00
    0.74041E-02         0.35026E-04         0.00000E+00
    0.71589E-02         0.58957E-04         0.00000E+00
    0.69084E-02         0.81162E-04         0.00000E+00
    0.66528E-02         0.10159E-03         0.00000E+00
    0.63923E-02         0.12018E-03         0.00000E+00
    0.61269E-02         0.13690E-03         0.00000E+00
    0.58569E-02         0.15168E-03         0.00000E+00
    0.55823E-02         0.16448E-03         0.00000E+00
    0.53033E-02         0.17524E-03         0.00000E+00
    0.50200E-02         0.18392E-03         0.00000E+00
    0.47325E-02         0.19047E-03         0.00000E+00
    0.44409E-02         0.19483E-03         0.00000E+00
    0.41454E-02         0.19697E-03         0.00000E+00
    0.38461E-02         0.19682E-03         0.00000E+00
    0.35431E-02         0.19435E-03         0.00000E+00
    0.32365E-02         0.18951E-03         0.00000E+00
    0.29265E-02         0.18224E-03         0.00000E+00
    0.26131E-02         0.17249E-03         0.00000E+00
    0.22966E-02         0.16024E-03         0.00000E+00
    0.19769E-02         0.14541E-03         0.00000E+00
    0.16542E-02         0.12798E-03         0.00000E+00
    0.13286E-02         0.10789E-03         0.00000E+00
    0.10003E-02         0.85087E-04         0.00000E+00
    0.66938E-03         0.59537E-04         0.00000E+00
    0.33590E-03         0.31190E-04         0.00000E+00
    0.00000E+00         0.00000E+00         0.00000E+00
    0.12599E-01        -0.13016E-02         0.00000E+00
    0.12517E-01        -0.12461E-02         0.00000E+00
    0.12426E-01        -0.11906E-02         0.00000E+00
    0.12326E-01        -0.11353E-02         0.00000E+00
    0.12216E-01        -0.10803E-02         0.00000E+00
    0.12097E-01        -0.10256E-02         0.00000E+00
    0.11969E-01        -0.97132E-03         0.00000E+00
    0.11833E-01        -0.91756E-03         0.00000E+00
    0.11688E-01        -0.86439E-03         0.00000E+00
    0.11535E-01        -0.81187E-03         0.00000E+00
    0.11374E-01        -0.76008E-03         0.00000E+00
    0.11204E-01        -0.70909E-03         0.00000E+00
    0.11027E-01        -0.65898E-03         0.00000E+00
    0.10842E-01        -0.60980E-03         0.00000E+00
    0.10650E-01        -0.56163E-03         0.00000E+00
    0.10450E-01        -0.51454E-03         0.00000E+00
    0.10243E-01        -0.46858E-03         0.00000E+00
    0.10030E-01        -0.42383E-03         0.00000E+00
    0.98089E-02        -0.38034E-03         0.00000E+00
    0.95816E-02        -0.33818E-03         0.00000E+00
    0.93478E-02        -0.29741E-03         0.00000E+00
    0.91076E-02        -0.25809E-03         0.00000E+00
    0.88612E-02        -0.22028E-03         0.00000E+00
    0.86087E-02        -0.18404E-03         0.00000E+00
    0.83503E-02        -0.14942E-03         0.00000E+00
    0.80862E-02        -0.11648E-03         0.00000E+00
    0.78164E-02        -0.85289E-04         0.00000E+00
    0.75411E-02        -0.55888E-04         0.00000E+00
    0.72605E-02        -0.28339E-04         0.00000E+00
    0.69747E-02        -0.26966E-05         0.00000E+00
    0.66838E-02         0.20984E-04         0.00000E+00
    0.63880E-02         0.42648E-04         0.00000E+00
    0.60873E-02         0.62241E-04         0.00000E+00
    0.57821E-02         0.79709E-04         0.00000E+00
    0.54722E-02         0.94998E-04         0.00000E+00
    0.51580E-02         0.10806E-03         0.00000E+00
    0.48395E-02         0.11883E-03         0.00000E+00
    0.45169E-02         0.12726E-03         0.00000E+00
    0.41902E-02         0.13330E-03         0.00000E+00
    0.38596E-02         0.13690E-03         0.00000E+00
    0.35252E-02         0.13800E-03         0.00000E+00
    0.31872E-02         0.13654E-03         0.00000E+00
    0.28457E-02         0.13249E-03         0.00000E+00
    0.25007E-02         0.12578E-03         0.00000E+00
    0.21524E-02         0.11635E-03         0.00000E+00
    0.18010E-02         0.10417E-03         0.00000E+00
    0.14464E-02         0.89176E-04         0.00000E+00
    0.10890E-02         0.71314E-04         0.00000E+00
    0.72866E-03         0.50532E-04         0.00000E+00
    0.36564E-03         0.26778E-04         0.00000E+00
    0.00000E+00         0.00000E+00         0.00000E+00
    0.13876E-01        -0.17240E-02         0.00000E+00
    0.13778E-01        -0.16589E-02         0.00000E+00
    0.13670E-01        -0.15940E-02         0.00000E+00
    0.13552E-01        -0.15292E-02         0.00000E+00
    0.13424E-01        -0.14648E-02         0.00000E+00
    0.13287E-01        -0.14006E-02         0.00000E+00
    0.13140E-01        -0.13369E-02         0.00000E+00
    0.12984E-01        -0.12738E-02         0.00000E+00
    0.12819E-01        -0.12112E-02         0.00000E+00
    0.12645E-01        -0.11493E-02         0.00000E+00
    0.12462E-01        -0.10881E-02         0.00000E+00
    0.12272E-01        -0.10278E-02         0.00000E+00
    0.12072E-01        -0.96837E-03         0.00000E+00
    0.11865E-01        -0.90991E-03         0.00000E+00
    0.11650E-01        -0.85248E-03         0.00000E+00
    0.11427E-01        -0.79615E-03         0.00000E+00
    0.11197E-01        -0.74100E-03         0.00000E+00
    0.10960E-01        -0.68708E-03         0.00000E+00
    0.10715E-01        -0.63446E-03         0.00000E+00
    0.10463E-01        -0.58321E-03         0.00000E+00
    0.10204E-01        -0.53339E-03         0.00000E+00
    0.99392E-02        -0.48506E-03         0.00000E+00
    0.96674E-02        -0.43829E-03         0.00000E+00
    0.93893E-02        -0.39313E-03         0.00000E+00
    0.91049E-02        -0.34964E-03         0.00000E+00
    0.88146E-02        -0.30790E-03         0.00000E+00
    0.85183E-02        -0.26794E-03         0.00000E+00
    0.82163E-02        -0.22985E-03         0.00000E+00
    0.79088E-02        -0.19366E-03         0.00000E+00
    0.75957E-02        -0.15945E-03         0.00000E+00
    0.72774E-02        -0.12727E-03         0.00000E+00
    0.69539E-02        -0.97184E-04         0.00000E+00
    0.66254E-02        -0.69243E-04         0.00000E+00
    0.62920E-02        -0.43507E-04         0.00000E+00
    0.59538E-02        -0.20036E-04         0.00000E+00
    0.56110E-02         0.11127E-05         0.00000E+00
    0.52638E-02         0.19881E-04         0.00000E+00
    0.49121E-02         0.36212E-04         0.00000E+00
    0.45563E-02         0.50045E-04         0.00000E+00
    0.41963E-02         0.61324E-04         0.00000E+00
    0.38323E-02         0.69990E-04         0.00000E+00
    0.34645E-02         0.75985E-04         0.00000E+00
    0.30929E-02         0.79249E-04         0.00000E+00
    0.27178E-02         0.79725E-04         0.00000E+00
    0.23391E-02         0.77353E-04         0.00000E+00
    0.19570E-02         0.72074E-04         0.00000E+00
    0.15717E-02         0.63829E-04         0.00000E+00
    0.11832E-02         0.52559E-04         0.00000E+00
    0.79168E-03         0.38204E-04         0.00000E+00
    0.39724E-03         0.20704E-04         0.00000E+00
    0.00000E+00         0.00000E+00         0.00000E+00
    0.15258E-01        -0.22330E-02         0.00000E+00
    0.15142E-01        -0.21570E-02         0.00000E+00
    0.15014E-01        -0.20811E-02         0.00000E+00
    0.14876E-01        -0.20054E-02         0.00000E+00
    0.14727E-01        -0.19299E-02         0.00000E+00
    0.14568E-01        -0.18548E-02         0.00000E+00
    0.14400E-01        -0.17802E-02         0.00000E+00
    0.14222E-01        -0.17061E-02         0.00000E+00
    0.14034E-01        -0.16326E-02         0.00000E+00
    0.13837E-01        -0.15597E-02         0.00000E+00
    0.13631E-01        -0.14877E-02         0.00000E+00
    0.13416E-01        -0.14164E-02         0.00000E+00
    0.13193E-01        -0.13461E-02         0.00000E+00
    0.12961E-01        -0.12768E-02         0.00000E+00
    0.12721E-01        -0.12085E-02         0.00000E+00
    0.12473E-01        -0.11414E-02         0.00000E+00
    0.12217E-01        -0.10754E-02         0.00000E+00
    0.11953E-01        -0.10107E-02         0.00000E+00
    0.11682E-01        -0.94734E-03         0.00000E+00
    0.11403E-01        -0.88535E-03         0.00000E+00
    0.11118E-01        -0.82483E-03         0.00000E+00
    0.10825E-01        -0.76582E-03         0.00000E+00
    0.10526E-01        -0.70840E-03         0.00000E+00
    0.10220E-01        -0.65263E-03         0.00000E+00
    0.99081E-02        -0.59858E-03         0.00000E+00
    0.95895E-02        -0.54630E-03         0.00000E+00
    0.92648E-02        -0.49585E-03         0.00000E+00
    0.89341E-02        -0.44731E-03         0.00000E+00
    0.85976E-02        -0.40073E-03         0.00000E+00
    0.82555E-02        -0.35617E-03         0.00000E+00
    0.79078E-02        -0.31370E-03         0.00000E+00
    0.75547E-02        -0.27338E-03         0.00000E+00
    0.71964E-02        -0.23528E-03         0.00000E+00
    0.68330E-02        -0.19944E-03         0.00000E+00
    0.64647E-02        -0.16595E-03         0.00000E+00
    0.60915E-02        -0.13485E-03         0.00000E+00
    0.57136E-02        -0.10621E-03         0.00000E+00
    0.53312E-02        -0.80107E-04         0.00000E+00
    0.49443E-02        -0.56588E-04         0.00000E+00
    0.45531E-02        -0.35723E-04         0.00000E+00
    0.41577E-02        -0.17576E-04         0.00000E+00
    0.37583E-02        -0.22117E-05         0.00000E+00
    0.33549E-02         0.10305E-04         0.00000E+00
    0.29477E-02         0.19909E-04         0.00000E+00
    0.25368E-02         0.26535E-04         0.00000E+00
    0.21223E-02         0.30115E-04         0.00000E+00
    0.17043E-02         0.30585E-04         0.00000E+00
    0.12830E-02         0.27875E-04         0.00000E+00
    0.85841E-03         0.21920E-04         0.00000E+00
    0.43072E-03         0.12651E-04         0.00000E+00
    0.00000E+00         0.00000E+00         0.00000E+00
    0.16749E-01        -0.28428E-02         0.00000E+00
    0.16610E-01        -0.27541E-02         0.00000E+00
    0.16460E-01        -0.26654E-02         0.00000E+00
    0.16299E-01        -0.25770E-02         0.00000E+00
    0.16127E-01        -0.24888E-02         0.00000E+00
    0.15944E-01        -0.24011E-02         0.00000E+00
    0.15751E-01        -0.23137E-02         0.00000E+00
    0.15548E-01        -0.22269E-02         0.00000E+00
    0.15335E-01        -0.21407E-02         0.00000E+00
    0.15112E-01        -0.20552E-02         0.00000E+00
    0.14880E-01        -0.19704E-02         0.00000E+00
    0.14638E-01        -0.18865E-02         0.00000E+00
    0.14388E-01        -0.18035E-02         0.00000E+00
    0.14129E-01        -0.17215E-02         0.00000E+00
    0.13862E-01        -0.16406E-02         0.00000E+00
    0.13586E-01        -0.15608E-02         0.00000E+00
    0.13302E-01        -0.14822E-02         0.00000E+00
    0.13010E-01        -0.14048E-02         0.00000E+00
    0.12710E-01        -0.13288E-02         0.00000E+00
    0.12403E-01        -0.12542E-02         0.00000E+00
    0.12088E-01        -0.11811E-02         0.00000E+00
    0.11766E-01        -0.11095E-02         0.00000E+00
    0.11437E-01        -0.10394E-02         0.00000E+00
    0.11102E-01        -0.97111E-03         0.00000E+00
    0.10759E-01        -0.90450E-03         0.00000E+00
    0.10411E-01        -0.83969E-03         0.00000E+00
    0.10055E-01        -0.77674E-03         0.00000E+00
    0.96940E-02        -0.71572E-03         0.00000E+00
    0.93266E-02        -0.65670E-03         0.00000E+00
    0.89534E-02        -0.59973E-03         0.00000E+00
    0.85744E-02        -0.54489E-03         0.00000E+00
    0.81899E-02        -0.49224E-03         0.00000E+00
    0.77999E-02        -0.44185E-03         0.00000E+00
    0.74047E-02        -0.39379E-03         0.00000E+00
    0.70043E-02        -0.34811E-03         0.00000E+00
    0.65988E-02        -0.30490E-03         0.00000E+00
    0.61885E-02        -0.26422E-03         0.00000E+00
    0.57735E-02        -0.22614E-03         0.00000E+00
    0.53538E-02        -0.19072E-03         0.00000E+00
    0.49296E-02        -0.15804E-03         0.00000E+00
    0.45010E-02        -0.12817E-03         0.00000E+00
    0.40682E-02        -0.10118E-03         0.00000E+00
    0.36312E-02        -0.77145E-04         0.00000E+00
    0.31902E-02        -0.56132E-04         0.00000E+00
    0.27453E-02        -0.38219E-04         0.00000E+00
    0.22966E-02        -0.23477E-04         0.00000E+00
    0.18442E-02        -0.11983E-04         0.00000E+00
    0.13882E-02        -0.38120E-05         0.00000E+00
    0.92879E-03         0.96033E-06         0.00000E+00
    0.46602E-03         0.22568E-05         0.00000E+00
    0.00000E+00         0.00000E+00         0.00000E+00
    0.18350E-01        -0.35689E-02         0.00000E+00
    0.18186E-01        -0.34655E-02         0.00000E+00
    0.18010E-01        -0.33622E-02         0.00000E+00
    0.17823E-01        -0.32591E-02         0.00000E+00
    0.17624E-01        -0.31562E-02         0.00000E+00
    0.17414E-01        -0.30537E-02         0.00000E+00
    0.17194E-01        -0.29517E-02         0.00000E+00
    0.16963E-01        -0.28502E-02         0.00000E+00
    0.16721E-01        -0.27493E-02         0.00000E+00
    0.16470E-01        -0.26491E-02         0.00000E+00
    0.16209E-01        -0.25496E-02         0.00000E+00
    0.15939E-01        -0.24510E-02         0.00000E+00
    0.15659E-01        -0.23533E-02         0.00000E+00
    0.15370E-01        -0.22565E-02         0.00000E+00
    0.15072E-01        -0.21608E-02         0.00000E+00
    0.14766E-01        -0.20663E-02         0.00000E+00
    0.14452E-01        -0.19729E-02         0.00000E+00
    0.14129E-01        -0.18807E-02         0.00000E+00
    0.13798E-01        -0.17899E-02         0.00000E+00
    0.13460E-01        -0.17005E-02         0.00000E+00
    0.13114E-01        -0.16126E-02         0.00000E+00
    0.12760E-01        -0.15262E-02         0.00000E+00
    0.12400E-01        -0.14413E-02         0.00000E+00
    0.12032E-01        -0.13582E-02         0.00000E+00
    0.11658E-01        -0.12767E-02         0.00000E+00
    0.11276E-01        -0.11971E-02         0.00000E+00
    0.10889E-01        -0.11193E-02         0.00000E+00
    0.10495E-01        -0.10435E-02         0.00000E+00
    0.10094E-01        -0.96963E-03         0.00000E+00
    0.96882E-02        -0.89786E-03         0.00000E+00
    0.92761E-02        -0.82824E-03         0.00000E+00
    0.88582E-02        -0.76083E-03         0.00000E+00
    0.84348E-02        -0.69570E-03         0.00000E+00
    0.80058E-02        -0.63293E-03         0.00000E+00
    0.75716E-02        -0.57259E-03         0.00000E+00
    0.71322E-02        -0.51475E-03         0.00000E+00
    0.66877E-02        -0.45948E-03         0.00000E+00
    0.62382E-02        -0.40687E-03         0.00000E+00
    0.57840E-02        -0.35698E-03         0.00000E+00
    0.53251E-02        -0.30989E-03         0.00000E+00
    0.48616E-02        -0.26569E-03         0.00000E+00
    0.43936E-02        -0.22445E-03         0.00000E+00
    0.39213E-02        -0.18625E-03         0.00000E+00
    0.34448E-02        -0.15117E-03         0.00000E+00
    0.29642E-02        -0.11929E-03         0.00000E+00
    0.24795E-02        -0.90697E-04         0.00000E+00
    0.19910E-02        -0.65475E-04         0.00000E+00
    0.14987E-02        -0.43709E-04         0.00000E+00
    0.10027E-02        -0.25482E-04         0.00000E+00
    0.50308E-03        -0.10883E-04         0.00000E+00
    0.00000E+00         0.00000E+00         0.00000E+00
    0.20064E-01        -0.44288E-02         0.00000E+00
    0.19871E-01        -0.43085E-02         0.00000E+00
    0.19666E-01        -0.41882E-02         0.00000E+00
    0.19449E-01        -0.40682E-02         0.00000E+00
    0.19220E-01        -0.39485E-02         0.00000E+00
    0.18980E-01        -0.38290E-02         0.00000E+00
    0.18728E-01        -0.37101E-02         0.00000E+00
    0.18466E-01        -0.35916E-02         0.00000E+00
    0.18194E-01        -0.34737E-02         0.00000E+00
    0.17911E-01        -0.33565E-02         0.00000E+00
    0.17618E-01        -0.32400E-02         0.00000E+00
    0.17315E-01        -0.31243E-02         0.00000E+00
    0.17003E-01        -0.30095E-02         0.00000E+00
    0.16682E-01        -0.28957E-02         0.00000E+00
    0.16351E-01        -0.27828E-02         0.00000E+00
    0.16012E-01        -0.26711E-02         0.00000E+00
    0.15665E-01        -0.25605E-02         0.00000E+00
    0.15309E-01        -0.24511E-02         0.00000E+00
    0.14945E-01        -0.23431E-02         0.00000E+00
    0.14572E-01        -0.22364E-02         0.00000E+00
    0.14193E-01        -0.21311E-02         0.00000E+00
    0.13805E-01        -0.20273E-02         0.00000E+00
    0.13411E-01        -0.19251E-02         0.00000E+00
    0.13009E-01        -0.18245E-02         0.00000E+00
    0.12600E-01        -0.17256E-02         0.00000E+00
    0.12185E-01        -0.16285E-02         0.00000E+00
    0.11763E-01        -0.15332E-02         0.00000E+00
    0.11334E-01        -0.14399E-02         0.00000E+00
    0.10899E-01        -0.13485E-02         0.00000E+00
    0.10458E-01        -0.12592E-02         0.00000E+00
    0.10011E-01        -0.11720E-02         0.00000E+00
    0.95579E-02        -0.10870E-02         0.00000E+00
    0.90992E-02        -0.10043E-02         0.00000E+00
    0.86348E-02        -0.92401E-03         0.00000E+00
    0.81650E-02        -0.84611E-03         0.00000E+00
    0.76899E-02        -0.77074E-03         0.00000E+00
    0.72095E-02        -0.69796E-03         0.00000E+00
    0.67241E-02        -0.62786E-03         0.00000E+00
    0.62336E-02        -0.56052E-03         0.00000E+00
    0.57383E-02        -0.49603E-03         0.00000E+00
    0.52383E-02        -0.43448E-03         0.00000E+00
    0.47336E-02        -0.37594E-03         0.00000E+00
    0.42244E-02        -0.32051E-03         0.00000E+00
    0.37108E-02        -0.26827E-03         0.00000E+00
    0.31929E-02        -0.21933E-03         0.00000E+00
    0.26707E-02        -0.17377E-03         0.00000E+00
    0.21444E-02        -0.13168E-03         0.00000E+00
    0.16141E-02        -0.93160E-04         0.00000E+00
    0.10799E-02        -0.58309E-04         0.00000E+00
    0.54180E-03        -0.27222E-04         0.00000E+00
    0.00000E+00         0.00000E+00         0.00000E+00
    0.21890E-01        -0.54418E-02         0.00000E+00
    0.21664E-01        -0.53021E-02         0.00000E+00
    0.21426E-01        -0.51624E-02         0.00000E+00
    0.21175E-01        -0.50229E-02         0.00000E+00
    0.20913E-01        -0.48837E-02         0.00000E+00
    0.20638E-01        -0.47448E-02         0.00000E+00
    0.20353E-01        -0.46063E-02         0.00000E+00
    0.20056E-01        -0.44683E-02         0.00000E+00
    0.19749E-01        -0.43308E-02         0.00000E+00
    0.19431E-01        -0.41940E-02         0.00000E+00
    0.19103E-01        -0.40578E-02         0.00000E+00
    0.18765E-01        -0.39224E-02         0.00000E+00
    0.18418E-01        -0.37879E-02         0.00000E+00
    0.18061E-01        -0.36542E-02         0.00000E+00
    0.17695E-01        -0.35216E-02         0.00000E+00
    0.17321E-01        -0.33899E-02         0.00000E+00
    0.16937E-01        -0.32594E-02         0.00000E+00
    0.16545E-01        -0.31300E-02         0.00000E+00
    0.16145E-01        -0.30018E-02         0.00000E+00
    0.15737E-01        -0.28750E-02         0.00000E+00
    0.15322E-01        -0.27495E-02         0.00000E+00
    0.14898E-01        -0.26255E-02         0.00000E+00
    0.14468E-01        -0.25029E-02         0.00000E+00
    0.14030E-01        -0.23820E-02         0.00000E+00
    0.13585E-01        -0.22626E-02         0.00000E+00
    0.13133E-01        -0.21450E-02         0.00000E+00
    0.12674E-01        -0.20292E-02         0.00000E+00
    0.12209E-01        -0.19152E-02         0.00000E+00
    0.11738E-01        -0.18032E-02         0.00000E+00
    0.11260E-01        -0.16932E-02         0.00000E+00
    0.10776E-01        -0.15853E-02         0.00000E+00
    0.10286E-01        -0.14796E-02         0.00000E+00
    0.97906E-02        -0.13761E-02         0.00000E+00
    0.92892E-02        -0.12749E-02         0.00000E+00
    0.87822E-02        -0.11761E-02         0.00000E+00
    0.82698E-02        -0.10799E-02         0.00000E+00
    0.77521E-02        -0.98625E-03         0.00000E+00
    0.72291E-02        -0.89527E-03         0.00000E+00
    0.67010E-02        -0.80707E-03         0.00000E+00
    0.61678E-02        -0.72172E-03         0.00000E+00
    0.56298E-02        -0.63933E-03         0.00000E+00
    0.50869E-02        -0.56000E-03         0.00000E+00
    0.45394E-02        -0.48381E-03         0.00000E+00
    0.39872E-02        -0.41087E-03         0.00000E+00
    0.34305E-02        -0.34128E-03         0.00000E+00
    0.28693E-02        -0.27515E-03         0.00000E+00
    0.23038E-02        -0.21257E-03         0.00000E+00
    0.17340E-02        -0.15366E-03         0.00000E+00
    0.11601E-02        -0.98516E-04         0.00000E+00
    0.58205E-03        -0.47261E-04         0.00000E+00
    0.00000E+00         0.00000E+00         0.00000E+00
    0.23826E-01        -0.66294E-02         0.00000E+00
    0.23563E-01        -0.64673E-02         0.00000E+00
    0.23287E-01        -0.63053E-02         0.00000E+00
    0.22999E-01        -0.61435E-02         0.00000E+00
    0.22698E-01        -0.59819E-02         0.00000E+00
    0.22386E-01        -0.58206E-02         0.00000E+00
    0.22062E-01        -0.56597E-02         0.00000E+00
    0.21728E-01        -0.54992E-02         0.00000E+00
    0.21382E-01        -0.53392E-02         0.00000E+00
    0.21026E-01        -0.51798E-02         0.00000E+00
    0.20660E-01        -0.50210E-02         0.00000E+00
    0.20284E-01        -0.48630E-02         0.00000E+00
    0.19898E-01        -0.47056E-02         0.00000E+00
    0.19503E-01        -0.45492E-02         0.00000E+00
    0.19099E-01        -0.43936E-02         0.00000E+00
    0.18686E-01        -0.42389E-02         0.00000E+00
    0.18264E-01        -0.40853E-02         0.00000E+00
    0.17834E-01        -0.39327E-02         0.00000E+00
    0.17396E-01        -0.37813E-02         0.00000E+00
    0.16950E-01        -0.36311E-02         0.00000E+00
    0.16496E-01        -0.34821E-02         0.00000E+00
    0.16034E-01        -0.33345E-02         0.00000E+00
    0.15565E-01        -0.31883E-02         0.00000E+00
    0.15089E-01        -0.30436E-02         0.00000E+00
    0.14606E-01        -0.29004E-02         0.00000E+00
    0.14116E-01        -0.27589E-02         0.00000E+00
    0.13619E-01        -0.26190E-02         0.00000E+00
    0.13116E-01        -0.24810E-02         0.00000E+00
    0.12606E-01        -0.23447E-02         0.00000E+00
    0.12090E-01        -0.22104E-02         0.00000E+00
    0.11568E-01        -0.20782E-02         0.00000E+00
    0.11040E-01        -0.19480E-02         0.00000E+00
    0.10506E-01        -0.18200E-02         0.00000E+00
    0.99657E-02        -0.16943E-02         0.00000E+00
    0.94202E-02        -0.15709E-02         0.00000E+00
    0.88691E-02        -0.14500E-02         0.00000E+00
    0.83126E-02        -0.13316E-02         0.00000E+00
    0.77507E-02        -0.12159E-02         0.00000E+00
    0.71836E-02        -0.11029E-02         0.00000E+00
    0.66114E-02        -0.99273E-03         0.00000E+00
    0.60341E-02        -0.88554E-03         0.00000E+00
    0.54517E-02        -0.78139E-03         0.00000E+00
    0.48645E-02        -0.68041E-03         0.00000E+00
    0.42725E-02        -0.58269E-03         0.00000E+00
    0.36758E-02        -0.48836E-03         0.00000E+00
    0.30744E-02        -0.39753E-03         0.00000E+00
    0.24684E-02        -0.31031E-03         0.00000E+00
    0.18579E-02        -0.22683E-03         0.00000E+00
    0.12429E-02        -0.14720E-03         0.00000E+00
    0.62361E-03        -0.71547E-04         0.00000E+00
    0.00000E+00         0.00000E+00         0.00000E+00
    0.25867E-01        -0.80147E-02         0.00000E+00
    0.25562E-01        -0.78271E-02         0.00000E+00
    0.25244E-01        -0.76395E-02         0.00000E+00
    0.24913E-01        -0.74521E-02         0.00000E+00
    0.24571E-01        -0.72649E-02         0.00000E+00
    0.24217E-01        -0.70780E-02         0.00000E+00
    0.23851E-01        -0.68914E-02         0.00000E+00
    0.23474E-01        -0.67051E-02         0.00000E+00
    0.23087E-01        -0.65193E-02         0.00000E+00
    0.22689E-01        -0.63340E-02         0.00000E+00
    0.22281E-01        -0.61492E-02         0.00000E+00
    0.21864E-01        -0.59651E-02         0.00000E+00
    0.21437E-01        -0.57816E-02         0.00000E+00
    0.21000E-01        -0.55988E-02         0.00000E+00
    0.20555E-01        -0.54168E-02         0.00000E+00
    0.20101E-01        -0.52356E-02         0.00000E+00
    0.19638E-01        -0.50554E-02         0.00000E+00
    0.19168E-01        -0.48760E-02         0.00000E+00
    0.18689E-01        -0.46977E-02         0.00000E+00
    0.18202E-01        -0.45205E-02         0.00000E+00
    0.17708E-01        -0.43444E-02         0.00000E+00
    0.17206E-01        -0.41695E-02         0.00000E+00
    0.16697E-01        -0.39959E-02         0.00000E+00
    0.16181E-01        -0.38236E-02         0.00000E+00
    0.15658E-01        -0.36527E-02         0.00000E+00
    0.15128E-01        -0.34833E-02         0.00000E+00
    0.14591E-01        -0.33155E-02         0.00000E+00
    0.14048E-01        -0.31494E-02         0.00000E+00
    0.13499E-01        -0.29849E-02         0.00000E+00
    0.12943E-01        -0.28223E-02         0.00000E+00
    0.12381E-01        -0.26615E-02         0.00000E+00
    0.11813E-01        -0.25027E-02         0.00000E+00
    0.11240E-01        -0.23460E-02         0.00000E+00
    0.10660E-01        -0.21915E-02         0.00000E+00
    0.10075E-01        -0.20392E-02         0.00000E+00
    0.94839E-02        -0.18893E-02         0.00000E+00
    0.88876E-02        -0.17418E-02         0.00000E+00
    0.82858E-02        -0.15970E-02         0.00000E+00
    0.76787E-02        -0.14548E-02         0.00000E+00
    0.70662E-02        -0.13153E-02         0.00000E+00
    0.64486E-02        -0.11788E-02         0.00000E+00
    0.58258E-02        -0.10453E-02         0.00000E+00
    0.51980E-02        -0.91493E-03         0.00000E+00
    0.45652E-02        -0.78781E-03         0.00000E+00
    0.39274E-02        -0.66408E-03         0.00000E+00
    0.32847E-02        -0.54385E-03         0.00000E+00
    0.26372E-02        -0.42727E-03         0.00000E+00
    0.19849E-02        -0.31445E-03         0.00000E+00
    0.13279E-02        -0.20554E-03         0.00000E+00
    0.66628E-03        -0.10068E-03         0.00000E+00
    0.00000E+00         0.00000E+00         0.00000E+00
    0.28005E-01        -0.96228E-02         0.00000E+00
    0.27653E-01        -0.94061E-02         0.00000E+00
    0.27288E-01        -0.91894E-02         0.00000E+00
    0.26911E-01        -0.89728E-02         0.00000E+00
    0.26522E-01        -0.87563E-02         0.00000E+00
    0.26121E-01        -0.85401E-02         0.00000E+00
    0.25709E-01        -0.83241E-02         0.00000E+00
    0.25287E-01        -0.81084E-02         0.00000E+00
    0.24854E-01        -0.78930E-02         0.00000E+00
    0.24411E-01        -0.76781E-02         0.00000E+00
    0.23958E-01        -0.74636E-02         0.00000E+00
    0.23496E-01        -0.72495E-02         0.00000E+00
    0.23024E-01        -0.70360E-02         0.00000E+00
    0.22544E-01        -0.68231E-02         0.00000E+00
    0.22054E-01        -0.66108E-02         0.00000E+00
    0.21557E-01        -0.63991E-02         0.00000E+00
    0.21051E-01        -0.61882E-02         0.00000E+00
    0.20537E-01        -0.59781E-02         0.00000E+00
    0.20015E-01        -0.57689E-02         0.00000E+00
    0.19486E-01        -0.55605E-02         0.00000E+00
    0.18949E-01        -0.53531E-02         0.00000E+00
    0.18406E-01        -0.51467E-02         0.00000E+00
    0.17855E-01        -0.49414E-02         0.00000E+00
    0.17297E-01        -0.47373E-02         0.00000E+00
    0.16732E-01        -0.45343E-02         0.00000E+00
    0.16161E-01        -0.43327E-02         0.00000E+00
    0.15583E-01        -0.41325E-02         0.00000E+00
    0.14999E-01        -0.39337E-02         0.00000E+00
    0.14409E-01        -0.37365E-02         0.00000E+00
    0.13812E-01        -0.35409E-02         0.00000E+00
    0.13210E-01        -0.33471E-02         0.00000E+00
    0.12601E-01        -0.31550E-02         0.00000E+00
    0.11987E-01        -0.29649E-02         0.00000E+00
    0.11367E-01        -0.27767E-02         0.00000E+00
    0.10741E-01        -0.25907E-02         0.00000E+00
    0.10110E-01        -0.24069E-02         0.00000E+00
    0.94727E-02        -0.22255E-02         0.00000E+00
    0.88302E-02        -0.20465E-02         0.00000E+00
    0.81823E-02        -0.18700E-02         0.00000E+00
    0.75290E-02        -0.16963E-02         0.00000E+00
    0.68704E-02        -0.15253E-02         0.00000E+00
    0.62065E-02        -0.13573E-02         0.00000E+00
    0.55373E-02        -0.11923E-02         0.00000E+00
    0.48629E-02        -0.10306E-02         0.00000E+00
    0.41834E-02        -0.87219E-03         0.00000E+00
    0.34988E-02        -0.71726E-03         0.00000E+00
    0.28091E-02        -0.56596E-03         0.00000E+00
    0.21143E-02        -0.41843E-03         0.00000E+00
    0.14145E-02        -0.27483E-03         0.00000E+00
    0.70973E-03        -0.13530E-03         0.00000E+00
    0.00000E+00         0.00000E+00         0.00000E+00
    0.30229E-01        -0.11481E-01         0.00000E+00
    0.29824E-01        -0.11231E-01         0.00000E+00
    0.29407E-01        -0.10981E-01         0.00000E+00
    0.28978E-01        -0.10731E-01         0.00000E+00
    0.28538E-01        -0.10481E-01         0.00000E+00
    0.28087E-01        -0.10232E-01         0.00000E+00
    0.27625E-01        -0.99822E-02         0.00000E+00
    0.27152E-01        -0.97329E-02         0.00000E+00
    0.26670E-01        -0.94839E-02         0.00000E+00
    0.26178E-01        -0.92351E-02         0.00000E+00
    0.25677E-01        -0.89866E-02         0.00000E+00
    0.25167E-01        -0.87384E-02         0.00000E+00
    0.24648E-01        -0.84906E-02         0.00000E+00
    0.24120E-01        -0.82432E-02         0.00000E+00
    0.23585E-01        -0.79962E-02         0.00000E+00
    0.23041E-01        -0.77497E-02         0.00000E+00
    0.22489E-01        -0.75037E-02         0.00000E+00
    0.21930E-01        -0.72583E-02         0.00000E+00
    0.21364E-01        -0.70135E-02         0.00000E+00
    0.20790E-01        -0.67694E-02         0.00000E+00
    0.20210E-01        -0.65260E-02         0.00000E+00
    0.19622E-01        -0.62834E-02         0.00000E+00
    0.19028E-01        -0.60417E-02         0.00000E+00
    0.18427E-01        -0.58009E-02         0.00000E+00
    0.17820E-01        -0.55610E-02         0.00000E+00
    0.17206E-01        -0.53223E-02         0.00000E+00
    0.16586E-01        -0.50847E-02         0.00000E+00
    0.15960E-01        -0.48483E-02         0.00000E+00
    0.15328E-01        -0.46132E-02         0.00000E+00
    0.14690E-01        -0.43795E-02         0.00000E+00
    0.14046E-01        -0.41473E-02         0.00000E+00
    0.13397E-01        -0.39167E-02         0.00000E+00
    0.12741E-01        -0.36878E-02         0.00000E+00
    0.12080E-01        -0.34608E-02         0.00000E+00
    0.11413E-01        -0.32356E-02         0.00000E+00
    0.10741E-01        -0.30125E-02         0.00000E+00
    0.10063E-01        -0.27915E-02         0.00000E+00
    0.93792E-02        -0.25728E-02         0.00000E+00
    0.86901E-02        -0.23564E-02         0.00000E+00
    0.79956E-02        -0.21427E-02         0.00000E+00
    0.72957E-02        -0.19316E-02         0.00000E+00
    0.65903E-02        -0.17233E-02         0.00000E+00
    0.58795E-02        -0.15179E-02         0.00000E+00
    0.51633E-02        -0.13157E-02         0.00000E+00
    0.44417E-02        -0.11167E-02         0.00000E+00
    0.37148E-02        -0.92109E-03         0.00000E+00
    0.29825E-02        -0.72908E-03         0.00000E+00
    0.22449E-02        -0.54079E-03         0.00000E+00
    0.15019E-02        -0.35640E-03         0.00000E+00
    0.75364E-03        -0.17608E-03         0.00000E+00
    0.00000E+00         0.00000E+00         0.00000E+00
    0.32523E-01        -0.13617E-01         0.00000E+00
    0.32060E-01        -0.13330E-01         0.00000E+00
    0.31586E-01        -0.13042E-01         0.00000E+00
    0.31100E-01        -0.12754E-01         0.00000E+00
    0.30604E-01        -0.12467E-01         0.00000E+00
    0.30097E-01        -0.12179E-01         0.00000E+00
    0.29580E-01        -0.11892E-01         0.00000E+00
    0.29054E-01        -0.11604E-01         0.00000E+00
    0.28519E-01        -0.11317E-01         0.00000E+00
    0.27975E-01        -0.11029E-01         0.00000E+00
    0.27422E-01        -0.10742E-01         0.00000E+00
    0.26861E-01        -0.10455E-01         0.00000E+00
    0.26291E-01        -0.10168E-01         0.00000E+00
    0.25714E-01        -0.98816E-02         0.00000E+00
    0.25130E-01        -0.95950E-02         0.00000E+00
    0.24538E-01        -0.93087E-02         0.00000E+00
    0.23939E-01        -0.90227E-02         0.00000E+00
    0.23333E-01        -0.87370E-02         0.00000E+00
    0.22720E-01        -0.84516E-02         0.00000E+00
    0.22101E-01        -0.81666E-02         0.00000E+00
    0.21475E-01        -0.78820E-02         0.00000E+00
    0.20843E-01        -0.75980E-02         0.00000E+00
    0.20204E-01        -0.73145E-02         0.00000E+00
    0.19560E-01        -0.70316E-02         0.00000E+00
    0.18909E-01        -0.67494E-02         0.00000E+00
    0.18252E-01        -0.64680E-02         0.00000E+00
    0.17590E-01        -0.61874E-02         0.00000E+00
    0.16921E-01        -0.59078E-02         0.00000E+00
    0.16247E-01        -0.56292E-02         0.00000E+00
    0.15567E-01        -0.53517E-02         0.00000E+00
    0.14882E-01        -0.50754E-02         0.00000E+00
    0.14191E-01        -0.48004E-02         0.00000E+00
    0.13494E-01        -0.45268E-02         0.00000E+00
    0.12792E-01        -0.42548E-02         0.00000E+00
    0.12084E-01        -0.39845E-02         0.00000E+00
    0.11370E-01        -0.37159E-02         0.00000E+00
    0.10651E-01        -0.34492E-02         0.00000E+00
    0.99268E-02        -0.31846E-02         0.00000E+00
    0.91968E-02        -0.29222E-02         0.00000E+00
    0.84612E-02        -0.26621E-02         0.00000E+00
    0.77201E-02        -0.24044E-02         0.00000E+00
    0.69734E-02        -0.21494E-02         0.00000E+00
    0.62211E-02        -0.18972E-02         0.00000E+00
    0.54632E-02        -0.16479E-02         0.00000E+00
    0.46998E-02        -0.14017E-02         0.00000E+00
    0.39307E-02        -0.11588E-02         0.00000E+00
    0.31559E-02        -0.91942E-03         0.00000E+00
    0.23755E-02        -0.68364E-03         0.00000E+00
    0.15894E-02        -0.45168E-03         0.00000E+00
    0.79757E-03        -0.22374E-03         0.00000E+00
    0.00000E+00         0.00000E+00         0.00000E+00
    0.34867E-01        -0.16062E-01         0.00000E+00
    0.34340E-01        -0.15731E-01         0.00000E+00
    0.33802E-01        -0.15401E-01         0.00000E+00
    0.33254E-01        -0.15071E-01         0.00000E+00
    0.32697E-01        -0.14740E-01         0.00000E+00
    0.32131E-01        -0.14410E-01         0.00000E+00
    0.31555E-01        -0.14079E-01         0.00000E+00
    0.30972E-01        -0.13748E-01         0.00000E+00
    0.30380E-01        -0.13417E-01         0.00000E+00
    0.29780E-01        -0.13086E-01         0.00000E+00
    0.29172E-01        -0.12755E-01         0.00000E+00
    0.28558E-01        -0.12424E-01         0.00000E+00
    0.27936E-01        -0.12093E-01         0.00000E+00
    0.27307E-01        -0.11762E-01         0.00000E+00
    0.26672E-01        -0.11430E-01         0.00000E+00
    0.26030E-01        -0.11098E-01         0.00000E+00
    0.25382E-01        -0.10767E-01         0.00000E+00
    0.24728E-01        -0.10435E-01         0.00000E+00
    0.24067E-01        -0.10104E-01         0.00000E+00
    0.23401E-01        -0.97720E-02         0.00000E+00
    0.22729E-01        -0.94405E-02         0.00000E+00
    0.22052E-01        -0.91092E-02         0.00000E+00
    0.21368E-01        -0.87781E-02         0.00000E+00
    0.20679E-01        -0.84472E-02         0.00000E+00
    0.19985E-01        -0.81166E-02         0.00000E+00
    0.19285E-01        -0.77865E-02         0.00000E+00
    0.18580E-01        -0.74568E-02         0.00000E+00
    0.17869E-01        -0.71277E-02         0.00000E+00
    0.17153E-01        -0.67993E-02         0.00000E+00
    0.16432E-01        -0.64716E-02         0.00000E+00
    0.15705E-01        -0.61448E-02         0.00000E+00
    0.14973E-01        -0.58189E-02         0.00000E+00
    0.14235E-01        -0.54941E-02         0.00000E+00
    0.13493E-01        -0.51706E-02         0.00000E+00
    0.12744E-01        -0.48484E-02         0.00000E+00
    0.11990E-01        -0.45276E-02         0.00000E+00
    0.11231E-01        -0.42084E-02         0.00000E+00
    0.10466E-01        -0.38910E-02         0.00000E+00
    0.96960E-02        -0.35755E-02         0.00000E+00
    0.89201E-02        -0.32621E-02         0.00000E+00
    0.81385E-02        -0.29509E-02         0.00000E+00
    0.73512E-02        -0.26421E-02         0.00000E+00
    0.65581E-02        -0.23358E-02         0.00000E+00
    0.57593E-02        -0.20322E-02         0.00000E+00
    0.49545E-02        -0.17316E-02         0.00000E+00
    0.41439E-02        -0.14341E-02         0.00000E+00
    0.33273E-02        -0.11399E-02         0.00000E+00
    0.25047E-02        -0.84914E-03         0.00000E+00
    0.16759E-02        -0.56212E-03         0.00000E+00
    0.84107E-03        -0.27900E-03         0.00000E+00
    0.00000E+00         0.00000E+00         0.00000E+00
    0.37233E-01        -0.18845E-01         0.00000E+00
    0.36636E-01        -0.18466E-01         0.00000E+00
    0.36030E-01        -0.18088E-01         0.00000E+00
    0.35415E-01        -0.17709E-01         0.00000E+00
    0.34792E-01        -0.17330E-01         0.00000E+00
    0.34162E-01        -0.16951E-01         0.00000E+00
    0.33524E-01        -0.16572E-01         0.00000E+00
    0.32879E-01        -0.16192E-01         0.00000E+00
    0.32227E-01        -0.15812E-01         0.00000E+00
    0.31568E-01        -0.15432E-01         0.00000E+00
    0.30904E-01        -0.15051E-01         0.00000E+00
    0.30233E-01        -0.14670E-01         0.00000E+00
    0.29557E-01        -0.14289E-01         0.00000E+00
    0.28875E-01        -0.13907E-01         0.00000E+00
    0.28187E-01        -0.13524E-01         0.00000E+00
    0.27494E-01        -0.13142E-01         0.00000E+00
    0.26796E-01        -0.12758E-01         0.00000E+00
    0.26093E-01        -0.12375E-01         0.00000E+00
    0.25384E-01        -0.11991E-01         0.00000E+00
    0.24671E-01        -0.11606E-01         0.00000E+00
    0.23953E-01        -0.11221E-01         0.00000E+00
    0.23230E-01        -0.10836E-01         0.00000E+00
    0.22502E-01        -0.10451E-01         0.00000E+00
    0.21769E-01        -0.10066E-01         0.00000E+00
    0.21032E-01        -0.96800E-02         0.00000E+00
    0.20289E-01        -0.92945E-02         0.00000E+00
    0.19542E-01        -0.89089E-02         0.00000E+00
    0.18790E-01        -0.85235E-02         0.00000E+00
    0.18033E-01        -0.81384E-02         0.00000E+00
    0.17271E-01        -0.77535E-02         0.00000E+00
    0.16504E-01        -0.73691E-02         0.00000E+00
    0.15732E-01        -0.69853E-02         0.00000E+00
    0.14955E-01        -0.66021E-02         0.00000E+00
    0.14173E-01        -0.62197E-02         0.00000E+00
    0.13385E-01        -0.58383E-02         0.00000E+00
    0.12592E-01        -0.54580E-02         0.00000E+00
    0.11794E-01        -0.50789E-02         0.00000E+00
    0.10990E-01        -0.47012E-02         0.00000E+00
    0.10181E-01        -0.43250E-02         0.00000E+00
    0.93658E-02        -0.39506E-02         0.00000E+00
    0.85451E-02        -0.35780E-02         0.00000E+00
    0.77185E-02        -0.32076E-02         0.00000E+00
    0.68859E-02        -0.28394E-02         0.00000E+00
    0.60473E-02        -0.24737E-02         0.00000E+00
    0.52026E-02        -0.21106E-02         0.00000E+00
    0.43517E-02        -0.17504E-02         0.00000E+00
    0.34944E-02        -0.13933E-02         0.00000E+00
    0.26307E-02        -0.10395E-02         0.00000E+00
    0.17604E-02        -0.68917E-03         0.00000E+00
    0.88357E-03        -0.34260E-03         0.00000E+00
    0.00000E+00         0.00000E+00         0.00000E+00
    0.39588E-01        -0.21997E-01         0.00000E+00
    0.38915E-01        -0.21565E-01         0.00000E+00
    0.38235E-01        -0.21132E-01         0.00000E+00
    0.37549E-01        -0.20699E-01         0.00000E+00
    0.36856E-01        -0.20266E-01         0.00000E+00
    0.36157E-01        -0.19832E-01         0.00000E+00
    0.35453E-01        -0.19398E-01         0.00000E+00
    0.34744E-01        -0.18963E-01         0.00000E+00
    0.34029E-01        -0.18528E-01         0.00000E+00
    0.33310E-01        -0.18092E-01         0.00000E+00
    0.32587E-01        -0.17656E-01         0.00000E+00
    0.31858E-01        -0.17218E-01         0.00000E+00
    0.31126E-01        -0.16780E-01         0.00000E+00
    0.30390E-01        -0.16341E-01         0.00000E+00
    0.29649E-01        -0.15901E-01         0.00000E+00
    0.28905E-01        -0.15461E-01         0.00000E+00
    0.28156E-01        -0.15019E-01         0.00000E+00
    0.27404E-01        -0.14576E-01         0.00000E+00
    0.26648E-01        -0.14133E-01         0.00000E+00
    0.25888E-01        -0.13689E-01         0.00000E+00
    0.25124E-01        -0.13244E-01         0.00000E+00
    0.24356E-01        -0.12798E-01         0.00000E+00
    0.23585E-01        -0.12352E-01         0.00000E+00
    0.22809E-01        -0.11905E-01         0.00000E+00
    0.22030E-01        -0.11457E-01         0.00000E+00
    0.21246E-01        -0.11009E-01         0.00000E+00
    0.20459E-01        -0.10560E-01         0.00000E+00
    0.19667E-01        -0.10111E-01         0.00000E+00
    0.18870E-01        -0.96611E-02         0.00000E+00
    0.18070E-01        -0.92115E-02         0.00000E+00
    0.17264E-01        -0.87618E-02         0.00000E+00
    0.16454E-01        -0.83122E-02         0.00000E+00
    0.15640E-01        -0.78628E-02         0.00000E+00
    0.14820E-01        -0.74137E-02         0.00000E+00
    0.13995E-01        -0.69651E-02         0.00000E+00
    0.13165E-01        -0.65172E-02         0.00000E+00
    0.12330E-01        -0.60700E-02         0.00000E+00
    0.11489E-01        -0.56238E-02         0.00000E+00
    0.10643E-01        -0.51788E-02         0.00000E+00
    0.97911E-02        -0.47350E-02         0.00000E+00
    0.89333E-02        -0.42928E-02         0.00000E+00
    0.80694E-02        -0.38523E-02         0.00000E+00
    0.71994E-02        -0.34136E-02         0.00000E+00
    0.63230E-02        -0.29771E-02         0.00000E+00
    0.54402E-02        -0.25430E-02         0.00000E+00
    0.45508E-02        -0.21114E-02         0.00000E+00
    0.36547E-02        -0.16826E-02         0.00000E+00
    0.27517E-02        -0.12568E-02         0.00000E+00
    0.18417E-02        -0.83426E-03         0.00000E+00
    0.92448E-03        -0.41525E-03         0.00000E+00
    0.00000E+00         0.00000E+00         0.00000E+00
    0.41892E-01        -0.25549E-01         0.00000E+00
    0.41137E-01        -0.25055E-01         0.00000E+00
    0.40378E-01        -0.24562E-01         0.00000E+00
    0.39616E-01        -0.24068E-01         0.00000E+00
    0.38849E-01        -0.23574E-01         0.00000E+00
    0.38079E-01        -0.23079E-01         0.00000E+00
    0.37306E-01        -0.22583E-01         0.00000E+00
    0.36530E-01        -0.22087E-01         0.00000E+00
    0.35751E-01        -0.21590E-01         0.00000E+00
    0.34969E-01        -0.21092E-01         0.00000E+00
    0.34185E-01        -0.20592E-01         0.00000E+00
    0.33399E-01        -0.20092E-01         0.00000E+00
    0.32610E-01        -0.19590E-01         0.00000E+00
    0.31819E-01        -0.19087E-01         0.00000E+00
    0.31026E-01        -0.18583E-01         0.00000E+00
    0.30230E-01        -0.18077E-01         0.00000E+00
    0.29432E-01        -0.17570E-01         0.00000E+00
    0.28632E-01        -0.17061E-01         0.00000E+00
    0.27829E-01        -0.16551E-01         0.00000E+00
    0.27024E-01        -0.16040E-01         0.00000E+00
    0.26216E-01        -0.15527E-01         0.00000E+00
    0.25406E-01        -0.15013E-01         0.00000E+00
    0.24593E-01        -0.14498E-01         0.00000E+00
    0.23777E-01        -0.13981E-01         0.00000E+00
    0.22958E-01        -0.13463E-01         0.00000E+00
    0.22135E-01        -0.12944E-01         0.00000E+00
    0.21310E-01        -0.12424E-01         0.00000E+00
    0.20480E-01        -0.11903E-01         0.00000E+00
    0.19647E-01        -0.11381E-01         0.00000E+00
    0.18811E-01        -0.10859E-01         0.00000E+00
    0.17970E-01        -0.10336E-01         0.00000E+00
    0.17125E-01        -0.98119E-02         0.00000E+00
    0.16275E-01        -0.92878E-02         0.00000E+00
    0.15421E-01        -0.87635E-02         0.00000E+00
    0.14562E-01        -0.82392E-02         0.00000E+00
    0.13698E-01        -0.77149E-02         0.00000E+00
    0.12829E-01        -0.71909E-02         0.00000E+00
    0.11954E-01        -0.66674E-02         0.00000E+00
    0.11074E-01        -0.61446E-02         0.00000E+00
    0.10188E-01        -0.56226E-02         0.00000E+00
    0.92958E-02        -0.51016E-02         0.00000E+00
    0.83974E-02        -0.45819E-02         0.00000E+00
    0.74927E-02        -0.40637E-02         0.00000E+00
    0.65813E-02        -0.35472E-02         0.00000E+00
    0.56631E-02        -0.30326E-02         0.00000E+00
    0.47379E-02        -0.25203E-02         0.00000E+00
    0.38055E-02        -0.20103E-02         0.00000E+00
    0.28657E-02        -0.15031E-02         0.00000E+00
    0.19183E-02        -0.99873E-03         0.00000E+00
    0.96311E-03        -0.49762E-03         0.00000E+00
    0.00000E+00         0.00000E+00         0.00000E+00
    0.44093E-01        -0.29527E-01         0.00000E+00
    0.43252E-01        -0.28966E-01         0.00000E+00
    0.42410E-01        -0.28405E-01         0.00000E+00
    0.41567E-01        -0.27843E-01         0.00000E+00
    0.40724E-01        -0.27281E-01         0.00000E+00
    0.39880E-01        -0.26717E-01         0.00000E+00
    0.39036E-01        -0.26153E-01         0.00000E+00
    0.38192E-01        -0.25588E-01         0.00000E+00
    0.37347E-01        -0.25021E-01         0.00000E+00
    0.36503E-01        -0.24453E-01         0.00000E+00
    0.35659E-01        -0.23884E-01         0.00000E+00
    0.34814E-01        -0.23313E-01         0.00000E+00
    0.33970E-01        -0.22740E-01         0.00000E+00
    0.33125E-01        -0.22165E-01         0.00000E+00
    0.32280E-01        -0.21589E-01         0.00000E+00
    0.31435E-01        -0.21011E-01         0.00000E+00
    0.30590E-01        -0.20430E-01         0.00000E+00
    0.29744E-01        -0.19848E-01         0.00000E+00
    0.28897E-01        -0.19263E-01         0.00000E+00
    0.28050E-01        -0.18677E-01         0.00000E+00
    0.27201E-01        -0.18088E-01         0.00000E+00
    0.26351E-01        -0.17498E-01         0.00000E+00
    0.25499E-01        -0.16905E-01         0.00000E+00
    0.24646E-01        -0.16311E-01         0.00000E+00
    0.23791E-01        -0.15714E-01         0.00000E+00
    0.22933E-01        -0.15116E-01         0.00000E+00
    0.22073E-01        -0.14516E-01         0.00000E+00
    0.21210E-01        -0.13915E-01         0.00000E+00
    0.20345E-01        -0.13312E-01         0.00000E+00
    0.19476E-01        -0.12708E-01         0.00000E+00
    0.18603E-01        -0.12102E-01         0.00000E+00
    0.17727E-01        -0.11495E-01         0.00000E+00
    0.16846E-01        -0.10887E-01         0.00000E+00
    0.15962E-01        -0.10279E-01         0.00000E+00
    0.15072E-01        -0.96696E-02         0.00000E+00
    0.14178E-01        -0.90598E-02         0.00000E+00
    0.13279E-01        -0.84497E-02         0.00000E+00
    0.12374E-01        -0.78395E-02         0.00000E+00
    0.11464E-01        -0.72294E-02         0.00000E+00
    0.10547E-01        -0.66196E-02         0.00000E+00
    0.96245E-02        -0.60104E-02         0.00000E+00
    0.86954E-02        -0.54018E-02         0.00000E+00
    0.77595E-02        -0.47943E-02         0.00000E+00
    0.68167E-02        -0.41880E-02         0.00000E+00
    0.58666E-02        -0.35831E-02         0.00000E+00
    0.49090E-02        -0.29800E-02         0.00000E+00
    0.39436E-02        -0.23789E-02         0.00000E+00
    0.29703E-02        -0.17801E-02         0.00000E+00
    0.19888E-02        -0.11838E-02         0.00000E+00
    0.99873E-03        -0.59033E-03         0.00000E+00
    0.00000E+00         0.00000E+00         0.00000E+00
    0.46132E-01        -0.33957E-01         0.00000E+00
    0.45201E-01        -0.33320E-01         0.00000E+00
    0.44273E-01        -0.32683E-01         0.00000E+00
    0.43348E-01        -0.32046E-01         0.00000E+00
    0.42426E-01        -0.31408E-01         0.00000E+00
    0.41507E-01        -0.30769E-01         0.00000E+00
    0.40591E-01        -0.30128E-01         0.00000E+00
    0.39678E-01        -0.29486E-01         0.00000E+00
    0.38769E-01        -0.28843E-01         0.00000E+00
    0.37863E-01        -0.28197E-01         0.00000E+00
    0.36959E-01        -0.27550E-01         0.00000E+00
    0.36059E-01        -0.26900E-01         0.00000E+00
    0.35161E-01        -0.26248E-01         0.00000E+00
    0.34265E-01        -0.25594E-01         0.00000E+00
    0.33372E-01        -0.24937E-01         0.00000E+00
    0.32481E-01        -0.24278E-01         0.00000E+00
    0.31591E-01        -0.23616E-01         0.00000E+00
    0.30703E-01        -0.22951E-01         0.00000E+00
    0.29816E-01        -0.22284E-01         0.00000E+00
    0.28930E-01        -0.21614E-01         0.00000E+00
    0.28045E-01        -0.20941E-01         0.00000E+00
    0.27159E-01        -0.20265E-01         0.00000E+00
    0.26274E-01        -0.19587E-01         0.00000E+00
    0.25388E-01        -0.18906E-01         0.00000E+00
    0.24502E-01        -0.18222E-01         0.00000E+00
    0.23614E-01        -0.17536E-01         0.00000E+00
    0.22725E-01        -0.16847E-01         0.00000E+00
    0.21833E-01        -0.16156E-01         0.00000E+00
    0.20940E-01        -0.15463E-01         0.00000E+00
    0.20044E-01        -0.14768E-01         0.00000E+00
    0.19145E-01        -0.14071E-01         0.00000E+00
    0.18242E-01        -0.13371E-01         0.00000E+00
    0.17336E-01        -0.12670E-01         0.00000E+00
    0.16426E-01        -0.11968E-01         0.00000E+00
    0.15511E-01        -0.11264E-01         0.00000E+00
    0.14592E-01        -0.10559E-01         0.00000E+00
    0.13667E-01        -0.98532E-02         0.00000E+00
    0.12737E-01        -0.91465E-02         0.00000E+00
    0.11801E-01        -0.84392E-02         0.00000E+00
    0.10859E-01        -0.77316E-02         0.00000E+00
    0.99108E-02        -0.70240E-02         0.00000E+00
    0.89555E-02        -0.63165E-02         0.00000E+00
    0.79931E-02        -0.56094E-02         0.00000E+00
    0.70232E-02        -0.49030E-02         0.00000E+00
    0.60456E-02        -0.41975E-02         0.00000E+00
    0.50599E-02        -0.34932E-02         0.00000E+00
    0.40659E-02        -0.27904E-02         0.00000E+00
    0.30631E-02        -0.20894E-02         0.00000E+00
    0.20515E-02        -0.13905E-02         0.00000E+00
    0.10305E-02        -0.69389E-03         0.00000E+00
    0.00000E+00         0.00000E+00         0.00000E+00
    0.47939E-01        -0.38855E-01         0.00000E+00
    0.46915E-01        -0.38135E-01         0.00000E+00
    0.45899E-01        -0.37415E-01         0.00000E+00
    0.44890E-01        -0.36694E-01         0.00000E+00
    0.43889E-01        -0.35972E-01         0.00000E+00
    0.42896E-01        -0.35249E-01         0.00000E+00
    0.41909E-01        -0.34524E-01         0.00000E+00
    0.40930E-01        -0.33797E-01         0.00000E+00
    0.39958E-01        -0.33068E-01         0.00000E+00
    0.38992E-01        -0.32337E-01         0.00000E+00
    0.38033E-01        -0.31603E-01         0.00000E+00
    0.37080E-01        -0.30867E-01         0.00000E+00
    0.36132E-01        -0.30127E-01         0.00000E+00
    0.35190E-01        -0.29385E-01         0.00000E+00
    0.34253E-01        -0.28639E-01         0.00000E+00
    0.33321E-01        -0.27890E-01         0.00000E+00
    0.32392E-01        -0.27138E-01         0.00000E+00
    0.31468E-01        -0.26383E-01         0.00000E+00
    0.30546E-01        -0.25623E-01         0.00000E+00
    0.29628E-01        -0.24861E-01         0.00000E+00
    0.28712E-01        -0.24095E-01         0.00000E+00
    0.27797E-01        -0.23325E-01         0.00000E+00
    0.26884E-01        -0.22552E-01         0.00000E+00
    0.25973E-01        -0.21776E-01         0.00000E+00
    0.25061E-01        -0.20996E-01         0.00000E+00
    0.24149E-01        -0.20212E-01         0.00000E+00
    0.23237E-01        -0.19426E-01         0.00000E+00
    0.22324E-01        -0.18636E-01         0.00000E+00
    0.21410E-01        -0.17843E-01         0.00000E+00
    0.20493E-01        -0.17047E-01         0.00000E+00
    0.19574E-01        -0.16248E-01         0.00000E+00
    0.18652E-01        -0.15447E-01         0.00000E+00
    0.17726E-01        -0.14643E-01         0.00000E+00
    0.16797E-01        -0.13837E-01         0.00000E+00
    0.15863E-01        -0.13029E-01         0.00000E+00
    0.14924E-01        -0.12218E-01         0.00000E+00
    0.13981E-01        -0.11407E-01         0.00000E+00
    0.13031E-01        -0.10593E-01         0.00000E+00
    0.12076E-01        -0.97784E-02         0.00000E+00
    0.11114E-01        -0.89628E-02         0.00000E+00
    0.10145E-01        -0.81463E-02         0.00000E+00
    0.91694E-02        -0.73293E-02         0.00000E+00
    0.81859E-02        -0.65121E-02         0.00000E+00
    0.71944E-02        -0.56950E-02         0.00000E+00
    0.61946E-02        -0.48781E-02         0.00000E+00
    0.51860E-02        -0.40618E-02         0.00000E+00
    0.41684E-02        -0.32464E-02         0.00000E+00
    0.31413E-02        -0.24323E-02         0.00000E+00
    0.21045E-02        -0.16196E-02         0.00000E+00
    0.10575E-02        -0.80874E-03         0.00000E+00
    0.00000E+00         0.00000E+00         0.00000E+00
    0.49430E-01        -0.44233E-01         0.00000E+00
    0.48314E-01        -0.43421E-01         0.00000E+00
    0.47210E-01        -0.42609E-01         0.00000E+00
    0.46119E-01        -0.41796E-01         0.00000E+00
    0.45041E-01        -0.40981E-01         0.00000E+00
    0.43976E-01        -0.40165E-01         0.00000E+00
    0.42922E-01        -0.39347E-01         0.00000E+00
    0.41880E-01        -0.38527E-01         0.00000E+00
    0.40849E-01        -0.37704E-01         0.00000E+00
    0.39829E-01        -0.36879E-01         0.00000E+00
    0.38819E-01        -0.36050E-01         0.00000E+00
    0.37819E-01        -0.35218E-01         0.00000E+00
    0.36829E-01        -0.34382E-01         0.00000E+00
    0.35846E-01        -0.33543E-01         0.00000E+00
    0.34872E-01        -0.32700E-01         0.00000E+00
    0.33905E-01        -0.31853E-01         0.00000E+00
    0.32945E-01        -0.31002E-01         0.00000E+00
    0.31992E-01        -0.30146E-01         0.00000E+00
    0.31044E-01        -0.29287E-01         0.00000E+00
    0.30100E-01        -0.28423E-01         0.00000E+00
    0.29162E-01        -0.27555E-01         0.00000E+00
    0.28226E-01        -0.26682E-01         0.00000E+00
    0.27294E-01        -0.25805E-01         0.00000E+00
    0.26365E-01        -0.24924E-01         0.00000E+00
    0.25436E-01        -0.24038E-01         0.00000E+00
    0.24509E-01        -0.23149E-01         0.00000E+00
    0.23583E-01        -0.22255E-01         0.00000E+00
    0.22656E-01        -0.21357E-01         0.00000E+00
    0.21728E-01        -0.20455E-01         0.00000E+00
    0.20799E-01        -0.19549E-01         0.00000E+00
    0.19868E-01        -0.18639E-01         0.00000E+00
    0.18934E-01        -0.17726E-01         0.00000E+00
    0.17997E-01        -0.16810E-01         0.00000E+00
    0.17056E-01        -0.15890E-01         0.00000E+00
    0.16111E-01        -0.14967E-01         0.00000E+00
    0.15161E-01        -0.14042E-01         0.00000E+00
    0.14205E-01        -0.13114E-01         0.00000E+00
    0.13244E-01        -0.12183E-01         0.00000E+00
    0.12276E-01        -0.11251E-01         0.00000E+00
    0.11301E-01        -0.10316E-01         0.00000E+00
    0.10319E-01        -0.93805E-02         0.00000E+00
    0.93285E-02        -0.84433E-02         0.00000E+00
    0.83303E-02        -0.75052E-02         0.00000E+00
    0.73234E-02        -0.65663E-02         0.00000E+00
    0.63075E-02        -0.56270E-02         0.00000E+00
    0.52822E-02        -0.46877E-02         0.00000E+00
    0.42472E-02        -0.37485E-02         0.00000E+00
    0.32018E-02        -0.28098E-02         0.00000E+00
    0.21457E-02        -0.18719E-02         0.00000E+00
    0.10785E-02        -0.93515E-03         0.00000E+00
    0.00000E+00         0.00000E+00         0.00000E+00
    0.50512E-01        -0.50087E-01         0.00000E+00
    0.49305E-01        -0.49175E-01         0.00000E+00
    0.48117E-01        -0.48262E-01         0.00000E+00
    0.46948E-01        -0.47347E-01         0.00000E+00
    0.45798E-01        -0.46432E-01         0.00000E+00
    0.44665E-01        -0.45514E-01         0.00000E+00
    0.43550E-01        -0.44594E-01         0.00000E+00
    0.42452E-01        -0.43672E-01         0.00000E+00
    0.41370E-01        -0.42746E-01         0.00000E+00
    0.40303E-01        -0.41817E-01         0.00000E+00
    0.39251E-01        -0.40885E-01         0.00000E+00
    0.38212E-01        -0.39948E-01         0.00000E+00
    0.37187E-01        -0.39008E-01         0.00000E+00
    0.36173E-01        -0.38063E-01         0.00000E+00
    0.35171E-01        -0.37113E-01         0.00000E+00
    0.34180E-01        -0.36159E-01         0.00000E+00
    0.33198E-01        -0.35201E-01         0.00000E+00
    0.32225E-01        -0.34237E-01         0.00000E+00
    0.31260E-01        -0.33268E-01         0.00000E+00
    0.30303E-01        -0.32294E-01         0.00000E+00
    0.29351E-01        -0.31315E-01         0.00000E+00
    0.28406E-01        -0.30331E-01         0.00000E+00
    0.27464E-01        -0.29342E-01         0.00000E+00
    0.26527E-01        -0.28347E-01         0.00000E+00
    0.25593E-01        -0.27347E-01         0.00000E+00
    0.24661E-01        -0.26343E-01         0.00000E+00
    0.23730E-01        -0.25333E-01         0.00000E+00
    0.22799E-01        -0.24318E-01         0.00000E+00
    0.21869E-01        -0.23298E-01         0.00000E+00
    0.20937E-01        -0.22273E-01         0.00000E+00
    0.20004E-01        -0.21244E-01         0.00000E+00
    0.19068E-01        -0.20210E-01         0.00000E+00
    0.18129E-01        -0.19172E-01         0.00000E+00
    0.17186E-01        -0.18129E-01         0.00000E+00
    0.16239E-01        -0.17082E-01         0.00000E+00
    0.15286E-01        -0.16032E-01         0.00000E+00
    0.14327E-01        -0.14978E-01         0.00000E+00
    0.13362E-01        -0.13921E-01         0.00000E+00
    0.12389E-01        -0.12860E-01         0.00000E+00
    0.11409E-01        -0.11797E-01         0.00000E+00
    0.10421E-01        -0.10731E-01         0.00000E+00
    0.94244E-02        -0.96627E-02         0.00000E+00
    0.84186E-02        -0.85925E-02         0.00000E+00
    0.74034E-02        -0.75206E-02         0.00000E+00
    0.63783E-02        -0.64474E-02         0.00000E+00
    0.53429E-02        -0.53733E-02         0.00000E+00
    0.42969E-02        -0.42986E-02         0.00000E+00
    0.32401E-02        -0.32239E-02         0.00000E+00
    0.21723E-02        -0.21492E-02         0.00000E+00
    0.10929E-02        -0.10745E-02         0.00000E+00
    0.00000E+00         0.00000E+00         0.00000E+00
    0.51077E-01        -0.56400E-01         0.00000E+00
    0.49785E-01        -0.55377E-01         0.00000E+00
    0.48520E-01        -0.54354E-01         0.00000E+00
    0.47280E-01        -0.53330E-01         0.00000E+00
    0.46066E-01        -0.52304E-01         0.00000E+00
    0.44876E-01        -0.51276E-01         0.00000E+00
    0.43709E-01        -0.50245E-01         0.00000E+00
    0.42565E-01        -0.49211E-01         0.00000E+00
    0.41441E-01        -0.48174E-01         0.00000E+00
    0.40338E-01        -0.47133E-01         0.00000E+00
    0.39254E-01        -0.46088E-01         0.00000E+00
    0.38189E-01        -0.45038E-01         0.00000E+00
    0.37140E-01        -0.43984E-01         0.00000E+00
    0.36107E-01        -0.42925E-01         0.00000E+00
    0.35089E-01        -0.41861E-01         0.00000E+00
    0.34085E-01        -0.40791E-01         0.00000E+00
    0.33094E-01        -0.39717E-01         0.00000E+00
    0.32114E-01        -0.38636E-01         0.00000E+00
    0.31145E-01        -0.37550E-01         0.00000E+00
    0.30185E-01        -0.36458E-01         0.00000E+00
    0.29234E-01        -0.35360E-01         0.00000E+00
    0.28290E-01        -0.34257E-01         0.00000E+00
    0.27352E-01        -0.33147E-01         0.00000E+00
    0.26420E-01        -0.32032E-01         0.00000E+00
    0.25492E-01        -0.30910E-01         0.00000E+00
    0.24567E-01        -0.29783E-01         0.00000E+00
    0.23644E-01        -0.28649E-01         0.00000E+00
    0.22723E-01        -0.27510E-01         0.00000E+00
    0.21801E-01        -0.26365E-01         0.00000E+00
    0.20879E-01        -0.25214E-01         0.00000E+00
    0.19956E-01        -0.24057E-01         0.00000E+00
    0.19029E-01        -0.22895E-01         0.00000E+00
    0.18100E-01        -0.21727E-01         0.00000E+00
    0.17166E-01        -0.20554E-01         0.00000E+00
    0.16227E-01        -0.19376E-01         0.00000E+00
    0.15282E-01        -0.18193E-01         0.00000E+00
    0.14330E-01        -0.17005E-01         0.00000E+00
    0.13371E-01        -0.15812E-01         0.00000E+00
    0.12404E-01        -0.14615E-01         0.00000E+00
    0.11429E-01        -0.13414E-01         0.00000E+00
    0.10444E-01        -0.12209E-01         0.00000E+00
    0.94492E-02        -0.11000E-01         0.00000E+00
    0.84441E-02        -0.97870E-02         0.00000E+00
    0.74283E-02        -0.85712E-02         0.00000E+00
    0.64018E-02        -0.73527E-02         0.00000E+00
    0.53644E-02        -0.61311E-02         0.00000E+00
    0.43155E-02        -0.49068E-02         0.00000E+00
    0.32541E-02        -0.36798E-02         0.00000E+00
    0.21803E-02        -0.24519E-02         0.00000E+00
    0.10942E-02        -0.12251E-02         0.00000E+00
    0.00000E+00         0.00000E+00         0.00000E+00
    0.51008E-01        -0.63131E-01         0.00000E+00
    0.49641E-01        -0.61990E-01         0.00000E+00
    0.48310E-01        -0.60848E-01         0.00000E+00
    0.47012E-01        -0.59704E-01         0.00000E+00
    0.45746E-01        -0.58558E-01         0.00000E+00
    0.44511E-01        -0.57411E-01         0.00000E+00
    0.43305E-01        -0.56260E-01         0.00000E+00
    0.42128E-01        -0.55106E-01         0.00000E+00
    0.40977E-01        -0.53948E-01         0.00000E+00
    0.39852E-01        -0.52786E-01         0.00000E+00
    0.38751E-01        -0.51620E-01         0.00000E+00
    0.37673E-01        -0.50448E-01         0.00000E+00
    0.36616E-01        -0.49272E-01         0.00000E+00
    0.35578E-01        -0.48091E-01         0.00000E+00
    0.34559E-01        -0.46904E-01         0.00000E+00
    0.33558E-01        -0.45711E-01         0.00000E+00
    0.32572E-01        -0.44513E-01         0.00000E+00
    0.31600E-01        -0.43308E-01         0.00000E+00
    0.30641E-01        -0.42098E-01         0.00000E+00
    0.29695E-01        -0.40881E-01         0.00000E+00
    0.28758E-01        -0.39658E-01         0.00000E+00
    0.27831E-01        -0.38428E-01         0.00000E+00
    0.26912E-01        -0.37192E-01         0.00000E+00
    0.25999E-01        -0.35949E-01         0.00000E+00
    0.25091E-01        -0.34700E-01         0.00000E+00
    0.24188E-01        -0.33444E-01         0.00000E+00
    0.23288E-01        -0.32181E-01         0.00000E+00
    0.22389E-01        -0.30912E-01         0.00000E+00
    0.21491E-01        -0.29636E-01         0.00000E+00
    0.20592E-01        -0.28354E-01         0.00000E+00
    0.19692E-01        -0.27065E-01         0.00000E+00
    0.18789E-01        -0.25770E-01         0.00000E+00
    0.17882E-01        -0.24469E-01         0.00000E+00
    0.16970E-01        -0.23161E-01         0.00000E+00
    0.16053E-01        -0.21847E-01         0.00000E+00
    0.15128E-01        -0.20526E-01         0.00000E+00
    0.14196E-01        -0.19200E-01         0.00000E+00
    0.13255E-01        -0.17868E-01         0.00000E+00
    0.12305E-01        -0.16530E-01         0.00000E+00
    0.11344E-01        -0.15187E-01         0.00000E+00
    0.10373E-01        -0.13838E-01         0.00000E+00
    0.93910E-02        -0.12483E-01         0.00000E+00
    0.83970E-02        -0.11123E-01         0.00000E+00
    0.73904E-02        -0.97577E-02         0.00000E+00
    0.63697E-02        -0.83863E-02         0.00000E+00
    0.53348E-02        -0.70116E-02         0.00000E+00
    0.42868E-02        -0.56341E-02         0.00000E+00
    0.32299E-02        -0.42534E-02         0.00000E+00
    0.21638E-02        -0.28618E-02         0.00000E+00
    0.10893E-02        -0.14484E-02         0.00000E+00
    0.00000E+00         0.00000E+00         0.00000E+00
    0.50176E-01        -0.70217E-01         0.00000E+00
    0.48751E-01        -0.68947E-01         0.00000E+00
    0.47370E-01        -0.67676E-01         0.00000E+00
    0.46030E-01        -0.66404E-01         0.00000E+00
    0.44730E-01        -0.65130E-01         0.00000E+00
    0.43468E-01        -0.63853E-01         0.00000E+00
    0.42241E-01        -0.62574E-01         0.00000E+00
    0.41049E-01        -0.61291E-01         0.00000E+00
    0.39890E-01        -0.60004E-01         0.00000E+00
    0.38760E-01        -0.58712E-01         0.00000E+00
    0.37660E-01        -0.57416E-01         0.00000E+00
    0.36587E-01        -0.56116E-01         0.00000E+00
    0.35539E-01        -0.54810E-01         0.00000E+00
    0.34515E-01        -0.53499E-01         0.00000E+00
    0.33513E-01        -0.52182E-01         0.00000E+00
    0.32531E-01        -0.50859E-01         0.00000E+00
    0.31568E-01        -0.49530E-01         0.00000E+00
    0.30622E-01        -0.48195E-01         0.00000E+00
    0.29692E-01        -0.46854E-01         0.00000E+00
    0.28775E-01        -0.45506E-01         0.00000E+00
    0.27871E-01        -0.44152E-01         0.00000E+00
    0.26977E-01        -0.42791E-01         0.00000E+00
    0.26093E-01        -0.41424E-01         0.00000E+00
    0.25216E-01        -0.40050E-01         0.00000E+00
    0.24346E-01        -0.38669E-01         0.00000E+00
    0.23480E-01        -0.37281E-01         0.00000E+00
    0.22618E-01        -0.35887E-01         0.00000E+00
    0.21759E-01        -0.34485E-01         0.00000E+00
    0.20900E-01        -0.33077E-01         0.00000E+00
    0.20040E-01        -0.31661E-01         0.00000E+00
    0.19178E-01        -0.30239E-01         0.00000E+00
    0.18313E-01        -0.28809E-01         0.00000E+00
    0.17444E-01        -0.27373E-01         0.00000E+00
    0.16569E-01        -0.25930E-01         0.00000E+00
    0.15687E-01        -0.24480E-01         0.00000E+00
    0.14796E-01        -0.23023E-01         0.00000E+00
    0.13897E-01        -0.21560E-01         0.00000E+00
    0.12987E-01        -0.20090E-01         0.00000E+00
    0.12066E-01        -0.18613E-01         0.00000E+00
    0.11133E-01        -0.17129E-01         0.00000E+00
    0.10187E-01        -0.15639E-01         0.00000E+00
    0.92249E-02        -0.14142E-01         0.00000E+00
    0.82477E-02        -0.12641E-01         0.00000E+00
    0.72569E-02        -0.11137E-01         0.00000E+00
    0.62553E-02        -0.96273E-02         0.00000E+00
    0.52412E-02        -0.81004E-02         0.00000E+00
    0.42144E-02        -0.65459E-02         0.00000E+00
    0.31768E-02        -0.49583E-02         0.00000E+00
    0.21309E-02        -0.33368E-02         0.00000E+00
    0.10733E-02        -0.16828E-02         0.00000E+00
    0.00000E+00         0.00000E+00         0.00000E+00
    0.48448E-01        -0.77561E-01         0.00000E+00
    0.46988E-01        -0.76153E-01         0.00000E+00
    0.45580E-01        -0.74745E-01         0.00000E+00
    0.44222E-01        -0.73335E-01         0.00000E+00
    0.42910E-01        -0.71923E-01         0.00000E+00
    0.41643E-01        -0.70509E-01         0.00000E+00
    0.40419E-01        -0.69092E-01         0.00000E+00
    0.39234E-01        -0.67671E-01         0.00000E+00
    0.38087E-01        -0.66247E-01         0.00000E+00
    0.36977E-01        -0.64818E-01         0.00000E+00
    0.35899E-01        -0.63385E-01         0.00000E+00
    0.34853E-01        -0.61948E-01         0.00000E+00
    0.33836E-01        -0.60505E-01         0.00000E+00
    0.32846E-01        -0.59057E-01         0.00000E+00
    0.31882E-01        -0.57604E-01         0.00000E+00
    0.30941E-01        -0.56145E-01         0.00000E+00
    0.30021E-01        -0.54680E-01         0.00000E+00
    0.29120E-01        -0.53209E-01         0.00000E+00
    0.28237E-01        -0.51733E-01         0.00000E+00
    0.27369E-01        -0.50250E-01         0.00000E+00
    0.26516E-01        -0.48762E-01         0.00000E+00
    0.25674E-01        -0.47267E-01         0.00000E+00
    0.24843E-01        -0.45766E-01         0.00000E+00
    0.24021E-01        -0.44258E-01         0.00000E+00
    0.23205E-01        -0.42744E-01         0.00000E+00
    0.22396E-01        -0.41223E-01         0.00000E+00
    0.21590E-01        -0.39696E-01         0.00000E+00
    0.20786E-01        -0.38162E-01         0.00000E+00
    0.19983E-01        -0.36622E-01         0.00000E+00
    0.19179E-01        -0.35074E-01         0.00000E+00
    0.18372E-01        -0.33520E-01         0.00000E+00
    0.17562E-01        -0.31959E-01         0.00000E+00
    0.16746E-01        -0.30392E-01         0.00000E+00
    0.15923E-01        -0.28817E-01         0.00000E+00
    0.15092E-01        -0.27236E-01         0.00000E+00
    0.14252E-01        -0.25648E-01         0.00000E+00
    0.13400E-01        -0.24052E-01         0.00000E+00
    0.12535E-01        -0.22450E-01         0.00000E+00
    0.11655E-01        -0.20841E-01         0.00000E+00
    0.10759E-01        -0.19227E-01         0.00000E+00
    0.98496E-02        -0.17610E-01         0.00000E+00
    0.89268E-02        -0.15983E-01         0.00000E+00
    0.79895E-02        -0.14333E-01         0.00000E+00
    0.70408E-02        -0.12654E-01         0.00000E+00
    0.60831E-02        -0.10940E-01         0.00000E+00
    0.51154E-02        -0.91919E-02         0.00000E+00
    0.41350E-02        -0.74107E-02         0.00000E+00
    0.31358E-02        -0.55986E-02         0.00000E+00
    0.21149E-02        -0.37578E-02         0.00000E+00
    0.10699E-02        -0.18909E-02         0.00000E+00
    0.00000E+00         0.00000E+00         0.00000E+00
    0.45690E-01        -0.85031E-01         0.00000E+00
    0.44225E-01        -0.83477E-01         0.00000E+00
    0.42820E-01        -0.81922E-01         0.00000E+00
    0.41471E-01        -0.80367E-01         0.00000E+00
    0.40177E-01        -0.78809E-01         0.00000E+00
    0.38934E-01        -0.77249E-01         0.00000E+00
    0.37740E-01        -0.75686E-01         0.00000E+00
    0.36591E-01        -0.74120E-01         0.00000E+00
    0.35484E-01        -0.72550E-01         0.00000E+00
    0.34418E-01        -0.70977E-01         0.00000E+00
    0.33389E-01        -0.69400E-01         0.00000E+00
    0.32396E-01        -0.67818E-01         0.00000E+00
    0.31434E-01        -0.66233E-01         0.00000E+00
    0.30503E-01        -0.64642E-01         0.00000E+00
    0.29600E-01        -0.63047E-01         0.00000E+00
    0.28722E-01        -0.61447E-01         0.00000E+00
    0.27867E-01        -0.59842E-01         0.00000E+00
    0.27034E-01        -0.58232E-01         0.00000E+00
    0.26219E-01        -0.56617E-01         0.00000E+00
    0.25422E-01        -0.54996E-01         0.00000E+00
    0.24639E-01        -0.53371E-01         0.00000E+00
    0.23869E-01        -0.51740E-01         0.00000E+00
    0.23111E-01        -0.50104E-01         0.00000E+00
    0.22362E-01        -0.48463E-01         0.00000E+00
    0.21620E-01        -0.46816E-01         0.00000E+00
    0.20884E-01        -0.45164E-01         0.00000E+00
    0.20152E-01        -0.43506E-01         0.00000E+00
    0.19422E-01        -0.41843E-01         0.00000E+00
    0.18693E-01        -0.40173E-01         0.00000E+00
    0.17962E-01        -0.38498E-01         0.00000E+00
    0.17228E-01        -0.36818E-01         0.00000E+00
    0.16490E-01        -0.35131E-01         0.00000E+00
    0.15746E-01        -0.33438E-01         0.00000E+00
    0.14994E-01        -0.31739E-01         0.00000E+00
    0.14231E-01        -0.30034E-01         0.00000E+00
    0.13456E-01        -0.28322E-01         0.00000E+00
    0.12667E-01        -0.26605E-01         0.00000E+00
    0.11864E-01        -0.24885E-01         0.00000E+00
    0.11050E-01        -0.23154E-01         0.00000E+00
    0.10223E-01        -0.21398E-01         0.00000E+00
    0.93852E-02        -0.19612E-01         0.00000E+00
    0.85395E-02        -0.17791E-01         0.00000E+00
    0.76836E-02        -0.15935E-01         0.00000E+00
    0.68131E-02        -0.14044E-01         0.00000E+00
    0.59234E-02        -0.12121E-01         0.00000E+00
    0.50110E-02        -0.10167E-01         0.00000E+00
    0.40732E-02        -0.81846E-02         0.00000E+00
    0.31075E-02        -0.61751E-02         0.00000E+00
    0.21100E-02        -0.41401E-02         0.00000E+00
    0.10747E-02        -0.20812E-02         0.00000E+00
    0.00000E+00         0.00000E+00         0.00000E+00
    0.41769E-01        -0.92456E-01         0.00000E+00
    0.40337E-01        -0.90748E-01         0.00000E+00
    0.38972E-01        -0.89040E-01         0.00000E+00
    0.37671E-01        -0.87330E-01         0.00000E+00
    0.36431E-01        -0.85618E-01         0.00000E+00
    0.35247E-01        -0.83904E-01         0.00000E+00
    0.34116E-01        -0.82188E-01         0.00000E+00
    0.33035E-01        -0.80470E-01         0.00000E+00
    0.32001E-01        -0.78748E-01         0.00000E+00
    0.31010E-01        -0.77024E-01         0.00000E+00
    0.30060E-01        -0.75296E-01         0.00000E+00
    0.29148E-01        -0.73565E-01         0.00000E+00
    0.28271E-01        -0.71831E-01         0.00000E+00
    0.27425E-01        -0.70093E-01         0.00000E+00
    0.26609E-01        -0.68352E-01         0.00000E+00
    0.25820E-01        -0.66607E-01         0.00000E+00
    0.25054E-01        -0.64858E-01         0.00000E+00
    0.24311E-01        -0.63106E-01         0.00000E+00
    0.23588E-01        -0.61351E-01         0.00000E+00
    0.22881E-01        -0.59591E-01         0.00000E+00
    0.22190E-01        -0.57829E-01         0.00000E+00
    0.21513E-01        -0.56062E-01         0.00000E+00
    0.20846E-01        -0.54293E-01         0.00000E+00
    0.20189E-01        -0.52519E-01         0.00000E+00
    0.19539E-01        -0.50742E-01         0.00000E+00
    0.18895E-01        -0.48962E-01         0.00000E+00
    0.18255E-01        -0.47177E-01         0.00000E+00
    0.17617E-01        -0.45389E-01         0.00000E+00
    0.16979E-01        -0.43596E-01         0.00000E+00
    0.16340E-01        -0.41800E-01         0.00000E+00
    0.15697E-01        -0.39999E-01         0.00000E+00
    0.15050E-01        -0.38194E-01         0.00000E+00
    0.14395E-01        -0.36384E-01         0.00000E+00
    0.13731E-01        -0.34569E-01         0.00000E+00
    0.13057E-01        -0.32751E-01         0.00000E+00
    0.12375E-01        -0.30928E-01         0.00000E+00
    0.11683E-01        -0.29084E-01         0.00000E+00
    0.10985E-01        -0.27211E-01         0.00000E+00
    0.10281E-01        -0.25306E-01         0.00000E+00
    0.95687E-02        -0.23368E-01         0.00000E+00
    0.88445E-02        -0.21396E-01         0.00000E+00
    0.81032E-02        -0.19391E-01         0.00000E+00
    0.73402E-02        -0.17354E-01         0.00000E+00
    0.65523E-02        -0.15284E-01         0.00000E+00
    0.57364E-02        -0.13184E-01         0.00000E+00
    0.48874E-02        -0.11053E-01         0.00000E+00
    0.39992E-02        -0.88938E-02         0.00000E+00
    0.30692E-02        -0.67067E-02         0.00000E+00
    0.20943E-02        -0.44942E-02         0.00000E+00
    0.10719E-02        -0.22581E-02         0.00000E+00
    0.00000E+00         0.00000E+00         0.00000E+00
    0.36567E-01        -0.99623E-01         0.00000E+00
    0.35215E-01        -0.97753E-01         0.00000E+00
    0.33936E-01        -0.95883E-01         0.00000E+00
    0.32726E-01        -0.94012E-01         0.00000E+00
    0.31581E-01        -0.92140E-01         0.00000E+00
    0.30497E-01        -0.90266E-01         0.00000E+00
    0.29470E-01        -0.88391E-01         0.00000E+00
    0.28496E-01        -0.86514E-01         0.00000E+00
    0.27571E-01        -0.84635E-01         0.00000E+00
    0.26692E-01        -0.82754E-01         0.00000E+00
    0.25855E-01        -0.80871E-01         0.00000E+00
    0.25057E-01        -0.78986E-01         0.00000E+00
    0.24295E-01        -0.77099E-01         0.00000E+00
    0.23565E-01        -0.75211E-01         0.00000E+00
    0.22864E-01        -0.73320E-01         0.00000E+00
    0.22189E-01        -0.71428E-01         0.00000E+00
    0.21539E-01        -0.69535E-01         0.00000E+00
    0.20910E-01        -0.67640E-01         0.00000E+00
    0.20300E-01        -0.65744E-01         0.00000E+00
    0.19706E-01        -0.63847E-01         0.00000E+00
    0.19127E-01        -0.61949E-01         0.00000E+00
    0.18560E-01        -0.60050E-01         0.00000E+00
    0.18004E-01        -0.58149E-01         0.00000E+00
    0.17457E-01        -0.56248E-01         0.00000E+00
    0.16916E-01        -0.54345E-01         0.00000E+00
    0.16381E-01        -0.52442E-01         0.00000E+00
    0.15849E-01        -0.50536E-01         0.00000E+00
    0.15320E-01        -0.48630E-01         0.00000E+00
    0.14790E-01        -0.46721E-01         0.00000E+00
    0.14258E-01        -0.44811E-01         0.00000E+00
    0.13724E-01        -0.42898E-01         0.00000E+00
    0.13185E-01        -0.40983E-01         0.00000E+00
    0.12644E-01        -0.39067E-01         0.00000E+00
    0.12098E-01        -0.37139E-01         0.00000E+00
    0.11549E-01        -0.35190E-01         0.00000E+00
    0.10999E-01        -0.33217E-01         0.00000E+00
    0.10447E-01        -0.31218E-01         0.00000E+00
    0.98887E-02        -0.29191E-01         0.00000E+00
    0.93199E-02        -0.27135E-01         0.00000E+00
    0.87362E-02        -0.25049E-01         0.00000E+00
    0.81336E-02        -0.22933E-01         0.00000E+00
    0.75081E-02        -0.20784E-01         0.00000E+00
    0.68553E-02        -0.18603E-01         0.00000E+00
    0.61695E-02        -0.16388E-01         0.00000E+00
    0.54443E-02        -0.14139E-01         0.00000E+00
    0.46744E-02        -0.11858E-01         0.00000E+00
    0.38553E-02        -0.95453E-02         0.00000E+00
    0.29819E-02        -0.72012E-02         0.00000E+00
    0.20501E-02        -0.48275E-02         0.00000E+00
    0.10582E-02        -0.24259E-02         0.00000E+00
    0.00000E+00         0.00000E+00         0.00000E+00
    0.29985E-01        -0.10627E+00         0.00000E+00
    0.28766E-01        -0.10423E+00         0.00000E+00
    0.27625E-01        -0.10220E+00         0.00000E+00
    0.26556E-01        -0.10016E+00         0.00000E+00
    0.25556E-01        -0.98121E-01         0.00000E+00
    0.24621E-01        -0.96082E-01         0.00000E+00
    0.23744E-01        -0.94042E-01         0.00000E+00
    0.22922E-01        -0.92001E-01         0.00000E+00
    0.22150E-01        -0.89959E-01         0.00000E+00
    0.21424E-01        -0.87917E-01         0.00000E+00
    0.20739E-01        -0.85875E-01         0.00000E+00
    0.20092E-01        -0.83833E-01         0.00000E+00
    0.19477E-01        -0.81791E-01         0.00000E+00
    0.18894E-01        -0.79751E-01         0.00000E+00
    0.18337E-01        -0.77712E-01         0.00000E+00
    0.17804E-01        -0.75674E-01         0.00000E+00
    0.17293E-01        -0.73639E-01         0.00000E+00
    0.16800E-01        -0.71605E-01         0.00000E+00
    0.16324E-01        -0.69573E-01         0.00000E+00
    0.15863E-01        -0.67544E-01         0.00000E+00
    0.15414E-01        -0.65516E-01         0.00000E+00
    0.14975E-01        -0.63491E-01         0.00000E+00
    0.14546E-01        -0.61468E-01         0.00000E+00
    0.14123E-01        -0.59447E-01         0.00000E+00
    0.13706E-01        -0.57427E-01         0.00000E+00
    0.13293E-01        -0.55409E-01         0.00000E+00
    0.12883E-01        -0.53392E-01         0.00000E+00
    0.12476E-01        -0.51376E-01         0.00000E+00
    0.12069E-01        -0.49362E-01         0.00000E+00
    0.11664E-01        -0.47347E-01         0.00000E+00
    0.11258E-01        -0.45329E-01         0.00000E+00
    0.10853E-01        -0.43300E-01         0.00000E+00
    0.10451E-01        -0.41257E-01         0.00000E+00
    0.10050E-01        -0.39199E-01         0.00000E+00
    0.96500E-02        -0.37124E-01         0.00000E+00
    0.92475E-02        -0.35028E-01         0.00000E+00
    0.88394E-02        -0.32912E-01         0.00000E+00
    0.84228E-02        -0.30773E-01         0.00000E+00
    0.79946E-02        -0.28608E-01         0.00000E+00
    0.75507E-02        -0.26417E-01         0.00000E+00
    0.70871E-02        -0.24196E-01         0.00000E+00
    0.65992E-02        -0.21943E-01         0.00000E+00
    0.60811E-02        -0.19656E-01         0.00000E+00
    0.55264E-02        -0.17334E-01         0.00000E+00
    0.49276E-02        -0.14974E-01         0.00000E+00
    0.42780E-02        -0.12576E-01         0.00000E+00
    0.35708E-02        -0.10137E-01         0.00000E+00
    0.28001E-02        -0.76582E-02         0.00000E+00
    0.19590E-02        -0.51398E-02         0.00000E+00
    0.10280E-02        -0.25860E-02         0.00000E+00
    0.00000E+00         0.00000E+00         0.00000E+00
    0.21951E-01        -0.11213E+00         0.00000E+00
    0.20920E-01        -0.10991E+00         0.00000E+00
    0.19974E-01        -0.10770E+00         0.00000E+00
    0.19107E-01        -0.10548E+00         0.00000E+00
    0.18314E-01        -0.10326E+00         0.00000E+00
    0.17587E-01        -0.10105E+00         0.00000E+00
    0.16919E-01        -0.98828E-01         0.00000E+00
    0.16302E-01        -0.96612E-01         0.00000E+00
    0.15732E-01        -0.94400E-01         0.00000E+00
    0.15203E-01        -0.92192E-01         0.00000E+00
    0.14710E-01        -0.89989E-01         0.00000E+00
    0.14248E-01        -0.87792E-01         0.00000E+00
    0.13815E-01        -0.85600E-01         0.00000E+00
    0.13406E-01        -0.83414E-01         0.00000E+00
    0.13020E-01        -0.81235E-01         0.00000E+00
    0.12652E-01        -0.79062E-01         0.00000E+00
    0.12301E-01        -0.76895E-01         0.00000E+00
    0.11964E-01        -0.74735E-01         0.00000E+00
    0.11639E-01        -0.72581E-01         0.00000E+00
    0.11325E-01        -0.70434E-01         0.00000E+00
    0.11020E-01        -0.68293E-01         0.00000E+00
    0.10722E-01        -0.66158E-01         0.00000E+00
    0.10430E-01        -0.64029E-01         0.00000E+00
    0.10144E-01        -0.61905E-01         0.00000E+00
    0.98624E-02        -0.59785E-01         0.00000E+00
    0.95842E-02        -0.57669E-01         0.00000E+00
    0.93087E-02        -0.55555E-01         0.00000E+00
    0.90357E-02        -0.53443E-01         0.00000E+00
    0.87652E-02        -0.51329E-01         0.00000E+00
    0.84978E-02        -0.49211E-01         0.00000E+00
    0.82340E-02        -0.47087E-01         0.00000E+00
    0.79735E-02        -0.44956E-01         0.00000E+00
    0.77147E-02        -0.42815E-01         0.00000E+00
    0.74563E-02        -0.40663E-01         0.00000E+00
    0.71969E-02        -0.38498E-01         0.00000E+00
    0.69351E-02        -0.36318E-01         0.00000E+00
    0.66690E-02        -0.34122E-01         0.00000E+00
    0.63962E-02        -0.31907E-01         0.00000E+00
    0.61142E-02        -0.29671E-01         0.00000E+00
    0.58198E-02        -0.27411E-01         0.00000E+00
    0.55095E-02        -0.25125E-01         0.00000E+00
    0.51793E-02        -0.22808E-01         0.00000E+00
    0.48240E-02        -0.20458E-01         0.00000E+00
    0.44374E-02        -0.18070E-01         0.00000E+00
    0.40117E-02        -0.15641E-01         0.00000E+00
    0.35382E-02        -0.13165E-01         0.00000E+00
    0.30073E-02        -0.10639E-01         0.00000E+00
    0.24093E-02        -0.80590E-02         0.00000E+00
    0.17264E-02        -0.54237E-02         0.00000E+00
    0.92489E-03        -0.27352E-02         0.00000E+00
    0.00000E+00         0.00000E+00         0.00000E+00
    0.12233E-01        -0.11686E+00         0.00000E+00
    0.11492E-01        -0.11443E+00         0.00000E+00
    0.10861E-01        -0.11200E+00         0.00000E+00
    0.10313E-01        -0.10958E+00         0.00000E+00
    0.98313E-02        -0.10715E+00         0.00000E+00
    0.94036E-02        -0.10474E+00         0.00000E+00
    0.90203E-02        -0.10234E+00         0.00000E+00
    0.86736E-02        -0.99943E-01         0.00000E+00
    0.83577E-02        -0.97561E-01         0.00000E+00
    0.80686E-02        -0.95192E-01         0.00000E+00
    0.78032E-02        -0.92837E-01         0.00000E+00
    0.75585E-02        -0.90496E-01         0.00000E+00
    0.73315E-02        -0.88170E-01         0.00000E+00
    0.71196E-02        -0.85858E-01         0.00000E+00
    0.69207E-02        -0.83561E-01         0.00000E+00
    0.67328E-02        -0.81278E-01         0.00000E+00
    0.65543E-02        -0.79008E-01         0.00000E+00
    0.63836E-02        -0.76752E-01         0.00000E+00
    0.62197E-02        -0.74507E-01         0.00000E+00
    0.60612E-02        -0.72273E-01         0.00000E+00
    0.59075E-02        -0.70050E-01         0.00000E+00
    0.57576E-02        -0.67837E-01         0.00000E+00
    0.56111E-02        -0.65631E-01         0.00000E+00
    0.54674E-02        -0.63432E-01         0.00000E+00
    0.53261E-02        -0.61239E-01         0.00000E+00
    0.51872E-02        -0.59051E-01         0.00000E+00
    0.50506E-02        -0.56865E-01         0.00000E+00
    0.49165E-02        -0.54681E-01         0.00000E+00
    0.47849E-02        -0.52497E-01         0.00000E+00
    0.46554E-02        -0.50310E-01         0.00000E+00
    0.45276E-02        -0.48120E-01         0.00000E+00
    0.44011E-02        -0.45926E-01         0.00000E+00
    0.42754E-02        -0.43725E-01         0.00000E+00
    0.41501E-02        -0.41516E-01         0.00000E+00
    0.40243E-02        -0.39297E-01         0.00000E+00
    0.38973E-02        -0.37067E-01         0.00000E+00
    0.37681E-02        -0.34823E-01         0.00000E+00
    0.36357E-02        -0.32564E-01         0.00000E+00
    0.34987E-02        -0.30287E-01         0.00000E+00
    0.33554E-02        -0.27990E-01         0.00000E+00
    0.32037E-02        -0.25669E-01         0.00000E+00
    0.30414E-02        -0.23321E-01         0.00000E+00
    0.28654E-02        -0.20942E-01         0.00000E+00
    0.26718E-02        -0.18527E-01         0.00000E+00
    0.24558E-02        -0.16071E-01         0.00000E+00
    0.22102E-02        -0.13566E-01         0.00000E+00
    0.19256E-02        -0.11006E-01         0.00000E+00
    0.15901E-02        -0.83802E-02         0.00000E+00
    0.11870E-02        -0.56780E-02         0.00000E+00
    0.68326E-03        -0.28878E-02         0.00000E+00
    0.00000E+00         0.00000E+00         0.00000E+00
    0.00000E+00        -0.11924E+00         0.00000E+00
    0.00000E+00        -0.11660E+00         0.00000E+00
    0.00000E+00        -0.11397E+00         0.00000E+00
    0.00000E+00        -0.11137E+00         0.00000E+00
    0.00000E+00        -0.10880E+00         0.00000E+00
    0.00000E+00        -0.10626E+00         0.00000E+00
    0.00000E+00        -0.10374E+00         0.00000E+00
    0.00000E+00        -0.10126E+00         0.00000E+00
    0.00000E+00        -0.98787E-01         0.00000E+00
    0.00000E+00        -0.96338E-01         0.00000E+00
    0.00000E+00        -0.93907E-01         0.00000E+00
    0.00000E+00        -0.91499E-01         0.00000E+00
    0.00000E+00        -0.89110E-01         0.00000E+00
    0.00000E+00        -0.86742E-01         0.00000E+00
    0.00000E+00        -0.84393E-01         0.00000E+00
    0.00000E+00        -0.82063E-01         0.00000E+00
    0.00000E+00        -0.79751E-01         0.00000E+00
    0.00000E+00        -0.77454E-01         0.00000E+00
    0.00000E+00        -0.75173E-01         0.00000E+00
    0.00000E+00        -0.72906E-01         0.00000E+00
    0.00000E+00        -0.70650E-01         0.00000E+00
    0.00000E+00        -0.68406E-01         0.00000E+00
    0.00000E+00        -0.66172E-01         0.00000E+00
    0.00000E+00        -0.63945E-01         0.00000E+00
    0.00000E+00        -0.61725E-01         0.00000E+00
    0.00000E+00        -0.59509E-01         0.00000E+00
    0.00000E+00        -0.57297E-01         0.00000E+00
    0.00000E+00        -0.55087E-01         0.00000E+00
    0.00000E+00        -0.52878E-01         0.00000E+00
    0.00000E+00        -0.50668E-01         0.00000E+00
    0.00000E+00        -0.48456E-01         0.00000E+00
    0.00000E+00        -0.46240E-01         0.00000E+00
    0.00000E+00        -0.44018E-01         0.00000E+00
    0.00000E+00        -0.41790E-01         0.00000E+00
    0.00000E+00        -0.39553E-01         0.00000E+00
    0.00000E+00        -0.37306E-01         0.00000E+00
    0.00000E+00        -0.35047E-01         0.00000E+00
    0.00000E+00        -0.32773E-01         0.00000E+00
    0.00000E+00        -0.30483E-01         0.00000E+00
    0.00000E+00        -0.28174E-01         0.00000E+00
    0.00000E+00        -0.25844E-01         0.00000E+00
    0.00000E+00        -0.23488E-01         0.00000E+00
    0.00000E+00        -0.21103E-01         0.00000E+00
    0.00000E+00        -0.18684E-01         0.00000E+00
    0.00000E+00        -0.16226E-01         0.00000E+00
    0.00000E+00        -0.13720E-01         0.00000E+00
    0.00000E+00        -0.11158E-01         0.00000E+00
    0.00000E+00        -0.85271E-02         0.00000E+00
    0.00000E+00        -0.58096E-02         0.00000E+00
    0.00000E+00        -0.29804E-02         0.00000E+00
    0.00000E+00         0.00000E+00         0.00000E+00
CELL_DATA       5000
VECTORS vDarcy double 
    0.85387E-13         0.00000E+00         0.00000E+00
    0.85387E-13         0.00000E+00         0.00000E+00
    0.85387E-13         0.27940E-20         0.00000E+00
    0.85387E-13        -0.69849E-21         0.00000E+00
    0.85387E-13         0.65193E-20         0.00000E+00
    0.85387E-13         0.86147E-20         0.00000E+00
    0.85387E-13         0.53551E-20         0.00000E+00
    0.85387E-13         0.41910E-20         0.00000E+00
    0.85387E-13         0.46566E-20         0.00000E+00
    0.85387E-13         0.00000E+00         0.00000E+00
    0.85387E-13         0.00000E+00         0.00000E+00
    0.85387E-13         0.23283E-21         0.00000E+00
    0.85387E-13        -0.23283E-21         0.00000E+00
    0.85387E-13         0.20955E-20         0.00000E+00
    0.85387E-13         0.37253E-20         0.00000E+00
    0.85387E-13        -0.23283E-20         0.00000E+00
    0.85387E-13         0.00000E+00         0.00000E+00
    0.85387E-13         0.18626E-20         0.00000E+00
    0.85387E-13         0.27940E-20         0.00000E+00
    0.85387E-13         0.00000E+00         0.00000E+00
    0.85387E-13         0.00000E+00         0.00000E+00
    0.85387E-13        -0.23283E-20         0.00000E+00
    0.85387E-13         0.00000E+00         0.00000E+00
    0.85387E-13         0.25611E-20         0.00000E+00
    0.85387E-13        -0.46566E-21         0.00000E+00
    0.85387E-13        -0.16298E-20         0.00000E+00
    0.85387E-13        -0.46566E-21         0.00000E+00
    0.85387E-13         0.23283E-20         0.00000E+00
    0.85387E-13         0.00000E+00         0.00000E+00
    0.85387E-13         0.00000E+00         0.00000E+00
    0.85387E-13         0.23283E-20         0.00000E+00
    0.85387E-13         0.27940E-20         0.00000E+00
    0.85387E-13         0.46566E-21         0.00000E+00
    0.85387E-13         0.23283E-20         0.00000E+00
    0.85387E-13         0.46566E-20         0.00000E+00
    0.85386E-13         0.00000E+00         0.00000E+00
    0.85387E-13        -0.27940E-20         0.00000E+00
    0.85387E-13         0.27940E-20         0.00000E+00
    0.85387E-13        -0.23283E-20         0.00000E+00
    0.85387E-13         0.23283E-20         0.00000E+00
    0.85386E-13         0.39581E-20         0.00000E+00
    0.85386E-13        -0.39581E-20         0.00000E+00
    0.85386E-13         0.46566E-20         0.00000E+00
    0.85386E-13         0.32596E-20         0.00000E+00
    0.85386E-13        -0.46566E-21         0.00000E+00
    0.85386E-13         0.46566E-20         0.00000E+00
    0.85386E-13        -0.46566E-21         0.00000E+00
    0.85386E-13         0.74506E-20         0.00000E+00
    0.85386E-13         0.27940E-20         0.00000E+00
    0.85386E-13         0.46566E-20         0.00000E+00
    0.88635E-13        -0.46566E-21         0.00000E+00
    0.88635E-13         0.93132E-20         0.00000E+00
    0.88635E-13         0.15832E-19         0.00000E+00
    0.88635E-13         0.17229E-19         0.00000E+00
    0.88635E-13         0.11176E-19         0.00000E+00
    0.88635E-13         0.88476E-20         0.00000E+00
    0.88635E-13         0.65193E-20         0.00000E+00
    0.88635E-13         0.32596E-20         0.00000E+00
    0.88635E-13         0.97789E-20         0.00000E+00
    0.88635E-13         0.23283E-20         0.00000E+00
    0.88635E-13         0.23283E-20         0.00000E+00
    0.88635E-13        -0.20955E-20         0.00000E+00
    0.88635E-13         0.16298E-20         0.00000E+00
    0.88635E-13         0.65193E-20         0.00000E+00
    0.88635E-13         0.93132E-20         0.00000E+00
    0.88635E-13         0.97789E-20         0.00000E+00
    0.88635E-13         0.18626E-20         0.00000E+00
    0.88635E-13        -0.23283E-20         0.00000E+00
    0.88635E-13         0.60536E-20         0.00000E+00
    0.88635E-13         0.27940E-20         0.00000E+00
    0.88635E-13         0.20955E-19         0.00000E+00
    0.88635E-13         0.79162E-20         0.00000E+00
    0.88635E-13         0.23283E-20         0.00000E+00
    0.88635E-13        -0.18626E-20         0.00000E+00
    0.88635E-13         0.46566E-20         0.00000E+00
    0.88635E-13         0.11642E-20         0.00000E+00
    0.88635E-13         0.46566E-21         0.00000E+00
    0.88635E-13        -0.69849E-20         0.00000E+00
    0.88635E-13        -0.74506E-20         0.00000E+00
    0.88635E-13        -0.93132E-20         0.00000E+00
    0.88635E-13         0.60536E-20         0.00000E+00
    0.88635E-13        -0.46566E-21         0.00000E+00
    0.88635E-13         0.46566E-20         0.00000E+00
    0.88635E-13         0.65193E-20         0.00000E+00
    0.88635E-13         0.37253E-20         0.00000E+00
    0.88635E-13         0.00000E+00         0.00000E+00
    0.88635E-13         0.37253E-20         0.00000E+00
    0.88635E-13         0.13970E-20         0.00000E+00
    0.88635E-13         0.46566E-21         0.00000E+00
    0.88635E-13         0.00000E+00         0.00000E+00
    0.88635E-13        -0.23283E-20         0.00000E+00
    0.88635E-13         0.00000E+00         0.00000E+00
    0.88635E-13        -0.32596E-20         0.00000E+00
    0.88635E-13        -0.32596E-20         0.00000E+00
    0.88635E-13         0.46566E-21         0.00000E+00
    0.88635E-13         0.37253E-20         0.00000E+00
    0.88635E-13         0.79162E-20         0.00000E+00
    0.88635E-13         0.74506E-20         0.00000E+00
    0.88635E-13         0.10710E-19         0.00000E+00
    0.88635E-13        -0.93132E-21         0.00000E+00
    0.95251E-13         0.27940E-20         0.00000E+00
    0.95251E-13         0.14668E-19         0.00000E+00
    0.95251E-13         0.22585E-19         0.00000E+00
    0.95251E-13         0.22817E-19         0.00000E+00
    0.95251E-13         0.24680E-19         0.00000E+00
    0.95251E-13         0.16531E-19         0.00000E+00
    0.95251E-13         0.67521E-20         0.00000E+00
    0.95251E-13        -0.48894E-20         0.00000E+00
    0.95251E-13         0.93132E-21         0.00000E+00
    0.95251E-13         0.81491E-20         0.00000E+00
    0.95251E-13         0.18626E-20         0.00000E+00
    0.95251E-13        -0.67521E-20         0.00000E+00
    0.95251E-13        -0.65193E-20         0.00000E+00
    0.95251E-13         0.69849E-21         0.00000E+00
    0.95251E-13         0.83819E-20         0.00000E+00
    0.95251E-13        -0.46566E-21         0.00000E+00
    0.95251E-13         0.41910E-20         0.00000E+00
    0.95251E-13         0.11642E-19         0.00000E+00
    0.95251E-13         0.10710E-19         0.00000E+00
    0.95251E-13         0.60536E-20         0.00000E+00
    0.95251E-13         0.16764E-19         0.00000E+00
    0.95251E-13         0.41910E-20         0.00000E+00
    0.95251E-13        -0.69849E-21         0.00000E+00
    0.95251E-13        -0.48894E-20         0.00000E+00
    0.95251E-13         0.23283E-20         0.00000E+00
    0.95251E-13         0.55879E-20         0.00000E+00
    0.95251E-13        -0.60536E-20         0.00000E+00
    0.95251E-13        -0.30268E-20         0.00000E+00
    0.95251E-13        -0.23283E-20         0.00000E+00
    0.95251E-13        -0.97789E-20         0.00000E+00
    0.95251E-13         0.55879E-20         0.00000E+00
    0.95251E-13         0.44238E-20         0.00000E+00
    0.95251E-13         0.23283E-20         0.00000E+00
    0.95251E-13         0.69849E-20         0.00000E+00
    0.95251E-13         0.11642E-19         0.00000E+00
    0.95251E-13        -0.23283E-20         0.00000E+00
    0.95251E-13         0.46566E-21         0.00000E+00
    0.95251E-13         0.00000E+00         0.00000E+00
    0.95251E-13         0.37253E-20         0.00000E+00
    0.95251E-13        -0.51223E-20         0.00000E+00
    0.95251E-13         0.27940E-20         0.00000E+00
    0.95251E-13        -0.13970E-20         0.00000E+00
    0.95251E-13         0.41910E-20         0.00000E+00
    0.95251E-13        -0.18394E-19         0.00000E+00
    0.95251E-13        -0.18626E-20         0.00000E+00
    0.95251E-13         0.23283E-21         0.00000E+00
    0.95251E-13         0.58208E-20         0.00000E+00
    0.95251E-13        -0.72177E-20         0.00000E+00
    0.95251E-13        -0.37253E-20         0.00000E+00
    0.95251E-13         0.13970E-20         0.00000E+00
    0.10548E-12        -0.51223E-20         0.00000E+00
    0.10548E-12         0.23283E-20         0.00000E+00
    0.10548E-12         0.12573E-19         0.00000E+00
    0.10548E-12         0.37253E-20         0.00000E+00
    0.10548E-12         0.83819E-20         0.00000E+00
    0.10548E-12         0.13039E-19         0.00000E+00
    0.10548E-12         0.97789E-20         0.00000E+00
    0.10548E-12         0.27940E-20         0.00000E+00
    0.10548E-12        -0.65193E-20         0.00000E+00
    0.10548E-12         0.55879E-20         0.00000E+00
    0.10548E-12        -0.46566E-20         0.00000E+00
    0.10548E-12        -0.55879E-20         0.00000E+00
    0.10548E-12        -0.41910E-20         0.00000E+00
    0.10548E-12        -0.18626E-20         0.00000E+00
    0.10548E-12         0.55879E-20         0.00000E+00
    0.10548E-12         0.46566E-20         0.00000E+00
    0.10548E-12         0.55879E-20         0.00000E+00
    0.10548E-12         0.69849E-20         0.00000E+00
    0.10548E-12         0.16298E-19         0.00000E+00
    0.10548E-12         0.19092E-19         0.00000E+00
    0.10548E-12         0.69849E-20         0.00000E+00
    0.10548E-12        -0.69849E-20         0.00000E+00
    0.10548E-12        -0.41910E-20         0.00000E+00
    0.10548E-12        -0.46566E-20         0.00000E+00
    0.10548E-12         0.00000E+00         0.00000E+00
    0.10548E-12        -0.83819E-20         0.00000E+00
    0.10548E-12        -0.55879E-20         0.00000E+00
    0.10548E-12         0.55879E-20         0.00000E+00
    0.10548E-12         0.10710E-19         0.00000E+00
    0.10548E-12         0.79162E-20         0.00000E+00
    0.10548E-12         0.65193E-20         0.00000E+00
    0.10548E-12         0.10710E-19         0.00000E+00
    0.10548E-12         0.23283E-20         0.00000E+00
    0.10548E-12        -0.13970E-20         0.00000E+00
    0.10548E-12         0.41910E-20         0.00000E+00
    0.10548E-12        -0.18626E-20         0.00000E+00
    0.10548E-12        -0.69849E-20         0.00000E+00
    0.10548E-12         0.41910E-20         0.00000E+00
    0.10548E-12         0.18626E-20         0.00000E+00
    0.10548E-12         0.32596E-20         0.00000E+00
    0.10548E-12         0.55879E-20         0.00000E+00
    0.10548E-12         0.76834E-20         0.00000E+00
    0.10548E-12         0.93132E-20         0.00000E+00
    0.10548E-12        -0.13039E-19         0.00000E+00
    0.10548E-12         0.93132E-20         0.00000E+00
    0.10548E-12         0.18626E-20         0.00000E+00
    0.10548E-12        -0.60536E-20         0.00000E+00
    0.10548E-12         0.32596E-20         0.00000E+00
    0.10548E-12        -0.11176E-19         0.00000E+00
    0.10548E-12         0.23283E-20         0.00000E+00
    0.11970E-12        -0.74506E-20         0.00000E+00
    0.11970E-12        -0.17229E-19         0.00000E+00
    0.11970E-12        -0.55879E-20         0.00000E+00
    0.11970E-12        -0.17229E-19         0.00000E+00
    0.11970E-12        -0.27940E-20         0.00000E+00
    0.11970E-12         0.55879E-20         0.00000E+00
    0.11970E-12         0.81491E-20         0.00000E+00
    0.11970E-12        -0.46566E-21         0.00000E+00
    0.11970E-12        -0.55879E-20         0.00000E+00
    0.11970E-12        -0.69849E-20         0.00000E+00
    0.11970E-12        -0.83819E-20         0.00000E+00
    0.11970E-12        -0.13970E-19         0.00000E+00
    0.11970E-12        -0.69849E-20         0.00000E+00
    0.11970E-12         0.16298E-20         0.00000E+00
    0.11970E-12         0.83819E-20         0.00000E+00
    0.11970E-12         0.12573E-19         0.00000E+00
    0.11970E-12         0.51223E-20         0.00000E+00
    0.11970E-12         0.23283E-20         0.00000E+00
    0.11970E-12         0.19092E-19         0.00000E+00
    0.11970E-12         0.16298E-19         0.00000E+00
    0.11970E-12         0.69849E-20         0.00000E+00
    0.11970E-12         0.13504E-19         0.00000E+00
    0.11970E-12         0.23283E-20         0.00000E+00
    0.11970E-12         0.69849E-20         0.00000E+00
    0.11970E-12         0.15134E-19         0.00000E+00
    0.11970E-12        -0.74506E-20         0.00000E+00
    0.11970E-12         0.30268E-20         0.00000E+00
    0.11970E-12        -0.41910E-20         0.00000E+00
    0.11970E-12         0.97789E-20         0.00000E+00
    0.11970E-12         0.93132E-21         0.00000E+00
    0.11970E-12         0.60536E-20         0.00000E+00
    0.11970E-12         0.32596E-20         0.00000E+00
    0.11970E-12        -0.55879E-20         0.00000E+00
    0.11970E-12         0.18626E-20         0.00000E+00
    0.11970E-12        -0.74506E-20         0.00000E+00
    0.11970E-12        -0.51223E-20         0.00000E+00
    0.11970E-12        -0.13970E-20         0.00000E+00
    0.11970E-12         0.13504E-19         0.00000E+00
    0.11970E-12         0.11642E-19         0.00000E+00
    0.11970E-12         0.12573E-19         0.00000E+00
    0.11970E-12         0.15134E-19         0.00000E+00
    0.11970E-12         0.17229E-19         0.00000E+00
    0.11970E-12         0.16298E-19         0.00000E+00
    0.11970E-12         0.10477E-19         0.00000E+00
    0.11970E-12         0.81491E-20         0.00000E+00
    0.11970E-12         0.41910E-20         0.00000E+00
    0.11970E-12         0.41910E-20         0.00000E+00
    0.11970E-12         0.51223E-20         0.00000E+00
    0.11970E-12         0.23283E-20         0.00000E+00
    0.11970E-12        -0.13970E-20         0.00000E+00
    0.13843E-12        -0.18626E-20         0.00000E+00
    0.13843E-12         0.41910E-20         0.00000E+00
    0.13843E-12         0.23283E-21         0.00000E+00
    0.13843E-12         0.18626E-20         0.00000E+00
    0.13843E-12         0.18626E-20         0.00000E+00
    0.13843E-12        -0.37253E-20         0.00000E+00
    0.13843E-12         0.37253E-20         0.00000E+00
    0.13843E-12        -0.41910E-20         0.00000E+00
    0.13843E-12        -0.11176E-19         0.00000E+00
    0.13843E-12        -0.24680E-19         0.00000E+00
    0.13843E-12        -0.51223E-20         0.00000E+00
    0.13843E-12        -0.12573E-19         0.00000E+00
    0.13843E-12        -0.11874E-19         0.00000E+00
    0.13843E-12        -0.41910E-20         0.00000E+00
    0.13843E-12        -0.10245E-19         0.00000E+00
    0.13843E-12        -0.13504E-19         0.00000E+00
    0.13843E-12        -0.79162E-20         0.00000E+00
    0.13843E-12         0.60536E-20         0.00000E+00
    0.13843E-12         0.27940E-20         0.00000E+00
    0.13843E-12        -0.18626E-20         0.00000E+00
    0.13843E-12        -0.32596E-20         0.00000E+00
    0.13843E-12         0.11176E-19         0.00000E+00
    0.13843E-12         0.60536E-20         0.00000E+00
    0.13843E-12        -0.13970E-20         0.00000E+00
    0.13843E-12         0.12107E-19         0.00000E+00
    0.13843E-12         0.13970E-19         0.00000E+00
    0.13843E-12         0.79162E-20         0.00000E+00
    0.13843E-12        -0.46566E-21         0.00000E+00
    0.13843E-12         0.18626E-20         0.00000E+00
    0.13843E-12         0.79162E-20         0.00000E+00
    0.13843E-12         0.18626E-20         0.00000E+00
    0.13843E-12         0.55879E-20         0.00000E+00
    0.13843E-12        -0.46566E-21         0.00000E+00
    0.13843E-12         0.51223E-20         0.00000E+00
    0.13843E-12        -0.27940E-20         0.00000E+00
    0.13843E-12         0.37253E-20         0.00000E+00
    0.13843E-12         0.83819E-20         0.00000E+00
    0.13843E-12         0.79162E-20         0.00000E+00
    0.13843E-12         0.69849E-20         0.00000E+00
    0.13843E-12         0.55879E-20         0.00000E+00
    0.13843E-12         0.21886E-19         0.00000E+00
    0.13843E-12         0.11642E-19         0.00000E+00
    0.13843E-12         0.21420E-19         0.00000E+00
    0.13843E-12         0.16298E-19         0.00000E+00
    0.13843E-12         0.15600E-19         0.00000E+00
    0.13843E-12         0.69849E-20         0.00000E+00
    0.13843E-12         0.23283E-21         0.00000E+00
    0.13843E-12         0.51223E-20         0.00000E+00
    0.13843E-12        -0.60536E-20         0.00000E+00
    0.13843E-12        -0.18626E-20         0.00000E+00
    0.16236E-12         0.27940E-20         0.00000E+00
    0.16236E-12         0.11642E-19         0.00000E+00
    0.16236E-12         0.12107E-19         0.00000E+00
    0.16236E-12        -0.27940E-20         0.00000E+00
    0.16236E-12        -0.13504E-19         0.00000E+00
    0.16236E-12        -0.12107E-19         0.00000E+00
    0.16236E-12        -0.58208E-20         0.00000E+00
    0.16236E-12        -0.15832E-19         0.00000E+00
    0.16236E-12        -0.30734E-19         0.00000E+00
    0.16236E-12        -0.27940E-19         0.00000E+00
    0.16236E-12        -0.11176E-19         0.00000E+00
    0.16236E-12        -0.97789E-20         0.00000E+00
    0.16236E-12        -0.74506E-20         0.00000E+00
    0.16236E-12        -0.11409E-19         0.00000E+00
    0.16236E-12        -0.11176E-19         0.00000E+00
    0.16236E-12        -0.20489E-19         0.00000E+00
    0.16236E-12        -0.20955E-19         0.00000E+00
    0.16236E-12        -0.21188E-19         0.00000E+00
    0.16236E-12        -0.21653E-19         0.00000E+00
    0.16236E-12        -0.18626E-19         0.00000E+00
    0.16236E-12        -0.11642E-19         0.00000E+00
    0.16236E-12         0.23283E-20         0.00000E+00
    0.16236E-12         0.46566E-20         0.00000E+00
    0.16236E-12        -0.88476E-20         0.00000E+00
    0.16236E-12        -0.18626E-20         0.00000E+00
    0.16236E-12         0.23283E-20         0.00000E+00
    0.16236E-12         0.12107E-19         0.00000E+00
    0.16236E-12         0.15832E-19         0.00000E+00
    0.16236E-12         0.74506E-20         0.00000E+00
    0.16236E-12         0.51223E-20         0.00000E+00
    0.16236E-12         0.41910E-20         0.00000E+00
    0.16236E-12         0.11642E-19         0.00000E+00
    0.16236E-12         0.46566E-20         0.00000E+00
    0.16236E-12        -0.97789E-20         0.00000E+00
    0.16236E-12        -0.93132E-21         0.00000E+00
    0.16236E-12         0.11642E-19         0.00000E+00
    0.16236E-12         0.11642E-19         0.00000E+00
    0.16236E-12         0.97789E-20         0.00000E+00
    0.16236E-12         0.58208E-20         0.00000E+00
    0.16236E-12         0.15367E-19         0.00000E+00
    0.16236E-12         0.12573E-19         0.00000E+00
    0.16236E-12         0.13970E-19         0.00000E+00
    0.16236E-12         0.11409E-19         0.00000E+00
    0.16236E-12         0.16764E-19         0.00000E+00
    0.16236E-12         0.13737E-19         0.00000E+00
    0.16236E-12         0.27940E-20         0.00000E+00
    0.16236E-12        -0.37253E-20         0.00000E+00
    0.16236E-12         0.88476E-20         0.00000E+00
    0.16236E-12        -0.51223E-20         0.00000E+00
    0.16236E-12        -0.97789E-20         0.00000E+00
    0.19237E-12         0.25611E-20         0.00000E+00
    0.19237E-12        -0.16531E-19         0.00000E+00
    0.19237E-12        -0.10710E-19         0.00000E+00
    0.19237E-12        -0.22119E-19         0.00000E+00
    0.19237E-12        -0.16065E-19         0.00000E+00
    0.19237E-12        -0.10710E-19         0.00000E+00
    0.19237E-12        -0.11409E-19         0.00000E+00
    0.19237E-12        -0.20023E-19         0.00000E+00
    0.19237E-12        -0.27940E-19         0.00000E+00
    0.19237E-12        -0.18626E-19         0.00000E+00
    0.19237E-12        -0.13970E-19         0.00000E+00
    0.19237E-12        -0.21653E-19         0.00000E+00
    0.19237E-12        -0.93132E-20         0.00000E+00
    0.19237E-12         0.93132E-21         0.00000E+00
    0.19237E-12        -0.11642E-20         0.00000E+00
    0.19237E-12        -0.13970E-19         0.00000E+00
    0.19237E-12        -0.20023E-19         0.00000E+00
    0.19237E-12        -0.14435E-19         0.00000E+00
    0.19237E-12        -0.13970E-19         0.00000E+00
    0.19237E-12        -0.14435E-19         0.00000E+00
    0.19237E-12        -0.14435E-19         0.00000E+00
    0.19237E-12        -0.74506E-20         0.00000E+00
    0.19237E-12        -0.79162E-20         0.00000E+00
    0.19237E-12         0.23283E-20         0.00000E+00
    0.19237E-12         0.32596E-20         0.00000E+00
    0.19237E-12         0.58208E-20         0.00000E+00
    0.19237E-12         0.18808E-36         0.00000E+00
    0.19237E-12         0.41910E-20         0.00000E+00
    0.19237E-12        -0.23283E-20         0.00000E+00
    0.19237E-12        -0.65193E-20         0.00000E+00
    0.19237E-12         0.60536E-20         0.00000E+00
    0.19237E-12         0.10710E-19         0.00000E+00
    0.19237E-12         0.60536E-20         0.00000E+00
    0.19237E-12         0.41910E-20         0.00000E+00
    0.19237E-12         0.18626E-20         0.00000E+00
    0.19237E-12         0.41910E-20         0.00000E+00
    0.19237E-12         0.93132E-20         0.00000E+00
    0.19237E-12         0.88476E-20         0.00000E+00
    0.19237E-12         0.10245E-19         0.00000E+00
    0.19237E-12         0.14668E-19         0.00000E+00
    0.19237E-12         0.27940E-20         0.00000E+00
    0.19237E-12         0.00000E+00         0.00000E+00
    0.19237E-12        -0.41910E-20         0.00000E+00
    0.19237E-12         0.74506E-20         0.00000E+00
    0.19237E-12        -0.53551E-20         0.00000E+00
    0.19237E-12        -0.10710E-19         0.00000E+00
    0.19237E-12         0.48894E-20         0.00000E+00
    0.19237E-12         0.69849E-20         0.00000E+00
    0.19237E-12         0.65193E-20         0.00000E+00
    0.19237E-12        -0.11642E-19         0.00000E+00
    0.22955E-12        -0.13970E-20         0.00000E+00
    0.22955E-12        -0.13970E-19         0.00000E+00
    0.22955E-12        -0.20955E-20         0.00000E+00
    0.22955E-12        -0.14901E-19         0.00000E+00
    0.22955E-12        -0.55879E-20         0.00000E+00
    0.22955E-12        -0.67521E-20         0.00000E+00
    0.22955E-12        -0.17928E-19         0.00000E+00
    0.22955E-12        -0.23749E-19         0.00000E+00
    0.22955E-12        -0.14435E-19         0.00000E+00
    0.22955E-12        -0.65193E-20         0.00000E+00
    0.22955E-12        -0.83819E-20         0.00000E+00
    0.22955E-12        -0.44238E-20         0.00000E+00
    0.22955E-12        -0.51223E-20         0.00000E+00
    0.22955E-12        -0.65193E-20         0.00000E+00
    0.22955E-12        -0.55879E-20         0.00000E+00
    0.22955E-12        -0.13970E-20         0.00000E+00
    0.22955E-12        -0.51223E-20         0.00000E+00
    0.22955E-12        -0.51223E-20         0.00000E+00
    0.22955E-12        -0.93132E-21         0.00000E+00
    0.22955E-12        -0.93132E-21         0.00000E+00
    0.22955E-12        -0.97789E-20         0.00000E+00
    0.22955E-12        -0.23283E-20         0.00000E+00
    0.22955E-12        -0.46566E-20         0.00000E+00
    0.22955E-12         0.13970E-20         0.00000E+00
    0.22955E-12         0.16997E-19         0.00000E+00
    0.22955E-12         0.90804E-20         0.00000E+00
    0.22955E-12        -0.23283E-20         0.00000E+00
    0.22955E-12        -0.32596E-20         0.00000E+00
    0.22955E-12        -0.69849E-20         0.00000E+00
    0.22955E-12        -0.13970E-20         0.00000E+00
    0.22955E-12        -0.93132E-21         0.00000E+00
    0.22955E-12         0.12340E-19         0.00000E+00
    0.22955E-12         0.11642E-19         0.00000E+00
    0.22955E-12         0.83819E-20         0.00000E+00
    0.22955E-12         0.69849E-20         0.00000E+00
    0.22955E-12         0.65193E-20         0.00000E+00
    0.22955E-12         0.97789E-20         0.00000E+00
    0.22955E-12         0.00000E+00         0.00000E+00
    0.22955E-12        -0.46566E-21         0.00000E+00
    0.22955E-12        -0.46566E-20         0.00000E+00
    0.22955E-12        -0.18626E-20         0.00000E+00
    0.22955E-12        -0.11642E-19         0.00000E+00
    0.22955E-12        -0.23283E-20         0.00000E+00
    0.22955E-12         0.00000E+00         0.00000E+00
    0.22955E-12        -0.25611E-20         0.00000E+00
    0.22955E-12        -0.97789E-20         0.00000E+00
    0.22955E-12        -0.23283E-21         0.00000E+00
    0.22955E-12         0.18626E-20         0.00000E+00
    0.22955E-12         0.60536E-20         0.00000E+00
    0.22955E-12         0.20955E-20         0.00000E+00
    0.27526E-12         0.67521E-20         0.00000E+00
    0.27526E-12         0.53551E-20         0.00000E+00
    0.27526E-12         0.12340E-19         0.00000E+00
    0.27526E-12         0.32596E-20         0.00000E+00
    0.27526E-12        -0.34925E-20         0.00000E+00
    0.27526E-12        -0.37253E-20         0.00000E+00
    0.27526E-12        -0.16764E-19         0.00000E+00
    0.27526E-12        -0.14435E-19         0.00000E+00
    0.27526E-12         0.13970E-20         0.00000E+00
    0.27526E-12         0.13970E-20         0.00000E+00
    0.27526E-12        -0.60536E-20         0.00000E+00
    0.27526E-12        -0.32596E-20         0.00000E+00
    0.27526E-12         0.51223E-20         0.00000E+00
    0.27526E-12        -0.10710E-19         0.00000E+00
    0.27526E-12         0.93132E-21         0.00000E+00
    0.27526E-12        -0.18626E-20         0.00000E+00
    0.27526E-12        -0.27940E-20         0.00000E+00
    0.27526E-12        -0.12107E-19         0.00000E+00
    0.27526E-12         0.55879E-20         0.00000E+00
    0.27526E-12         0.83819E-20         0.00000E+00
    0.27526E-12         0.60536E-20         0.00000E+00
    0.27526E-12         0.16764E-19         0.00000E+00
    0.27526E-12         0.79162E-20         0.00000E+00
    0.27526E-12         0.41910E-20         0.00000E+00
    0.27526E-12         0.15367E-19         0.00000E+00
    0.27526E-12         0.58208E-20         0.00000E+00
    0.27526E-12        -0.18626E-20         0.00000E+00
    0.27526E-12        -0.46566E-21         0.00000E+00
    0.27526E-12        -0.55879E-20         0.00000E+00
    0.27526E-12        -0.10245E-19         0.00000E+00
    0.27526E-12         0.93132E-21         0.00000E+00
    0.27526E-12         0.27940E-20         0.00000E+00
    0.27526E-12         0.48894E-20         0.00000E+00
    0.27526E-12         0.51223E-20         0.00000E+00
    0.27526E-12         0.10245E-19         0.00000E+00
    0.27526E-12         0.15367E-19         0.00000E+00
    0.27526E-12         0.88476E-20         0.00000E+00
    0.27526E-12        -0.23283E-20         0.00000E+00
    0.27526E-12        -0.18626E-20         0.00000E+00
    0.27526E-12        -0.55879E-20         0.00000E+00
    0.27526E-12        -0.79162E-20         0.00000E+00
    0.27526E-12         0.32596E-20         0.00000E+00
    0.27526E-12         0.79162E-20         0.00000E+00
    0.27526E-12        -0.25611E-20         0.00000E+00
    0.27526E-12         0.18626E-20         0.00000E+00
    0.27526E-12         0.93132E-21         0.00000E+00
    0.27526E-12         0.39581E-20         0.00000E+00
    0.27526E-12         0.44238E-20         0.00000E+00
    0.27526E-12         0.46566E-20         0.00000E+00
    0.27526E-12         0.34925E-20         0.00000E+00
    0.33117E-12         0.46566E-20         0.00000E+00
    0.33117E-12         0.32596E-20         0.00000E+00
    0.33117E-12         0.93132E-20         0.00000E+00
    0.33117E-12         0.74506E-20         0.00000E+00
    0.33117E-12         0.10245E-19         0.00000E+00
    0.33117E-12        -0.48894E-20         0.00000E+00
    0.33117E-12        -0.46566E-20         0.00000E+00
    0.33117E-12        -0.41910E-20         0.00000E+00
    0.33117E-12         0.74506E-20         0.00000E+00
    0.33117E-12        -0.60536E-20         0.00000E+00
    0.33117E-12        -0.41910E-20         0.00000E+00
    0.33117E-12        -0.51223E-20         0.00000E+00
    0.33117E-12        -0.18626E-20         0.00000E+00
    0.33117E-12        -0.74506E-20         0.00000E+00
    0.33117E-12         0.10245E-19         0.00000E+00
    0.33117E-12        -0.76834E-20         0.00000E+00
    0.33117E-12        -0.58208E-20         0.00000E+00
    0.33117E-12        -0.79162E-20         0.00000E+00
    0.33117E-12         0.32596E-20         0.00000E+00
    0.33117E-12         0.14203E-19         0.00000E+00
    0.33117E-12         0.65193E-20         0.00000E+00
    0.33117E-12         0.27940E-20         0.00000E+00
    0.33117E-12         0.11642E-19         0.00000E+00
    0.33117E-12         0.12573E-19         0.00000E+00
    0.33117E-12         0.88476E-20         0.00000E+00
    0.33117E-12         0.32596E-20         0.00000E+00
    0.33117E-12        -0.37253E-20         0.00000E+00
    0.33117E-12         0.27940E-20         0.00000E+00
    0.33117E-12        -0.69849E-20         0.00000E+00
    0.33117E-12        -0.83819E-20         0.00000E+00
    0.33117E-12        -0.93132E-21         0.00000E+00
    0.33117E-12         0.93132E-20         0.00000E+00
    0.33117E-12         0.16764E-19         0.00000E+00
    0.33117E-12         0.14435E-19         0.00000E+00
    0.33117E-12         0.12573E-19         0.00000E+00
    0.33117E-12         0.93132E-20         0.00000E+00
    0.33117E-12         0.93132E-20         0.00000E+00
    0.33117E-12         0.10710E-19         0.00000E+00
    0.33117E-12         0.12573E-19         0.00000E+00
    0.33117E-12        -0.18626E-20         0.00000E+00
    0.33117E-12        -0.13970E-19         0.00000E+00
    0.33117E-12         0.00000E+00         0.00000E+00
    0.33117E-12         0.51223E-20         0.00000E+00
    0.33117E-12        -0.37253E-20         0.00000E+00
    0.33117E-12         0.00000E+00         0.00000E+00
    0.33117E-12        -0.27940E-20         0.00000E+00
    0.33117E-12         0.51223E-20         0.00000E+00
    0.33117E-12         0.13970E-20         0.00000E+00
    0.33117E-12         0.79162E-20         0.00000E+00
    0.33117E-12        -0.46566E-21         0.00000E+00
    0.39929E-12         0.46566E-21         0.00000E+00
    0.39929E-12        -0.62864E-20         0.00000E+00
    0.39929E-12         0.27940E-20         0.00000E+00
    0.39929E-12         0.46566E-21         0.00000E+00
    0.39929E-12        -0.93132E-21         0.00000E+00
    0.39929E-12        -0.93132E-21         0.00000E+00
    0.39929E-12         0.60536E-20         0.00000E+00
    0.39929E-12        -0.79162E-20         0.00000E+00
    0.39929E-12        -0.37253E-20         0.00000E+00
    0.39929E-12        -0.65193E-20         0.00000E+00
    0.39929E-12         0.20955E-20         0.00000E+00
    0.39929E-12         0.65193E-20         0.00000E+00
    0.39929E-12        -0.34925E-20         0.00000E+00
    0.39929E-12        -0.39581E-20         0.00000E+00
    0.39929E-12        -0.27940E-20         0.00000E+00
    0.39929E-12        -0.37253E-20         0.00000E+00
    0.39929E-12        -0.93132E-21         0.00000E+00
    0.39929E-12         0.18626E-20         0.00000E+00
    0.39929E-12         0.10710E-19         0.00000E+00
    0.39929E-12         0.67521E-20         0.00000E+00
    0.39929E-12        -0.11642E-20         0.00000E+00
    0.39929E-12        -0.10710E-19         0.00000E+00
    0.39929E-12         0.90804E-20         0.00000E+00
    0.39929E-12         0.65193E-20         0.00000E+00
    0.39929E-12         0.58208E-20         0.00000E+00
    0.39929E-12        -0.11642E-20         0.00000E+00
    0.39929E-12         0.93132E-21         0.00000E+00
    0.39929E-12         0.90804E-20         0.00000E+00
    0.39929E-12         0.13504E-19         0.00000E+00
    0.39929E-12         0.95461E-20         0.00000E+00
    0.39929E-12         0.34925E-20         0.00000E+00
    0.39929E-12         0.10477E-19         0.00000E+00
    0.39929E-12         0.11176E-19         0.00000E+00
    0.39929E-12         0.16764E-19         0.00000E+00
    0.39929E-12         0.74506E-20         0.00000E+00
    0.39929E-12         0.51223E-20         0.00000E+00
    0.39929E-12         0.90804E-20         0.00000E+00
    0.39929E-12         0.25146E-19         0.00000E+00
    0.39929E-12         0.93132E-20         0.00000E+00
    0.39929E-12        -0.18626E-20         0.00000E+00
    0.39929E-12        -0.27940E-20         0.00000E+00
    0.39929E-12         0.93132E-20         0.00000E+00
    0.39929E-12         0.16764E-19         0.00000E+00
    0.39929E-12         0.00000E+00         0.00000E+00
    0.39929E-12        -0.11176E-19         0.00000E+00
    0.39929E-12        -0.15367E-19         0.00000E+00
    0.39929E-12        -0.46566E-20         0.00000E+00
    0.39929E-12        -0.69849E-20         0.00000E+00
    0.39929E-12        -0.74506E-20         0.00000E+00
    0.39929E-12         0.13970E-20         0.00000E+00
    0.48209E-12         0.41910E-20         0.00000E+00
    0.48209E-12         0.46566E-21         0.00000E+00
    0.48209E-12        -0.46566E-20         0.00000E+00
    0.48209E-12        -0.46566E-20         0.00000E+00
    0.48209E-12        -0.15367E-19         0.00000E+00
    0.48209E-12        -0.69849E-20         0.00000E+00
    0.48209E-12         0.18626E-20         0.00000E+00
    0.48209E-12         0.00000E+00         0.00000E+00
    0.48209E-12        -0.93132E-21         0.00000E+00
    0.48209E-12        -0.41910E-20         0.00000E+00
    0.48209E-12         0.93132E-21         0.00000E+00
    0.48209E-12         0.83819E-20         0.00000E+00
    0.48209E-12         0.48894E-20         0.00000E+00
    0.48209E-12        -0.58208E-20         0.00000E+00
    0.48209E-12        -0.46566E-21         0.00000E+00
    0.48209E-12         0.93132E-21         0.00000E+00
    0.48209E-12         0.00000E+00         0.00000E+00
    0.48209E-12         0.88476E-20         0.00000E+00
    0.48209E-12         0.53551E-20         0.00000E+00
    0.48209E-12         0.10477E-19         0.00000E+00
    0.48209E-12        -0.32596E-20         0.00000E+00
    0.48209E-12        -0.93132E-20         0.00000E+00
    0.48209E-12        -0.41910E-20         0.00000E+00
    0.48209E-12         0.00000E+00         0.00000E+00
    0.48209E-12         0.00000E+00         0.00000E+00
    0.48209E-12         0.11176E-19         0.00000E+00
    0.48209E-12         0.93132E-20         0.00000E+00
    0.48209E-12         0.14901E-19         0.00000E+00
    0.48209E-12         0.27008E-19         0.00000E+00
    0.48209E-12         0.14435E-19         0.00000E+00
    0.48209E-12         0.79162E-20         0.00000E+00
    0.48209E-12        -0.41910E-20         0.00000E+00
    0.48209E-12        -0.27940E-20         0.00000E+00
    0.48209E-12         0.88476E-20         0.00000E+00
    0.48209E-12         0.51223E-20         0.00000E+00
    0.48209E-12         0.55879E-20         0.00000E+00
    0.48209E-12         0.97789E-20         0.00000E+00
    0.48209E-12         0.19092E-19         0.00000E+00
    0.48209E-12         0.10710E-19         0.00000E+00
    0.48209E-12         0.46566E-20         0.00000E+00
    0.48209E-12         0.65193E-20         0.00000E+00
    0.48209E-12         0.93132E-20         0.00000E+00
    0.48209E-12         0.46566E-20         0.00000E+00
    0.48209E-12         0.69849E-20         0.00000E+00
    0.48209E-12        -0.23283E-20         0.00000E+00
    0.48209E-12        -0.46566E-20         0.00000E+00
    0.48209E-12        -0.30268E-20         0.00000E+00
    0.48209E-12        -0.74506E-20         0.00000E+00
    0.48209E-12        -0.23283E-20         0.00000E+00
    0.48209E-12         0.00000E+00         0.00000E+00
    0.58254E-12        -0.23283E-21         0.00000E+00
    0.58254E-12         0.30268E-20         0.00000E+00
    0.58254E-12         0.46566E-21         0.00000E+00
    0.58254E-12        -0.13039E-19         0.00000E+00
    0.58254E-12        -0.11642E-19         0.00000E+00
    0.58254E-12        -0.37253E-20         0.00000E+00
    0.58254E-12        -0.67521E-20         0.00000E+00
    0.58254E-12        -0.46566E-20         0.00000E+00
    0.58254E-12         0.46566E-21         0.00000E+00
    0.58254E-12         0.23283E-20         0.00000E+00
    0.58254E-12        -0.41910E-20         0.00000E+00
    0.58254E-12         0.83819E-20         0.00000E+00
    0.58254E-12         0.13504E-19         0.00000E+00
    0.58254E-12        -0.27940E-20         0.00000E+00
    0.58254E-12         0.46566E-20         0.00000E+00
    0.58254E-12         0.41910E-20         0.00000E+00
    0.58254E-12         0.65193E-20         0.00000E+00
    0.58254E-12        -0.27940E-20         0.00000E+00
    0.58254E-12        -0.62864E-20         0.00000E+00
    0.58254E-12         0.11642E-20         0.00000E+00
    0.58254E-12        -0.37253E-20         0.00000E+00
    0.58254E-12        -0.46566E-20         0.00000E+00
    0.58254E-12        -0.88476E-20         0.00000E+00
    0.58254E-12        -0.18626E-20         0.00000E+00
    0.58254E-12         0.00000E+00         0.00000E+00
    0.58254E-12         0.16298E-19         0.00000E+00
    0.58254E-12         0.26077E-19         0.00000E+00
    0.58254E-12         0.16298E-19         0.00000E+00
    0.58254E-12         0.24214E-19         0.00000E+00
    0.58254E-12         0.12573E-19         0.00000E+00
    0.58254E-12        -0.18626E-20         0.00000E+00
    0.58254E-12        -0.18626E-20         0.00000E+00
    0.58254E-12        -0.13970E-20         0.00000E+00
    0.58254E-12         0.00000E+00         0.00000E+00
    0.58254E-12         0.55879E-20         0.00000E+00
    0.58254E-12         0.00000E+00         0.00000E+00
    0.58254E-12         0.32596E-20         0.00000E+00
    0.58254E-12         0.10245E-19         0.00000E+00
    0.58254E-12         0.16997E-19         0.00000E+00
    0.58254E-12         0.15832E-19         0.00000E+00
    0.58254E-12         0.11176E-19         0.00000E+00
    0.58254E-12        -0.46566E-20         0.00000E+00
    0.58254E-12         0.15367E-19         0.00000E+00
    0.58254E-12         0.74506E-20         0.00000E+00
    0.58254E-12        -0.41910E-20         0.00000E+00
    0.58254E-12         0.51223E-20         0.00000E+00
    0.58254E-12        -0.34925E-20         0.00000E+00
    0.58254E-12        -0.41910E-20         0.00000E+00
    0.58254E-12         0.46566E-20         0.00000E+00
    0.58254E-12         0.00000E+00         0.00000E+00
    0.70424E-12        -0.25611E-20         0.00000E+00
    0.70424E-12        -0.30268E-20         0.00000E+00
    0.70424E-12        -0.10245E-19         0.00000E+00
    0.70424E-12        -0.11642E-19         0.00000E+00
    0.70424E-12        -0.10012E-19         0.00000E+00
    0.70424E-12        -0.65193E-20         0.00000E+00
    0.70424E-12        -0.10710E-19         0.00000E+00
    0.70424E-12        -0.88476E-20         0.00000E+00
    0.70424E-12        -0.20955E-20         0.00000E+00
    0.70424E-12         0.18626E-20         0.00000E+00
    0.70424E-12         0.30268E-20         0.00000E+00
    0.70424E-12         0.51223E-20         0.00000E+00
    0.70424E-12        -0.46566E-21         0.00000E+00
    0.70424E-12         0.74506E-20         0.00000E+00
    0.70424E-12        -0.46566E-21         0.00000E+00
    0.70424E-12        -0.18626E-20         0.00000E+00
    0.70424E-12         0.51223E-20         0.00000E+00
    0.70424E-12        -0.37253E-20         0.00000E+00
    0.70424E-12         0.32596E-20         0.00000E+00
    0.70424E-12         0.41910E-20         0.00000E+00
    0.70424E-12         0.11642E-19         0.00000E+00
    0.70424E-12        -0.13970E-20         0.00000E+00
    0.70424E-12        -0.11642E-19         0.00000E+00
    0.70424E-12        -0.18626E-20         0.00000E+00
    0.70424E-12        -0.51223E-20         0.00000E+00
    0.70424E-12         0.60536E-20         0.00000E+00
    0.70424E-12         0.19558E-19         0.00000E+00
    0.70424E-12         0.93132E-20         0.00000E+00
    0.70424E-12         0.15832E-19         0.00000E+00
    0.70424E-12         0.53551E-20         0.00000E+00
    0.70424E-12         0.69849E-21         0.00000E+00
    0.70424E-12         0.97789E-20         0.00000E+00
    0.70424E-12         0.37253E-20         0.00000E+00
    0.70424E-12        -0.46566E-21         0.00000E+00
    0.70424E-12        -0.46566E-20         0.00000E+00
    0.70424E-12        -0.46566E-20         0.00000E+00
    0.70424E-12        -0.41910E-20         0.00000E+00
    0.70424E-12         0.60536E-20         0.00000E+00
    0.70424E-12         0.55879E-20         0.00000E+00
    0.70424E-12         0.46566E-20         0.00000E+00
    0.70424E-12         0.13504E-19         0.00000E+00
    0.70424E-12         0.13504E-19         0.00000E+00
    0.70424E-12         0.22817E-19         0.00000E+00
    0.70424E-12         0.69849E-20         0.00000E+00
    0.70424E-12         0.16764E-19         0.00000E+00
    0.70424E-12         0.16298E-19         0.00000E+00
    0.70424E-12         0.74506E-20         0.00000E+00
    0.70424E-12        -0.93132E-20         0.00000E+00
    0.70424E-12        -0.65193E-20         0.00000E+00
    0.70424E-12        -0.46566E-20         0.00000E+00
    0.85154E-12        -0.32596E-20         0.00000E+00
    0.85154E-12         0.20955E-20         0.00000E+00
    0.85154E-12        -0.97789E-20         0.00000E+00
    0.85154E-12        -0.10943E-19         0.00000E+00
    0.85154E-12        -0.10710E-19         0.00000E+00
    0.85154E-12        -0.18859E-19         0.00000E+00
    0.85154E-12         0.30268E-20         0.00000E+00
    0.85154E-12        -0.10245E-19         0.00000E+00
    0.85154E-12        -0.32596E-20         0.00000E+00
    0.85154E-12        -0.46566E-20         0.00000E+00
    0.85154E-12         0.60536E-20         0.00000E+00
    0.85154E-12        -0.16298E-20         0.00000E+00
    0.85154E-12        -0.32596E-20         0.00000E+00
    0.85154E-12        -0.60536E-20         0.00000E+00
    0.85154E-12         0.18626E-20         0.00000E+00
    0.85154E-12         0.23283E-21         0.00000E+00
    0.85154E-12         0.46566E-21         0.00000E+00
    0.85154E-12         0.95461E-20         0.00000E+00
    0.85154E-12         0.83819E-20         0.00000E+00
    0.85154E-12         0.93132E-20         0.00000E+00
    0.85154E-12         0.79162E-20         0.00000E+00
    0.85154E-12        -0.74506E-20         0.00000E+00
    0.85154E-12         0.46566E-20         0.00000E+00
    0.85154E-12         0.83819E-20         0.00000E+00
    0.85154E-12        -0.46566E-20         0.00000E+00
    0.85154E-12         0.62864E-20         0.00000E+00
    0.85154E-12         0.88476E-20         0.00000E+00
    0.85154E-12         0.88476E-20         0.00000E+00
    0.85154E-12         0.32596E-20         0.00000E+00
    0.85154E-12        -0.14203E-19         0.00000E+00
    0.85154E-12         0.46566E-21         0.00000E+00
    0.85154E-12         0.93132E-20         0.00000E+00
    0.85154E-12         0.76834E-20         0.00000E+00
    0.85154E-12         0.23283E-20         0.00000E+00
    0.85154E-12        -0.93132E-21         0.00000E+00
    0.85154E-12         0.32596E-20         0.00000E+00
    0.85154E-12         0.93132E-21         0.00000E+00
    0.85154E-12         0.69849E-21         0.00000E+00
    0.85154E-12        -0.69849E-20         0.00000E+00
    0.85154E-12        -0.44238E-20         0.00000E+00
    0.85154E-12         0.55879E-20         0.00000E+00
    0.85154E-12         0.10943E-19         0.00000E+00
    0.85154E-12         0.12573E-19         0.00000E+00
    0.85154E-12         0.65193E-20         0.00000E+00
    0.85154E-12         0.27241E-19         0.00000E+00
    0.85154E-12         0.16764E-19         0.00000E+00
    0.85154E-12         0.32596E-20         0.00000E+00
    0.85154E-12        -0.32596E-20         0.00000E+00
    0.85154E-12         0.32596E-20         0.00000E+00
    0.85154E-12        -0.44238E-20         0.00000E+00
    0.10297E-11        -0.51223E-20         0.00000E+00
    0.10297E-11         0.93132E-20         0.00000E+00
    0.10297E-11        -0.17695E-19         0.00000E+00
    0.10297E-11        -0.18161E-19         0.00000E+00
    0.10297E-11        -0.18626E-19         0.00000E+00
    0.10297E-11        -0.10245E-19         0.00000E+00
    0.10297E-11        -0.72177E-20         0.00000E+00
    0.10297E-11        -0.11642E-19         0.00000E+00
    0.10297E-11        -0.51223E-20         0.00000E+00
    0.10297E-11        -0.51223E-20         0.00000E+00
    0.10297E-11         0.65193E-20         0.00000E+00
    0.10297E-11         0.97789E-20         0.00000E+00
    0.10297E-11         0.74506E-20         0.00000E+00
    0.10297E-11        -0.13970E-20         0.00000E+00
    0.10297E-11        -0.23283E-20         0.00000E+00
    0.10297E-11         0.37253E-20         0.00000E+00
    0.10297E-11         0.93132E-21         0.00000E+00
    0.10297E-11         0.79162E-20         0.00000E+00
    0.10297E-11        -0.79162E-20         0.00000E+00
    0.10297E-11        -0.76834E-20         0.00000E+00
    0.10297E-11        -0.46566E-20         0.00000E+00
    0.10297E-11        -0.37253E-20         0.00000E+00
    0.10297E-11        -0.13970E-20         0.00000E+00
    0.10297E-11         0.93132E-21         0.00000E+00
    0.10297E-11         0.93132E-21         0.00000E+00
    0.10297E-11         0.10943E-19         0.00000E+00
    0.10297E-11         0.12806E-19         0.00000E+00
    0.10297E-11         0.83819E-20         0.00000E+00
    0.10297E-11        -0.13970E-20         0.00000E+00
    0.10297E-11        -0.11874E-19         0.00000E+00
    0.10297E-11         0.11642E-20         0.00000E+00
    0.10297E-11        -0.16298E-20         0.00000E+00
    0.10297E-11         0.32596E-20         0.00000E+00
    0.10297E-11         0.81491E-20         0.00000E+00
    0.10297E-11        -0.72177E-20         0.00000E+00
    0.10297E-11         0.46566E-20         0.00000E+00
    0.10297E-11        -0.37253E-20         0.00000E+00
    0.10297E-11        -0.83819E-20         0.00000E+00
    0.10297E-11        -0.13737E-19         0.00000E+00
    0.10297E-11        -0.79162E-20         0.00000E+00
    0.10297E-11        -0.93132E-20         0.00000E+00
    0.10297E-11        -0.46566E-20         0.00000E+00
    0.10297E-11         0.93132E-20         0.00000E+00
    0.10297E-11         0.13970E-20         0.00000E+00
    0.10297E-11         0.12806E-19         0.00000E+00
    0.10297E-11         0.16764E-19         0.00000E+00
    0.10297E-11         0.16298E-19         0.00000E+00
    0.10297E-11         0.15134E-19         0.00000E+00
    0.10297E-11         0.23283E-21         0.00000E+00
    0.10297E-11        -0.13970E-20         0.00000E+00
    0.12449E-11        -0.60536E-20         0.00000E+00
    0.12449E-11        -0.23283E-21         0.00000E+00
    0.12449E-11        -0.39581E-20         0.00000E+00
    0.12449E-11         0.51223E-20         0.00000E+00
    0.12449E-11        -0.83819E-20         0.00000E+00
    0.12449E-11        -0.41910E-20         0.00000E+00
    0.12449E-11        -0.13039E-19         0.00000E+00
    0.12449E-11        -0.11176E-19         0.00000E+00
    0.12449E-11        -0.79162E-20         0.00000E+00
    0.12449E-11        -0.76834E-20         0.00000E+00
    0.12449E-11        -0.93132E-21         0.00000E+00
    0.12449E-11         0.23283E-20         0.00000E+00
    0.12449E-11         0.23283E-21         0.00000E+00
    0.12449E-11         0.46566E-21         0.00000E+00
    0.12449E-11        -0.23283E-20         0.00000E+00
    0.12449E-11         0.55879E-20         0.00000E+00
    0.12449E-11        -0.27940E-20         0.00000E+00
    0.12449E-11         0.51223E-20         0.00000E+00
    0.12449E-11        -0.88476E-20         0.00000E+00
    0.12449E-11        -0.14435E-19         0.00000E+00
    0.12449E-11        -0.83819E-20         0.00000E+00
    0.12449E-11         0.79162E-20         0.00000E+00
    0.12449E-11        -0.60536E-20         0.00000E+00
    0.12449E-11        -0.13970E-19         0.00000E+00
    0.12449E-11        -0.46566E-21         0.00000E+00
    0.12449E-11         0.37253E-20         0.00000E+00
    0.12449E-11         0.69849E-20         0.00000E+00
    0.12449E-11         0.27940E-20         0.00000E+00
    0.12449E-11         0.18626E-20         0.00000E+00
    0.12449E-11         0.32596E-20         0.00000E+00
    0.12449E-11         0.46566E-21         0.00000E+00
    0.12449E-11         0.13737E-19         0.00000E+00
    0.12449E-11         0.10477E-19         0.00000E+00
    0.12449E-11        -0.13970E-20         0.00000E+00
    0.12449E-11        -0.13970E-20         0.00000E+00
    0.12449E-11        -0.93132E-20         0.00000E+00
    0.12449E-11        -0.19092E-19         0.00000E+00
    0.12449E-11        -0.17695E-19         0.00000E+00
    0.12449E-11        -0.17695E-19         0.00000E+00
    0.12449E-11        -0.22352E-19         0.00000E+00
    0.12449E-11        -0.16997E-19         0.00000E+00
    0.12449E-11        -0.86147E-20         0.00000E+00
    0.12449E-11        -0.93132E-20         0.00000E+00
    0.12449E-11         0.23283E-20         0.00000E+00
    0.12449E-11         0.69849E-20         0.00000E+00
    0.12449E-11         0.16298E-19         0.00000E+00
    0.12449E-11         0.15832E-19         0.00000E+00
    0.12449E-11         0.16065E-19         0.00000E+00
    0.12449E-11         0.34925E-20         0.00000E+00
    0.12449E-11         0.93132E-21         0.00000E+00
    0.15049E-11        -0.97789E-20         0.00000E+00
    0.15049E-11        -0.32596E-20         0.00000E+00
    0.15049E-11         0.11176E-19         0.00000E+00
    0.15049E-11         0.13504E-19         0.00000E+00
    0.15049E-11         0.37253E-20         0.00000E+00
    0.15049E-11        -0.60536E-20         0.00000E+00
    0.15049E-11        -0.37253E-20         0.00000E+00
    0.15049E-11        -0.27940E-20         0.00000E+00
    0.15049E-11        -0.15832E-19         0.00000E+00
    0.15049E-11        -0.12573E-19         0.00000E+00
    0.15049E-11        -0.13039E-19         0.00000E+00
    0.15049E-11        -0.13970E-19         0.00000E+00
    0.15049E-11        -0.10245E-19         0.00000E+00
    0.15049E-11        -0.10710E-19         0.00000E+00
    0.15049E-11         0.32596E-20         0.00000E+00
    0.15049E-11         0.12573E-19         0.00000E+00
    0.15049E-11         0.74506E-20         0.00000E+00
    0.15049E-11         0.46566E-20         0.00000E+00
    0.15049E-11         0.41910E-20         0.00000E+00
    0.15049E-11         0.23283E-20         0.00000E+00
    0.15049E-11         0.46566E-20         0.00000E+00
    0.15049E-11         0.46566E-20         0.00000E+00
    0.15049E-11         0.32596E-20         0.00000E+00
    0.15049E-11        -0.11176E-19         0.00000E+00
    0.15049E-11        -0.93132E-20         0.00000E+00
    0.15049E-11        -0.51223E-20         0.00000E+00
    0.15049E-11        -0.32596E-20         0.00000E+00
    0.15049E-11         0.65193E-20         0.00000E+00
    0.15049E-11         0.00000E+00         0.00000E+00
    0.15049E-11        -0.55879E-20         0.00000E+00
    0.15049E-11        -0.51223E-20         0.00000E+00
    0.15049E-11         0.14901E-19         0.00000E+00
    0.15049E-11        -0.46566E-21         0.00000E+00
    0.15049E-11        -0.41910E-20         0.00000E+00
    0.15049E-11         0.51223E-20         0.00000E+00
    0.15049E-11        -0.12107E-19         0.00000E+00
    0.15049E-11        -0.22817E-19         0.00000E+00
    0.15049E-11        -0.20023E-19         0.00000E+00
    0.15049E-11        -0.26543E-19         0.00000E+00
    0.15049E-11        -0.11642E-19         0.00000E+00
    0.15049E-11        -0.10245E-19         0.00000E+00
    0.15049E-11        -0.79162E-20         0.00000E+00
    0.15049E-11        -0.30268E-20         0.00000E+00
    0.15049E-11         0.79162E-20         0.00000E+00
    0.15049E-11         0.41910E-20         0.00000E+00
    0.15049E-11         0.00000E+00         0.00000E+00
    0.15049E-11        -0.34925E-20         0.00000E+00
    0.15049E-11         0.46566E-20         0.00000E+00
    0.15049E-11        -0.55879E-20         0.00000E+00
    0.15049E-11         0.39581E-20         0.00000E+00
    0.18188E-11         0.27940E-20         0.00000E+00
    0.18188E-11         0.69849E-20         0.00000E+00
    0.18188E-11         0.55879E-20         0.00000E+00
    0.18188E-11         0.10245E-19         0.00000E+00
    0.18188E-11         0.69849E-20         0.00000E+00
    0.18188E-11         0.60536E-20         0.00000E+00
    0.18188E-11         0.27940E-20         0.00000E+00
    0.18188E-11        -0.41910E-20         0.00000E+00
    0.18188E-11        -0.14435E-19         0.00000E+00
    0.18188E-11        -0.65193E-20         0.00000E+00
    0.18188E-11        -0.34925E-20         0.00000E+00
    0.18188E-11        -0.10012E-19         0.00000E+00
    0.18188E-11        -0.88476E-20         0.00000E+00
    0.18188E-11         0.51223E-20         0.00000E+00
    0.18188E-11         0.18626E-20         0.00000E+00
    0.18188E-11        -0.97789E-20         0.00000E+00
    0.18188E-11         0.11642E-19         0.00000E+00
    0.18188E-11        -0.37253E-20         0.00000E+00
    0.18188E-11         0.55879E-20         0.00000E+00
    0.18188E-11         0.10710E-19         0.00000E+00
    0.18188E-11         0.13970E-20         0.00000E+00
    0.18188E-11         0.60536E-20         0.00000E+00
    0.18188E-11        -0.41910E-20         0.00000E+00
    0.18188E-11        -0.12573E-19         0.00000E+00
    0.18188E-11        -0.27940E-20         0.00000E+00
    0.18188E-11        -0.12107E-19         0.00000E+00
    0.18188E-11        -0.79162E-20         0.00000E+00
    0.18188E-11        -0.51223E-20         0.00000E+00
    0.18188E-11         0.23283E-20         0.00000E+00
    0.18188E-11         0.69849E-20         0.00000E+00
    0.18188E-11        -0.93132E-21         0.00000E+00
    0.18188E-11        -0.46566E-20         0.00000E+00
    0.18188E-11        -0.11176E-19         0.00000E+00
    0.18188E-11        -0.74506E-20         0.00000E+00
    0.18188E-11        -0.37253E-20         0.00000E+00
    0.18188E-11        -0.18626E-19         0.00000E+00
    0.18188E-11        -0.16764E-19         0.00000E+00
    0.18188E-11        -0.16764E-19         0.00000E+00
    0.18188E-11        -0.18394E-19         0.00000E+00
    0.18188E-11        -0.55879E-20         0.00000E+00
    0.18188E-11         0.27940E-20         0.00000E+00
    0.18188E-11         0.34925E-20         0.00000E+00
    0.18188E-11         0.32596E-20         0.00000E+00
    0.18188E-11        -0.27940E-20         0.00000E+00
    0.18188E-11         0.79162E-20         0.00000E+00
    0.18188E-11        -0.23283E-20         0.00000E+00
    0.18188E-11        -0.46566E-20         0.00000E+00
    0.18188E-11        -0.13970E-20         0.00000E+00
    0.18188E-11        -0.14435E-19         0.00000E+00
    0.18188E-11         0.41910E-20         0.00000E+00
    0.21974E-11         0.60536E-20         0.00000E+00
    0.21974E-11         0.46566E-20         0.00000E+00
    0.21974E-11         0.65193E-20         0.00000E+00
    0.21974E-11         0.10012E-19         0.00000E+00
    0.21974E-11         0.10710E-19         0.00000E+00
    0.21974E-11         0.12107E-19         0.00000E+00
    0.21974E-11         0.12107E-19         0.00000E+00
    0.21974E-11         0.18626E-20         0.00000E+00
    0.21974E-11        -0.51223E-20         0.00000E+00
    0.21974E-11         0.37253E-20         0.00000E+00
    0.21974E-11         0.10245E-19         0.00000E+00
    0.21974E-11         0.16298E-20         0.00000E+00
    0.21974E-11        -0.93132E-21         0.00000E+00
    0.21974E-11        -0.13970E-20         0.00000E+00
    0.21974E-11         0.23283E-20         0.00000E+00
    0.21974E-11        -0.16298E-20         0.00000E+00
    0.21974E-11         0.65193E-20         0.00000E+00
    0.21974E-11        -0.46566E-21         0.00000E+00
    0.21974E-11        -0.20955E-20         0.00000E+00
    0.21974E-11         0.27940E-20         0.00000E+00
    0.21974E-11        -0.18626E-20         0.00000E+00
    0.21974E-11         0.18626E-20         0.00000E+00
    0.21974E-11         0.55879E-20         0.00000E+00
    0.21974E-11        -0.95461E-20         0.00000E+00
    0.21974E-11        -0.88476E-20         0.00000E+00
    0.21974E-11        -0.93132E-20         0.00000E+00
    0.21974E-11        -0.18626E-19         0.00000E+00
    0.21974E-11        -0.79162E-20         0.00000E+00
    0.21974E-11        -0.37253E-20         0.00000E+00
    0.21974E-11        -0.46566E-20         0.00000E+00
    0.21974E-11        -0.60536E-20         0.00000E+00
    0.21974E-11        -0.37253E-20         0.00000E+00
    0.21974E-11         0.00000E+00         0.00000E+00
    0.21974E-11        -0.23283E-20         0.00000E+00
    0.21974E-11        -0.23283E-20         0.00000E+00
    0.21974E-11        -0.46566E-21         0.00000E+00
    0.21974E-11        -0.23283E-20         0.00000E+00
    0.21974E-11        -0.11642E-19         0.00000E+00
    0.21974E-11        -0.76834E-20         0.00000E+00
    0.21974E-11        -0.60536E-20         0.00000E+00
    0.21974E-11        -0.51223E-20         0.00000E+00
    0.21974E-11        -0.37253E-20         0.00000E+00
    0.21974E-11        -0.51223E-20         0.00000E+00
    0.21974E-11        -0.15367E-19         0.00000E+00
    0.21974E-11        -0.46566E-20         0.00000E+00
    0.21974E-11        -0.41910E-20         0.00000E+00
    0.21974E-11        -0.83819E-20         0.00000E+00
    0.21974E-11        -0.60536E-20         0.00000E+00
    0.21974E-11         0.60536E-20         0.00000E+00
    0.21974E-11         0.18626E-20         0.00000E+00
    0.26540E-11         0.41910E-20         0.00000E+00
    0.26540E-11        -0.69849E-21         0.00000E+00
    0.26540E-11         0.37253E-20         0.00000E+00
    0.26540E-11         0.32596E-20         0.00000E+00
    0.26540E-11         0.81491E-20         0.00000E+00
    0.26540E-11         0.12806E-19         0.00000E+00
    0.26540E-11         0.11176E-19         0.00000E+00
    0.26540E-11         0.13504E-19         0.00000E+00
    0.26540E-11         0.18626E-19         0.00000E+00
    0.26540E-11         0.13737E-19         0.00000E+00
    0.26540E-11        -0.23283E-21         0.00000E+00
    0.26540E-11         0.41910E-20         0.00000E+00
    0.26540E-11         0.00000E+00         0.00000E+00
    0.26540E-11        -0.58208E-20         0.00000E+00
    0.26540E-11        -0.60536E-20         0.00000E+00
    0.26540E-11         0.13970E-20         0.00000E+00
    0.26540E-11         0.17462E-19         0.00000E+00
    0.26540E-11         0.12107E-19         0.00000E+00
    0.26540E-11         0.60536E-20         0.00000E+00
    0.26540E-11         0.83819E-20         0.00000E+00
    0.26540E-11        -0.69849E-20         0.00000E+00
    0.26540E-11        -0.74506E-20         0.00000E+00
    0.26540E-11         0.32596E-20         0.00000E+00
    0.26540E-11        -0.41910E-20         0.00000E+00
    0.26540E-11        -0.12806E-19         0.00000E+00
    0.26540E-11        -0.15367E-19         0.00000E+00
    0.26540E-11        -0.23749E-19         0.00000E+00
    0.26540E-11        -0.93132E-20         0.00000E+00
    0.26540E-11        -0.16764E-19         0.00000E+00
    0.26540E-11        -0.20489E-19         0.00000E+00
    0.26540E-11        -0.15832E-19         0.00000E+00
    0.26540E-11        -0.18626E-20         0.00000E+00
    0.26540E-11        -0.27940E-20         0.00000E+00
    0.26540E-11        -0.46566E-20         0.00000E+00
    0.26540E-11        -0.13970E-19         0.00000E+00
    0.26540E-11         0.27940E-20         0.00000E+00
    0.26540E-11         0.46566E-21         0.00000E+00
    0.26540E-11        -0.41910E-20         0.00000E+00
    0.26540E-11        -0.11176E-19         0.00000E+00
    0.26540E-11        -0.15832E-19         0.00000E+00
    0.26540E-11        -0.48894E-20         0.00000E+00
    0.26540E-11        -0.69849E-20         0.00000E+00
    0.26540E-11         0.37253E-20         0.00000E+00
    0.26540E-11        -0.18626E-19         0.00000E+00
    0.26540E-11        -0.69849E-20         0.00000E+00
    0.26540E-11        -0.83819E-20         0.00000E+00
    0.26540E-11         0.93132E-21         0.00000E+00
    0.26540E-11         0.00000E+00         0.00000E+00
    0.26540E-11         0.24214E-19         0.00000E+00
    0.26540E-11        -0.39581E-20         0.00000E+00
    0.32043E-11        -0.11642E-20         0.00000E+00
    0.32043E-11        -0.46566E-21         0.00000E+00
    0.32043E-11         0.46566E-20         0.00000E+00
    0.32043E-11         0.14901E-19         0.00000E+00
    0.32043E-11         0.95461E-20         0.00000E+00
    0.32043E-11         0.15134E-19         0.00000E+00
    0.32043E-11         0.18626E-20         0.00000E+00
    0.32043E-11         0.10943E-19         0.00000E+00
    0.32043E-11         0.69849E-20         0.00000E+00
    0.32043E-11        -0.37253E-20         0.00000E+00
    0.32043E-11         0.46566E-20         0.00000E+00
    0.32043E-11         0.79162E-20         0.00000E+00
    0.32043E-11         0.55879E-20         0.00000E+00
    0.32043E-11         0.16298E-20         0.00000E+00
    0.32043E-11        -0.25611E-20         0.00000E+00
    0.32043E-11        -0.51223E-20         0.00000E+00
    0.32043E-11         0.37253E-20         0.00000E+00
    0.32043E-11         0.69849E-20         0.00000E+00
    0.32043E-11         0.25611E-20         0.00000E+00
    0.32043E-11         0.10245E-19         0.00000E+00
    0.32043E-11        -0.37253E-20         0.00000E+00
    0.32043E-11        -0.13970E-19         0.00000E+00
    0.32043E-11        -0.39581E-20         0.00000E+00
    0.32043E-11        -0.12573E-19         0.00000E+00
    0.32043E-11        -0.62864E-20         0.00000E+00
    0.32043E-11        -0.74506E-20         0.00000E+00
    0.32043E-11        -0.27008E-19         0.00000E+00
    0.32043E-11        -0.27008E-19         0.00000E+00
    0.32043E-11        -0.24214E-19         0.00000E+00
    0.32043E-11        -0.25146E-19         0.00000E+00
    0.32043E-11        -0.16764E-19         0.00000E+00
    0.32043E-11        -0.13970E-20         0.00000E+00
    0.32043E-11        -0.51223E-20         0.00000E+00
    0.32043E-11        -0.14901E-19         0.00000E+00
    0.32043E-11        -0.10012E-19         0.00000E+00
    0.32043E-11        -0.12806E-19         0.00000E+00
    0.32043E-11        -0.10245E-19         0.00000E+00
    0.32043E-11        -0.79162E-20         0.00000E+00
    0.32043E-11         0.11642E-20         0.00000E+00
    0.32043E-11        -0.46566E-20         0.00000E+00
    0.32043E-11         0.79162E-20         0.00000E+00
    0.32043E-11         0.30268E-20         0.00000E+00
    0.32043E-11        -0.13970E-20         0.00000E+00
    0.32043E-11        -0.62864E-20         0.00000E+00
    0.32043E-11        -0.23283E-20         0.00000E+00
    0.32043E-11         0.60536E-20         0.00000E+00
    0.32043E-11         0.18626E-20         0.00000E+00
    0.32043E-11        -0.23283E-20         0.00000E+00
    0.32043E-11         0.93132E-20         0.00000E+00
    0.32043E-11        -0.46566E-21         0.00000E+00
    0.38673E-11         0.93132E-21         0.00000E+00
    0.38673E-11         0.55879E-20         0.00000E+00
    0.38673E-11         0.79162E-20         0.00000E+00
    0.38673E-11         0.20489E-19         0.00000E+00
    0.38673E-11         0.74506E-20         0.00000E+00
    0.38673E-11         0.13970E-20         0.00000E+00
    0.38673E-11        -0.23283E-20         0.00000E+00
    0.38673E-11         0.60536E-20         0.00000E+00
    0.38673E-11        -0.55879E-20         0.00000E+00
    0.38673E-11        -0.46566E-20         0.00000E+00
    0.38673E-11         0.15134E-19         0.00000E+00
    0.38673E-11         0.46566E-21         0.00000E+00
    0.38673E-11        -0.18626E-20         0.00000E+00
    0.38673E-11        -0.83819E-20         0.00000E+00
    0.38673E-11         0.53551E-20         0.00000E+00
    0.38673E-11         0.23283E-20         0.00000E+00
    0.38673E-11        -0.46566E-21         0.00000E+00
    0.38673E-11        -0.83819E-20         0.00000E+00
    0.38673E-11        -0.11642E-19         0.00000E+00
    0.38673E-11        -0.10245E-19         0.00000E+00
    0.38673E-11        -0.58208E-20         0.00000E+00
    0.38673E-11        -0.12573E-19         0.00000E+00
    0.38673E-11        -0.17229E-19         0.00000E+00
    0.38673E-11        -0.23982E-19         0.00000E+00
    0.38673E-11        -0.20489E-19         0.00000E+00
    0.38673E-11        -0.83819E-20         0.00000E+00
    0.38673E-11        -0.16997E-19         0.00000E+00
    0.38673E-11        -0.13039E-19         0.00000E+00
    0.38673E-11        -0.14435E-19         0.00000E+00
    0.38673E-11        -0.15832E-19         0.00000E+00
    0.38673E-11        -0.18626E-19         0.00000E+00
    0.38673E-11        -0.10012E-19         0.00000E+00
    0.38673E-11        -0.18626E-20         0.00000E+00
    0.38673E-11         0.41910E-20         0.00000E+00
    0.38673E-11         0.32596E-20         0.00000E+00
    0.38673E-11        -0.12340E-19         0.00000E+00
    0.38673E-11        -0.25611E-20         0.00000E+00
    0.38673E-11        -0.93132E-21         0.00000E+00
    0.38673E-11         0.14668E-19         0.00000E+00
    0.38673E-11         0.86147E-20         0.00000E+00
    0.38673E-11        -0.46566E-21         0.00000E+00
    0.38673E-11        -0.69849E-20         0.00000E+00
    0.38673E-11        -0.97789E-20         0.00000E+00
    0.38673E-11        -0.13970E-20         0.00000E+00
    0.38673E-11        -0.37253E-20         0.00000E+00
    0.38673E-11         0.60536E-20         0.00000E+00
    0.38673E-11        -0.93132E-21         0.00000E+00
    0.38673E-11        -0.76834E-20         0.00000E+00
    0.38673E-11         0.37253E-20         0.00000E+00
    0.38673E-11         0.18626E-20         0.00000E+00
    0.46657E-11        -0.46566E-21         0.00000E+00
    0.46657E-11         0.69849E-20         0.00000E+00
    0.46657E-11         0.27940E-20         0.00000E+00
    0.46657E-11         0.60536E-20         0.00000E+00
    0.46657E-11         0.79162E-20         0.00000E+00
    0.46657E-11         0.51223E-20         0.00000E+00
    0.46657E-11         0.60536E-20         0.00000E+00
    0.46657E-11         0.23283E-20         0.00000E+00
    0.46657E-11        -0.23283E-20         0.00000E+00
    0.46657E-11        -0.37253E-20         0.00000E+00
    0.46657E-11         0.00000E+00         0.00000E+00
    0.46657E-11        -0.46566E-20         0.00000E+00
    0.46657E-11        -0.37253E-20         0.00000E+00
    0.46657E-11        -0.12107E-19         0.00000E+00
    0.46657E-11        -0.11642E-19         0.00000E+00
    0.46657E-11        -0.17229E-19         0.00000E+00
    0.46657E-11        -0.13970E-19         0.00000E+00
    0.46657E-11        -0.22119E-19         0.00000E+00
    0.46657E-11        -0.88476E-20         0.00000E+00
    0.46657E-11        -0.17695E-19         0.00000E+00
    0.46657E-11        -0.12573E-19         0.00000E+00
    0.46657E-11        -0.19558E-19         0.00000E+00
    0.46657E-11        -0.27008E-19         0.00000E+00
    0.46657E-11        -0.31199E-19         0.00000E+00
    0.46657E-11        -0.20955E-19         0.00000E+00
    0.46657E-11        -0.97789E-20         0.00000E+00
    0.46657E-11        -0.58208E-20         0.00000E+00
    0.46657E-11        -0.46566E-21         0.00000E+00
    0.46657E-11        -0.41910E-20         0.00000E+00
    0.46657E-11        -0.41910E-20         0.00000E+00
    0.46657E-11        -0.19092E-19         0.00000E+00
    0.46657E-11        -0.20023E-19         0.00000E+00
    0.46657E-11        -0.14435E-19         0.00000E+00
    0.46657E-11        -0.83819E-20         0.00000E+00
    0.46657E-11        -0.27940E-20         0.00000E+00
    0.46657E-11        -0.37253E-20         0.00000E+00
    0.46657E-11         0.11642E-19         0.00000E+00
    0.46657E-11         0.65193E-20         0.00000E+00
    0.46657E-11         0.93132E-21         0.00000E+00
    0.46657E-11         0.13970E-20         0.00000E+00
    0.46657E-11        -0.10710E-19         0.00000E+00
    0.46657E-11        -0.97789E-20         0.00000E+00
    0.46657E-11        -0.11642E-19         0.00000E+00
    0.46657E-11        -0.60536E-20         0.00000E+00
    0.46657E-11        -0.19558E-19         0.00000E+00
    0.46657E-11         0.46566E-21         0.00000E+00
    0.46657E-11         0.93132E-21         0.00000E+00
    0.46657E-11         0.60536E-20         0.00000E+00
    0.46657E-11         0.15367E-19         0.00000E+00
    0.46657E-11         0.69849E-21         0.00000E+00
    0.56266E-11        -0.88476E-20         0.00000E+00
    0.56266E-11         0.46566E-21         0.00000E+00
    0.56266E-11         0.11176E-19         0.00000E+00
    0.56266E-11        -0.13970E-20         0.00000E+00
    0.56266E-11        -0.65193E-20         0.00000E+00
    0.56266E-11         0.23283E-20         0.00000E+00
    0.56266E-11        -0.51223E-20         0.00000E+00
    0.56266E-11        -0.12107E-19         0.00000E+00
    0.56266E-11        -0.11642E-19         0.00000E+00
    0.56266E-11        -0.32596E-20         0.00000E+00
    0.56266E-11        -0.37253E-20         0.00000E+00
    0.56266E-11        -0.88476E-20         0.00000E+00
    0.56266E-11        -0.12107E-19         0.00000E+00
    0.56266E-11        -0.11642E-19         0.00000E+00
    0.56266E-11        -0.25611E-19         0.00000E+00
    0.56266E-11        -0.29337E-19         0.00000E+00
    0.56266E-11        -0.27008E-19         0.00000E+00
    0.56266E-11        -0.33528E-19         0.00000E+00
    0.56266E-11        -0.13039E-19         0.00000E+00
    0.56266E-11        -0.13737E-19         0.00000E+00
    0.56266E-11        -0.17695E-19         0.00000E+00
    0.56266E-11        -0.20489E-19         0.00000E+00
    0.56266E-11        -0.15367E-19         0.00000E+00
    0.56266E-11        -0.20489E-19         0.00000E+00
    0.56266E-11        -0.16764E-19         0.00000E+00
    0.56266E-11        -0.11642E-19         0.00000E+00
    0.56266E-11        -0.76834E-20         0.00000E+00
    0.56266E-11        -0.20489E-19         0.00000E+00
    0.56266E-11        -0.27474E-19         0.00000E+00
    0.56266E-11        -0.13504E-19         0.00000E+00
    0.56266E-11        -0.18626E-19         0.00000E+00
    0.56266E-11        -0.97789E-20         0.00000E+00
    0.56266E-11        -0.14901E-19         0.00000E+00
    0.56266E-11        -0.18161E-19         0.00000E+00
    0.56266E-11        -0.19092E-19         0.00000E+00
    0.56266E-11        -0.69849E-20         0.00000E+00
    0.56266E-11        -0.32596E-20         0.00000E+00
    0.56266E-11         0.65193E-20         0.00000E+00
    0.56266E-11         0.41910E-20         0.00000E+00
    0.56266E-11         0.23283E-20         0.00000E+00
    0.56266E-11        -0.69849E-21         0.00000E+00
    0.56266E-11         0.69849E-20         0.00000E+00
    0.56266E-11        -0.58208E-20         0.00000E+00
    0.56266E-11        -0.18161E-19         0.00000E+00
    0.56266E-11        -0.29802E-19         0.00000E+00
    0.56266E-11        -0.74506E-20         0.00000E+00
    0.56266E-11        -0.13504E-19         0.00000E+00
    0.56266E-11        -0.10245E-19         0.00000E+00
    0.56266E-11        -0.46566E-21         0.00000E+00
    0.56266E-11         0.41910E-20         0.00000E+00
    0.67826E-11        -0.16298E-20         0.00000E+00
    0.67826E-11         0.76834E-20         0.00000E+00
    0.67826E-11        -0.41910E-20         0.00000E+00
    0.67826E-11        -0.46566E-21         0.00000E+00
    0.67826E-11        -0.20955E-19         0.00000E+00
    0.67826E-11        -0.13039E-19         0.00000E+00
    0.67826E-11        -0.14435E-19         0.00000E+00
    0.67826E-11        -0.12806E-19         0.00000E+00
    0.67826E-11        -0.11642E-19         0.00000E+00
    0.67826E-11        -0.10710E-19         0.00000E+00
    0.67826E-11        -0.11176E-19         0.00000E+00
    0.67826E-11        -0.15367E-19         0.00000E+00
    0.67826E-11         0.93132E-21         0.00000E+00
    0.67826E-11        -0.18626E-19         0.00000E+00
    0.67826E-11        -0.24680E-19         0.00000E+00
    0.67826E-11        -0.24447E-19         0.00000E+00
    0.67826E-11        -0.20955E-19         0.00000E+00
    0.67826E-11        -0.27008E-19         0.00000E+00
    0.67826E-11        -0.21420E-19         0.00000E+00
    0.67826E-11        -0.10245E-19         0.00000E+00
    0.67826E-11        -0.22352E-19         0.00000E+00
    0.67826E-11        -0.27940E-19         0.00000E+00
    0.67826E-11        -0.18161E-19         0.00000E+00
    0.67826E-11        -0.15832E-19         0.00000E+00
    0.67826E-11        -0.24214E-19         0.00000E+00
    0.67826E-11        -0.18626E-19         0.00000E+00
    0.67826E-11        -0.16764E-19         0.00000E+00
    0.67826E-11        -0.26077E-19         0.00000E+00
    0.67826E-11        -0.34459E-19         0.00000E+00
    0.67826E-11        -0.15367E-19         0.00000E+00
    0.67826E-11        -0.11642E-19         0.00000E+00
    0.67826E-11        -0.18626E-19         0.00000E+00
    0.67826E-11        -0.10710E-19         0.00000E+00
    0.67826E-11        -0.14901E-19         0.00000E+00
    0.67826E-11        -0.30734E-19         0.00000E+00
    0.67826E-11        -0.19092E-19         0.00000E+00
    0.67826E-11        -0.21420E-19         0.00000E+00
    0.67826E-11         0.93132E-21         0.00000E+00
    0.67826E-11         0.27940E-20         0.00000E+00
    0.67826E-11        -0.27940E-20         0.00000E+00
    0.67826E-11        -0.41910E-20         0.00000E+00
    0.67826E-11         0.27940E-20         0.00000E+00
    0.67826E-11        -0.93132E-21         0.00000E+00
    0.67826E-11        -0.17695E-19         0.00000E+00
    0.67826E-11        -0.20955E-19         0.00000E+00
    0.67826E-11        -0.16298E-19         0.00000E+00
    0.67826E-11        -0.11176E-19         0.00000E+00
    0.67826E-11        -0.20955E-20         0.00000E+00
    0.67826E-11        -0.10477E-19         0.00000E+00
    0.67826E-11        -0.46566E-21         0.00000E+00
    0.81726E-11         0.11642E-20         0.00000E+00
    0.81726E-11         0.37253E-20         0.00000E+00
    0.81726E-11        -0.46566E-20         0.00000E+00
    0.81726E-11        -0.23283E-20         0.00000E+00
    0.81726E-11        -0.14203E-19         0.00000E+00
    0.81726E-11        -0.21420E-19         0.00000E+00
    0.81726E-11        -0.20023E-19         0.00000E+00
    0.81726E-11        -0.25146E-19         0.00000E+00
    0.81726E-11        -0.24680E-19         0.00000E+00
    0.81726E-11        -0.16764E-19         0.00000E+00
    0.81726E-11        -0.13970E-19         0.00000E+00
    0.81726E-11        -0.16764E-19         0.00000E+00
    0.81726E-11        -0.13039E-19         0.00000E+00
    0.81726E-11        -0.12107E-19         0.00000E+00
    0.81726E-11        -0.16764E-19         0.00000E+00
    0.81726E-11        -0.11874E-19         0.00000E+00
    0.81726E-11        -0.14668E-19         0.00000E+00
    0.81726E-11        -0.15367E-19         0.00000E+00
    0.81726E-11        -0.11176E-19         0.00000E+00
    0.81726E-11        -0.16764E-19         0.00000E+00
    0.81726E-11        -0.27940E-19         0.00000E+00
    0.81726E-11        -0.35390E-19         0.00000E+00
    0.81726E-11        -0.35856E-19         0.00000E+00
    0.81726E-11        -0.22352E-19         0.00000E+00
    0.81726E-11        -0.24214E-19         0.00000E+00
    0.81726E-11        -0.18161E-19         0.00000E+00
    0.81726E-11        -0.18626E-19         0.00000E+00
    0.81726E-11        -0.23749E-19         0.00000E+00
    0.81726E-11        -0.26543E-19         0.00000E+00
    0.81726E-11        -0.16298E-19         0.00000E+00
    0.81726E-11        -0.18626E-19         0.00000E+00
    0.81726E-11        -0.19092E-19         0.00000E+00
    0.81726E-11        -0.12107E-19         0.00000E+00
    0.81726E-11        -0.16298E-19         0.00000E+00
    0.81726E-11        -0.21188E-19         0.00000E+00
    0.81726E-11        -0.18626E-19         0.00000E+00
    0.81726E-11        -0.18161E-19         0.00000E+00
    0.81726E-11        -0.20955E-19         0.00000E+00
    0.81726E-11        -0.11874E-19         0.00000E+00
    0.81726E-11        -0.15134E-19         0.00000E+00
    0.81726E-11        -0.24913E-19         0.00000E+00
    0.81726E-11        -0.18161E-19         0.00000E+00
    0.81726E-11        -0.18161E-19         0.00000E+00
    0.81726E-11        -0.15832E-19         0.00000E+00
    0.81726E-11        -0.65193E-20         0.00000E+00
    0.81726E-11        -0.23283E-20         0.00000E+00
    0.81726E-11        -0.88476E-20         0.00000E+00
    0.81726E-11         0.23283E-20         0.00000E+00
    0.81726E-11        -0.69849E-20         0.00000E+00
    0.81726E-11        -0.32596E-20         0.00000E+00
    0.98431E-11        -0.13970E-20         0.00000E+00
    0.98431E-11        -0.34925E-20         0.00000E+00
    0.98431E-11        -0.37253E-20         0.00000E+00
    0.98431E-11        -0.79162E-20         0.00000E+00
    0.98431E-11        -0.65193E-20         0.00000E+00
    0.98431E-11        -0.11642E-19         0.00000E+00
    0.98431E-11        -0.23283E-19         0.00000E+00
    0.98431E-11        -0.28405E-19         0.00000E+00
    0.98431E-11        -0.12340E-19         0.00000E+00
    0.98431E-11        -0.15134E-19         0.00000E+00
    0.98431E-11        -0.11409E-19         0.00000E+00
    0.98431E-11        -0.81491E-20         0.00000E+00
    0.98431E-11        -0.13504E-19         0.00000E+00
    0.98431E-11        -0.97789E-20         0.00000E+00
    0.98431E-11        -0.11642E-19         0.00000E+00
    0.98431E-11        -0.90804E-20         0.00000E+00
    0.98431E-11         0.00000E+00         0.00000E+00
    0.98431E-11        -0.93132E-20         0.00000E+00
    0.98431E-11        -0.21420E-19         0.00000E+00
    0.98431E-11        -0.36089E-19         0.00000E+00
    0.98431E-11        -0.30268E-19         0.00000E+00
    0.98431E-11        -0.18626E-19         0.00000E+00
    0.98431E-11        -0.27474E-19         0.00000E+00
    0.98431E-11        -0.23749E-19         0.00000E+00
    0.98431E-11        -0.19092E-19         0.00000E+00
    0.98431E-11        -0.26077E-19         0.00000E+00
    0.98431E-11        -0.16298E-19         0.00000E+00
    0.98431E-11        -0.12107E-19         0.00000E+00
    0.98431E-11        -0.12107E-19         0.00000E+00
    0.98431E-11        -0.13039E-19         0.00000E+00
    0.98431E-11        -0.28405E-19         0.00000E+00
    0.98431E-11        -0.14435E-19         0.00000E+00
    0.98431E-11        -0.25146E-19         0.00000E+00
    0.98431E-11        -0.21886E-19         0.00000E+00
    0.98431E-11        -0.22119E-19         0.00000E+00
    0.98431E-11        -0.22119E-19         0.00000E+00
    0.98431E-11        -0.13504E-19         0.00000E+00
    0.98431E-11        -0.20955E-19         0.00000E+00
    0.98431E-11        -0.24214E-19         0.00000E+00
    0.98431E-11        -0.27474E-19         0.00000E+00
    0.98431E-11        -0.13039E-19         0.00000E+00
    0.98431E-11        -0.30268E-19         0.00000E+00
    0.98431E-11        -0.24214E-19         0.00000E+00
    0.98431E-11        -0.27008E-19         0.00000E+00
    0.98431E-11        -0.17462E-19         0.00000E+00
    0.98431E-11        -0.19558E-19         0.00000E+00
    0.98431E-11        -0.13271E-19         0.00000E+00
    0.98431E-11        -0.93132E-20         0.00000E+00
    0.98431E-11        -0.69849E-20         0.00000E+00
    0.98431E-11        -0.51223E-20         0.00000E+00
    0.11850E-10         0.41910E-20         0.00000E+00
    0.11850E-10        -0.41910E-20         0.00000E+00
    0.11850E-10        -0.88476E-20         0.00000E+00
    0.11850E-10         0.37253E-20         0.00000E+00
    0.11850E-10        -0.18626E-20         0.00000E+00
    0.11850E-10         0.11642E-20         0.00000E+00
    0.11850E-10        -0.46566E-21         0.00000E+00
    0.11850E-10        -0.65193E-20         0.00000E+00
    0.11850E-10        -0.74506E-20         0.00000E+00
    0.11850E-10        -0.93132E-20         0.00000E+00
    0.11850E-10        -0.20489E-19         0.00000E+00
    0.11850E-10        -0.51223E-20         0.00000E+00
    0.11850E-10        -0.10943E-19         0.00000E+00
    0.11850E-10        -0.16298E-19         0.00000E+00
    0.11850E-10        -0.32596E-20         0.00000E+00
    0.11850E-10        -0.13271E-19         0.00000E+00
    0.11850E-10        -0.93132E-20         0.00000E+00
    0.11850E-10        -0.24913E-19         0.00000E+00
    0.11850E-10        -0.24214E-19         0.00000E+00
    0.11850E-10        -0.20955E-19         0.00000E+00
    0.11850E-10        -0.28173E-19         0.00000E+00
    0.11850E-10        -0.18626E-19         0.00000E+00
    0.11850E-10        -0.19092E-19         0.00000E+00
    0.11850E-10        -0.24214E-19         0.00000E+00
    0.11850E-10        -0.93132E-20         0.00000E+00
    0.11850E-10        -0.21886E-19         0.00000E+00
    0.11850E-10        -0.12107E-19         0.00000E+00
    0.11850E-10         0.00000E+00         0.00000E+00
    0.11850E-10        -0.11642E-19         0.00000E+00
    0.11850E-10        -0.97789E-20         0.00000E+00
    0.11850E-10        -0.16997E-19         0.00000E+00
    0.11850E-10        -0.12573E-19         0.00000E+00
    0.11850E-10        -0.30035E-19         0.00000E+00
    0.11850E-10        -0.33528E-19         0.00000E+00
    0.11850E-10        -0.18161E-19         0.00000E+00
    0.11850E-10        -0.16065E-19         0.00000E+00
    0.11850E-10        -0.41910E-20         0.00000E+00
    0.11850E-10        -0.81491E-20         0.00000E+00
    0.11850E-10        -0.88476E-20         0.00000E+00
    0.11850E-10        -0.97789E-20         0.00000E+00
    0.11850E-10        -0.83819E-20         0.00000E+00
    0.11850E-10        -0.25844E-19         0.00000E+00
    0.11850E-10        -0.25146E-19         0.00000E+00
    0.11850E-10        -0.20955E-19         0.00000E+00
    0.11850E-10        -0.26310E-19         0.00000E+00
    0.11850E-10        -0.23749E-19         0.00000E+00
    0.11850E-10        -0.10477E-19         0.00000E+00
    0.11850E-10         0.93132E-21         0.00000E+00
    0.11850E-10        -0.18626E-20         0.00000E+00
    0.11850E-10        -0.93132E-21         0.00000E+00
    0.14259E-10        -0.41910E-20         0.00000E+00
    0.14259E-10        -0.46566E-20         0.00000E+00
    0.14259E-10        -0.27940E-20         0.00000E+00
    0.14259E-10        -0.13970E-20         0.00000E+00
    0.14259E-10        -0.51223E-20         0.00000E+00
    0.14259E-10         0.81491E-20         0.00000E+00
    0.14259E-10         0.88476E-20         0.00000E+00
    0.14259E-10         0.93132E-21         0.00000E+00
    0.14259E-10        -0.11874E-19         0.00000E+00
    0.14259E-10        -0.18626E-20         0.00000E+00
    0.14259E-10        -0.69849E-20         0.00000E+00
    0.14259E-10        -0.88476E-20         0.00000E+00
    0.14259E-10        -0.19092E-19         0.00000E+00
    0.14259E-10        -0.16298E-19         0.00000E+00
    0.14259E-10        -0.81491E-20         0.00000E+00
    0.14259E-10        -0.10477E-19         0.00000E+00
    0.14259E-10        -0.74506E-20         0.00000E+00
    0.14259E-10        -0.30734E-19         0.00000E+00
    0.14259E-10        -0.93132E-20         0.00000E+00
    0.14259E-10        -0.13970E-19         0.00000E+00
    0.14259E-10        -0.26543E-19         0.00000E+00
    0.14259E-10        -0.29104E-19         0.00000E+00
    0.14259E-10        -0.18161E-19         0.00000E+00
    0.14259E-10        -0.21420E-19         0.00000E+00
    0.14259E-10        -0.20955E-19         0.00000E+00
    0.14259E-10        -0.34925E-20         0.00000E+00
    0.14259E-10        -0.65193E-20         0.00000E+00
    0.14259E-10        -0.16298E-20         0.00000E+00
    0.14259E-10        -0.23283E-20         0.00000E+00
    0.14259E-10        -0.83819E-20         0.00000E+00
    0.14259E-10        -0.51223E-20         0.00000E+00
    0.14259E-10        -0.86147E-20         0.00000E+00
    0.14259E-10        -0.79162E-20         0.00000E+00
    0.14259E-10        -0.12107E-19         0.00000E+00
    0.14259E-10        -0.12107E-19         0.00000E+00
    0.14259E-10        -0.51223E-20         0.00000E+00
    0.14259E-10        -0.65193E-20         0.00000E+00
    0.14259E-10        -0.46566E-20         0.00000E+00
    0.14259E-10         0.74506E-20         0.00000E+00
    0.14259E-10        -0.69849E-21         0.00000E+00
    0.14259E-10        -0.37253E-20         0.00000E+00
    0.14259E-10        -0.14435E-19         0.00000E+00
    0.14259E-10        -0.18161E-19         0.00000E+00
    0.14259E-10        -0.15600E-19         0.00000E+00
    0.14259E-10        -0.13970E-19         0.00000E+00
    0.14259E-10        -0.79162E-20         0.00000E+00
    0.14259E-10        -0.10245E-19         0.00000E+00
    0.14259E-10        -0.53551E-20         0.00000E+00
    0.14259E-10        -0.97789E-20         0.00000E+00
    0.14259E-10        -0.10245E-19         0.00000E+00
    0.17149E-10        -0.11176E-19         0.00000E+00
    0.17149E-10        -0.46566E-20         0.00000E+00
    0.17149E-10         0.46566E-20         0.00000E+00
    0.17149E-10        -0.23283E-21         0.00000E+00
    0.17149E-10         0.62864E-20         0.00000E+00
    0.17149E-10         0.79162E-20         0.00000E+00
    0.17149E-10         0.37253E-20         0.00000E+00
    0.17149E-10        -0.27940E-20         0.00000E+00
    0.17149E-10        -0.10245E-19         0.00000E+00
    0.17149E-10        -0.10943E-19         0.00000E+00
    0.17149E-10        -0.13970E-19         0.00000E+00
    0.17149E-10        -0.15367E-19         0.00000E+00
    0.17149E-10        -0.51223E-20         0.00000E+00
    0.17149E-10        -0.83819E-20         0.00000E+00
    0.17149E-10        -0.12806E-19         0.00000E+00
    0.17149E-10        -0.60536E-20         0.00000E+00
    0.17149E-10        -0.23283E-20         0.00000E+00
    0.17149E-10        -0.14668E-19         0.00000E+00
    0.17149E-10        -0.12107E-19         0.00000E+00
    0.17149E-10        -0.27940E-19         0.00000E+00
    0.17149E-10        -0.22817E-19         0.00000E+00
    0.17149E-10        -0.16997E-19         0.00000E+00
    0.17149E-10        -0.14435E-19         0.00000E+00
    0.17149E-10        -0.15367E-19         0.00000E+00
    0.17149E-10        -0.20955E-19         0.00000E+00
    0.17149E-10        -0.55879E-20         0.00000E+00
    0.17149E-10        -0.62864E-20         0.00000E+00
    0.17149E-10         0.11642E-20         0.00000E+00
    0.17149E-10        -0.23283E-20         0.00000E+00
    0.17149E-10        -0.32596E-20         0.00000E+00
    0.17149E-10        -0.69849E-20         0.00000E+00
    0.17149E-10        -0.83819E-20         0.00000E+00
    0.17149E-10        -0.74506E-20         0.00000E+00
    0.17149E-10        -0.55879E-20         0.00000E+00
    0.17149E-10        -0.27940E-20         0.00000E+00
    0.17149E-10         0.37253E-20         0.00000E+00
    0.17149E-10         0.12573E-19         0.00000E+00
    0.17149E-10         0.16764E-19         0.00000E+00
    0.17149E-10         0.00000E+00         0.00000E+00
    0.17149E-10         0.93132E-21         0.00000E+00
    0.17149E-10        -0.46566E-21         0.00000E+00
    0.17149E-10        -0.44238E-20         0.00000E+00
    0.17149E-10         0.69849E-20         0.00000E+00
    0.17149E-10        -0.88476E-20         0.00000E+00
    0.17149E-10        -0.13039E-19         0.00000E+00
    0.17149E-10        -0.72177E-20         0.00000E+00
    0.17149E-10        -0.10710E-19         0.00000E+00
    0.17149E-10        -0.93132E-21         0.00000E+00
    0.17149E-10        -0.74506E-20         0.00000E+00
    0.17149E-10         0.48894E-20         0.00000E+00
    0.20616E-10        -0.51223E-20         0.00000E+00
    0.20616E-10        -0.37253E-20         0.00000E+00
    0.20616E-10         0.32596E-20         0.00000E+00
    0.20616E-10         0.18626E-20         0.00000E+00
    0.20616E-10         0.62864E-20         0.00000E+00
    0.20616E-10        -0.13970E-20         0.00000E+00
    0.20616E-10         0.69849E-20         0.00000E+00
    0.20616E-10         0.79162E-20         0.00000E+00
    0.20616E-10        -0.20489E-19         0.00000E+00
    0.20616E-10        -0.21420E-19         0.00000E+00
    0.20616E-10        -0.12573E-19         0.00000E+00
    0.20616E-10        -0.86147E-20         0.00000E+00
    0.20616E-10        -0.16298E-20         0.00000E+00
    0.20616E-10        -0.44238E-20         0.00000E+00
    0.20616E-10        -0.11176E-19         0.00000E+00
    0.20616E-10        -0.16298E-19         0.00000E+00
    0.20616E-10        -0.11642E-19         0.00000E+00
    0.20616E-10        -0.69849E-20         0.00000E+00
    0.20616E-10        -0.55879E-20         0.00000E+00
    0.20616E-10        -0.20023E-19         0.00000E+00
    0.20616E-10        -0.20955E-19         0.00000E+00
    0.20616E-10        -0.21886E-19         0.00000E+00
    0.20616E-10        -0.21886E-19         0.00000E+00
    0.20616E-10        -0.74506E-20         0.00000E+00
    0.20616E-10        -0.18626E-20         0.00000E+00
    0.20616E-10        -0.93132E-20         0.00000E+00
    0.20616E-10        -0.16298E-20         0.00000E+00
    0.20616E-10        -0.32596E-20         0.00000E+00
    0.20616E-10        -0.37253E-20         0.00000E+00
    0.20616E-10        -0.79162E-20         0.00000E+00
    0.20616E-10         0.13970E-20         0.00000E+00
    0.20616E-10         0.74506E-20         0.00000E+00
    0.20616E-10         0.83819E-20         0.00000E+00
    0.20616E-10        -0.46566E-20         0.00000E+00
    0.20616E-10         0.13970E-20         0.00000E+00
    0.20616E-10         0.10245E-19         0.00000E+00
    0.20616E-10         0.16764E-19         0.00000E+00
    0.20616E-10         0.69849E-20         0.00000E+00
    0.20616E-10        -0.46566E-20         0.00000E+00
    0.20616E-10        -0.27940E-20         0.00000E+00
    0.20616E-10         0.46566E-20         0.00000E+00
    0.20616E-10        -0.51223E-20         0.00000E+00
    0.20616E-10        -0.41910E-20         0.00000E+00
    0.20616E-10        -0.65193E-20         0.00000E+00
    0.20616E-10        -0.69849E-20         0.00000E+00
    0.20616E-10        -0.55879E-20         0.00000E+00
    0.20616E-10        -0.15134E-19         0.00000E+00
    0.20616E-10         0.23283E-20         0.00000E+00
    0.20616E-10         0.41910E-20         0.00000E+00
    0.20616E-10         0.74506E-20         0.00000E+00
    0.24770E-10         0.93132E-21         0.00000E+00
    0.24770E-10        -0.51223E-20         0.00000E+00
    0.24770E-10         0.97789E-20         0.00000E+00
    0.24770E-10         0.13970E-20         0.00000E+00
    0.24770E-10         0.46566E-21         0.00000E+00
    0.24770E-10        -0.79162E-20         0.00000E+00
    0.24770E-10         0.62864E-20         0.00000E+00
    0.24770E-10        -0.32596E-20         0.00000E+00
    0.24770E-10        -0.83819E-20         0.00000E+00
    0.24770E-10        -0.13970E-19         0.00000E+00
    0.24770E-10        -0.65193E-20         0.00000E+00
    0.24770E-10        -0.15600E-19         0.00000E+00
    0.24770E-10        -0.11642E-19         0.00000E+00
    0.24770E-10        -0.11176E-19         0.00000E+00
    0.24770E-10        -0.14203E-19         0.00000E+00
    0.24770E-10        -0.11409E-19         0.00000E+00
    0.24770E-10        -0.12806E-19         0.00000E+00
    0.24770E-10        -0.83819E-20         0.00000E+00
    0.24770E-10        -0.69849E-20         0.00000E+00
    0.24770E-10        -0.14435E-19         0.00000E+00
    0.24770E-10        -0.21886E-19         0.00000E+00
    0.24770E-10        -0.19558E-19         0.00000E+00
    0.24770E-10        -0.13970E-19         0.00000E+00
    0.24770E-10        -0.41910E-20         0.00000E+00
    0.24770E-10        -0.46566E-21         0.00000E+00
    0.24770E-10        -0.11176E-19         0.00000E+00
    0.24770E-10         0.93132E-21         0.00000E+00
    0.24770E-10         0.95461E-20         0.00000E+00
    0.24770E-10         0.12573E-19         0.00000E+00
    0.24770E-10        -0.16298E-20         0.00000E+00
    0.24770E-10        -0.93132E-21         0.00000E+00
    0.24770E-10         0.10710E-19         0.00000E+00
    0.24770E-10         0.27707E-19         0.00000E+00
    0.24770E-10         0.10245E-19         0.00000E+00
    0.24770E-10         0.65193E-20         0.00000E+00
    0.24770E-10         0.69849E-21         0.00000E+00
    0.24770E-10        -0.62864E-20         0.00000E+00
    0.24770E-10        -0.13504E-19         0.00000E+00
    0.24770E-10        -0.10477E-19         0.00000E+00
    0.24770E-10        -0.51223E-20         0.00000E+00
    0.24770E-10         0.51223E-20         0.00000E+00
    0.24770E-10         0.20955E-20         0.00000E+00
    0.24770E-10        -0.13970E-19         0.00000E+00
    0.24770E-10        -0.74506E-20         0.00000E+00
    0.24770E-10        -0.15367E-19         0.00000E+00
    0.24770E-10        -0.23283E-20         0.00000E+00
    0.24770E-10        -0.27940E-20         0.00000E+00
    0.24770E-10        -0.55879E-20         0.00000E+00
    0.24770E-10        -0.14435E-19         0.00000E+00
    0.24770E-10        -0.53551E-20         0.00000E+00
    0.29747E-10        -0.83819E-20         0.00000E+00
    0.29747E-10         0.20955E-20         0.00000E+00
    0.29747E-10         0.10710E-19         0.00000E+00
    0.29747E-10         0.51223E-20         0.00000E+00
    0.29747E-10         0.16997E-19         0.00000E+00
    0.29747E-10         0.97789E-20         0.00000E+00
    0.29747E-10        -0.44238E-20         0.00000E+00
    0.29747E-10        -0.19558E-19         0.00000E+00
    0.29747E-10        -0.51223E-20         0.00000E+00
    0.29747E-10         0.13970E-20         0.00000E+00
    0.29747E-10        -0.13504E-19         0.00000E+00
    0.29747E-10        -0.21886E-19         0.00000E+00
    0.29747E-10        -0.18626E-19         0.00000E+00
    0.29747E-10        -0.15367E-19         0.00000E+00
    0.29747E-10        -0.10477E-19         0.00000E+00
    0.29747E-10        -0.41910E-20         0.00000E+00
    0.29747E-10        -0.62864E-20         0.00000E+00
    0.29747E-10        -0.12573E-19         0.00000E+00
    0.29747E-10        -0.88476E-20         0.00000E+00
    0.29747E-10        -0.27707E-19         0.00000E+00
    0.29747E-10        -0.23050E-19         0.00000E+00
    0.29747E-10        -0.18394E-19         0.00000E+00
    0.29747E-10        -0.97789E-20         0.00000E+00
    0.29747E-10         0.93132E-21         0.00000E+00
    0.29747E-10         0.79162E-20         0.00000E+00
    0.29747E-10         0.93132E-20         0.00000E+00
    0.29747E-10         0.25611E-20         0.00000E+00
    0.29747E-10         0.16764E-19         0.00000E+00
    0.29747E-10         0.60536E-20         0.00000E+00
    0.29747E-10        -0.55879E-20         0.00000E+00
    0.29747E-10         0.46566E-20         0.00000E+00
    0.29747E-10         0.65193E-20         0.00000E+00
    0.29747E-10         0.46566E-20         0.00000E+00
    0.29747E-10         0.23283E-21         0.00000E+00
    0.29747E-10         0.11642E-19         0.00000E+00
    0.29747E-10        -0.39581E-20         0.00000E+00
    0.29747E-10        -0.74506E-20         0.00000E+00
    0.29747E-10        -0.65193E-20         0.00000E+00
    0.29747E-10        -0.79162E-20         0.00000E+00
    0.29747E-10        -0.17229E-19         0.00000E+00
    0.29747E-10        -0.17462E-19         0.00000E+00
    0.29747E-10         0.20955E-20         0.00000E+00
    0.29747E-10        -0.15832E-19         0.00000E+00
    0.29747E-10        -0.14901E-19         0.00000E+00
    0.29747E-10        -0.26310E-19         0.00000E+00
    0.29747E-10        -0.11642E-19         0.00000E+00
    0.29747E-10        -0.51223E-20         0.00000E+00
    0.29747E-10        -0.13970E-20         0.00000E+00
    0.29747E-10        -0.10943E-19         0.00000E+00
    0.29747E-10        -0.58208E-20         0.00000E+00
    0.35704E-10         0.23283E-21         0.00000E+00
    0.35704E-10         0.86147E-20         0.00000E+00
    0.35704E-10         0.53551E-20         0.00000E+00
    0.35704E-10         0.48894E-20         0.00000E+00
    0.35704E-10         0.12340E-19         0.00000E+00
    0.35704E-10         0.15832E-19         0.00000E+00
    0.35704E-10        -0.11642E-20         0.00000E+00
    0.35704E-10        -0.15832E-19         0.00000E+00
    0.35704E-10        -0.16298E-19         0.00000E+00
    0.35704E-10        -0.74506E-20         0.00000E+00
    0.35704E-10        -0.74506E-20         0.00000E+00
    0.35704E-10        -0.97789E-20         0.00000E+00
    0.35704E-10        -0.12107E-19         0.00000E+00
    0.35704E-10        -0.93132E-20         0.00000E+00
    0.35704E-10        -0.97789E-20         0.00000E+00
    0.35704E-10        -0.21420E-19         0.00000E+00
    0.35704E-10        -0.15367E-19         0.00000E+00
    0.35704E-10        -0.16764E-19         0.00000E+00
    0.35704E-10        -0.97789E-20         0.00000E+00
    0.35704E-10        -0.60536E-20         0.00000E+00
    0.35704E-10        -0.11642E-19         0.00000E+00
    0.35704E-10        -0.17695E-19         0.00000E+00
    0.35704E-10        -0.93132E-20         0.00000E+00
    0.35704E-10         0.23283E-20         0.00000E+00
    0.35704E-10        -0.18626E-20         0.00000E+00
    0.35704E-10         0.81491E-20         0.00000E+00
    0.35704E-10         0.12573E-19         0.00000E+00
    0.35704E-10         0.11176E-19         0.00000E+00
    0.35704E-10         0.18626E-20         0.00000E+00
    0.35704E-10         0.27940E-20         0.00000E+00
    0.35704E-10         0.79162E-20         0.00000E+00
    0.35704E-10         0.69849E-21         0.00000E+00
    0.35704E-10         0.20955E-20         0.00000E+00
    0.35704E-10         0.69849E-20         0.00000E+00
    0.35704E-10         0.18626E-20         0.00000E+00
    0.35704E-10        -0.46566E-20         0.00000E+00
    0.35704E-10        -0.11642E-19         0.00000E+00
    0.35704E-10        -0.20955E-19         0.00000E+00
    0.35704E-10        -0.13039E-19         0.00000E+00
    0.35704E-10        -0.25379E-19         0.00000E+00
    0.35704E-10        -0.17462E-19         0.00000E+00
    0.35704E-10        -0.12107E-19         0.00000E+00
    0.35704E-10        -0.13504E-19         0.00000E+00
    0.35704E-10        -0.28405E-19         0.00000E+00
    0.35704E-10        -0.18161E-19         0.00000E+00
    0.35704E-10        -0.23283E-19         0.00000E+00
    0.35704E-10        -0.90804E-20         0.00000E+00
    0.35704E-10        -0.32596E-20         0.00000E+00
    0.35704E-10        -0.13970E-20         0.00000E+00
    0.35704E-10         0.16298E-20         0.00000E+00
    0.42831E-10         0.13970E-20         0.00000E+00
    0.42831E-10        -0.46566E-21         0.00000E+00
    0.42831E-10         0.97789E-20         0.00000E+00
    0.42831E-10         0.62864E-20         0.00000E+00
    0.42831E-10        -0.44238E-20         0.00000E+00
    0.42831E-10        -0.69849E-21         0.00000E+00
    0.42831E-10        -0.86147E-20         0.00000E+00
    0.42831E-10        -0.37253E-20         0.00000E+00
    0.42831E-10        -0.14435E-19         0.00000E+00
    0.42831E-10        -0.12340E-19         0.00000E+00
    0.42831E-10         0.41910E-20         0.00000E+00
    0.42831E-10        -0.46566E-21         0.00000E+00
    0.42831E-10         0.93132E-21         0.00000E+00
    0.42831E-10         0.00000E+00         0.00000E+00
    0.42831E-10        -0.11642E-19         0.00000E+00
    0.42831E-10        -0.10245E-19         0.00000E+00
    0.42831E-10        -0.69849E-20         0.00000E+00
    0.42831E-10        -0.27940E-19         0.00000E+00
    0.42831E-10        -0.22817E-19         0.00000E+00
    0.42831E-10        -0.60536E-20         0.00000E+00
    0.42831E-10         0.00000E+00         0.00000E+00
    0.42831E-10        -0.37253E-20         0.00000E+00
    0.42831E-10         0.00000E+00         0.00000E+00
    0.42831E-10         0.93132E-21         0.00000E+00
    0.42831E-10         0.11642E-20         0.00000E+00
    0.42831E-10        -0.46566E-21         0.00000E+00
    0.42831E-10         0.95461E-20         0.00000E+00
    0.42831E-10         0.46566E-20         0.00000E+00
    0.42831E-10         0.69849E-20         0.00000E+00
    0.42831E-10         0.37253E-20         0.00000E+00
    0.42831E-10        -0.74506E-20         0.00000E+00
    0.42831E-10        -0.76834E-20         0.00000E+00
    0.42831E-10         0.53551E-20         0.00000E+00
    0.42831E-10         0.20955E-19         0.00000E+00
    0.42831E-10         0.18626E-20         0.00000E+00
    0.42831E-10        -0.11176E-19         0.00000E+00
    0.42831E-10        -0.16764E-19         0.00000E+00
    0.42831E-10        -0.16298E-19         0.00000E+00
    0.42831E-10        -0.83819E-20         0.00000E+00
    0.42831E-10        -0.90804E-20         0.00000E+00
    0.42831E-10        -0.27940E-20         0.00000E+00
    0.42831E-10        -0.72177E-20         0.00000E+00
    0.42831E-10        -0.46566E-20         0.00000E+00
    0.42831E-10        -0.20955E-19         0.00000E+00
    0.42831E-10        -0.13039E-19         0.00000E+00
    0.42831E-10        -0.20023E-19         0.00000E+00
    0.42831E-10        -0.10710E-19         0.00000E+00
    0.42831E-10        -0.21653E-19         0.00000E+00
    0.42831E-10        -0.13039E-19         0.00000E+00
    0.42831E-10         0.13970E-20         0.00000E+00
    0.51353E-10         0.55879E-20         0.00000E+00
    0.51353E-10         0.83819E-20         0.00000E+00
    0.51353E-10         0.16298E-20         0.00000E+00
    0.51353E-10         0.00000E+00         0.00000E+00
    0.51353E-10        -0.62864E-20         0.00000E+00
    0.51353E-10        -0.23283E-20         0.00000E+00
    0.51353E-10        -0.32596E-20         0.00000E+00
    0.51353E-10        -0.23283E-20         0.00000E+00
    0.51353E-10        -0.27940E-20         0.00000E+00
    0.51353E-10         0.55879E-20         0.00000E+00
    0.51353E-10         0.62864E-20         0.00000E+00
    0.51353E-10         0.25611E-20         0.00000E+00
    0.51353E-10         0.93132E-21         0.00000E+00
    0.51353E-10        -0.93132E-21         0.00000E+00
    0.51353E-10        -0.58208E-20         0.00000E+00
    0.51353E-10        -0.13970E-19         0.00000E+00
    0.51353E-10        -0.12107E-19         0.00000E+00
    0.51353E-10        -0.14435E-19         0.00000E+00
    0.51353E-10        -0.11642E-19         0.00000E+00
    0.51353E-10        -0.15832E-19         0.00000E+00
    0.51353E-10        -0.14435E-19         0.00000E+00
    0.51353E-10        -0.69849E-20         0.00000E+00
    0.51353E-10        -0.41910E-20         0.00000E+00
    0.51353E-10         0.48894E-20         0.00000E+00
    0.51353E-10         0.44238E-20         0.00000E+00
    0.51353E-10         0.00000E+00         0.00000E+00
    0.51353E-10         0.23283E-21         0.00000E+00
    0.51353E-10         0.32596E-20         0.00000E+00
    0.51353E-10         0.97789E-20         0.00000E+00
    0.51353E-10         0.12107E-19         0.00000E+00
    0.51353E-10         0.51223E-20         0.00000E+00
    0.51353E-10        -0.10710E-19         0.00000E+00
    0.51353E-10        -0.74506E-20         0.00000E+00
    0.51353E-10         0.58208E-20         0.00000E+00
    0.51353E-10         0.88476E-20         0.00000E+00
    0.51353E-10        -0.23283E-20         0.00000E+00
    0.51353E-10        -0.23283E-21         0.00000E+00
    0.51353E-10         0.41910E-20         0.00000E+00
    0.51353E-10        -0.72177E-20         0.00000E+00
    0.51353E-10        -0.46566E-21         0.00000E+00
    0.51353E-10        -0.76834E-20         0.00000E+00
    0.51353E-10        -0.93132E-21         0.00000E+00
    0.51353E-10        -0.46566E-21         0.00000E+00
    0.51353E-10        -0.32596E-20         0.00000E+00
    0.51353E-10        -0.11176E-19         0.00000E+00
    0.51353E-10        -0.97789E-20         0.00000E+00
    0.51353E-10        -0.11176E-19         0.00000E+00
    0.51353E-10        -0.76834E-20         0.00000E+00
    0.51353E-10        -0.46566E-20         0.00000E+00
    0.51353E-10        -0.23283E-20         0.00000E+00
    0.61534E-10         0.46566E-20         0.00000E+00
    0.61534E-10         0.13039E-19         0.00000E+00
    0.61534E-10         0.51223E-20         0.00000E+00
    0.61534E-10         0.46566E-20         0.00000E+00
    0.61534E-10         0.93132E-21         0.00000E+00
    0.61534E-10         0.23050E-19         0.00000E+00
    0.61534E-10         0.16764E-19         0.00000E+00
    0.61534E-10         0.27940E-20         0.00000E+00
    0.61534E-10         0.79162E-20         0.00000E+00
    0.61534E-10         0.60536E-20         0.00000E+00
    0.61534E-10         0.58208E-20         0.00000E+00
    0.61534E-10        -0.46566E-20         0.00000E+00
    0.61534E-10        -0.15600E-19         0.00000E+00
    0.61534E-10        -0.32596E-20         0.00000E+00
    0.61534E-10        -0.81491E-20         0.00000E+00
    0.61534E-10        -0.19325E-19         0.00000E+00
    0.61534E-10        -0.11874E-19         0.00000E+00
    0.61534E-10        -0.10943E-19         0.00000E+00
    0.61534E-10        -0.12340E-19         0.00000E+00
    0.61534E-10        -0.12573E-19         0.00000E+00
    0.61534E-10        -0.12573E-19         0.00000E+00
    0.61534E-10        -0.13970E-19         0.00000E+00
    0.61534E-10        -0.10710E-19         0.00000E+00
    0.61534E-10        -0.79162E-20         0.00000E+00
    0.61534E-10        -0.13039E-19         0.00000E+00
    0.61534E-10        -0.60536E-20         0.00000E+00
    0.61534E-10        -0.27940E-20         0.00000E+00
    0.61534E-10         0.27940E-20         0.00000E+00
    0.61534E-10         0.23283E-20         0.00000E+00
    0.61534E-10         0.97789E-20         0.00000E+00
    0.61534E-10         0.55879E-20         0.00000E+00
    0.61534E-10         0.41910E-20         0.00000E+00
    0.61534E-10         0.65193E-20         0.00000E+00
    0.61534E-10         0.11409E-19         0.00000E+00
    0.61534E-10         0.15832E-19         0.00000E+00
    0.61534E-10         0.37253E-20         0.00000E+00
    0.61534E-10         0.67521E-20         0.00000E+00
    0.61534E-10         0.74506E-20         0.00000E+00
    0.61534E-10         0.76834E-20         0.00000E+00
    0.61534E-10         0.23283E-20         0.00000E+00
    0.61534E-10        -0.67521E-20         0.00000E+00
    0.61534E-10         0.16298E-20         0.00000E+00
    0.61534E-10        -0.25611E-20         0.00000E+00
    0.61534E-10         0.00000E+00         0.00000E+00
    0.61534E-10         0.32596E-20         0.00000E+00
    0.61534E-10         0.46566E-21         0.00000E+00
    0.61534E-10         0.95461E-20         0.00000E+00
    0.61534E-10         0.12573E-19         0.00000E+00
    0.61534E-10         0.27940E-20         0.00000E+00
    0.61534E-10        -0.48894E-20         0.00000E+00
    0.73690E-10         0.93132E-21         0.00000E+00
    0.73690E-10         0.23283E-20         0.00000E+00
    0.73690E-10         0.86147E-20         0.00000E+00
    0.73690E-10         0.55879E-20         0.00000E+00
    0.73690E-10         0.12107E-19         0.00000E+00
    0.73690E-10         0.32596E-19         0.00000E+00
    0.73690E-10         0.16764E-19         0.00000E+00
    0.73690E-10         0.17229E-19         0.00000E+00
    0.73690E-10         0.46566E-20         0.00000E+00
    0.73690E-10         0.46566E-20         0.00000E+00
    0.73690E-10        -0.46566E-21         0.00000E+00
    0.73690E-10        -0.46566E-21         0.00000E+00
    0.73690E-10         0.88476E-20         0.00000E+00
    0.73690E-10        -0.51223E-20         0.00000E+00
    0.73690E-10        -0.11176E-19         0.00000E+00
    0.73690E-10        -0.41910E-20         0.00000E+00
    0.73690E-10        -0.46566E-20         0.00000E+00
    0.73690E-10        -0.17462E-19         0.00000E+00
    0.73690E-10        -0.21420E-19         0.00000E+00
    0.73690E-10        -0.11642E-19         0.00000E+00
    0.73690E-10        -0.88476E-20         0.00000E+00
    0.73690E-10        -0.28871E-19         0.00000E+00
    0.73690E-10        -0.19325E-19         0.00000E+00
    0.73690E-10        -0.16997E-19         0.00000E+00
    0.73690E-10        -0.16764E-19         0.00000E+00
    0.73690E-10        -0.19791E-19         0.00000E+00
    0.73690E-10        -0.81491E-20         0.00000E+00
    0.73690E-10        -0.32596E-20         0.00000E+00
    0.73690E-10         0.18626E-20         0.00000E+00
    0.73690E-10         0.11176E-19         0.00000E+00
    0.73690E-10         0.12573E-19         0.00000E+00
    0.73690E-10         0.20256E-19         0.00000E+00
    0.73690E-10         0.27940E-19         0.00000E+00
    0.73690E-10         0.19092E-19         0.00000E+00
    0.73690E-10         0.53551E-20         0.00000E+00
    0.73690E-10         0.46566E-21         0.00000E+00
    0.73690E-10        -0.23283E-20         0.00000E+00
    0.73690E-10         0.93132E-21         0.00000E+00
    0.73690E-10         0.90804E-20         0.00000E+00
    0.73690E-10        -0.46566E-21         0.00000E+00
    0.73690E-10         0.93132E-20         0.00000E+00
    0.73690E-10         0.46566E-20         0.00000E+00
    0.73690E-10         0.16298E-20         0.00000E+00
    0.73690E-10         0.00000E+00         0.00000E+00
    0.73690E-10         0.16997E-19         0.00000E+00
    0.73690E-10         0.93132E-21         0.00000E+00
    0.73690E-10         0.95461E-20         0.00000E+00
    0.73690E-10         0.88476E-20         0.00000E+00
    0.73690E-10         0.10245E-19         0.00000E+00
    0.73690E-10        -0.69849E-20         0.00000E+00
    0.88194E-10         0.37253E-20         0.00000E+00
    0.88194E-10         0.11642E-20         0.00000E+00
    0.88194E-10         0.18626E-20         0.00000E+00
    0.88194E-10         0.97789E-20         0.00000E+00
    0.88194E-10         0.10012E-19         0.00000E+00
    0.88194E-10         0.10245E-19         0.00000E+00
    0.88194E-10         0.11874E-19         0.00000E+00
    0.88194E-10         0.14435E-19         0.00000E+00
    0.88194E-10         0.14901E-19         0.00000E+00
    0.88194E-10         0.18626E-19         0.00000E+00
    0.88194E-10         0.12107E-19         0.00000E+00
    0.88194E-10         0.93132E-21         0.00000E+00
    0.88194E-10         0.19092E-19         0.00000E+00
    0.88194E-10        -0.18626E-20         0.00000E+00
    0.88194E-10        -0.10943E-19         0.00000E+00
    0.88194E-10        -0.14203E-19         0.00000E+00
    0.88194E-10        -0.60536E-20         0.00000E+00
    0.88194E-10        -0.13504E-19         0.00000E+00
    0.88194E-10        -0.13970E-20         0.00000E+00
    0.88194E-10        -0.15367E-19         0.00000E+00
    0.88194E-10        -0.16298E-19         0.00000E+00
    0.88194E-10        -0.19558E-19         0.00000E+00
    0.88194E-10        -0.15832E-19         0.00000E+00
    0.88194E-10        -0.10245E-19         0.00000E+00
    0.88194E-10        -0.21886E-19         0.00000E+00
    0.88194E-10        -0.13271E-19         0.00000E+00
    0.88194E-10        -0.62864E-20         0.00000E+00
    0.88194E-10        -0.97789E-20         0.00000E+00
    0.88194E-10        -0.46566E-20         0.00000E+00
    0.88194E-10         0.11642E-19         0.00000E+00
    0.88194E-10         0.11642E-19         0.00000E+00
    0.88194E-10         0.97789E-20         0.00000E+00
    0.88194E-10         0.83819E-20         0.00000E+00
    0.88194E-10         0.11176E-19         0.00000E+00
    0.88194E-10         0.95461E-20         0.00000E+00
    0.88194E-10         0.10477E-19         0.00000E+00
    0.88194E-10        -0.23283E-20         0.00000E+00
    0.88194E-10        -0.32596E-20         0.00000E+00
    0.88194E-10         0.51223E-20         0.00000E+00
    0.88194E-10        -0.23283E-21         0.00000E+00
    0.88194E-10         0.69849E-20         0.00000E+00
    0.88194E-10         0.18626E-20         0.00000E+00
    0.88194E-10         0.90804E-20         0.00000E+00
    0.88194E-10         0.13504E-19         0.00000E+00
    0.88194E-10         0.76834E-20         0.00000E+00
    0.88194E-10         0.23283E-20         0.00000E+00
    0.88194E-10         0.74506E-20         0.00000E+00
    0.88194E-10         0.14435E-19         0.00000E+00
    0.88194E-10         0.11176E-19         0.00000E+00
    0.88194E-10         0.46566E-21         0.00000E+00
    0.10549E-09         0.00000E+00         0.00000E+00
    0.10549E-09        -0.88476E-20         0.00000E+00
    0.10549E-09        -0.20955E-20         0.00000E+00
    0.10549E-09         0.41910E-20         0.00000E+00
    0.10549E-09         0.13970E-19         0.00000E+00
    0.10549E-09        -0.20955E-20         0.00000E+00
    0.10549E-09        -0.18626E-20         0.00000E+00
    0.10549E-09         0.13970E-20         0.00000E+00
    0.10549E-09         0.20023E-19         0.00000E+00
    0.10549E-09         0.93132E-20         0.00000E+00
    0.10549E-09         0.83819E-20         0.00000E+00
    0.10549E-09         0.18626E-20         0.00000E+00
    0.10549E-09         0.23283E-20         0.00000E+00
    0.10549E-09         0.23283E-20         0.00000E+00
    0.10549E-09        -0.32596E-20         0.00000E+00
    0.10549E-09        -0.51223E-20         0.00000E+00
    0.10549E-09         0.20955E-20         0.00000E+00
    0.10549E-09         0.55879E-20         0.00000E+00
    0.10549E-09         0.90804E-20         0.00000E+00
    0.10549E-09        -0.46566E-21         0.00000E+00
    0.10549E-09         0.69849E-20         0.00000E+00
    0.10549E-09        -0.37253E-20         0.00000E+00
    0.10549E-09        -0.60536E-20         0.00000E+00
    0.10549E-09        -0.58208E-20         0.00000E+00
    0.10549E-09        -0.12806E-19         0.00000E+00
    0.10549E-09         0.18626E-20         0.00000E+00
    0.10549E-09        -0.69849E-20         0.00000E+00
    0.10549E-09        -0.41910E-20         0.00000E+00
    0.10549E-09        -0.41910E-20         0.00000E+00
    0.10549E-09        -0.14435E-19         0.00000E+00
    0.10549E-09        -0.10943E-19         0.00000E+00
    0.10549E-09        -0.18626E-20         0.00000E+00
    0.10549E-09         0.55879E-20         0.00000E+00
    0.10549E-09         0.12573E-19         0.00000E+00
    0.10549E-09         0.25611E-19         0.00000E+00
    0.10549E-09         0.14435E-19         0.00000E+00
    0.10549E-09         0.51223E-20         0.00000E+00
    0.10549E-09         0.46566E-20         0.00000E+00
    0.10549E-09         0.90804E-20         0.00000E+00
    0.10549E-09        -0.13970E-20         0.00000E+00
    0.10549E-09         0.13970E-20         0.00000E+00
    0.10549E-09         0.72177E-20         0.00000E+00
    0.10549E-09        -0.16298E-20         0.00000E+00
    0.10549E-09         0.16065E-19         0.00000E+00
    0.10549E-09         0.48894E-20         0.00000E+00
    0.10549E-09         0.88476E-20         0.00000E+00
    0.10549E-09         0.86147E-20         0.00000E+00
    0.10549E-09         0.32596E-20         0.00000E+00
    0.10549E-09         0.53551E-20         0.00000E+00
    0.10549E-09         0.81491E-20         0.00000E+00
    0.12609E-09        -0.18626E-20         0.00000E+00
    0.12609E-09        -0.44238E-20         0.00000E+00
    0.12609E-09        -0.10012E-19         0.00000E+00
    0.12609E-09        -0.20256E-19         0.00000E+00
    0.12609E-09        -0.10943E-19         0.00000E+00
    0.12609E-09        -0.53551E-20         0.00000E+00
    0.12609E-09        -0.97789E-20         0.00000E+00
    0.12609E-09         0.00000E+00         0.00000E+00
    0.12609E-09        -0.34925E-20         0.00000E+00
    0.12609E-09         0.65193E-20         0.00000E+00
    0.12609E-09        -0.46566E-21         0.00000E+00
    0.12609E-09        -0.93132E-21         0.00000E+00
    0.12609E-09         0.18626E-20         0.00000E+00
    0.12609E-09         0.13970E-20         0.00000E+00
    0.12609E-09         0.90804E-20         0.00000E+00
    0.12609E-09         0.88476E-20         0.00000E+00
    0.12609E-09         0.23982E-19         0.00000E+00
    0.12609E-09         0.20955E-19         0.00000E+00
    0.12609E-09         0.10710E-19         0.00000E+00
    0.12609E-09         0.16764E-19         0.00000E+00
    0.12609E-09         0.46566E-21         0.00000E+00
    0.12609E-09        -0.23283E-20         0.00000E+00
    0.12609E-09        -0.93132E-21         0.00000E+00
    0.12609E-09        -0.12107E-19         0.00000E+00
    0.12609E-09         0.11642E-20         0.00000E+00
    0.12609E-09        -0.34925E-20         0.00000E+00
    0.12609E-09        -0.69849E-20         0.00000E+00
    0.12609E-09        -0.60536E-20         0.00000E+00
    0.12609E-09        -0.46566E-20         0.00000E+00
    0.12609E-09        -0.11642E-20         0.00000E+00
    0.12609E-09        -0.27940E-20         0.00000E+00
    0.12609E-09         0.39581E-20         0.00000E+00
    0.12609E-09         0.19791E-19         0.00000E+00
    0.12609E-09         0.15832E-19         0.00000E+00
    0.12609E-09         0.12107E-19         0.00000E+00
    0.12609E-09         0.14901E-19         0.00000E+00
    0.12609E-09         0.24214E-19         0.00000E+00
    0.12609E-09         0.27940E-20         0.00000E+00
    0.12609E-09         0.00000E+00         0.00000E+00
    0.12609E-09         0.10245E-19         0.00000E+00
    0.12609E-09         0.13970E-19         0.00000E+00
    0.12609E-09         0.13271E-19         0.00000E+00
    0.12609E-09         0.00000E+00         0.00000E+00
    0.12609E-09        -0.51223E-20         0.00000E+00
    0.12609E-09         0.46566E-21         0.00000E+00
    0.12609E-09         0.51223E-20         0.00000E+00
    0.12609E-09        -0.46566E-20         0.00000E+00
    0.12609E-09        -0.37253E-20         0.00000E+00
    0.12609E-09        -0.20955E-20         0.00000E+00
    0.12609E-09         0.27940E-20         0.00000E+00
    0.15062E-09         0.46566E-21         0.00000E+00
    0.15062E-09        -0.69849E-20         0.00000E+00
    0.15062E-09        -0.69849E-20         0.00000E+00
    0.15062E-09        -0.16065E-19         0.00000E+00
    0.15062E-09        -0.25844E-19         0.00000E+00
    0.15062E-09        -0.18161E-19         0.00000E+00
    0.15062E-09        -0.13504E-19         0.00000E+00
    0.15062E-09        -0.15367E-19         0.00000E+00
    0.15062E-09        -0.65193E-20         0.00000E+00
    0.15062E-09        -0.55879E-20         0.00000E+00
    0.15062E-09         0.46566E-20         0.00000E+00
    0.15062E-09         0.10245E-19         0.00000E+00
    0.15062E-09         0.00000E+00         0.00000E+00
    0.15062E-09         0.27940E-20         0.00000E+00
    0.15062E-09         0.97789E-20         0.00000E+00
    0.15062E-09         0.67521E-20         0.00000E+00
    0.15062E-09         0.13504E-19         0.00000E+00
    0.15062E-09         0.16298E-19         0.00000E+00
    0.15062E-09         0.26543E-19         0.00000E+00
    0.15062E-09         0.37253E-20         0.00000E+00
    0.15062E-09        -0.21420E-19         0.00000E+00
    0.15062E-09         0.46566E-21         0.00000E+00
    0.15062E-09         0.15367E-19         0.00000E+00
    0.15062E-09        -0.16298E-20         0.00000E+00
    0.15062E-09        -0.69849E-21         0.00000E+00
    0.15062E-09        -0.69849E-21         0.00000E+00
    0.15062E-09         0.58208E-20         0.00000E+00
    0.15062E-09         0.46566E-20         0.00000E+00
    0.15062E-09         0.74506E-20         0.00000E+00
    0.15062E-09         0.69849E-20         0.00000E+00
    0.15062E-09         0.10245E-19         0.00000E+00
    0.15062E-09         0.97789E-20         0.00000E+00
    0.15062E-09         0.20955E-19         0.00000E+00
    0.15062E-09         0.21886E-19         0.00000E+00
    0.15062E-09         0.20722E-19         0.00000E+00
    0.15062E-09         0.14203E-19         0.00000E+00
    0.15062E-09         0.16764E-19         0.00000E+00
    0.15062E-09         0.76834E-20         0.00000E+00
    0.15062E-09         0.58208E-20         0.00000E+00
    0.15062E-09         0.15832E-19         0.00000E+00
    0.15062E-09         0.13504E-19         0.00000E+00
    0.15062E-09         0.62864E-20         0.00000E+00
    0.15062E-09        -0.65193E-20         0.00000E+00
    0.15062E-09        -0.25611E-20         0.00000E+00
    0.15062E-09        -0.16531E-19         0.00000E+00
    0.15062E-09        -0.79162E-20         0.00000E+00
    0.15062E-09        -0.41910E-20         0.00000E+00
    0.15062E-09         0.37253E-20         0.00000E+00
    0.15062E-09        -0.37253E-20         0.00000E+00
    0.15062E-09         0.46566E-21         0.00000E+00
    0.17979E-09         0.18626E-20         0.00000E+00
    0.17979E-09        -0.74506E-20         0.00000E+00
    0.17979E-09         0.34925E-20         0.00000E+00
    0.17979E-09        -0.37253E-20         0.00000E+00
    0.17979E-09        -0.60536E-20         0.00000E+00
    0.17979E-09        -0.18626E-20         0.00000E+00
    0.17979E-09        -0.88476E-20         0.00000E+00
    0.17979E-09        -0.16764E-19         0.00000E+00
    0.17979E-09        -0.11874E-19         0.00000E+00
    0.17979E-09        -0.18161E-19         0.00000E+00
    0.17979E-09         0.76834E-20         0.00000E+00
    0.17979E-09         0.18626E-20         0.00000E+00
    0.17979E-09         0.46566E-21         0.00000E+00
    0.17979E-09        -0.13970E-20         0.00000E+00
    0.17979E-09         0.13970E-20         0.00000E+00
    0.17979E-09         0.16065E-19         0.00000E+00
    0.17979E-09        -0.46566E-20         0.00000E+00
    0.17979E-09         0.41910E-20         0.00000E+00
    0.17979E-09         0.15367E-19         0.00000E+00
    0.17979E-09         0.55879E-20         0.00000E+00
    0.17979E-09         0.93132E-21         0.00000E+00
    0.17979E-09        -0.27940E-20         0.00000E+00
    0.17979E-09         0.15600E-19         0.00000E+00
    0.17979E-09        -0.18626E-20         0.00000E+00
    0.17979E-09        -0.55879E-20         0.00000E+00
    0.17979E-09        -0.13970E-20         0.00000E+00
    0.17979E-09         0.86147E-20         0.00000E+00
    0.17979E-09         0.48894E-20         0.00000E+00
    0.17979E-09         0.16298E-19         0.00000E+00
    0.17979E-09         0.20023E-19         0.00000E+00
    0.17979E-09         0.15367E-19         0.00000E+00
    0.17979E-09         0.22352E-19         0.00000E+00
    0.17979E-09         0.30501E-19         0.00000E+00
    0.17979E-09         0.20256E-19         0.00000E+00
    0.17979E-09         0.17928E-19         0.00000E+00
    0.17979E-09         0.17695E-19         0.00000E+00
    0.17979E-09         0.15600E-19         0.00000E+00
    0.17979E-09         0.19092E-19         0.00000E+00
    0.17979E-09         0.15600E-19         0.00000E+00
    0.17979E-09         0.76834E-20         0.00000E+00
    0.17979E-09         0.11176E-19         0.00000E+00
    0.17979E-09         0.18626E-20         0.00000E+00
    0.17979E-09        -0.13970E-20         0.00000E+00
    0.17979E-09        -0.41910E-20         0.00000E+00
    0.17979E-09        -0.74506E-20         0.00000E+00
    0.17979E-09        -0.16298E-19         0.00000E+00
    0.17979E-09        -0.13504E-19         0.00000E+00
    0.17979E-09        -0.27940E-20         0.00000E+00
    0.17979E-09        -0.93132E-21         0.00000E+00
    0.17979E-09         0.39581E-20         0.00000E+00
    0.21446E-09         0.62864E-20         0.00000E+00
    0.21446E-09         0.13970E-19         0.00000E+00
    0.21446E-09         0.90804E-20         0.00000E+00
    0.21446E-09         0.72177E-20         0.00000E+00
    0.21446E-09        -0.93132E-21         0.00000E+00
    0.21446E-09         0.44238E-20         0.00000E+00
    0.21446E-09         0.81491E-20         0.00000E+00
    0.21446E-09         0.39581E-20         0.00000E+00
    0.21446E-09        -0.27940E-20         0.00000E+00
    0.21446E-09        -0.16298E-20         0.00000E+00
    0.21446E-09        -0.67521E-20         0.00000E+00
    0.21446E-09        -0.74506E-20         0.00000E+00
    0.21446E-09        -0.93132E-20         0.00000E+00
    0.21446E-09        -0.55879E-20         0.00000E+00
    0.21446E-09         0.13970E-20         0.00000E+00
    0.21446E-09        -0.69849E-20         0.00000E+00
    0.21446E-09        -0.11642E-20         0.00000E+00
    0.21446E-09        -0.41910E-20         0.00000E+00
    0.21446E-09        -0.23283E-20         0.00000E+00
    0.21446E-09        -0.93132E-21         0.00000E+00
    0.21446E-09        -0.46566E-21         0.00000E+00
    0.21446E-09         0.13970E-20         0.00000E+00
    0.21446E-09         0.41910E-20         0.00000E+00
    0.21446E-09        -0.12340E-19         0.00000E+00
    0.21446E-09         0.00000E+00         0.00000E+00
    0.21446E-09        -0.16298E-20         0.00000E+00
    0.21446E-09         0.60536E-20         0.00000E+00
    0.21446E-09         0.12573E-19         0.00000E+00
    0.21446E-09         0.24680E-19         0.00000E+00
    0.21446E-09         0.26776E-19         0.00000E+00
    0.21446E-09         0.32363E-19         0.00000E+00
    0.21446E-09         0.24447E-19         0.00000E+00
    0.21446E-09         0.25379E-19         0.00000E+00
    0.21446E-09         0.23283E-19         0.00000E+00
    0.21446E-09         0.19791E-19         0.00000E+00
    0.21446E-09         0.14668E-19         0.00000E+00
    0.21446E-09         0.22352E-19         0.00000E+00
    0.21446E-09         0.26310E-19         0.00000E+00
    0.21446E-09         0.21420E-19         0.00000E+00
    0.21446E-09         0.13271E-19         0.00000E+00
    0.21446E-09         0.13970E-19         0.00000E+00
    0.21446E-09         0.46566E-20         0.00000E+00
    0.21446E-09         0.74506E-20         0.00000E+00
    0.21446E-09        -0.55879E-20         0.00000E+00
    0.21446E-09         0.13039E-19         0.00000E+00
    0.21446E-09        -0.18626E-20         0.00000E+00
    0.21446E-09        -0.11176E-19         0.00000E+00
    0.21446E-09        -0.15832E-19         0.00000E+00
    0.21446E-09        -0.69849E-20         0.00000E+00
    0.21446E-09        -0.32596E-20         0.00000E+00
    0.25564E-09         0.39581E-20         0.00000E+00
    0.25564E-09         0.83819E-20         0.00000E+00
    0.25564E-09         0.65193E-20         0.00000E+00
    0.25564E-09         0.13504E-19         0.00000E+00
    0.25564E-09         0.51223E-20         0.00000E+00
    0.25564E-09         0.30268E-20         0.00000E+00
    0.25564E-09         0.14901E-19         0.00000E+00
    0.25564E-09         0.46566E-20         0.00000E+00
    0.25564E-09         0.13737E-19         0.00000E+00
    0.25564E-09         0.11409E-19         0.00000E+00
    0.25564E-09        -0.15832E-19         0.00000E+00
    0.25564E-09        -0.74506E-20         0.00000E+00
    0.25564E-09        -0.18626E-19         0.00000E+00
    0.25564E-09        -0.44238E-20         0.00000E+00
    0.25564E-09         0.37253E-20         0.00000E+00
    0.25564E-09        -0.69849E-20         0.00000E+00
    0.25564E-09        -0.90804E-20         0.00000E+00
    0.25564E-09        -0.65193E-20         0.00000E+00
    0.25564E-09        -0.41910E-20         0.00000E+00
    0.25564E-09        -0.37253E-20         0.00000E+00
    0.25564E-09        -0.17928E-19         0.00000E+00
    0.25564E-09        -0.11176E-19         0.00000E+00
    0.25564E-09        -0.90804E-20         0.00000E+00
    0.25564E-09        -0.41910E-20         0.00000E+00
    0.25564E-09        -0.41910E-20         0.00000E+00
    0.25564E-09         0.00000E+00         0.00000E+00
    0.25564E-09         0.74506E-20         0.00000E+00
    0.25564E-09         0.25379E-19         0.00000E+00
    0.25564E-09         0.23283E-19         0.00000E+00
    0.25564E-09         0.25611E-19         0.00000E+00
    0.25564E-09         0.33993E-19         0.00000E+00
    0.25564E-09         0.35856E-19         0.00000E+00
    0.25564E-09         0.30035E-19         0.00000E+00
    0.25564E-09         0.24913E-19         0.00000E+00
    0.25564E-09         0.23283E-19         0.00000E+00
    0.25564E-09         0.55879E-20         0.00000E+00
    0.25564E-09         0.86147E-20         0.00000E+00
    0.25564E-09         0.13970E-19         0.00000E+00
    0.25564E-09         0.16065E-19         0.00000E+00
    0.25564E-09         0.15600E-19         0.00000E+00
    0.25564E-09         0.11409E-19         0.00000E+00
    0.25564E-09         0.23283E-21         0.00000E+00
    0.25564E-09        -0.53551E-20         0.00000E+00
    0.25564E-09         0.46566E-20         0.00000E+00
    0.25564E-09         0.58208E-20         0.00000E+00
    0.25564E-09         0.62864E-20         0.00000E+00
    0.25564E-09         0.46566E-20         0.00000E+00
    0.25564E-09        -0.69849E-21         0.00000E+00
    0.25564E-09         0.65193E-20         0.00000E+00
    0.25564E-09         0.51223E-20         0.00000E+00
    0.30450E-09        -0.39581E-20         0.00000E+00
    0.30450E-09         0.30268E-20         0.00000E+00
    0.30450E-09        -0.11642E-20         0.00000E+00
    0.30450E-09         0.32596E-20         0.00000E+00
    0.30450E-09         0.95461E-20         0.00000E+00
    0.30450E-09         0.13737E-19         0.00000E+00
    0.30450E-09         0.74506E-20         0.00000E+00
    0.30450E-09        -0.79162E-20         0.00000E+00
    0.30450E-09         0.69849E-21         0.00000E+00
    0.30450E-09        -0.23283E-20         0.00000E+00
    0.30450E-09        -0.11642E-20         0.00000E+00
    0.30450E-09        -0.58208E-20         0.00000E+00
    0.30450E-09        -0.19092E-19         0.00000E+00
    0.30450E-09        -0.62864E-20         0.00000E+00
    0.30450E-09         0.18626E-20         0.00000E+00
    0.30450E-09        -0.32596E-20         0.00000E+00
    0.30450E-09        -0.11409E-19         0.00000E+00
    0.30450E-09        -0.12573E-19         0.00000E+00
    0.30450E-09        -0.25611E-19         0.00000E+00
    0.30450E-09        -0.74506E-20         0.00000E+00
    0.30450E-09        -0.95461E-20         0.00000E+00
    0.30450E-09        -0.18626E-19         0.00000E+00
    0.30450E-09        -0.13970E-19         0.00000E+00
    0.30450E-09        -0.11409E-19         0.00000E+00
    0.30450E-09        -0.62864E-20         0.00000E+00
    0.30450E-09        -0.16298E-20         0.00000E+00
    0.30450E-09         0.60536E-20         0.00000E+00
    0.30450E-09         0.24447E-19         0.00000E+00
    0.30450E-09         0.21886E-19         0.00000E+00
    0.30450E-09         0.28871E-19         0.00000E+00
    0.30450E-09         0.23982E-19         0.00000E+00
    0.30450E-09         0.32596E-19         0.00000E+00
    0.30450E-09         0.27474E-19         0.00000E+00
    0.30450E-09         0.13039E-19         0.00000E+00
    0.30450E-09         0.74506E-20         0.00000E+00
    0.30450E-09        -0.46566E-21         0.00000E+00
    0.30450E-09         0.51223E-20         0.00000E+00
    0.30450E-09         0.13970E-19         0.00000E+00
    0.30450E-09         0.15134E-19         0.00000E+00
    0.30450E-09         0.20023E-19         0.00000E+00
    0.30450E-09         0.21886E-19         0.00000E+00
    0.30450E-09         0.48894E-20         0.00000E+00
    0.30450E-09         0.41910E-20         0.00000E+00
    0.30450E-09         0.83819E-20         0.00000E+00
    0.30450E-09        -0.32596E-20         0.00000E+00
    0.30450E-09        -0.18626E-20         0.00000E+00
    0.30450E-09         0.37253E-20         0.00000E+00
    0.30450E-09         0.11642E-19         0.00000E+00
    0.30450E-09         0.10943E-19         0.00000E+00
    0.30450E-09         0.27940E-20         0.00000E+00
    0.36241E-09        -0.30268E-20         0.00000E+00
    0.36241E-09         0.11642E-20         0.00000E+00
    0.36241E-09        -0.23283E-20         0.00000E+00
    0.36241E-09        -0.62864E-20         0.00000E+00
    0.36241E-09        -0.13970E-20         0.00000E+00
    0.36241E-09        -0.46566E-21         0.00000E+00
    0.36241E-09        -0.23283E-21         0.00000E+00
    0.36241E-09        -0.12107E-19         0.00000E+00
    0.36241E-09        -0.51223E-20         0.00000E+00
    0.36241E-09        -0.60536E-20         0.00000E+00
    0.36241E-09        -0.69849E-20         0.00000E+00
    0.36241E-09        -0.13039E-19         0.00000E+00
    0.36241E-09        -0.14435E-19         0.00000E+00
    0.36241E-09         0.58208E-20         0.00000E+00
    0.36241E-09         0.90804E-20         0.00000E+00
    0.36241E-09         0.13504E-19         0.00000E+00
    0.36241E-09        -0.13970E-20         0.00000E+00
    0.36241E-09        -0.18626E-19         0.00000E+00
    0.36241E-09        -0.18161E-19         0.00000E+00
    0.36241E-09        -0.17229E-19         0.00000E+00
    0.36241E-09        -0.12340E-19         0.00000E+00
    0.36241E-09        -0.16764E-19         0.00000E+00
    0.36241E-09        -0.12573E-19         0.00000E+00
    0.36241E-09        -0.16065E-19         0.00000E+00
    0.36241E-09        -0.93132E-20         0.00000E+00
    0.36241E-09        -0.69849E-20         0.00000E+00
    0.36241E-09         0.83819E-20         0.00000E+00
    0.36241E-09         0.14203E-19         0.00000E+00
    0.36241E-09         0.24913E-19         0.00000E+00
    0.36241E-09         0.16764E-19         0.00000E+00
    0.36241E-09         0.69849E-20         0.00000E+00
    0.36241E-09         0.74506E-20         0.00000E+00
    0.36241E-09         0.13039E-19         0.00000E+00
    0.36241E-09         0.11642E-19         0.00000E+00
    0.36241E-09         0.81491E-20         0.00000E+00
    0.36241E-09         0.27940E-20         0.00000E+00
    0.36241E-09         0.93132E-21         0.00000E+00
    0.36241E-09         0.16997E-19         0.00000E+00
    0.36241E-09         0.15832E-19         0.00000E+00
    0.36241E-09         0.17695E-19         0.00000E+00
    0.36241E-09         0.18626E-19         0.00000E+00
    0.36241E-09         0.15832E-19         0.00000E+00
    0.36241E-09         0.14203E-19         0.00000E+00
    0.36241E-09         0.18626E-20         0.00000E+00
    0.36241E-09        -0.74506E-20         0.00000E+00
    0.36241E-09         0.69849E-21         0.00000E+00
    0.36241E-09         0.86147E-20         0.00000E+00
    0.36241E-09         0.16531E-19         0.00000E+00
    0.36241E-09         0.53551E-20         0.00000E+00
    0.36241E-09        -0.23283E-20         0.00000E+00
    0.43100E-09         0.27940E-20         0.00000E+00
    0.43100E-09        -0.88476E-20         0.00000E+00
    0.43100E-09        -0.11176E-19         0.00000E+00
    0.43100E-09         0.44238E-20         0.00000E+00
    0.43100E-09         0.74506E-20         0.00000E+00
    0.43100E-09        -0.27940E-20         0.00000E+00
    0.43100E-09        -0.93132E-20         0.00000E+00
    0.43100E-09        -0.88476E-20         0.00000E+00
    0.43100E-09        -0.13970E-20         0.00000E+00
    0.43100E-09        -0.88476E-20         0.00000E+00
    0.43100E-09        -0.14435E-19         0.00000E+00
    0.43100E-09        -0.10710E-19         0.00000E+00
    0.43100E-09        -0.74506E-20         0.00000E+00
    0.43100E-09         0.17229E-19         0.00000E+00
    0.43100E-09         0.13039E-19         0.00000E+00
    0.43100E-09         0.32596E-20         0.00000E+00
    0.43100E-09        -0.65193E-20         0.00000E+00
    0.43100E-09        -0.65193E-20         0.00000E+00
    0.43100E-09        -0.69849E-21         0.00000E+00
    0.43100E-09        -0.88476E-20         0.00000E+00
    0.43100E-09        -0.97789E-20         0.00000E+00
    0.43100E-09        -0.46566E-20         0.00000E+00
    0.43100E-09        -0.13970E-19         0.00000E+00
    0.43100E-09        -0.10245E-19         0.00000E+00
    0.43100E-09        -0.51223E-20         0.00000E+00
    0.43100E-09        -0.23283E-20         0.00000E+00
    0.43100E-09        -0.41910E-20         0.00000E+00
    0.43100E-09         0.32596E-20         0.00000E+00
    0.43100E-09         0.11642E-19         0.00000E+00
    0.43100E-09         0.46566E-20         0.00000E+00
    0.43100E-09         0.97789E-20         0.00000E+00
    0.43100E-09         0.14668E-19         0.00000E+00
    0.43100E-09         0.90804E-20         0.00000E+00
    0.43100E-09         0.22119E-19         0.00000E+00
    0.43100E-09         0.16298E-19         0.00000E+00
    0.43100E-09         0.37253E-20         0.00000E+00
    0.43100E-09        -0.88476E-20         0.00000E+00
    0.43100E-09        -0.74506E-20         0.00000E+00
    0.43100E-09         0.16298E-20         0.00000E+00
    0.43100E-09         0.88476E-20         0.00000E+00
    0.43100E-09        -0.93132E-21         0.00000E+00
    0.43100E-09         0.65193E-20         0.00000E+00
    0.43100E-09         0.27940E-20         0.00000E+00
    0.43100E-09         0.23283E-20         0.00000E+00
    0.43100E-09        -0.23283E-20         0.00000E+00
    0.43100E-09         0.11642E-19         0.00000E+00
    0.43100E-09         0.90804E-20         0.00000E+00
    0.43100E-09         0.27008E-19         0.00000E+00
    0.43100E-09         0.15134E-19         0.00000E+00
    0.43100E-09         0.13970E-20         0.00000E+00
    0.51214E-09        -0.93132E-21         0.00000E+00
    0.51214E-09        -0.46566E-21         0.00000E+00
    0.51214E-09         0.46566E-21         0.00000E+00
    0.51214E-09         0.20489E-19         0.00000E+00
    0.51214E-09         0.83819E-20         0.00000E+00
    0.51214E-09         0.11176E-19         0.00000E+00
    0.51214E-09        -0.18626E-20         0.00000E+00
    0.51214E-09        -0.32596E-20         0.00000E+00
    0.51214E-09         0.32596E-20         0.00000E+00
    0.51214E-09         0.25611E-20         0.00000E+00
    0.51214E-09         0.11642E-19         0.00000E+00
    0.51214E-09         0.86147E-20         0.00000E+00
    0.51214E-09         0.69849E-20         0.00000E+00
    0.51214E-09         0.88476E-20         0.00000E+00
    0.51214E-09        -0.46566E-21         0.00000E+00
    0.51214E-09        -0.18626E-20         0.00000E+00
    0.51214E-09        -0.23283E-20         0.00000E+00
    0.51214E-09         0.74506E-20         0.00000E+00
    0.51214E-09         0.11642E-20         0.00000E+00
    0.51214E-09         0.44238E-20         0.00000E+00
    0.51214E-09        -0.93132E-20         0.00000E+00
    0.51214E-09        -0.65193E-20         0.00000E+00
    0.51214E-09        -0.13970E-20         0.00000E+00
    0.51214E-09        -0.11642E-20         0.00000E+00
    0.51214E-09         0.53551E-20         0.00000E+00
    0.51214E-09         0.55879E-20         0.00000E+00
    0.51214E-09        -0.11176E-19         0.00000E+00
    0.51214E-09        -0.41910E-20         0.00000E+00
    0.51214E-09         0.18626E-20         0.00000E+00
    0.51214E-09         0.83819E-20         0.00000E+00
    0.51214E-09         0.18161E-19         0.00000E+00
    0.51214E-09         0.12573E-19         0.00000E+00
    0.51214E-09         0.23283E-20         0.00000E+00
    0.51214E-09         0.15832E-19         0.00000E+00
    0.51214E-09         0.18161E-19         0.00000E+00
    0.51214E-09         0.23283E-20         0.00000E+00
    0.51214E-09        -0.55879E-20         0.00000E+00
    0.51214E-09        -0.41910E-20         0.00000E+00
    0.51214E-09        -0.46566E-20         0.00000E+00
    0.51214E-09         0.00000E+00         0.00000E+00
    0.51214E-09        -0.60536E-20         0.00000E+00
    0.51214E-09        -0.13039E-19         0.00000E+00
    0.51214E-09        -0.79162E-20         0.00000E+00
    0.51214E-09        -0.93132E-20         0.00000E+00
    0.51214E-09         0.55879E-20         0.00000E+00
    0.51214E-09         0.51223E-20         0.00000E+00
    0.51214E-09        -0.58208E-20         0.00000E+00
    0.51214E-09         0.37253E-20         0.00000E+00
    0.51214E-09         0.51223E-20         0.00000E+00
    0.51214E-09         0.16298E-20         0.00000E+00
    0.60804E-09        -0.32596E-20         0.00000E+00
    0.60804E-09         0.23283E-20         0.00000E+00
    0.60804E-09         0.14203E-19         0.00000E+00
    0.60804E-09         0.16065E-19         0.00000E+00
    0.60804E-09        -0.23283E-20         0.00000E+00
    0.60804E-09         0.97789E-20         0.00000E+00
    0.60804E-09         0.97789E-20         0.00000E+00
    0.60804E-09         0.65193E-20         0.00000E+00
    0.60804E-09         0.20489E-19         0.00000E+00
    0.60804E-09         0.21188E-19         0.00000E+00
    0.60804E-09         0.18626E-19         0.00000E+00
    0.60804E-09         0.83819E-20         0.00000E+00
    0.60804E-09         0.11409E-19         0.00000E+00
    0.60804E-09         0.69849E-20         0.00000E+00
    0.60804E-09         0.93132E-21         0.00000E+00
    0.60804E-09         0.90804E-20         0.00000E+00
    0.60804E-09         0.41910E-20         0.00000E+00
    0.60804E-09         0.69849E-20         0.00000E+00
    0.60804E-09        -0.46566E-21         0.00000E+00
    0.60804E-09        -0.46566E-20         0.00000E+00
    0.60804E-09        -0.12107E-19         0.00000E+00
    0.60804E-09        -0.13039E-19         0.00000E+00
    0.60804E-09        -0.13970E-19         0.00000E+00
    0.60804E-09        -0.62864E-20         0.00000E+00
    0.60804E-09         0.69849E-20         0.00000E+00
    0.60804E-09        -0.18626E-20         0.00000E+00
    0.60804E-09         0.23283E-20         0.00000E+00
    0.60804E-09         0.93132E-21         0.00000E+00
    0.60804E-09         0.97789E-20         0.00000E+00
    0.60804E-09         0.93132E-20         0.00000E+00
    0.60804E-09         0.55879E-20         0.00000E+00
    0.60804E-09         0.27940E-20         0.00000E+00
    0.60804E-09         0.41910E-20         0.00000E+00
    0.60804E-09         0.48894E-20         0.00000E+00
    0.60804E-09         0.11642E-20         0.00000E+00
    0.60804E-09         0.30268E-20         0.00000E+00
    0.60804E-09         0.13970E-20         0.00000E+00
    0.60804E-09         0.11642E-19         0.00000E+00
    0.60804E-09         0.74506E-20         0.00000E+00
    0.60804E-09        -0.34925E-20         0.00000E+00
    0.60804E-09        -0.41910E-20         0.00000E+00
    0.60804E-09        -0.69849E-20         0.00000E+00
    0.60804E-09        -0.76834E-20         0.00000E+00
    0.60804E-09        -0.15832E-19         0.00000E+00
    0.60804E-09        -0.46566E-20         0.00000E+00
    0.60804E-09        -0.76834E-20         0.00000E+00
    0.60804E-09        -0.88476E-20         0.00000E+00
    0.60804E-09        -0.95461E-20         0.00000E+00
    0.60804E-09        -0.65193E-20         0.00000E+00
    0.60804E-09        -0.46566E-20         0.00000E+00
    0.72128E-09         0.18626E-20         0.00000E+00
    0.72128E-09         0.37253E-20         0.00000E+00
    0.72128E-09         0.00000E+00         0.00000E+00
    0.72128E-09         0.41910E-20         0.00000E+00
    0.72128E-09         0.55879E-20         0.00000E+00
    0.72128E-09         0.79162E-20         0.00000E+00
    0.72128E-09         0.60536E-20         0.00000E+00
    0.72128E-09         0.10710E-19         0.00000E+00
    0.72128E-09         0.16764E-19         0.00000E+00
    0.72128E-09         0.79162E-20         0.00000E+00
    0.72128E-09         0.69849E-20         0.00000E+00
    0.72128E-09        -0.27940E-20         0.00000E+00
    0.72128E-09        -0.58208E-20         0.00000E+00
    0.72128E-09        -0.81491E-20         0.00000E+00
    0.72128E-09        -0.55879E-20         0.00000E+00
    0.72128E-09         0.51223E-20         0.00000E+00
    0.72128E-09         0.46566E-20         0.00000E+00
    0.72128E-09         0.93132E-21         0.00000E+00
    0.72128E-09        -0.79162E-20         0.00000E+00
    0.72128E-09        -0.55879E-20         0.00000E+00
    0.72128E-09        -0.23283E-21         0.00000E+00
    0.72128E-09        -0.69849E-20         0.00000E+00
    0.72128E-09        -0.79162E-20         0.00000E+00
    0.72128E-09        -0.16764E-19         0.00000E+00
    0.72128E-09        -0.93132E-21         0.00000E+00
    0.72128E-09         0.18626E-20         0.00000E+00
    0.72128E-09         0.37253E-20         0.00000E+00
    0.72128E-09         0.10710E-19         0.00000E+00
    0.72128E-09         0.16298E-19         0.00000E+00
    0.72128E-09         0.53551E-20         0.00000E+00
    0.72128E-09        -0.23283E-20         0.00000E+00
    0.72128E-09        -0.16298E-20         0.00000E+00
    0.72128E-09         0.41910E-20         0.00000E+00
    0.72128E-09         0.10245E-19         0.00000E+00
    0.72128E-09        -0.25611E-20         0.00000E+00
    0.72128E-09        -0.51223E-20         0.00000E+00
    0.72128E-09         0.46566E-21         0.00000E+00
    0.72128E-09         0.12340E-19         0.00000E+00
    0.72128E-09         0.12107E-19         0.00000E+00
    0.72128E-09         0.51223E-20         0.00000E+00
    0.72128E-09        -0.41910E-20         0.00000E+00
    0.72128E-09        -0.74506E-20         0.00000E+00
    0.72128E-09        -0.62864E-20         0.00000E+00
    0.72128E-09        -0.41910E-20         0.00000E+00
    0.72128E-09        -0.69849E-20         0.00000E+00
    0.72128E-09        -0.93132E-20         0.00000E+00
    0.72128E-09        -0.46566E-20         0.00000E+00
    0.72128E-09        -0.37253E-20         0.00000E+00
    0.72128E-09         0.41910E-20         0.00000E+00
    0.72128E-09        -0.74506E-20         0.00000E+00
    0.85482E-09        -0.69849E-20         0.00000E+00
    0.85482E-09        -0.60536E-20         0.00000E+00
    0.85482E-09         0.93132E-20         0.00000E+00
    0.85482E-09         0.16298E-19         0.00000E+00
    0.85482E-09         0.25146E-19         0.00000E+00
    0.85482E-09         0.41910E-20         0.00000E+00
    0.85482E-09         0.55879E-20         0.00000E+00
    0.85482E-09         0.51223E-20         0.00000E+00
    0.85482E-09         0.46566E-20         0.00000E+00
    0.85482E-09        -0.30268E-20         0.00000E+00
    0.85482E-09         0.00000E+00         0.00000E+00
    0.85482E-09        -0.79162E-20         0.00000E+00
    0.85482E-09        -0.16764E-19         0.00000E+00
    0.85482E-09        -0.18161E-19         0.00000E+00
    0.85482E-09        -0.13271E-19         0.00000E+00
    0.85482E-09         0.32596E-20         0.00000E+00
    0.85482E-09         0.12573E-19         0.00000E+00
    0.85482E-09        -0.13271E-19         0.00000E+00
    0.85482E-09         0.18626E-20         0.00000E+00
    0.85482E-09         0.83819E-20         0.00000E+00
    0.85482E-09         0.39581E-20         0.00000E+00
    0.85482E-09         0.46566E-21         0.00000E+00
    0.85482E-09         0.97789E-20         0.00000E+00
    0.85482E-09        -0.51223E-20         0.00000E+00
    0.85482E-09        -0.83819E-20         0.00000E+00
    0.85482E-09        -0.55879E-20         0.00000E+00
    0.85482E-09        -0.93132E-21         0.00000E+00
    0.85482E-09         0.74506E-20         0.00000E+00
    0.85482E-09        -0.41910E-20         0.00000E+00
    0.85482E-09         0.32596E-20         0.00000E+00
    0.85482E-09         0.32596E-20         0.00000E+00
    0.85482E-09        -0.18626E-20         0.00000E+00
    0.85482E-09         0.23283E-20         0.00000E+00
    0.85482E-09         0.37253E-20         0.00000E+00
    0.85482E-09         0.32596E-20         0.00000E+00
    0.85482E-09        -0.53551E-20         0.00000E+00
    0.85482E-09        -0.88476E-20         0.00000E+00
    0.85482E-09        -0.23283E-20         0.00000E+00
    0.85482E-09         0.55879E-20         0.00000E+00
    0.85482E-09         0.12107E-19         0.00000E+00
    0.85482E-09         0.55879E-20         0.00000E+00
    0.85482E-09        -0.46566E-21         0.00000E+00
    0.85482E-09         0.74506E-20         0.00000E+00
    0.85482E-09         0.23283E-20         0.00000E+00
    0.85482E-09         0.18626E-20         0.00000E+00
    0.85482E-09         0.93132E-21         0.00000E+00
    0.85482E-09        -0.60536E-20         0.00000E+00
    0.85482E-09        -0.10245E-19         0.00000E+00
    0.85482E-09        -0.41910E-20         0.00000E+00
    0.85482E-09         0.00000E+00         0.00000E+00
    0.10121E-08        -0.55879E-20         0.00000E+00
    0.10121E-08        -0.88476E-20         0.00000E+00
    0.10121E-08         0.97789E-20         0.00000E+00
    0.10121E-08         0.12107E-19         0.00000E+00
    0.10121E-08         0.13504E-19         0.00000E+00
    0.10121E-08         0.88476E-20         0.00000E+00
    0.10121E-08        -0.27940E-20         0.00000E+00
    0.10121E-08         0.32596E-20         0.00000E+00
    0.10121E-08         0.10245E-19         0.00000E+00
    0.10121E-08         0.18626E-20         0.00000E+00
    0.10121E-08        -0.55879E-20         0.00000E+00
    0.10121E-08        -0.13039E-19         0.00000E+00
    0.10121E-08        -0.16764E-19         0.00000E+00
    0.10121E-08        -0.15367E-19         0.00000E+00
    0.10121E-08        -0.14435E-19         0.00000E+00
    0.10121E-08        -0.23283E-20         0.00000E+00
    0.10121E-08         0.74506E-20         0.00000E+00
    0.10121E-08        -0.32596E-20         0.00000E+00
    0.10121E-08         0.65193E-20         0.00000E+00
    0.10121E-08         0.13970E-19         0.00000E+00
    0.10121E-08         0.23283E-20         0.00000E+00
    0.10121E-08         0.14901E-19         0.00000E+00
    0.10121E-08         0.41910E-20         0.00000E+00
    0.10121E-08        -0.46566E-21         0.00000E+00
    0.10121E-08        -0.10245E-19         0.00000E+00
    0.10121E-08        -0.27940E-20         0.00000E+00
    0.10121E-08        -0.13504E-19         0.00000E+00
    0.10121E-08        -0.69849E-20         0.00000E+00
    0.10121E-08        -0.17695E-19         0.00000E+00
    0.10121E-08         0.37253E-20         0.00000E+00
    0.10121E-08         0.13039E-19         0.00000E+00
    0.10121E-08         0.83819E-20         0.00000E+00
    0.10121E-08        -0.46566E-21         0.00000E+00
    0.10121E-08        -0.11642E-19         0.00000E+00
    0.10121E-08        -0.88476E-20         0.00000E+00
    0.10121E-08        -0.11642E-19         0.00000E+00
    0.10121E-08        -0.65193E-20         0.00000E+00
    0.10121E-08        -0.15832E-19         0.00000E+00
    0.10121E-08        -0.74506E-20         0.00000E+00
    0.10121E-08         0.93132E-21         0.00000E+00
    0.10121E-08         0.39581E-20         0.00000E+00
    0.10121E-08         0.11409E-19         0.00000E+00
    0.10121E-08         0.58208E-20         0.00000E+00
    0.10121E-08         0.41910E-20         0.00000E+00
    0.10121E-08         0.37253E-20         0.00000E+00
    0.10121E-08         0.55879E-20         0.00000E+00
    0.10121E-08        -0.41910E-20         0.00000E+00
    0.10121E-08        -0.10245E-19         0.00000E+00
    0.10121E-08        -0.90804E-20         0.00000E+00
    0.10121E-08        -0.13970E-20         0.00000E+00
    0.11972E-08         0.16298E-20         0.00000E+00
    0.11972E-08        -0.46566E-20         0.00000E+00
    0.11972E-08        -0.79162E-20         0.00000E+00
    0.11972E-08        -0.88476E-20         0.00000E+00
    0.11972E-08         0.13970E-20         0.00000E+00
    0.11972E-08         0.69849E-21         0.00000E+00
    0.11972E-08        -0.25611E-20         0.00000E+00
    0.11972E-08         0.95461E-20         0.00000E+00
    0.11972E-08         0.44238E-20         0.00000E+00
    0.11972E-08         0.25611E-20         0.00000E+00
    0.11972E-08        -0.15600E-19         0.00000E+00
    0.11972E-08        -0.14203E-19         0.00000E+00
    0.11972E-08        -0.13970E-19         0.00000E+00
    0.11972E-08        -0.25146E-19         0.00000E+00
    0.11972E-08        -0.12107E-19         0.00000E+00
    0.11972E-08        -0.46566E-20         0.00000E+00
    0.11972E-08         0.51223E-20         0.00000E+00
    0.11972E-08        -0.83819E-20         0.00000E+00
    0.11972E-08         0.69849E-20         0.00000E+00
    0.11972E-08         0.69849E-20         0.00000E+00
    0.11972E-08        -0.93132E-21         0.00000E+00
    0.11972E-08         0.00000E+00         0.00000E+00
    0.11972E-08        -0.93132E-21         0.00000E+00
    0.11972E-08         0.69849E-20         0.00000E+00
    0.11972E-08         0.65193E-20         0.00000E+00
    0.11972E-08         0.32596E-20         0.00000E+00
    0.11972E-08        -0.93132E-20         0.00000E+00
    0.11972E-08        -0.11642E-19         0.00000E+00
    0.11972E-08        -0.79162E-20         0.00000E+00
    0.11972E-08         0.27940E-20         0.00000E+00
    0.11972E-08         0.97789E-20         0.00000E+00
    0.11972E-08         0.13504E-19         0.00000E+00
    0.11972E-08         0.00000E+00         0.00000E+00
    0.11972E-08        -0.93132E-21         0.00000E+00
    0.11972E-08         0.23283E-20         0.00000E+00
    0.11972E-08        -0.13970E-19         0.00000E+00
    0.11972E-08        -0.18626E-20         0.00000E+00
    0.11972E-08        -0.37253E-20         0.00000E+00
    0.11972E-08        -0.15367E-19         0.00000E+00
    0.11972E-08        -0.83819E-20         0.00000E+00
    0.11972E-08        -0.13970E-20         0.00000E+00
    0.11972E-08        -0.46566E-21         0.00000E+00
    0.11972E-08        -0.90804E-20         0.00000E+00
    0.11972E-08        -0.23283E-20         0.00000E+00
    0.11972E-08         0.83819E-20         0.00000E+00
    0.11972E-08         0.97789E-20         0.00000E+00
    0.11972E-08         0.69849E-20         0.00000E+00
    0.11972E-08         0.23283E-20         0.00000E+00
    0.11972E-08         0.93132E-21         0.00000E+00
    0.11972E-08         0.23283E-21         0.00000E+00
    0.14148E-08        -0.18626E-20         0.00000E+00
    0.14148E-08        -0.25611E-20         0.00000E+00
    0.14148E-08        -0.18626E-19         0.00000E+00
    0.14148E-08        -0.90804E-20         0.00000E+00
    0.14148E-08         0.13504E-19         0.00000E+00
    0.14148E-08         0.93132E-21         0.00000E+00
    0.14148E-08        -0.13970E-20         0.00000E+00
    0.14148E-08         0.65193E-20         0.00000E+00
    0.14148E-08         0.23283E-20         0.00000E+00
    0.14148E-08         0.10245E-19         0.00000E+00
    0.14148E-08        -0.86147E-20         0.00000E+00
    0.14148E-08        -0.69849E-20         0.00000E+00
    0.14148E-08        -0.20955E-20         0.00000E+00
    0.14148E-08        -0.13504E-19         0.00000E+00
    0.14148E-08        -0.10710E-19         0.00000E+00
    0.14148E-08        -0.72177E-20         0.00000E+00
    0.14148E-08        -0.44238E-20         0.00000E+00
    0.14148E-08        -0.18161E-19         0.00000E+00
    0.14148E-08        -0.88476E-20         0.00000E+00
    0.14148E-08        -0.79162E-20         0.00000E+00
    0.14148E-08        -0.69849E-20         0.00000E+00
    0.14148E-08        -0.11176E-19         0.00000E+00
    0.14148E-08        -0.37253E-20         0.00000E+00
    0.14148E-08         0.00000E+00         0.00000E+00
    0.14148E-08         0.83819E-20         0.00000E+00
    0.14148E-08        -0.18626E-20         0.00000E+00
    0.14148E-08         0.00000E+00         0.00000E+00
    0.14148E-08         0.93132E-21         0.00000E+00
    0.14148E-08         0.93132E-20         0.00000E+00
    0.14148E-08         0.11874E-19         0.00000E+00
    0.14148E-08        -0.34925E-20         0.00000E+00
    0.14148E-08         0.88476E-20         0.00000E+00
    0.14148E-08        -0.44238E-20         0.00000E+00
    0.14148E-08         0.95461E-20         0.00000E+00
    0.14148E-08         0.18161E-19         0.00000E+00
    0.14148E-08        -0.41910E-20         0.00000E+00
    0.14148E-08         0.51223E-20         0.00000E+00
    0.14148E-08         0.74506E-20         0.00000E+00
    0.14148E-08        -0.74506E-20         0.00000E+00
    0.14148E-08        -0.22352E-19         0.00000E+00
    0.14148E-08        -0.30268E-20         0.00000E+00
    0.14148E-08        -0.88476E-20         0.00000E+00
    0.14148E-08        -0.46566E-21         0.00000E+00
    0.14148E-08         0.81491E-20         0.00000E+00
    0.14148E-08         0.14435E-19         0.00000E+00
    0.14148E-08         0.41910E-20         0.00000E+00
    0.14148E-08         0.10245E-19         0.00000E+00
    0.14148E-08         0.13504E-19         0.00000E+00
    0.14148E-08         0.27940E-20         0.00000E+00
    0.14148E-08         0.44238E-20         0.00000E+00
    0.16701E-08         0.16298E-20         0.00000E+00
    0.16701E-08         0.23283E-21         0.00000E+00
    0.16701E-08        -0.79162E-20         0.00000E+00
    0.16701E-08        -0.46566E-20         0.00000E+00
    0.16701E-08         0.13970E-19         0.00000E+00
    0.16701E-08         0.13271E-19         0.00000E+00
    0.16701E-08         0.12340E-19         0.00000E+00
    0.16701E-08         0.69849E-20         0.00000E+00
    0.16701E-08         0.65193E-20         0.00000E+00
    0.16701E-08         0.16764E-19         0.00000E+00
    0.16701E-08        -0.51223E-20         0.00000E+00
    0.16701E-08         0.46566E-20         0.00000E+00
    0.16701E-08        -0.93132E-21         0.00000E+00
    0.16701E-08        -0.11642E-19         0.00000E+00
    0.16701E-08        -0.46566E-20         0.00000E+00
    0.16701E-08        -0.13504E-19         0.00000E+00
    0.16701E-08        -0.20955E-20         0.00000E+00
    0.16701E-08        -0.37253E-20         0.00000E+00
    0.16701E-08        -0.74506E-20         0.00000E+00
    0.16701E-08        -0.13970E-19         0.00000E+00
    0.16701E-08        -0.65193E-20         0.00000E+00
    0.16701E-08         0.41910E-20         0.00000E+00
    0.16701E-08        -0.88476E-20         0.00000E+00
    0.16701E-08        -0.12107E-19         0.00000E+00
    0.16701E-08        -0.11409E-19         0.00000E+00
    0.16701E-08         0.13970E-20         0.00000E+00
    0.16701E-08         0.00000E+00         0.00000E+00
    0.16701E-08         0.18626E-20         0.00000E+00
    0.16701E-08         0.11874E-19         0.00000E+00
    0.16701E-08         0.15134E-19         0.00000E+00
    0.16701E-08         0.20955E-20         0.00000E+00
    0.16701E-08        -0.93132E-21         0.00000E+00
    0.16701E-08        -0.44238E-20         0.00000E+00
    0.16701E-08         0.60536E-20         0.00000E+00
    0.16701E-08         0.39581E-20         0.00000E+00
    0.16701E-08         0.90804E-20         0.00000E+00
    0.16701E-08         0.79162E-20         0.00000E+00
    0.16701E-08         0.79162E-20         0.00000E+00
    0.16701E-08        -0.16298E-20         0.00000E+00
    0.16701E-08        -0.21420E-19         0.00000E+00
    0.16701E-08        -0.65193E-20         0.00000E+00
    0.16701E-08        -0.32596E-20         0.00000E+00
    0.16701E-08         0.32596E-20         0.00000E+00
    0.16701E-08         0.51223E-20         0.00000E+00
    0.16701E-08         0.11874E-19         0.00000E+00
    0.16701E-08         0.51223E-20         0.00000E+00
    0.16701E-08         0.65193E-20         0.00000E+00
    0.16701E-08         0.17695E-19         0.00000E+00
    0.16701E-08         0.10245E-19         0.00000E+00
    0.16701E-08         0.30268E-20         0.00000E+00
    0.19693E-08        -0.16298E-20         0.00000E+00
    0.19693E-08         0.65193E-20         0.00000E+00
    0.19693E-08         0.39581E-20         0.00000E+00
    0.19693E-08         0.83819E-20         0.00000E+00
    0.19693E-08         0.14435E-19         0.00000E+00
    0.19693E-08         0.21420E-19         0.00000E+00
    0.19693E-08         0.22817E-19         0.00000E+00
    0.19693E-08         0.25611E-19         0.00000E+00
    0.19693E-08         0.15832E-19         0.00000E+00
    0.19693E-08         0.21653E-19         0.00000E+00
    0.19693E-08         0.23283E-21         0.00000E+00
    0.19693E-08         0.27940E-20         0.00000E+00
    0.19693E-08        -0.60536E-20         0.00000E+00
    0.19693E-08        -0.23283E-20         0.00000E+00
    0.19693E-08        -0.46566E-21         0.00000E+00
    0.19693E-08        -0.19325E-19         0.00000E+00
    0.19693E-08        -0.95461E-20         0.00000E+00
    0.19693E-08        -0.55879E-20         0.00000E+00
    0.19693E-08        -0.69849E-20         0.00000E+00
    0.19693E-08        -0.65193E-20         0.00000E+00
    0.19693E-08         0.13970E-20         0.00000E+00
    0.19693E-08         0.41910E-20         0.00000E+00
    0.19693E-08        -0.97789E-20         0.00000E+00
    0.19693E-08        -0.41910E-20         0.00000E+00
    0.19693E-08        -0.23283E-20         0.00000E+00
    0.19693E-08         0.46566E-20         0.00000E+00
    0.19693E-08         0.51223E-20         0.00000E+00
    0.19693E-08         0.00000E+00         0.00000E+00
    0.19693E-08         0.13970E-20         0.00000E+00
    0.19693E-08         0.16298E-19         0.00000E+00
    0.19693E-08         0.10943E-19         0.00000E+00
    0.19693E-08         0.83819E-20         0.00000E+00
    0.19693E-08        -0.13504E-19         0.00000E+00
    0.19693E-08        -0.76834E-20         0.00000E+00
    0.19693E-08        -0.16298E-20         0.00000E+00
    0.19693E-08         0.23283E-20         0.00000E+00
    0.19693E-08         0.11642E-19         0.00000E+00
    0.19693E-08         0.60536E-20         0.00000E+00
    0.19693E-08         0.46566E-21         0.00000E+00
    0.19693E-08        -0.74506E-20         0.00000E+00
    0.19693E-08        -0.53551E-20         0.00000E+00
    0.19693E-08         0.23283E-21         0.00000E+00
    0.19693E-08         0.97789E-20         0.00000E+00
    0.19693E-08         0.93132E-20         0.00000E+00
    0.19693E-08         0.76834E-20         0.00000E+00
    0.19693E-08         0.79162E-20         0.00000E+00
    0.19693E-08         0.97789E-20         0.00000E+00
    0.19693E-08         0.17229E-19         0.00000E+00
    0.19693E-08         0.32596E-20         0.00000E+00
    0.19693E-08         0.30268E-20         0.00000E+00
    0.23195E-08         0.00000E+00         0.00000E+00
    0.23195E-08         0.16298E-20         0.00000E+00
    0.23195E-08         0.10943E-19         0.00000E+00
    0.23195E-08         0.14668E-19         0.00000E+00
    0.23195E-08         0.16764E-19         0.00000E+00
    0.23195E-08         0.24214E-19         0.00000E+00
    0.23195E-08         0.23749E-19         0.00000E+00
    0.23195E-08         0.26310E-19         0.00000E+00
    0.23195E-08         0.26310E-19         0.00000E+00
    0.23195E-08         0.12573E-19         0.00000E+00
    0.23195E-08         0.34925E-20         0.00000E+00
    0.23195E-08         0.58208E-20         0.00000E+00
    0.23195E-08         0.51223E-20         0.00000E+00
    0.23195E-08         0.46566E-20         0.00000E+00
    0.23195E-08        -0.12806E-19         0.00000E+00
    0.23195E-08        -0.18626E-19         0.00000E+00
    0.23195E-08        -0.22585E-19         0.00000E+00
    0.23195E-08        -0.14668E-19         0.00000E+00
    0.23195E-08        -0.32596E-20         0.00000E+00
    0.23195E-08        -0.97789E-20         0.00000E+00
    0.23195E-08         0.88476E-20         0.00000E+00
    0.23195E-08         0.10012E-19         0.00000E+00
    0.23195E-08         0.32596E-20         0.00000E+00
    0.23195E-08        -0.18626E-20         0.00000E+00
    0.23195E-08        -0.46566E-21         0.00000E+00
    0.23195E-08         0.51223E-20         0.00000E+00
    0.23195E-08         0.97789E-20         0.00000E+00
    0.23195E-08         0.72177E-20         0.00000E+00
    0.23195E-08         0.23283E-20         0.00000E+00
    0.23195E-08         0.15600E-19         0.00000E+00
    0.23195E-08         0.11874E-19         0.00000E+00
    0.23195E-08         0.65193E-20         0.00000E+00
    0.23195E-08        -0.18626E-19         0.00000E+00
    0.23195E-08        -0.13970E-19         0.00000E+00
    0.23195E-08         0.46566E-20         0.00000E+00
    0.23195E-08        -0.23283E-21         0.00000E+00
    0.23195E-08         0.90804E-20         0.00000E+00
    0.23195E-08         0.72177E-20         0.00000E+00
    0.23195E-08         0.32596E-20         0.00000E+00
    0.23195E-08        -0.18626E-20         0.00000E+00
    0.23195E-08        -0.81491E-20         0.00000E+00
    0.23195E-08         0.13970E-20         0.00000E+00
    0.23195E-08         0.18161E-19         0.00000E+00
    0.23195E-08         0.24214E-19         0.00000E+00
    0.23195E-08         0.17928E-19         0.00000E+00
    0.23195E-08         0.88476E-20         0.00000E+00
    0.23195E-08         0.17462E-19         0.00000E+00
    0.23195E-08         0.10012E-19         0.00000E+00
    0.23195E-08        -0.27940E-20         0.00000E+00
    0.23195E-08         0.46566E-20         0.00000E+00
    0.27289E-08         0.23283E-20         0.00000E+00
    0.27289E-08         0.95461E-20         0.00000E+00
    0.27289E-08         0.97789E-20         0.00000E+00
    0.27289E-08         0.16298E-20         0.00000E+00
    0.27289E-08         0.19092E-19         0.00000E+00
    0.27289E-08         0.22352E-19         0.00000E+00
    0.27289E-08         0.19092E-19         0.00000E+00
    0.27289E-08         0.12573E-19         0.00000E+00
    0.27289E-08         0.11642E-19         0.00000E+00
    0.27289E-08        -0.55879E-20         0.00000E+00
    0.27289E-08         0.18626E-20         0.00000E+00
    0.27289E-08         0.23283E-21         0.00000E+00
    0.27289E-08         0.46566E-20         0.00000E+00
    0.27289E-08        -0.10943E-19         0.00000E+00
    0.27289E-08        -0.13970E-19         0.00000E+00
    0.27289E-08        -0.20023E-19         0.00000E+00
    0.27289E-08        -0.31665E-19         0.00000E+00
    0.27289E-08        -0.12573E-19         0.00000E+00
    0.27289E-08         0.13970E-20         0.00000E+00
    0.27289E-08         0.32596E-20         0.00000E+00
    0.27289E-08         0.19558E-19         0.00000E+00
    0.27289E-08         0.16764E-19         0.00000E+00
    0.27289E-08         0.17229E-19         0.00000E+00
    0.27289E-08         0.10943E-19         0.00000E+00
    0.27289E-08         0.18626E-20         0.00000E+00
    0.27289E-08        -0.53551E-20         0.00000E+00
    0.27289E-08         0.00000E+00         0.00000E+00
    0.27289E-08         0.13970E-20         0.00000E+00
    0.27289E-08        -0.23283E-20         0.00000E+00
    0.27289E-08        -0.18626E-20         0.00000E+00
    0.27289E-08         0.93132E-21         0.00000E+00
    0.27289E-08        -0.25611E-20         0.00000E+00
    0.27289E-08        -0.10710E-19         0.00000E+00
    0.27289E-08        -0.69849E-20         0.00000E+00
    0.27289E-08         0.18626E-20         0.00000E+00
    0.27289E-08         0.25611E-20         0.00000E+00
    0.27289E-08         0.11176E-19         0.00000E+00
    0.27289E-08         0.10943E-19         0.00000E+00
    0.27289E-08         0.14901E-19         0.00000E+00
    0.27289E-08         0.69849E-21         0.00000E+00
    0.27289E-08         0.67521E-20         0.00000E+00
    0.27289E-08         0.67521E-20         0.00000E+00
    0.27289E-08         0.18859E-19         0.00000E+00
    0.27289E-08         0.27474E-19         0.00000E+00
    0.27289E-08         0.20489E-19         0.00000E+00
    0.27289E-08         0.12107E-19         0.00000E+00
    0.27289E-08         0.11874E-19         0.00000E+00
    0.27289E-08         0.58208E-20         0.00000E+00
    0.27289E-08         0.46566E-21         0.00000E+00
    0.27289E-08         0.60536E-20         0.00000E+00
    0.32066E-08         0.41910E-20         0.00000E+00
    0.32066E-08         0.12806E-19         0.00000E+00
    0.32066E-08         0.10245E-19         0.00000E+00
    0.32066E-08         0.10710E-19         0.00000E+00
    0.32066E-08         0.19791E-19         0.00000E+00
    0.32066E-08         0.21420E-19         0.00000E+00
    0.32066E-08         0.11176E-19         0.00000E+00
    0.32066E-08         0.88476E-20         0.00000E+00
    0.32066E-08         0.69849E-20         0.00000E+00
    0.32066E-08        -0.11642E-19         0.00000E+00
    0.32066E-08        -0.74506E-20         0.00000E+00
    0.32066E-08        -0.10245E-19         0.00000E+00
    0.32066E-08        -0.37253E-20         0.00000E+00
    0.32066E-08        -0.10012E-19         0.00000E+00
    0.32066E-08        -0.16764E-19         0.00000E+00
    0.32066E-08        -0.33528E-19         0.00000E+00
    0.32066E-08        -0.28405E-19         0.00000E+00
    0.32066E-08        -0.12107E-19         0.00000E+00
    0.32066E-08         0.60536E-20         0.00000E+00
    0.32066E-08         0.51223E-20         0.00000E+00
    0.32066E-08         0.20023E-19         0.00000E+00
    0.32066E-08         0.26776E-19         0.00000E+00
    0.32066E-08         0.25379E-19         0.00000E+00
    0.32066E-08         0.23982E-19         0.00000E+00
    0.32066E-08         0.14435E-19         0.00000E+00
    0.32066E-08        -0.46566E-21         0.00000E+00
    0.32066E-08         0.00000E+00         0.00000E+00
    0.32066E-08        -0.97789E-20         0.00000E+00
    0.32066E-08        -0.13039E-19         0.00000E+00
    0.32066E-08        -0.37253E-20         0.00000E+00
    0.32066E-08        -0.55879E-20         0.00000E+00
    0.32066E-08        -0.25611E-20         0.00000E+00
    0.32066E-08        -0.11176E-19         0.00000E+00
    0.32066E-08        -0.13737E-19         0.00000E+00
    0.32066E-08        -0.51223E-20         0.00000E+00
    0.32066E-08        -0.37253E-20         0.00000E+00
    0.32066E-08        -0.46566E-21         0.00000E+00
    0.32066E-08         0.11642E-19         0.00000E+00
    0.32066E-08         0.12107E-19         0.00000E+00
    0.32066E-08         0.83819E-20         0.00000E+00
    0.32066E-08         0.15367E-19         0.00000E+00
    0.32066E-08         0.15367E-19         0.00000E+00
    0.32066E-08         0.23516E-19         0.00000E+00
    0.32066E-08         0.25146E-19         0.00000E+00
    0.32066E-08         0.14901E-19         0.00000E+00
    0.32066E-08         0.10245E-19         0.00000E+00
    0.32066E-08         0.25611E-20         0.00000E+00
    0.32066E-08         0.88476E-20         0.00000E+00
    0.32066E-08         0.65193E-20         0.00000E+00
    0.32066E-08         0.41910E-20         0.00000E+00
    0.37631E-08         0.00000E+00         0.00000E+00
    0.37631E-08         0.37253E-20         0.00000E+00
    0.37631E-08         0.10710E-19         0.00000E+00
    0.37631E-08         0.69849E-20         0.00000E+00
    0.37631E-08         0.20489E-19         0.00000E+00
    0.37631E-08         0.28405E-19         0.00000E+00
    0.37631E-08         0.24913E-19         0.00000E+00
    0.37631E-08         0.13271E-19         0.00000E+00
    0.37631E-08         0.18161E-19         0.00000E+00
    0.37631E-08        -0.69849E-21         0.00000E+00
    0.37631E-08        -0.46566E-20         0.00000E+00
    0.37631E-08        -0.10710E-19         0.00000E+00
    0.37631E-08         0.51223E-20         0.00000E+00
    0.37631E-08        -0.13970E-20         0.00000E+00
    0.37631E-08        -0.13970E-19         0.00000E+00
    0.37631E-08        -0.23749E-19         0.00000E+00
    0.37631E-08        -0.29802E-19         0.00000E+00
    0.37631E-08        -0.14435E-19         0.00000E+00
    0.37631E-08         0.37253E-20         0.00000E+00
    0.37631E-08         0.27940E-20         0.00000E+00
    0.37631E-08         0.79162E-20         0.00000E+00
    0.37631E-08         0.19558E-19         0.00000E+00
    0.37631E-08         0.23283E-19         0.00000E+00
    0.37631E-08         0.15832E-19         0.00000E+00
    0.37631E-08         0.16298E-19         0.00000E+00
    0.37631E-08         0.12573E-19         0.00000E+00
    0.37631E-08         0.46566E-20         0.00000E+00
    0.37631E-08         0.13970E-20         0.00000E+00
    0.37631E-08        -0.11176E-19         0.00000E+00
    0.37631E-08         0.41910E-20         0.00000E+00
    0.37631E-08        -0.23283E-20         0.00000E+00
    0.37631E-08        -0.27940E-20         0.00000E+00
    0.37631E-08        -0.30501E-19         0.00000E+00
    0.37631E-08        -0.28871E-19         0.00000E+00
    0.37631E-08        -0.27474E-19         0.00000E+00
    0.37631E-08        -0.16764E-19         0.00000E+00
    0.37631E-08        -0.74506E-20         0.00000E+00
    0.37631E-08         0.69849E-21         0.00000E+00
    0.37631E-08        -0.27940E-20         0.00000E+00
    0.37631E-08        -0.93132E-21         0.00000E+00
    0.37631E-08         0.60536E-20         0.00000E+00
    0.37631E-08         0.14901E-19         0.00000E+00
    0.37631E-08         0.24680E-19         0.00000E+00
    0.37631E-08         0.21420E-19         0.00000E+00
    0.37631E-08         0.16298E-19         0.00000E+00
    0.37631E-08         0.88476E-20         0.00000E+00
    0.37631E-08         0.60536E-20         0.00000E+00
    0.37631E-08         0.46566E-20         0.00000E+00
    0.37631E-08         0.60536E-20         0.00000E+00
    0.37631E-08        -0.46566E-21         0.00000E+00
    0.44105E-08         0.46566E-20         0.00000E+00
    0.44105E-08         0.23283E-20         0.00000E+00
    0.44105E-08         0.97789E-20         0.00000E+00
    0.44105E-08        -0.23283E-20         0.00000E+00
    0.44105E-08         0.17928E-19         0.00000E+00
    0.44105E-08         0.35157E-19         0.00000E+00
    0.44105E-08         0.30734E-19         0.00000E+00
    0.44105E-08         0.16298E-19         0.00000E+00
    0.44105E-08         0.23050E-19         0.00000E+00
    0.44105E-08         0.30268E-20         0.00000E+00
    0.44105E-08         0.11409E-19         0.00000E+00
    0.44105E-08         0.27940E-20         0.00000E+00
    0.44105E-08         0.14901E-19         0.00000E+00
    0.44105E-08         0.46566E-20         0.00000E+00
    0.44105E-08        -0.23283E-20         0.00000E+00
    0.44105E-08        -0.14435E-19         0.00000E+00
    0.44105E-08        -0.19325E-19         0.00000E+00
    0.44105E-08        -0.15600E-19         0.00000E+00
    0.44105E-08         0.37253E-20         0.00000E+00
    0.44105E-08        -0.93132E-21         0.00000E+00
    0.44105E-08         0.46566E-21         0.00000E+00
    0.44105E-08         0.65193E-20         0.00000E+00
    0.44105E-08         0.16764E-19         0.00000E+00
    0.44105E-08         0.19092E-19         0.00000E+00
    0.44105E-08         0.93132E-20         0.00000E+00
    0.44105E-08         0.69849E-20         0.00000E+00
    0.44105E-08        -0.69849E-20         0.00000E+00
    0.44105E-08         0.74506E-20         0.00000E+00
    0.44105E-08        -0.88476E-20         0.00000E+00
    0.44105E-08         0.13970E-20         0.00000E+00
    0.44105E-08        -0.37253E-20         0.00000E+00
    0.44105E-08        -0.93132E-20         0.00000E+00
    0.44105E-08        -0.29104E-19         0.00000E+00
    0.44105E-08        -0.26077E-19         0.00000E+00
    0.44105E-08        -0.35157E-19         0.00000E+00
    0.44105E-08        -0.23283E-19         0.00000E+00
    0.44105E-08        -0.14435E-19         0.00000E+00
    0.44105E-08        -0.88476E-20         0.00000E+00
    0.44105E-08        -0.15367E-19         0.00000E+00
    0.44105E-08        -0.10710E-19         0.00000E+00
    0.44105E-08         0.13970E-20         0.00000E+00
    0.44105E-08         0.83819E-20         0.00000E+00
    0.44105E-08         0.20489E-19         0.00000E+00
    0.44105E-08         0.12340E-19         0.00000E+00
    0.44105E-08         0.11176E-19         0.00000E+00
    0.44105E-08         0.55879E-20         0.00000E+00
    0.44105E-08         0.23283E-20         0.00000E+00
    0.44105E-08         0.18626E-20         0.00000E+00
    0.44105E-08        -0.32596E-20         0.00000E+00
    0.44105E-08         0.23283E-20         0.00000E+00
    0.51621E-08         0.60536E-20         0.00000E+00
    0.51621E-08         0.10245E-19         0.00000E+00
    0.51621E-08         0.44238E-20         0.00000E+00
    0.51621E-08         0.51223E-20         0.00000E+00
    0.51621E-08         0.27707E-19         0.00000E+00
    0.51621E-08         0.33993E-19         0.00000E+00
    0.51621E-08         0.28638E-19         0.00000E+00
    0.51621E-08         0.22817E-19         0.00000E+00
    0.51621E-08         0.22352E-19         0.00000E+00
    0.51621E-08         0.13039E-19         0.00000E+00
    0.51621E-08         0.15367E-19         0.00000E+00
    0.51621E-08         0.17229E-19         0.00000E+00
    0.51621E-08         0.16764E-19         0.00000E+00
    0.51621E-08         0.13039E-19         0.00000E+00
    0.51621E-08        -0.41910E-20         0.00000E+00
    0.51621E-08        -0.74506E-20         0.00000E+00
    0.51621E-08        -0.97789E-20         0.00000E+00
    0.51621E-08        -0.10710E-19         0.00000E+00
    0.51621E-08         0.51223E-20         0.00000E+00
    0.51621E-08        -0.79162E-20         0.00000E+00
    0.51621E-08        -0.27940E-20         0.00000E+00
    0.51621E-08         0.69849E-20         0.00000E+00
    0.51621E-08         0.14203E-19         0.00000E+00
    0.51621E-08         0.14901E-19         0.00000E+00
    0.51621E-08         0.95461E-20         0.00000E+00
    0.51621E-08         0.18626E-20         0.00000E+00
    0.51621E-08        -0.65193E-20         0.00000E+00
    0.51621E-08        -0.32596E-20         0.00000E+00
    0.51621E-08        -0.19092E-19         0.00000E+00
    0.51621E-08        -0.18626E-20         0.00000E+00
    0.51621E-08        -0.69849E-20         0.00000E+00
    0.51621E-08        -0.83819E-20         0.00000E+00
    0.51621E-08        -0.25146E-19         0.00000E+00
    0.51621E-08        -0.26543E-19         0.00000E+00
    0.51621E-08        -0.36787E-19         0.00000E+00
    0.51621E-08        -0.29337E-19         0.00000E+00
    0.51621E-08        -0.26077E-19         0.00000E+00
    0.51621E-08        -0.23283E-19         0.00000E+00
    0.51621E-08        -0.21886E-19         0.00000E+00
    0.51621E-08        -0.16764E-19         0.00000E+00
    0.51621E-08        -0.18626E-20         0.00000E+00
    0.51621E-08         0.60536E-20         0.00000E+00
    0.51621E-08         0.16298E-19         0.00000E+00
    0.51621E-08         0.16764E-19         0.00000E+00
    0.51621E-08         0.60536E-20         0.00000E+00
    0.51621E-08         0.69849E-20         0.00000E+00
    0.51621E-08        -0.13970E-20         0.00000E+00
    0.51621E-08         0.46566E-20         0.00000E+00
    0.51621E-08        -0.27940E-20         0.00000E+00
    0.51621E-08         0.13970E-20         0.00000E+00
    0.60332E-08         0.25611E-20         0.00000E+00
    0.60332E-08         0.88476E-20         0.00000E+00
    0.60332E-08         0.83819E-20         0.00000E+00
    0.60332E-08         0.97789E-20         0.00000E+00
    0.60332E-08         0.21886E-19         0.00000E+00
    0.60332E-08         0.44703E-19         0.00000E+00
    0.60332E-08         0.39581E-19         0.00000E+00
    0.60332E-08         0.26776E-19         0.00000E+00
    0.60332E-08         0.31898E-19         0.00000E+00
    0.60332E-08         0.19325E-19         0.00000E+00
    0.60332E-08         0.16764E-19         0.00000E+00
    0.60332E-08         0.18161E-19         0.00000E+00
    0.60332E-08         0.19558E-19         0.00000E+00
    0.60332E-08         0.93132E-20         0.00000E+00
    0.60332E-08        -0.55879E-20         0.00000E+00
    0.60332E-08        -0.41910E-20         0.00000E+00
    0.60332E-08        -0.11642E-19         0.00000E+00
    0.60332E-08        -0.83819E-20         0.00000E+00
    0.60332E-08        -0.23283E-21         0.00000E+00
    0.60332E-08        -0.41910E-20         0.00000E+00
    0.60332E-08        -0.18626E-20         0.00000E+00
    0.60332E-08         0.51223E-20         0.00000E+00
    0.60332E-08         0.79162E-20         0.00000E+00
    0.60332E-08         0.83819E-20         0.00000E+00
    0.60332E-08         0.10245E-19         0.00000E+00
    0.60332E-08         0.69849E-20         0.00000E+00
    0.60332E-08         0.11642E-20         0.00000E+00
    0.60332E-08        -0.18626E-20         0.00000E+00
    0.60332E-08        -0.18626E-19         0.00000E+00
    0.60332E-08         0.00000E+00         0.00000E+00
    0.60332E-08        -0.12107E-19         0.00000E+00
    0.60332E-08        -0.93132E-20         0.00000E+00
    0.60332E-08        -0.31199E-19         0.00000E+00
    0.60332E-08        -0.36787E-19         0.00000E+00
    0.60332E-08        -0.32596E-19         0.00000E+00
    0.60332E-08        -0.28405E-19         0.00000E+00
    0.60332E-08        -0.19092E-19         0.00000E+00
    0.60332E-08        -0.26543E-19         0.00000E+00
    0.60332E-08        -0.25146E-19         0.00000E+00
    0.60332E-08        -0.19092E-19         0.00000E+00
    0.60332E-08        -0.32596E-20         0.00000E+00
    0.60332E-08         0.13737E-19         0.00000E+00
    0.60332E-08         0.17928E-19         0.00000E+00
    0.60332E-08         0.18626E-19         0.00000E+00
    0.60332E-08         0.60536E-20         0.00000E+00
    0.60332E-08         0.60536E-20         0.00000E+00
    0.60332E-08         0.00000E+00         0.00000E+00
    0.60332E-08         0.69849E-20         0.00000E+00
    0.60332E-08         0.13970E-20         0.00000E+00
    0.60332E-08         0.27940E-20         0.00000E+00
    0.70408E-08         0.41910E-20         0.00000E+00
    0.70408E-08         0.46566E-21         0.00000E+00
    0.70408E-08         0.67521E-20         0.00000E+00
    0.70408E-08         0.69849E-20         0.00000E+00
    0.70408E-08         0.21886E-19         0.00000E+00
    0.70408E-08         0.46566E-19         0.00000E+00
    0.70408E-08         0.53085E-19         0.00000E+00
    0.70408E-08         0.35856E-19         0.00000E+00
    0.70408E-08         0.28405E-19         0.00000E+00
    0.70408E-08         0.13970E-19         0.00000E+00
    0.70408E-08         0.19092E-19         0.00000E+00
    0.70408E-08         0.21886E-19         0.00000E+00
    0.70408E-08         0.20489E-19         0.00000E+00
    0.70408E-08         0.93132E-20         0.00000E+00
    0.70408E-08        -0.97789E-20         0.00000E+00
    0.70408E-08        -0.37253E-20         0.00000E+00
    0.70408E-08        -0.12573E-19         0.00000E+00
    0.70408E-08        -0.14203E-19         0.00000E+00
    0.70408E-08        -0.23283E-20         0.00000E+00
    0.70408E-08        -0.79162E-20         0.00000E+00
    0.70408E-08         0.00000E+00         0.00000E+00
    0.70408E-08         0.46566E-21         0.00000E+00
    0.70408E-08         0.88476E-20         0.00000E+00
    0.70408E-08         0.55879E-20         0.00000E+00
    0.70408E-08         0.12340E-19         0.00000E+00
    0.70408E-08         0.41910E-20         0.00000E+00
    0.70408E-08         0.46566E-21         0.00000E+00
    0.70408E-08         0.00000E+00         0.00000E+00
    0.70408E-08        -0.13271E-19         0.00000E+00
    0.70408E-08         0.41910E-20         0.00000E+00
    0.70408E-08        -0.12107E-19         0.00000E+00
    0.70408E-08        -0.12573E-19         0.00000E+00
    0.70408E-08        -0.35856E-19         0.00000E+00
    0.70408E-08        -0.37719E-19         0.00000E+00
    0.70408E-08        -0.29337E-19         0.00000E+00
    0.70408E-08        -0.25611E-19         0.00000E+00
    0.70408E-08        -0.15134E-19         0.00000E+00
    0.70408E-08        -0.14435E-19         0.00000E+00
    0.70408E-08        -0.20489E-19         0.00000E+00
    0.70408E-08        -0.23283E-19         0.00000E+00
    0.70408E-08         0.27940E-20         0.00000E+00
    0.70408E-08         0.13504E-19         0.00000E+00
    0.70408E-08         0.17462E-19         0.00000E+00
    0.70408E-08         0.15134E-19         0.00000E+00
    0.70408E-08         0.18626E-20         0.00000E+00
    0.70408E-08        -0.18626E-20         0.00000E+00
    0.70408E-08         0.00000E+00         0.00000E+00
    0.70408E-08         0.18626E-20         0.00000E+00
    0.70408E-08        -0.27940E-20         0.00000E+00
    0.70408E-08         0.46566E-20         0.00000E+00
    0.82038E-08         0.65193E-20         0.00000E+00
    0.82038E-08         0.62864E-20         0.00000E+00
    0.82038E-08         0.10012E-19         0.00000E+00
    0.82038E-08         0.15367E-19         0.00000E+00
    0.82038E-08         0.24680E-19         0.00000E+00
    0.82038E-08         0.39348E-19         0.00000E+00
    0.82038E-08         0.45635E-19         0.00000E+00
    0.82038E-08         0.33993E-19         0.00000E+00
    0.82038E-08         0.27940E-19         0.00000E+00
    0.82038E-08         0.21886E-19         0.00000E+00
    0.82038E-08         0.12107E-19         0.00000E+00
    0.82038E-08         0.17229E-19         0.00000E+00
    0.82038E-08         0.19558E-19         0.00000E+00
    0.82038E-08         0.14435E-19         0.00000E+00
    0.82038E-08         0.13970E-20         0.00000E+00
    0.82038E-08        -0.93132E-21         0.00000E+00
    0.82038E-08        -0.32596E-20         0.00000E+00
    0.82038E-08        -0.10710E-19         0.00000E+00
    0.82038E-08         0.93132E-21         0.00000E+00
    0.82038E-08        -0.79162E-20         0.00000E+00
    0.82038E-08         0.13970E-20         0.00000E+00
    0.82038E-08         0.13970E-20         0.00000E+00
    0.82038E-08         0.34925E-20         0.00000E+00
    0.82038E-08         0.58208E-20         0.00000E+00
    0.82038E-08         0.93132E-21         0.00000E+00
    0.82038E-08         0.20955E-20         0.00000E+00
    0.82038E-08         0.18626E-20         0.00000E+00
    0.82038E-08        -0.41910E-20         0.00000E+00
    0.82038E-08        -0.15832E-19         0.00000E+00
    0.82038E-08        -0.23283E-21         0.00000E+00
    0.82038E-08        -0.11409E-19         0.00000E+00
    0.82038E-08        -0.13039E-19         0.00000E+00
    0.82038E-08        -0.26543E-19         0.00000E+00
    0.82038E-08        -0.34459E-19         0.00000E+00
    0.82038E-08        -0.29802E-19         0.00000E+00
    0.82038E-08        -0.25146E-19         0.00000E+00
    0.82038E-08        -0.10710E-19         0.00000E+00
    0.82038E-08        -0.10012E-19         0.00000E+00
    0.82038E-08        -0.97789E-20         0.00000E+00
    0.82038E-08        -0.18394E-19         0.00000E+00
    0.82038E-08        -0.39581E-20         0.00000E+00
    0.82038E-08         0.41910E-20         0.00000E+00
    0.82038E-08         0.12107E-19         0.00000E+00
    0.82038E-08         0.88476E-20         0.00000E+00
    0.82038E-08        -0.93132E-21         0.00000E+00
    0.82038E-08        -0.46566E-21         0.00000E+00
    0.82038E-08        -0.23283E-20         0.00000E+00
    0.82038E-08         0.00000E+00         0.00000E+00
    0.82038E-08        -0.41910E-20         0.00000E+00
    0.82038E-08         0.23283E-21         0.00000E+00
    0.95435E-08         0.62864E-20         0.00000E+00
    0.95435E-08         0.15367E-19         0.00000E+00
    0.95435E-08         0.65193E-20         0.00000E+00
    0.95435E-08         0.15134E-19         0.00000E+00
    0.95435E-08         0.20722E-19         0.00000E+00
    0.95435E-08         0.36787E-19         0.00000E+00
    0.95435E-08         0.36322E-19         0.00000E+00
    0.95435E-08         0.35623E-19         0.00000E+00
    0.95435E-08         0.25611E-19         0.00000E+00
    0.95435E-08         0.17229E-19         0.00000E+00
    0.95435E-08         0.15600E-19         0.00000E+00
    0.95435E-08         0.12340E-19         0.00000E+00
    0.95435E-08         0.27008E-19         0.00000E+00
    0.95435E-08         0.19791E-19         0.00000E+00
    0.95435E-08         0.10245E-19         0.00000E+00
    0.95435E-08         0.20955E-20         0.00000E+00
    0.95435E-08         0.60536E-20         0.00000E+00
    0.95435E-08         0.46566E-21         0.00000E+00
    0.95435E-08         0.11176E-19         0.00000E+00
    0.95435E-08         0.60536E-20         0.00000E+00
    0.95435E-08         0.48894E-20         0.00000E+00
    0.95435E-08         0.48894E-20         0.00000E+00
    0.95435E-08         0.60536E-20         0.00000E+00
    0.95435E-08         0.41910E-20         0.00000E+00
    0.95435E-08        -0.41910E-20         0.00000E+00
    0.95435E-08         0.27940E-20         0.00000E+00
    0.95435E-08        -0.11176E-19         0.00000E+00
    0.95435E-08        -0.12573E-19         0.00000E+00
    0.95435E-08        -0.25611E-19         0.00000E+00
    0.95435E-08        -0.14668E-19         0.00000E+00
    0.95435E-08        -0.18859E-19         0.00000E+00
    0.95435E-08        -0.13504E-19         0.00000E+00
    0.95435E-08        -0.21188E-19         0.00000E+00
    0.95435E-08        -0.32131E-19         0.00000E+00
    0.95435E-08        -0.34459E-19         0.00000E+00
    0.95435E-08        -0.20955E-19         0.00000E+00
    0.95435E-08        -0.90804E-20         0.00000E+00
    0.95435E-08        -0.74506E-20         0.00000E+00
    0.95435E-08        -0.79162E-20         0.00000E+00
    0.95435E-08        -0.15367E-19         0.00000E+00
    0.95435E-08         0.13970E-20         0.00000E+00
    0.95435E-08         0.13737E-19         0.00000E+00
    0.95435E-08         0.11176E-19         0.00000E+00
    0.95435E-08         0.12573E-19         0.00000E+00
    0.95435E-08         0.65193E-20         0.00000E+00
    0.95435E-08         0.74506E-20         0.00000E+00
    0.95435E-08         0.58208E-20         0.00000E+00
    0.95435E-08         0.60536E-20         0.00000E+00
    0.95435E-08        -0.11642E-20         0.00000E+00
    0.95435E-08         0.34925E-20         0.00000E+00
    0.11083E-07         0.97789E-20         0.00000E+00
    0.11083E-07         0.20489E-19         0.00000E+00
    0.11083E-07         0.16298E-19         0.00000E+00
    0.11083E-07         0.14203E-19         0.00000E+00
    0.11083E-07         0.23283E-19         0.00000E+00
    0.11083E-07         0.42841E-19         0.00000E+00
    0.11083E-07         0.34226E-19         0.00000E+00
    0.11083E-07         0.29802E-19         0.00000E+00
    0.11083E-07         0.25611E-19         0.00000E+00
    0.11083E-07         0.88476E-20         0.00000E+00
    0.11083E-07         0.20955E-19         0.00000E+00
    0.11083E-07         0.20722E-19         0.00000E+00
    0.11083E-07         0.30268E-19         0.00000E+00
    0.11083E-07         0.20955E-19         0.00000E+00
    0.11083E-07         0.97789E-20         0.00000E+00
    0.11083E-07         0.93132E-20         0.00000E+00
    0.11083E-07         0.10710E-19         0.00000E+00
    0.11083E-07         0.41910E-20         0.00000E+00
    0.11083E-07         0.14435E-19         0.00000E+00
    0.11083E-07         0.97789E-20         0.00000E+00
    0.11083E-07         0.79162E-20         0.00000E+00
    0.11083E-07         0.97789E-20         0.00000E+00
    0.11083E-07         0.12573E-19         0.00000E+00
    0.11083E-07         0.55879E-20         0.00000E+00
    0.11083E-07         0.58208E-20         0.00000E+00
    0.11083E-07        -0.46566E-21         0.00000E+00
    0.11083E-07        -0.10245E-19         0.00000E+00
    0.11083E-07        -0.10710E-19         0.00000E+00
    0.11083E-07        -0.21886E-19         0.00000E+00
    0.11083E-07        -0.14435E-19         0.00000E+00
    0.11083E-07        -0.27474E-19         0.00000E+00
    0.11083E-07        -0.19791E-19         0.00000E+00
    0.11083E-07        -0.28871E-19         0.00000E+00
    0.11083E-07        -0.27008E-19         0.00000E+00
    0.11083E-07        -0.33528E-19         0.00000E+00
    0.11083E-07        -0.26077E-19         0.00000E+00
    0.11083E-07        -0.13504E-19         0.00000E+00
    0.11083E-07        -0.14901E-19         0.00000E+00
    0.11083E-07        -0.72177E-20         0.00000E+00
    0.11083E-07        -0.11176E-19         0.00000E+00
    0.11083E-07         0.65193E-20         0.00000E+00
    0.11083E-07         0.16298E-19         0.00000E+00
    0.11083E-07         0.18626E-19         0.00000E+00
    0.11083E-07         0.83819E-20         0.00000E+00
    0.11083E-07         0.79162E-20         0.00000E+00
    0.11083E-07         0.79162E-20         0.00000E+00
    0.11083E-07         0.69849E-21         0.00000E+00
    0.11083E-07         0.74506E-20         0.00000E+00
    0.11083E-07         0.46566E-21         0.00000E+00
    0.11083E-07         0.18626E-20         0.00000E+00
    0.12848E-07         0.37253E-20         0.00000E+00
    0.12848E-07         0.18161E-19         0.00000E+00
    0.12848E-07         0.20256E-19         0.00000E+00
    0.12848E-07         0.69849E-20         0.00000E+00
    0.12848E-07         0.20955E-19         0.00000E+00
    0.12848E-07         0.47032E-19         0.00000E+00
    0.12848E-07         0.37020E-19         0.00000E+00
    0.12848E-07         0.23982E-19         0.00000E+00
    0.12848E-07         0.32131E-19         0.00000E+00
    0.12848E-07         0.20023E-19         0.00000E+00
    0.12848E-07         0.27940E-19         0.00000E+00
    0.12848E-07         0.30268E-19         0.00000E+00
    0.12848E-07         0.27241E-19         0.00000E+00
    0.12848E-07         0.16531E-19         0.00000E+00
    0.12848E-07         0.25611E-20         0.00000E+00
    0.12848E-07         0.13970E-20         0.00000E+00
    0.12848E-07         0.27940E-20         0.00000E+00
    0.12848E-07         0.83819E-20         0.00000E+00
    0.12848E-07         0.19558E-19         0.00000E+00
    0.12848E-07         0.65193E-20         0.00000E+00
    0.12848E-07         0.37253E-20         0.00000E+00
    0.12848E-07         0.37253E-20         0.00000E+00
    0.12848E-07         0.14901E-19         0.00000E+00
    0.12848E-07         0.13970E-19         0.00000E+00
    0.12848E-07         0.12340E-19         0.00000E+00
    0.12848E-07         0.18626E-20         0.00000E+00
    0.12848E-07        -0.23283E-20         0.00000E+00
    0.12848E-07        -0.14435E-19         0.00000E+00
    0.12848E-07        -0.26543E-19         0.00000E+00
    0.12848E-07        -0.79162E-20         0.00000E+00
    0.12848E-07        -0.15832E-19         0.00000E+00
    0.12848E-07        -0.17229E-19         0.00000E+00
    0.12848E-07        -0.25844E-19         0.00000E+00
    0.12848E-07        -0.31432E-19         0.00000E+00
    0.12848E-07        -0.30035E-19         0.00000E+00
    0.12848E-07        -0.25611E-19         0.00000E+00
    0.12848E-07        -0.14435E-19         0.00000E+00
    0.12848E-07        -0.93132E-20         0.00000E+00
    0.12848E-07        -0.93132E-20         0.00000E+00
    0.12848E-07        -0.60536E-20         0.00000E+00
    0.12848E-07        -0.11642E-20         0.00000E+00
    0.12848E-07         0.14203E-19         0.00000E+00
    0.12848E-07         0.20489E-19         0.00000E+00
    0.12848E-07         0.12573E-19         0.00000E+00
    0.12848E-07         0.37253E-20         0.00000E+00
    0.12848E-07        -0.23283E-20         0.00000E+00
    0.12848E-07        -0.67521E-20         0.00000E+00
    0.12848E-07         0.55879E-20         0.00000E+00
    0.12848E-07        -0.23283E-20         0.00000E+00
    0.12848E-07         0.93132E-21         0.00000E+00
    0.14866E-07         0.51223E-20         0.00000E+00
    0.14866E-07         0.16298E-19         0.00000E+00
    0.14866E-07         0.13737E-19         0.00000E+00
    0.14866E-07         0.12107E-19         0.00000E+00
    0.14866E-07         0.23749E-19         0.00000E+00
    0.14866E-07         0.38883E-19         0.00000E+00
    0.14866E-07         0.41444E-19         0.00000E+00
    0.14866E-07         0.27474E-19         0.00000E+00
    0.14866E-07         0.19558E-19         0.00000E+00
    0.14866E-07         0.14901E-19         0.00000E+00
    0.14866E-07         0.19558E-19         0.00000E+00
    0.14866E-07         0.27474E-19         0.00000E+00
    0.14866E-07         0.31199E-19         0.00000E+00
    0.14866E-07         0.13970E-19         0.00000E+00
    0.14866E-07         0.32596E-20         0.00000E+00
    0.14866E-07         0.74506E-20         0.00000E+00
    0.14866E-07         0.46566E-20         0.00000E+00
    0.14866E-07         0.13970E-20         0.00000E+00
    0.14866E-07         0.12107E-19         0.00000E+00
    0.14866E-07         0.37253E-20         0.00000E+00
    0.14866E-07        -0.27940E-20         0.00000E+00
    0.14866E-07         0.00000E+00         0.00000E+00
    0.14866E-07         0.97789E-20         0.00000E+00
    0.14866E-07         0.12107E-19         0.00000E+00
    0.14866E-07         0.10245E-19         0.00000E+00
    0.14866E-07         0.72177E-20         0.00000E+00
    0.14866E-07        -0.46566E-20         0.00000E+00
    0.14866E-07        -0.74506E-20         0.00000E+00
    0.14866E-07        -0.25611E-19         0.00000E+00
    0.14866E-07        -0.14901E-19         0.00000E+00
    0.14866E-07        -0.13504E-19         0.00000E+00
    0.14866E-07        -0.15832E-19         0.00000E+00
    0.14866E-07        -0.26543E-19         0.00000E+00
    0.14866E-07        -0.32131E-19         0.00000E+00
    0.14866E-07        -0.24447E-19         0.00000E+00
    0.14866E-07        -0.19558E-19         0.00000E+00
    0.14866E-07        -0.88476E-20         0.00000E+00
    0.14866E-07        -0.69849E-20         0.00000E+00
    0.14866E-07        -0.83819E-20         0.00000E+00
    0.14866E-07        -0.72177E-20         0.00000E+00
    0.14866E-07         0.23283E-20         0.00000E+00
    0.14866E-07         0.15367E-19         0.00000E+00
    0.14866E-07         0.14203E-19         0.00000E+00
    0.14866E-07         0.14435E-19         0.00000E+00
    0.14866E-07        -0.46566E-21         0.00000E+00
    0.14866E-07        -0.23283E-21         0.00000E+00
    0.14866E-07        -0.32596E-20         0.00000E+00
    0.14866E-07         0.11874E-19         0.00000E+00
    0.14866E-07        -0.18626E-20         0.00000E+00
    0.14866E-07         0.37253E-20         0.00000E+00
    0.17168E-07         0.90804E-20         0.00000E+00
    0.17168E-07         0.10012E-19         0.00000E+00
    0.17168E-07         0.12573E-19         0.00000E+00
    0.17168E-07         0.16298E-19         0.00000E+00
    0.17168E-07         0.24214E-19         0.00000E+00
    0.17168E-07         0.34226E-19         0.00000E+00
    0.17168E-07         0.35623E-19         0.00000E+00
    0.17168E-07         0.25844E-19         0.00000E+00
    0.17168E-07         0.22585E-19         0.00000E+00
    0.17168E-07         0.93132E-20         0.00000E+00
    0.17168E-07         0.93132E-20         0.00000E+00
    0.17168E-07         0.22352E-19         0.00000E+00
    0.17168E-07         0.23749E-19         0.00000E+00
    0.17168E-07         0.14901E-19         0.00000E+00
    0.17168E-07         0.90804E-20         0.00000E+00
    0.17168E-07         0.69849E-20         0.00000E+00
    0.17168E-07        -0.23283E-21         0.00000E+00
    0.17168E-07        -0.76834E-20         0.00000E+00
    0.17168E-07        -0.46566E-21         0.00000E+00
    0.17168E-07         0.00000E+00         0.00000E+00
    0.17168E-07         0.27940E-20         0.00000E+00
    0.17168E-07         0.23283E-20         0.00000E+00
    0.17168E-07         0.14435E-19         0.00000E+00
    0.17168E-07         0.15367E-19         0.00000E+00
    0.17168E-07         0.69849E-20         0.00000E+00
    0.17168E-07         0.32596E-20         0.00000E+00
    0.17168E-07        -0.18626E-20         0.00000E+00
    0.17168E-07         0.27940E-20         0.00000E+00
    0.17168E-07        -0.16764E-19         0.00000E+00
    0.17168E-07        -0.93132E-20         0.00000E+00
    0.17168E-07        -0.13970E-19         0.00000E+00
    0.17168E-07        -0.16531E-19         0.00000E+00
    0.17168E-07        -0.31898E-19         0.00000E+00
    0.17168E-07        -0.27474E-19         0.00000E+00
    0.17168E-07        -0.30501E-19         0.00000E+00
    0.17168E-07        -0.23283E-19         0.00000E+00
    0.17168E-07        -0.12573E-19         0.00000E+00
    0.17168E-07        -0.14435E-19         0.00000E+00
    0.17168E-07        -0.12107E-19         0.00000E+00
    0.17168E-07        -0.10710E-19         0.00000E+00
    0.17168E-07         0.93132E-21         0.00000E+00
    0.17168E-07         0.14435E-19         0.00000E+00
    0.17168E-07         0.15600E-19         0.00000E+00
    0.17168E-07         0.11176E-19         0.00000E+00
    0.17168E-07        -0.46566E-21         0.00000E+00
    0.17168E-07         0.46566E-21         0.00000E+00
    0.17168E-07         0.13970E-20         0.00000E+00
    0.17168E-07         0.37253E-20         0.00000E+00
    0.17168E-07         0.46566E-21         0.00000E+00
    0.17168E-07         0.37253E-20         0.00000E+00
    0.19785E-07         0.69849E-21         0.00000E+00
    0.19785E-07         0.13970E-19         0.00000E+00
    0.19785E-07         0.11176E-19         0.00000E+00
    0.19785E-07         0.13970E-19         0.00000E+00
    0.19785E-07         0.17462E-19         0.00000E+00
    0.19785E-07         0.35390E-19         0.00000E+00
    0.19785E-07         0.31199E-19         0.00000E+00
    0.19785E-07         0.23283E-19         0.00000E+00
    0.19785E-07         0.27008E-19         0.00000E+00
    0.19785E-07         0.18626E-19         0.00000E+00
    0.19785E-07         0.20955E-19         0.00000E+00
    0.19785E-07         0.22352E-19         0.00000E+00
    0.19785E-07         0.27474E-19         0.00000E+00
    0.19785E-07         0.18859E-19         0.00000E+00
    0.19785E-07         0.93132E-21         0.00000E+00
    0.19785E-07        -0.65193E-20         0.00000E+00
    0.19785E-07        -0.13970E-20         0.00000E+00
    0.19785E-07        -0.37253E-20         0.00000E+00
    0.19785E-07         0.14901E-19         0.00000E+00
    0.19785E-07         0.69849E-20         0.00000E+00
    0.19785E-07         0.79162E-20         0.00000E+00
    0.19785E-07         0.55879E-20         0.00000E+00
    0.19785E-07         0.97789E-20         0.00000E+00
    0.19785E-07         0.90804E-20         0.00000E+00
    0.19785E-07         0.79162E-20         0.00000E+00
    0.19785E-07         0.25611E-20         0.00000E+00
    0.19785E-07         0.27940E-20         0.00000E+00
    0.19785E-07         0.93132E-21         0.00000E+00
    0.19785E-07        -0.20955E-19         0.00000E+00
    0.19785E-07        -0.46566E-20         0.00000E+00
    0.19785E-07        -0.10710E-19         0.00000E+00
    0.19785E-07        -0.11176E-19         0.00000E+00
    0.19785E-07        -0.30035E-19         0.00000E+00
    0.19785E-07        -0.35390E-19         0.00000E+00
    0.19785E-07        -0.32596E-19         0.00000E+00
    0.19785E-07        -0.24913E-19         0.00000E+00
    0.19785E-07        -0.76834E-20         0.00000E+00
    0.19785E-07        -0.14901E-19         0.00000E+00
    0.19785E-07        -0.22352E-19         0.00000E+00
    0.19785E-07        -0.14435E-19         0.00000E+00
    0.19785E-07         0.25611E-20         0.00000E+00
    0.19785E-07         0.69849E-20         0.00000E+00
    0.19785E-07         0.13970E-19         0.00000E+00
    0.19785E-07         0.93132E-20         0.00000E+00
    0.19785E-07        -0.65193E-20         0.00000E+00
    0.19785E-07        -0.46566E-20         0.00000E+00
    0.19785E-07        -0.37253E-20         0.00000E+00
    0.19785E-07         0.39581E-20         0.00000E+00
    0.19785E-07        -0.23283E-20         0.00000E+00
    0.19785E-07        -0.23283E-20         0.00000E+00
    0.22752E-07         0.65193E-20         0.00000E+00
    0.22752E-07         0.14435E-19         0.00000E+00
    0.22752E-07         0.13504E-19         0.00000E+00
    0.22752E-07         0.20023E-19         0.00000E+00
    0.22752E-07         0.20955E-19         0.00000E+00
    0.22752E-07         0.40047E-19         0.00000E+00
    0.22752E-07         0.40513E-19         0.00000E+00
    0.22752E-07         0.31665E-19         0.00000E+00
    0.22752E-07         0.32596E-19         0.00000E+00
    0.22752E-07         0.23749E-19         0.00000E+00
    0.22752E-07         0.25611E-19         0.00000E+00
    0.22752E-07         0.29802E-19         0.00000E+00
    0.22752E-07         0.33993E-19         0.00000E+00
    0.22752E-07         0.20955E-19         0.00000E+00
    0.22752E-07        -0.93132E-21         0.00000E+00
    0.22752E-07         0.93132E-21         0.00000E+00
    0.22752E-07         0.18626E-20         0.00000E+00
    0.22752E-07        -0.41910E-20         0.00000E+00
    0.22752E-07         0.15832E-19         0.00000E+00
    0.22752E-07         0.60536E-20         0.00000E+00
    0.22752E-07         0.00000E+00         0.00000E+00
    0.22752E-07         0.23283E-20         0.00000E+00
    0.22752E-07         0.65193E-20         0.00000E+00
    0.22752E-07         0.11176E-19         0.00000E+00
    0.22752E-07         0.83819E-20         0.00000E+00
    0.22752E-07         0.12107E-19         0.00000E+00
    0.22752E-07        -0.46566E-21         0.00000E+00
    0.22752E-07        -0.10710E-19         0.00000E+00
    0.22752E-07        -0.25146E-19         0.00000E+00
    0.22752E-07        -0.13039E-19         0.00000E+00
    0.22752E-07        -0.19092E-19         0.00000E+00
    0.22752E-07        -0.88476E-20         0.00000E+00
    0.22752E-07        -0.33062E-19         0.00000E+00
    0.22752E-07        -0.30734E-19         0.00000E+00
    0.22752E-07        -0.22817E-19         0.00000E+00
    0.22752E-07        -0.13504E-19         0.00000E+00
    0.22752E-07        -0.81491E-20         0.00000E+00
    0.22752E-07        -0.12573E-19         0.00000E+00
    0.22752E-07        -0.20955E-19         0.00000E+00
    0.22752E-07        -0.19092E-19         0.00000E+00
    0.22752E-07        -0.27940E-20         0.00000E+00
    0.22752E-07         0.10245E-19         0.00000E+00
    0.22752E-07         0.14901E-19         0.00000E+00
    0.22752E-07         0.37253E-20         0.00000E+00
    0.22752E-07        -0.97789E-20         0.00000E+00
    0.22752E-07        -0.12573E-19         0.00000E+00
    0.22752E-07        -0.46566E-20         0.00000E+00
    0.22752E-07         0.00000E+00         0.00000E+00
    0.22752E-07        -0.18626E-20         0.00000E+00
    0.22752E-07         0.20955E-20         0.00000E+00
    0.26104E-07         0.23283E-20         0.00000E+00
    0.26104E-07         0.10245E-19         0.00000E+00
    0.26104E-07         0.48894E-20         0.00000E+00
    0.26104E-07         0.11409E-19         0.00000E+00
    0.26104E-07         0.25146E-19         0.00000E+00
    0.26104E-07         0.41444E-19         0.00000E+00
    0.26104E-07         0.39116E-19         0.00000E+00
    0.26104E-07         0.30268E-19         0.00000E+00
    0.26104E-07         0.42841E-19         0.00000E+00
    0.26104E-07         0.33993E-19         0.00000E+00
    0.26104E-07         0.28871E-19         0.00000E+00
    0.26104E-07         0.33062E-19         0.00000E+00
    0.26104E-07         0.28638E-19         0.00000E+00
    0.26104E-07         0.25146E-19         0.00000E+00
    0.26104E-07         0.93132E-20         0.00000E+00
    0.26104E-07         0.83819E-20         0.00000E+00
    0.26104E-07         0.23283E-20         0.00000E+00
    0.26104E-07        -0.13970E-20         0.00000E+00
    0.26104E-07         0.14901E-19         0.00000E+00
    0.26104E-07         0.46566E-20         0.00000E+00
    0.26104E-07        -0.23283E-20         0.00000E+00
    0.26104E-07         0.88476E-20         0.00000E+00
    0.26104E-07         0.83819E-20         0.00000E+00
    0.26104E-07         0.14435E-19         0.00000E+00
    0.26104E-07         0.12573E-19         0.00000E+00
    0.26104E-07         0.79162E-20         0.00000E+00
    0.26104E-07        -0.27940E-20         0.00000E+00
    0.26104E-07        -0.15832E-19         0.00000E+00
    0.26104E-07        -0.27008E-19         0.00000E+00
    0.26104E-07        -0.14435E-19         0.00000E+00
    0.26104E-07        -0.18626E-19         0.00000E+00
    0.26104E-07        -0.14435E-19         0.00000E+00
    0.26104E-07        -0.30734E-19         0.00000E+00
    0.26104E-07        -0.31665E-19         0.00000E+00
    0.26104E-07        -0.27940E-19         0.00000E+00
    0.26104E-07        -0.19558E-19         0.00000E+00
    0.26104E-07        -0.14901E-19         0.00000E+00
    0.26104E-07        -0.10710E-19         0.00000E+00
    0.26104E-07        -0.17229E-19         0.00000E+00
    0.26104E-07        -0.16298E-19         0.00000E+00
    0.26104E-07        -0.27940E-20         0.00000E+00
    0.26104E-07         0.83819E-20         0.00000E+00
    0.26104E-07         0.13039E-19         0.00000E+00
    0.26104E-07         0.69849E-20         0.00000E+00
    0.26104E-07        -0.32596E-20         0.00000E+00
    0.26104E-07        -0.27940E-20         0.00000E+00
    0.26104E-07        -0.13504E-19         0.00000E+00
    0.26104E-07        -0.60536E-20         0.00000E+00
    0.26104E-07        -0.23283E-20         0.00000E+00
    0.26104E-07         0.65193E-20         0.00000E+00
    0.29878E-07         0.46566E-21         0.00000E+00
    0.29878E-07         0.10710E-19         0.00000E+00
    0.29878E-07        -0.93132E-21         0.00000E+00
    0.29878E-07         0.88476E-20         0.00000E+00
    0.29878E-07         0.28871E-19         0.00000E+00
    0.29878E-07         0.46566E-19         0.00000E+00
    0.29878E-07         0.40978E-19         0.00000E+00
    0.29878E-07         0.35390E-19         0.00000E+00
    0.29878E-07         0.33528E-19         0.00000E+00
    0.29878E-07         0.29802E-19         0.00000E+00
    0.29878E-07         0.31199E-19         0.00000E+00
    0.29878E-07         0.28405E-19         0.00000E+00
    0.29878E-07         0.25146E-19         0.00000E+00
    0.29878E-07         0.27940E-19         0.00000E+00
    0.29878E-07         0.12573E-19         0.00000E+00
    0.29878E-07         0.83819E-20         0.00000E+00
    0.29878E-07         0.46566E-20         0.00000E+00
    0.29878E-07         0.18626E-20         0.00000E+00
    0.29878E-07         0.16298E-19         0.00000E+00
    0.29878E-07         0.10245E-19         0.00000E+00
    0.29878E-07         0.27940E-20         0.00000E+00
    0.29878E-07         0.10245E-19         0.00000E+00
    0.29878E-07         0.88476E-20         0.00000E+00
    0.29878E-07         0.16298E-19         0.00000E+00
    0.29878E-07         0.11642E-19         0.00000E+00
    0.29878E-07         0.55879E-20         0.00000E+00
    0.29878E-07        -0.37253E-20         0.00000E+00
    0.29878E-07        -0.14435E-19         0.00000E+00
    0.29878E-07        -0.23283E-19         0.00000E+00
    0.29878E-07        -0.12573E-19         0.00000E+00
    0.29878E-07        -0.20955E-19         0.00000E+00
    0.29878E-07        -0.19558E-19         0.00000E+00
    0.29878E-07        -0.33993E-19         0.00000E+00
    0.29878E-07        -0.37719E-19         0.00000E+00
    0.29878E-07        -0.37486E-19         0.00000E+00
    0.29878E-07        -0.22817E-19         0.00000E+00
    0.29878E-07        -0.16298E-19         0.00000E+00
    0.29878E-07        -0.10245E-19         0.00000E+00
    0.29878E-07        -0.10710E-19         0.00000E+00
    0.29878E-07        -0.16764E-19         0.00000E+00
    0.29878E-07        -0.23283E-20         0.00000E+00
    0.29878E-07         0.13039E-19         0.00000E+00
    0.29878E-07         0.10245E-19         0.00000E+00
    0.29878E-07         0.13039E-19         0.00000E+00
    0.29878E-07         0.34925E-20         0.00000E+00
    0.29878E-07         0.55879E-20         0.00000E+00
    0.29878E-07         0.18626E-20         0.00000E+00
    0.29878E-07         0.69849E-21         0.00000E+00
    0.29878E-07        -0.18626E-20         0.00000E+00
    0.29878E-07         0.51223E-20         0.00000E+00
    0.34112E-07         0.65193E-20         0.00000E+00
    0.34112E-07         0.11176E-19         0.00000E+00
    0.34112E-07         0.17229E-19         0.00000E+00
    0.34112E-07         0.21420E-19         0.00000E+00
    0.34112E-07         0.33528E-19         0.00000E+00
    0.34112E-07         0.47963E-19         0.00000E+00
    0.34112E-07         0.47963E-19         0.00000E+00
    0.34112E-07         0.36089E-19         0.00000E+00
    0.34112E-07         0.33528E-19         0.00000E+00
    0.34112E-07         0.21420E-19         0.00000E+00
    0.34112E-07         0.28871E-19         0.00000E+00
    0.34112E-07         0.23749E-19         0.00000E+00
    0.34112E-07         0.25146E-19         0.00000E+00
    0.34112E-07         0.26077E-19         0.00000E+00
    0.34112E-07         0.13504E-19         0.00000E+00
    0.34112E-07         0.12573E-19         0.00000E+00
    0.34112E-07         0.10245E-19         0.00000E+00
    0.34112E-07         0.46566E-20         0.00000E+00
    0.34112E-07         0.16298E-19         0.00000E+00
    0.34112E-07         0.14901E-19         0.00000E+00
    0.34112E-07         0.60536E-20         0.00000E+00
    0.34112E-07         0.65193E-20         0.00000E+00
    0.34112E-07         0.12107E-19         0.00000E+00
    0.34112E-07         0.11642E-19         0.00000E+00
    0.34112E-07         0.37253E-20         0.00000E+00
    0.34112E-07         0.23283E-20         0.00000E+00
    0.34112E-07        -0.69849E-20         0.00000E+00
    0.34112E-07        -0.14435E-19         0.00000E+00
    0.34112E-07        -0.24680E-19         0.00000E+00
    0.34112E-07        -0.16764E-19         0.00000E+00
    0.34112E-07        -0.25611E-19         0.00000E+00
    0.34112E-07        -0.25146E-19         0.00000E+00
    0.34112E-07        -0.36787E-19         0.00000E+00
    0.34112E-07        -0.29802E-19         0.00000E+00
    0.34112E-07        -0.34459E-19         0.00000E+00
    0.34112E-07        -0.23283E-19         0.00000E+00
    0.34112E-07        -0.11874E-19         0.00000E+00
    0.34112E-07        -0.18626E-20         0.00000E+00
    0.34112E-07        -0.72177E-20         0.00000E+00
    0.34112E-07        -0.10245E-19         0.00000E+00
    0.34112E-07        -0.46566E-20         0.00000E+00
    0.34112E-07         0.10710E-19         0.00000E+00
    0.34112E-07         0.10710E-19         0.00000E+00
    0.34112E-07         0.14668E-19         0.00000E+00
    0.34112E-07         0.60536E-20         0.00000E+00
    0.34112E-07         0.46566E-21         0.00000E+00
    0.34112E-07         0.23283E-20         0.00000E+00
    0.34112E-07         0.93132E-20         0.00000E+00
    0.34112E-07        -0.60536E-20         0.00000E+00
    0.34112E-07         0.32596E-20         0.00000E+00
    0.38841E-07         0.30268E-20         0.00000E+00
    0.38841E-07         0.16997E-19         0.00000E+00
    0.38841E-07         0.18161E-19         0.00000E+00
    0.38841E-07         0.21188E-19         0.00000E+00
    0.38841E-07         0.36322E-19         0.00000E+00
    0.38841E-07         0.40745E-19         0.00000E+00
    0.38841E-07         0.45169E-19         0.00000E+00
    0.38841E-07         0.37486E-19         0.00000E+00
    0.38841E-07         0.32131E-19         0.00000E+00
    0.38841E-07         0.24680E-19         0.00000E+00
    0.38841E-07         0.25146E-19         0.00000E+00
    0.38841E-07         0.31199E-19         0.00000E+00
    0.38841E-07         0.25611E-19         0.00000E+00
    0.38841E-07         0.25146E-19         0.00000E+00
    0.38841E-07         0.16298E-19         0.00000E+00
    0.38841E-07         0.10245E-19         0.00000E+00
    0.38841E-07         0.79162E-20         0.00000E+00
    0.38841E-07         0.37253E-20         0.00000E+00
    0.38841E-07         0.13504E-19         0.00000E+00
    0.38841E-07         0.12107E-19         0.00000E+00
    0.38841E-07         0.60536E-20         0.00000E+00
    0.38841E-07         0.93132E-21         0.00000E+00
    0.38841E-07         0.60536E-20         0.00000E+00
    0.38841E-07         0.65193E-20         0.00000E+00
    0.38841E-07         0.46566E-20         0.00000E+00
    0.38841E-07         0.00000E+00         0.00000E+00
    0.38841E-07        -0.10245E-19         0.00000E+00
    0.38841E-07        -0.97789E-20         0.00000E+00
    0.38841E-07        -0.27940E-19         0.00000E+00
    0.38841E-07        -0.19092E-19         0.00000E+00
    0.38841E-07        -0.22352E-19         0.00000E+00
    0.38841E-07        -0.20023E-19         0.00000E+00
    0.38841E-07        -0.27008E-19         0.00000E+00
    0.38841E-07        -0.25611E-19         0.00000E+00
    0.38841E-07        -0.24680E-19         0.00000E+00
    0.38841E-07        -0.20489E-19         0.00000E+00
    0.38841E-07        -0.15832E-19         0.00000E+00
    0.38841E-07        -0.88476E-20         0.00000E+00
    0.38841E-07        -0.53551E-20         0.00000E+00
    0.38841E-07        -0.14901E-19         0.00000E+00
    0.38841E-07        -0.34925E-20         0.00000E+00
    0.38841E-07         0.16298E-20         0.00000E+00
    0.38841E-07         0.83819E-20         0.00000E+00
    0.38841E-07         0.11409E-19         0.00000E+00
    0.38841E-07        -0.32596E-20         0.00000E+00
    0.38841E-07        -0.51223E-20         0.00000E+00
    0.38841E-07        -0.53551E-20         0.00000E+00
    0.38841E-07        -0.46566E-20         0.00000E+00
    0.38841E-07        -0.93132E-20         0.00000E+00
    0.38841E-07        -0.18626E-20         0.00000E+00
    0.44101E-07         0.60536E-20         0.00000E+00
    0.44101E-07         0.15832E-19         0.00000E+00
    0.44101E-07         0.11176E-19         0.00000E+00
    0.44101E-07         0.15367E-19         0.00000E+00
    0.44101E-07         0.32363E-19         0.00000E+00
    0.44101E-07         0.44238E-19         0.00000E+00
    0.44101E-07         0.43772E-19         0.00000E+00
    0.44101E-07         0.40978E-19         0.00000E+00
    0.44101E-07         0.39581E-19         0.00000E+00
    0.44101E-07         0.22817E-19         0.00000E+00
    0.44101E-07         0.27008E-19         0.00000E+00
    0.44101E-07         0.35856E-19         0.00000E+00
    0.44101E-07         0.31199E-19         0.00000E+00
    0.44101E-07         0.33062E-19         0.00000E+00
    0.44101E-07         0.18626E-19         0.00000E+00
    0.44101E-07         0.16298E-20         0.00000E+00
    0.44101E-07         0.65193E-20         0.00000E+00
    0.44101E-07         0.46566E-20         0.00000E+00
    0.44101E-07         0.46566E-21         0.00000E+00
    0.44101E-07        -0.23283E-20         0.00000E+00
    0.44101E-07        -0.27940E-20         0.00000E+00
    0.44101E-07        -0.60536E-20         0.00000E+00
    0.44101E-07         0.23283E-20         0.00000E+00
    0.44101E-07         0.12573E-19         0.00000E+00
    0.44101E-07         0.60536E-20         0.00000E+00
    0.44101E-07         0.51223E-20         0.00000E+00
    0.44101E-07        -0.41910E-20         0.00000E+00
    0.44101E-07        -0.88476E-20         0.00000E+00
    0.44101E-07        -0.30734E-19         0.00000E+00
    0.44101E-07        -0.23283E-19         0.00000E+00
    0.44101E-07        -0.19092E-19         0.00000E+00
    0.44101E-07        -0.19092E-19         0.00000E+00
    0.44101E-07        -0.27474E-19         0.00000E+00
    0.44101E-07        -0.30734E-19         0.00000E+00
    0.44101E-07        -0.23283E-19         0.00000E+00
    0.44101E-07        -0.20955E-19         0.00000E+00
    0.44101E-07        -0.17229E-19         0.00000E+00
    0.44101E-07        -0.17229E-19         0.00000E+00
    0.44101E-07        -0.19092E-19         0.00000E+00
    0.44101E-07        -0.19558E-19         0.00000E+00
    0.44101E-07        -0.13970E-20         0.00000E+00
    0.44101E-07         0.27940E-20         0.00000E+00
    0.44101E-07         0.79162E-20         0.00000E+00
    0.44101E-07         0.13970E-20         0.00000E+00
    0.44101E-07        -0.51223E-20         0.00000E+00
    0.44101E-07        -0.88476E-20         0.00000E+00
    0.44101E-07        -0.39581E-20         0.00000E+00
    0.44101E-07        -0.74506E-20         0.00000E+00
    0.44101E-07        -0.37253E-20         0.00000E+00
    0.44101E-07         0.11642E-20         0.00000E+00
    0.49924E-07         0.69849E-20         0.00000E+00
    0.49924E-07         0.11409E-19         0.00000E+00
    0.49924E-07         0.90804E-20         0.00000E+00
    0.49924E-07         0.15832E-19         0.00000E+00
    0.49924E-07         0.23982E-19         0.00000E+00
    0.49924E-07         0.38883E-19         0.00000E+00
    0.49924E-07         0.41211E-19         0.00000E+00
    0.49924E-07         0.30268E-19         0.00000E+00
    0.49924E-07         0.32131E-19         0.00000E+00
    0.49924E-07         0.25146E-19         0.00000E+00
    0.49924E-07         0.26077E-19         0.00000E+00
    0.49924E-07         0.26077E-19         0.00000E+00
    0.49924E-07         0.33062E-19         0.00000E+00
    0.49924E-07         0.24447E-19         0.00000E+00
    0.49924E-07         0.86147E-20         0.00000E+00
    0.49924E-07         0.60536E-20         0.00000E+00
    0.49924E-07         0.79162E-20         0.00000E+00
    0.49924E-07         0.37253E-20         0.00000E+00
    0.49924E-07         0.11642E-20         0.00000E+00
    0.49924E-07        -0.53551E-20         0.00000E+00
    0.49924E-07        -0.55879E-20         0.00000E+00
    0.49924E-07        -0.18626E-20         0.00000E+00
    0.49924E-07         0.65193E-20         0.00000E+00
    0.49924E-07         0.14901E-19         0.00000E+00
    0.49924E-07         0.10245E-19         0.00000E+00
    0.49924E-07         0.12573E-19         0.00000E+00
    0.49924E-07         0.00000E+00         0.00000E+00
    0.49924E-07        -0.14901E-19         0.00000E+00
    0.49924E-07        -0.31199E-19         0.00000E+00
    0.49924E-07        -0.15832E-19         0.00000E+00
    0.49924E-07        -0.22585E-19         0.00000E+00
    0.49924E-07        -0.22119E-19         0.00000E+00
    0.49924E-07        -0.31665E-19         0.00000E+00
    0.49924E-07        -0.33062E-19         0.00000E+00
    0.49924E-07        -0.25379E-19         0.00000E+00
    0.49924E-07        -0.33760E-19         0.00000E+00
    0.49924E-07        -0.22817E-19         0.00000E+00
    0.49924E-07        -0.21188E-19         0.00000E+00
    0.49924E-07        -0.26543E-19         0.00000E+00
    0.49924E-07        -0.18161E-19         0.00000E+00
    0.49924E-07        -0.74506E-20         0.00000E+00
    0.49924E-07         0.74506E-20         0.00000E+00
    0.49924E-07         0.37253E-20         0.00000E+00
    0.49924E-07         0.46566E-21         0.00000E+00
    0.49924E-07        -0.60536E-20         0.00000E+00
    0.49924E-07         0.11642E-20         0.00000E+00
    0.49924E-07        -0.27940E-20         0.00000E+00
    0.49924E-07         0.32596E-20         0.00000E+00
    0.49924E-07         0.00000E+00         0.00000E+00
    0.49924E-07         0.51223E-20         0.00000E+00
    0.56336E-07         0.65193E-20         0.00000E+00
    0.56336E-07         0.81491E-20         0.00000E+00
    0.56336E-07         0.83819E-20         0.00000E+00
    0.56336E-07         0.97789E-20         0.00000E+00
    0.56336E-07         0.21420E-19         0.00000E+00
    0.56336E-07         0.32596E-19         0.00000E+00
    0.56336E-07         0.30734E-19         0.00000E+00
    0.56336E-07         0.24680E-19         0.00000E+00
    0.56336E-07         0.23749E-19         0.00000E+00
    0.56336E-07         0.19558E-19         0.00000E+00
    0.56336E-07         0.20489E-19         0.00000E+00
    0.56336E-07         0.24680E-19         0.00000E+00
    0.56336E-07         0.29104E-19         0.00000E+00
    0.56336E-07         0.24214E-19         0.00000E+00
    0.56336E-07         0.65193E-20         0.00000E+00
    0.56336E-07         0.97789E-20         0.00000E+00
    0.56336E-07         0.83819E-20         0.00000E+00
    0.56336E-07        -0.93132E-21         0.00000E+00
    0.56336E-07         0.37253E-20         0.00000E+00
    0.56336E-07         0.13970E-20         0.00000E+00
    0.56336E-07         0.00000E+00         0.00000E+00
    0.56336E-07         0.51223E-20         0.00000E+00
    0.56336E-07         0.60536E-20         0.00000E+00
    0.56336E-07         0.14435E-19         0.00000E+00
    0.56336E-07         0.65193E-20         0.00000E+00
    0.56336E-07         0.97789E-20         0.00000E+00
    0.56336E-07        -0.97789E-20         0.00000E+00
    0.56336E-07        -0.16764E-19         0.00000E+00
    0.56336E-07        -0.28871E-19         0.00000E+00
    0.56336E-07        -0.11176E-19         0.00000E+00
    0.56336E-07        -0.26310E-19         0.00000E+00
    0.56336E-07        -0.18161E-19         0.00000E+00
    0.56336E-07        -0.35856E-19         0.00000E+00
    0.56336E-07        -0.35856E-19         0.00000E+00
    0.56336E-07        -0.32131E-19         0.00000E+00
    0.56336E-07        -0.26776E-19         0.00000E+00
    0.56336E-07        -0.21886E-19         0.00000E+00
    0.56336E-07        -0.13504E-19         0.00000E+00
    0.56336E-07        -0.24214E-19         0.00000E+00
    0.56336E-07        -0.20489E-19         0.00000E+00
    0.56336E-07        -0.18626E-20         0.00000E+00
    0.56336E-07         0.11642E-19         0.00000E+00
    0.56336E-07         0.12806E-19         0.00000E+00
    0.56336E-07         0.58208E-20         0.00000E+00
    0.56336E-07         0.46566E-21         0.00000E+00
    0.56336E-07        -0.93132E-21         0.00000E+00
    0.56336E-07         0.74506E-20         0.00000E+00
    0.56336E-07         0.11176E-19         0.00000E+00
    0.56336E-07        -0.93132E-21         0.00000E+00
    0.56336E-07        -0.13970E-20         0.00000E+00
    0.63358E-07         0.20955E-20         0.00000E+00
    0.63358E-07         0.10245E-19         0.00000E+00
    0.63358E-07         0.23283E-20         0.00000E+00
    0.63358E-07         0.65193E-20         0.00000E+00
    0.63358E-07         0.15134E-19         0.00000E+00
    0.63358E-07         0.31665E-19         0.00000E+00
    0.63358E-07         0.25844E-19         0.00000E+00
    0.63358E-07         0.25146E-19         0.00000E+00
    0.63358E-07         0.28405E-19         0.00000E+00
    0.63358E-07         0.10943E-19         0.00000E+00
    0.63358E-07         0.16764E-19         0.00000E+00
    0.63358E-07         0.21420E-19         0.00000E+00
    0.63358E-07         0.22817E-19         0.00000E+00
    0.63358E-07         0.26077E-19         0.00000E+00
    0.63358E-07         0.60536E-20         0.00000E+00
    0.63358E-07         0.41910E-20         0.00000E+00
    0.63358E-07         0.44238E-20         0.00000E+00
    0.63358E-07         0.16298E-20         0.00000E+00
    0.63358E-07         0.12340E-19         0.00000E+00
    0.63358E-07         0.18626E-20         0.00000E+00
    0.63358E-07         0.00000E+00         0.00000E+00
    0.63358E-07        -0.13970E-20         0.00000E+00
    0.63358E-07         0.41910E-20         0.00000E+00
    0.63358E-07         0.23283E-20         0.00000E+00
    0.63358E-07        -0.69849E-21         0.00000E+00
    0.63358E-07        -0.53551E-20         0.00000E+00
    0.63358E-07        -0.19092E-19         0.00000E+00
    0.63358E-07        -0.18161E-19         0.00000E+00
    0.63358E-07        -0.27008E-19         0.00000E+00
    0.63358E-07        -0.16764E-19         0.00000E+00
    0.63358E-07        -0.20023E-19         0.00000E+00
    0.63358E-07        -0.19092E-19         0.00000E+00
    0.63358E-07        -0.30966E-19         0.00000E+00
    0.63358E-07        -0.34925E-19         0.00000E+00
    0.63358E-07        -0.34925E-19         0.00000E+00
    0.63358E-07        -0.26543E-19         0.00000E+00
    0.63358E-07        -0.19092E-19         0.00000E+00
    0.63358E-07        -0.11176E-19         0.00000E+00
    0.63358E-07        -0.21420E-19         0.00000E+00
    0.63358E-07        -0.11176E-19         0.00000E+00
    0.63358E-07         0.37253E-20         0.00000E+00
    0.63358E-07         0.20955E-19         0.00000E+00
    0.63358E-07         0.23749E-19         0.00000E+00
    0.63358E-07         0.14901E-19         0.00000E+00
    0.63358E-07         0.88476E-20         0.00000E+00
    0.63358E-07         0.46566E-21         0.00000E+00
    0.63358E-07         0.18626E-20         0.00000E+00
    0.63358E-07         0.60536E-20         0.00000E+00
    0.63358E-07        -0.46566E-20         0.00000E+00
    0.63358E-07         0.46566E-21         0.00000E+00
    0.71000E-07         0.46566E-20         0.00000E+00
    0.71000E-07         0.10245E-19         0.00000E+00
    0.71000E-07         0.18626E-20         0.00000E+00
    0.71000E-07         0.00000E+00         0.00000E+00
    0.71000E-07         0.16764E-19         0.00000E+00
    0.71000E-07         0.34925E-19         0.00000E+00
    0.71000E-07         0.29337E-19         0.00000E+00
    0.71000E-07         0.27241E-19         0.00000E+00
    0.71000E-07         0.18626E-19         0.00000E+00
    0.71000E-07         0.13039E-19         0.00000E+00
    0.71000E-07         0.13504E-19         0.00000E+00
    0.71000E-07         0.19791E-19         0.00000E+00
    0.71000E-07         0.18626E-19         0.00000E+00
    0.71000E-07         0.19558E-19         0.00000E+00
    0.71000E-07         0.13970E-20         0.00000E+00
    0.71000E-07         0.11642E-20         0.00000E+00
    0.71000E-07        -0.23283E-20         0.00000E+00
    0.71000E-07         0.65193E-20         0.00000E+00
    0.71000E-07         0.65193E-20         0.00000E+00
    0.71000E-07        -0.53551E-20         0.00000E+00
    0.71000E-07        -0.34925E-20         0.00000E+00
    0.71000E-07        -0.83819E-20         0.00000E+00
    0.71000E-07        -0.74506E-20         0.00000E+00
    0.71000E-07        -0.79162E-20         0.00000E+00
    0.71000E-07        -0.93132E-20         0.00000E+00
    0.71000E-07        -0.79162E-20         0.00000E+00
    0.71000E-07        -0.17695E-19         0.00000E+00
    0.71000E-07        -0.17695E-19         0.00000E+00
    0.71000E-07        -0.27008E-19         0.00000E+00
    0.71000E-07        -0.17229E-19         0.00000E+00
    0.71000E-07        -0.18859E-19         0.00000E+00
    0.71000E-07        -0.20023E-19         0.00000E+00
    0.71000E-07        -0.29337E-19         0.00000E+00
    0.71000E-07        -0.31199E-19         0.00000E+00
    0.71000E-07        -0.28638E-19         0.00000E+00
    0.71000E-07        -0.25379E-19         0.00000E+00
    0.71000E-07        -0.16298E-19         0.00000E+00
    0.71000E-07        -0.15134E-19         0.00000E+00
    0.71000E-07        -0.14435E-19         0.00000E+00
    0.71000E-07        -0.65193E-20         0.00000E+00
    0.71000E-07         0.88476E-20         0.00000E+00
    0.71000E-07         0.16764E-19         0.00000E+00
    0.71000E-07         0.25611E-19         0.00000E+00
    0.71000E-07         0.18626E-19         0.00000E+00
    0.71000E-07         0.93132E-20         0.00000E+00
    0.71000E-07         0.32596E-20         0.00000E+00
    0.71000E-07         0.93132E-21         0.00000E+00
    0.71000E-07         0.23283E-20         0.00000E+00
    0.71000E-07        -0.65193E-20         0.00000E+00
    0.71000E-07         0.18626E-20         0.00000E+00
    0.79261E-07         0.83819E-20         0.00000E+00
    0.79261E-07         0.95461E-20         0.00000E+00
    0.79261E-07         0.65193E-20         0.00000E+00
    0.79261E-07         0.46566E-20         0.00000E+00
    0.79261E-07         0.20023E-19         0.00000E+00
    0.79261E-07         0.28871E-19         0.00000E+00
    0.79261E-07         0.31199E-19         0.00000E+00
    0.79261E-07         0.26543E-19         0.00000E+00
    0.79261E-07         0.16764E-19         0.00000E+00
    0.79261E-07         0.12107E-19         0.00000E+00
    0.79261E-07         0.51223E-20         0.00000E+00
    0.79261E-07         0.15367E-19         0.00000E+00
    0.79261E-07         0.19092E-19         0.00000E+00
    0.79261E-07         0.16298E-19         0.00000E+00
    0.79261E-07         0.93132E-21         0.00000E+00
    0.79261E-07        -0.53551E-20         0.00000E+00
    0.79261E-07        -0.88476E-20         0.00000E+00
    0.79261E-07        -0.65193E-20         0.00000E+00
    0.79261E-07         0.18626E-20         0.00000E+00
    0.79261E-07        -0.74506E-20         0.00000E+00
    0.79261E-07        -0.93132E-20         0.00000E+00
    0.79261E-07        -0.10245E-19         0.00000E+00
    0.79261E-07        -0.46566E-20         0.00000E+00
    0.79261E-07         0.46566E-21         0.00000E+00
    0.79261E-07        -0.93132E-21         0.00000E+00
    0.79261E-07        -0.81491E-20         0.00000E+00
    0.79261E-07        -0.11642E-19         0.00000E+00
    0.79261E-07        -0.93132E-20         0.00000E+00
    0.79261E-07        -0.25146E-19         0.00000E+00
    0.79261E-07        -0.19558E-19         0.00000E+00
    0.79261E-07        -0.21188E-19         0.00000E+00
    0.79261E-07        -0.16764E-19         0.00000E+00
    0.79261E-07        -0.28405E-19         0.00000E+00
    0.79261E-07        -0.30268E-19         0.00000E+00
    0.79261E-07        -0.26776E-19         0.00000E+00
    0.79261E-07        -0.21420E-19         0.00000E+00
    0.79261E-07        -0.93132E-20         0.00000E+00
    0.79261E-07        -0.10943E-19         0.00000E+00
    0.79261E-07        -0.79162E-20         0.00000E+00
    0.79261E-07        -0.12573E-19         0.00000E+00
    0.79261E-07         0.74506E-20         0.00000E+00
    0.79261E-07         0.67521E-20         0.00000E+00
    0.79261E-07         0.10477E-19         0.00000E+00
    0.79261E-07         0.12107E-19         0.00000E+00
    0.79261E-07         0.69849E-20         0.00000E+00
    0.79261E-07         0.76834E-20         0.00000E+00
    0.79261E-07         0.65193E-20         0.00000E+00
    0.79261E-07         0.62864E-20         0.00000E+00
    0.79261E-07         0.13970E-20         0.00000E+00
    0.79261E-07         0.30268E-20         0.00000E+00
    0.88124E-07         0.55879E-20         0.00000E+00
    0.88124E-07         0.13737E-19         0.00000E+00
    0.88124E-07         0.12806E-19         0.00000E+00
    0.88124E-07         0.10012E-19         0.00000E+00
    0.88124E-07         0.23283E-19         0.00000E+00
    0.88124E-07         0.33295E-19         0.00000E+00
    0.88124E-07         0.39581E-19         0.00000E+00
    0.88124E-07         0.25146E-19         0.00000E+00
    0.88124E-07         0.26543E-19         0.00000E+00
    0.88124E-07         0.10477E-19         0.00000E+00
    0.88124E-07         0.76834E-20         0.00000E+00
    0.88124E-07         0.11642E-19         0.00000E+00
    0.88124E-07         0.95461E-20         0.00000E+00
    0.88124E-07         0.51223E-20         0.00000E+00
    0.88124E-07        -0.37253E-20         0.00000E+00
    0.88124E-07        -0.10710E-19         0.00000E+00
    0.88124E-07        -0.11409E-19         0.00000E+00
    0.88124E-07        -0.12107E-19         0.00000E+00
    0.88124E-07        -0.13970E-20         0.00000E+00
    0.88124E-07        -0.48894E-20         0.00000E+00
    0.88124E-07        -0.74506E-20         0.00000E+00
    0.88124E-07        -0.51223E-20         0.00000E+00
    0.88124E-07        -0.53551E-20         0.00000E+00
    0.88124E-07        -0.69849E-21         0.00000E+00
    0.88124E-07         0.13970E-20         0.00000E+00
    0.88124E-07        -0.11642E-20         0.00000E+00
    0.88124E-07        -0.34925E-20         0.00000E+00
    0.88124E-07        -0.23283E-20         0.00000E+00
    0.88124E-07        -0.97789E-20         0.00000E+00
    0.88124E-07        -0.83819E-20         0.00000E+00
    0.88124E-07        -0.15832E-19         0.00000E+00
    0.88124E-07        -0.14435E-19         0.00000E+00
    0.88124E-07        -0.22817E-19         0.00000E+00
    0.88124E-07        -0.32131E-19         0.00000E+00
    0.88124E-07        -0.27474E-19         0.00000E+00
    0.88124E-07        -0.15832E-19         0.00000E+00
    0.88124E-07        -0.79162E-20         0.00000E+00
    0.88124E-07        -0.67521E-20         0.00000E+00
    0.88124E-07        -0.17229E-19         0.00000E+00
    0.88124E-07        -0.14668E-19         0.00000E+00
    0.88124E-07        -0.93132E-21         0.00000E+00
    0.88124E-07         0.55879E-20         0.00000E+00
    0.88124E-07         0.74506E-20         0.00000E+00
    0.88124E-07         0.58208E-20         0.00000E+00
    0.88124E-07         0.55879E-20         0.00000E+00
    0.88124E-07         0.97789E-20         0.00000E+00
    0.88124E-07         0.46566E-20         0.00000E+00
    0.88124E-07         0.37253E-20         0.00000E+00
    0.88124E-07         0.39581E-20         0.00000E+00
    0.88124E-07         0.18626E-20         0.00000E+00
    0.97554E-07         0.13970E-20         0.00000E+00
    0.97554E-07         0.13970E-19         0.00000E+00
    0.97554E-07         0.10245E-19         0.00000E+00
    0.97554E-07         0.14203E-19         0.00000E+00
    0.97554E-07         0.23749E-19         0.00000E+00
    0.97554E-07         0.38184E-19         0.00000E+00
    0.97554E-07         0.44238E-19         0.00000E+00
    0.97554E-07         0.32596E-19         0.00000E+00
    0.97554E-07         0.20489E-19         0.00000E+00
    0.97554E-07         0.10710E-19         0.00000E+00
    0.97554E-07         0.83819E-20         0.00000E+00
    0.97554E-07         0.13271E-19         0.00000E+00
    0.97554E-07         0.11176E-19         0.00000E+00
    0.97554E-07         0.69849E-21         0.00000E+00
    0.97554E-07        -0.10245E-19         0.00000E+00
    0.97554E-07        -0.90804E-20         0.00000E+00
    0.97554E-07        -0.48894E-20         0.00000E+00
    0.97554E-07        -0.76834E-20         0.00000E+00
    0.97554E-07        -0.76834E-20         0.00000E+00
    0.97554E-07        -0.93132E-20         0.00000E+00
    0.97554E-07        -0.32596E-20         0.00000E+00
    0.97554E-07         0.25611E-20         0.00000E+00
    0.97554E-07        -0.55879E-20         0.00000E+00
    0.97554E-07        -0.41910E-20         0.00000E+00
    0.97554E-07        -0.46566E-21         0.00000E+00
    0.97554E-07        -0.67521E-20         0.00000E+00
    0.97554E-07        -0.34925E-20         0.00000E+00
    0.97554E-07        -0.69849E-21         0.00000E+00
    0.97554E-07        -0.93132E-20         0.00000E+00
    0.97554E-07        -0.20955E-20         0.00000E+00
    0.97554E-07        -0.46566E-20         0.00000E+00
    0.97554E-07        -0.90804E-20         0.00000E+00
    0.97554E-07        -0.18161E-19         0.00000E+00
    0.97554E-07        -0.28638E-19         0.00000E+00
    0.97554E-07        -0.30966E-19         0.00000E+00
    0.97554E-07        -0.17229E-19         0.00000E+00
    0.97554E-07        -0.88476E-20         0.00000E+00
    0.97554E-07        -0.10245E-19         0.00000E+00
    0.97554E-07        -0.15367E-19         0.00000E+00
    0.97554E-07        -0.13039E-19         0.00000E+00
    0.97554E-07         0.11642E-20         0.00000E+00
    0.97554E-07         0.10245E-19         0.00000E+00
    0.97554E-07         0.14901E-19         0.00000E+00
    0.97554E-07         0.10477E-19         0.00000E+00
    0.97554E-07         0.41910E-20         0.00000E+00
    0.97554E-07         0.18626E-20         0.00000E+00
    0.97554E-07        -0.32596E-20         0.00000E+00
    0.97554E-07        -0.46566E-21         0.00000E+00
    0.97554E-07        -0.46566E-21         0.00000E+00
    0.97554E-07         0.18626E-20         0.00000E+00
    0.10749E-06         0.41910E-20         0.00000E+00
    0.10749E-06         0.74506E-20         0.00000E+00
    0.10749E-06         0.10710E-19         0.00000E+00
    0.10749E-06         0.16298E-19         0.00000E+00
    0.10749E-06         0.23516E-19         0.00000E+00
    0.10749E-06         0.37486E-19         0.00000E+00
    0.10749E-06         0.39581E-19         0.00000E+00
    0.10749E-06         0.33528E-19         0.00000E+00
    0.10749E-06         0.15134E-19         0.00000E+00
    0.10749E-06         0.79162E-20         0.00000E+00
    0.10749E-06        -0.46566E-21         0.00000E+00
    0.10749E-06         0.65193E-20         0.00000E+00
    0.10749E-06         0.16531E-19         0.00000E+00
    0.10749E-06         0.11176E-19         0.00000E+00
    0.10749E-06        -0.37253E-20         0.00000E+00
    0.10749E-06        -0.11642E-19         0.00000E+00
    0.10749E-06        -0.76834E-20         0.00000E+00
    0.10749E-06        -0.16764E-19         0.00000E+00
    0.10749E-06        -0.12573E-19         0.00000E+00
    0.10749E-06        -0.12107E-19         0.00000E+00
    0.10749E-06        -0.97789E-20         0.00000E+00
    0.10749E-06        -0.30268E-20         0.00000E+00
    0.10749E-06        -0.46566E-21         0.00000E+00
    0.10749E-06         0.79162E-20         0.00000E+00
    0.10749E-06        -0.23283E-21         0.00000E+00
    0.10749E-06        -0.13504E-19         0.00000E+00
    0.10749E-06        -0.10477E-19         0.00000E+00
    0.10749E-06        -0.74506E-20         0.00000E+00
    0.10749E-06        -0.21420E-19         0.00000E+00
    0.10749E-06        -0.32596E-20         0.00000E+00
    0.10749E-06        -0.65193E-20         0.00000E+00
    0.10749E-06         0.23283E-21         0.00000E+00
    0.10749E-06        -0.14901E-19         0.00000E+00
    0.10749E-06        -0.23283E-19         0.00000E+00
    0.10749E-06        -0.24214E-19         0.00000E+00
    0.10749E-06        -0.22817E-19         0.00000E+00
    0.10749E-06        -0.13271E-19         0.00000E+00
    0.10749E-06        -0.93132E-20         0.00000E+00
    0.10749E-06        -0.34925E-20         0.00000E+00
    0.10749E-06        -0.10943E-19         0.00000E+00
    0.10749E-06         0.67521E-20         0.00000E+00
    0.10749E-06         0.11642E-19         0.00000E+00
    0.10749E-06         0.11176E-19         0.00000E+00
    0.10749E-06         0.11642E-19         0.00000E+00
    0.10749E-06         0.18626E-20         0.00000E+00
    0.10749E-06         0.46566E-21         0.00000E+00
    0.10749E-06         0.27940E-20         0.00000E+00
    0.10749E-06         0.65193E-20         0.00000E+00
    0.10749E-06         0.46566E-21         0.00000E+00
    0.10749E-06        -0.30268E-20         0.00000E+00
    0.11786E-06         0.62864E-20         0.00000E+00
    0.11786E-06         0.95461E-20         0.00000E+00
    0.11786E-06         0.86147E-20         0.00000E+00
    0.11786E-06         0.15832E-19         0.00000E+00
    0.11786E-06         0.18626E-19         0.00000E+00
    0.11786E-06         0.31432E-19         0.00000E+00
    0.11786E-06         0.25146E-19         0.00000E+00
    0.11786E-06         0.20955E-19         0.00000E+00
    0.11786E-06         0.17229E-19         0.00000E+00
    0.11786E-06         0.53551E-20         0.00000E+00
    0.11786E-06         0.13970E-20         0.00000E+00
    0.11786E-06         0.48894E-20         0.00000E+00
    0.11786E-06         0.66357E-20         0.00000E+00
    0.11786E-06         0.62864E-20         0.00000E+00
    0.11786E-06        -0.69849E-20         0.00000E+00
    0.11786E-06        -0.79162E-20         0.00000E+00
    0.11786E-06        -0.10594E-19         0.00000E+00
    0.11786E-06        -0.18743E-19         0.00000E+00
    0.11786E-06        -0.11409E-19         0.00000E+00
    0.11786E-06        -0.14435E-19         0.00000E+00
    0.11786E-06        -0.39581E-20         0.00000E+00
    0.11786E-06        -0.32596E-20         0.00000E+00
    0.11786E-06        -0.34925E-21         0.00000E+00
    0.11786E-06         0.96625E-20         0.00000E+00
    0.11786E-06         0.75670E-20         0.00000E+00
    0.11786E-06        -0.52387E-20         0.00000E+00
    0.11786E-06        -0.64028E-20         0.00000E+00
    0.11786E-06        -0.97789E-20         0.00000E+00
    0.11786E-06        -0.24913E-19         0.00000E+00
    0.11786E-06        -0.64028E-20         0.00000E+00
    0.11786E-06        -0.11409E-19         0.00000E+00
    0.11786E-06        -0.20955E-20         0.00000E+00
    0.11786E-06        -0.20955E-19         0.00000E+00
    0.11786E-06        -0.28289E-19         0.00000E+00
    0.11786E-06        -0.21071E-19         0.00000E+00
    0.11786E-06        -0.13504E-19         0.00000E+00
    0.11786E-06        -0.12340E-19         0.00000E+00
    0.11786E-06        -0.46566E-20         0.00000E+00
    0.11786E-06        -0.12573E-19         0.00000E+00
    0.11786E-06        -0.10943E-19         0.00000E+00
    0.11786E-06         0.23283E-20         0.00000E+00
    0.11786E-06         0.15483E-19         0.00000E+00
    0.11786E-06         0.11874E-19         0.00000E+00
    0.11786E-06         0.10594E-19         0.00000E+00
    0.11786E-06         0.72177E-20         0.00000E+00
    0.11786E-06         0.57044E-20         0.00000E+00
    0.11786E-06         0.55879E-20         0.00000E+00
    0.11786E-06         0.32596E-20         0.00000E+00
    0.11786E-06        -0.11642E-21         0.00000E+00
    0.11786E-06        -0.44238E-20         0.00000E+00
    0.12854E-06         0.60536E-20         0.00000E+00
    0.12854E-06         0.10477E-19         0.00000E+00
    0.12854E-06         0.53551E-20         0.00000E+00
    0.12854E-06         0.10710E-19         0.00000E+00
    0.12854E-06         0.15018E-19         0.00000E+00
    0.12854E-06         0.24564E-19         0.00000E+00
    0.12854E-06         0.19791E-19         0.00000E+00
    0.12854E-06         0.13504E-19         0.00000E+00
    0.12854E-06         0.10943E-19         0.00000E+00
    0.12854E-06         0.46566E-21         0.00000E+00
    0.12854E-06         0.46566E-20         0.00000E+00
    0.12854E-06         0.12456E-19         0.00000E+00
    0.12854E-06         0.95461E-20         0.00000E+00
    0.12854E-06         0.39581E-20         0.00000E+00
    0.12854E-06        -0.65193E-20         0.00000E+00
    0.12854E-06        -0.46566E-20         0.00000E+00
    0.12854E-06        -0.91968E-20         0.00000E+00
    0.12854E-06        -0.12224E-19         0.00000E+00
    0.12854E-06        -0.46566E-21         0.00000E+00
    0.12854E-06        -0.67521E-20         0.00000E+00
    0.12854E-06         0.46566E-21         0.00000E+00
    0.12854E-06         0.25611E-20         0.00000E+00
    0.12854E-06         0.12806E-20         0.00000E+00
    0.12854E-06         0.41910E-20         0.00000E+00
    0.12854E-06         0.46566E-20         0.00000E+00
    0.12854E-06         0.11642E-21         0.00000E+00
    0.12854E-06        -0.68685E-20         0.00000E+00
    0.12854E-06        -0.51223E-20         0.00000E+00
    0.12854E-06        -0.16065E-19         0.00000E+00
    0.12854E-06        -0.13504E-19         0.00000E+00
    0.12854E-06        -0.15832E-19         0.00000E+00
    0.12854E-06        -0.14668E-19         0.00000E+00
    0.12854E-06        -0.26543E-19         0.00000E+00
    0.12854E-06        -0.27241E-19         0.00000E+00
    0.12854E-06        -0.26310E-19         0.00000E+00
    0.12854E-06        -0.13271E-19         0.00000E+00
    0.12854E-06        -0.11525E-19         0.00000E+00
    0.12854E-06        -0.58208E-20         0.00000E+00
    0.12854E-06        -0.75670E-20         0.00000E+00
    0.12854E-06        -0.20722E-19         0.00000E+00
    0.12854E-06        -0.67521E-20         0.00000E+00
    0.12854E-06         0.13388E-19         0.00000E+00
    0.12854E-06         0.13271E-19         0.00000E+00
    0.12854E-06         0.10477E-19         0.00000E+00
    0.12854E-06         0.83819E-20         0.00000E+00
    0.12854E-06         0.81491E-20         0.00000E+00
    0.12854E-06         0.30268E-20         0.00000E+00
    0.12854E-06         0.95461E-20         0.00000E+00
    0.12854E-06         0.25611E-20         0.00000E+00
    0.12854E-06         0.24447E-20         0.00000E+00
    0.13940E-06         0.48894E-20         0.00000E+00
    0.13940E-06         0.91968E-20         0.00000E+00
    0.13940E-06         0.45402E-20         0.00000E+00
    0.13940E-06         0.32596E-20         0.00000E+00
    0.13940E-06         0.13853E-19         0.00000E+00
    0.13940E-06         0.25495E-19         0.00000E+00
    0.13940E-06         0.21653E-19         0.00000E+00
    0.13940E-06         0.10361E-19         0.00000E+00
    0.13940E-06         0.11874E-19         0.00000E+00
    0.13940E-06         0.50059E-20         0.00000E+00
    0.13940E-06         0.72177E-20         0.00000E+00
    0.13940E-06         0.12340E-19         0.00000E+00
    0.13940E-06         0.16531E-19         0.00000E+00
    0.13940E-06         0.13970E-19         0.00000E+00
    0.13940E-06         0.23283E-21         0.00000E+00
    0.13940E-06        -0.40745E-20         0.00000E+00
    0.13940E-06        -0.95461E-20         0.00000E+00
    0.13940E-06        -0.10827E-19         0.00000E+00
    0.13940E-06        -0.34925E-21         0.00000E+00
    0.13940E-06        -0.39581E-20         0.00000E+00
    0.13940E-06        -0.29104E-20         0.00000E+00
    0.13940E-06        -0.25611E-20         0.00000E+00
    0.13940E-06         0.11642E-20         0.00000E+00
    0.13940E-06         0.93132E-21         0.00000E+00
    0.13940E-06        -0.39581E-20         0.00000E+00
    0.13940E-06        -0.89640E-20         0.00000E+00
    0.13940E-06        -0.12689E-19         0.00000E+00
    0.13940E-06        -0.81491E-20         0.00000E+00
    0.13940E-06        -0.15600E-19         0.00000E+00
    0.13940E-06        -0.10710E-19         0.00000E+00
    0.13940E-06        -0.18044E-19         0.00000E+00
    0.13940E-06        -0.14086E-19         0.00000E+00
    0.13940E-06        -0.22934E-19         0.00000E+00
    0.13940E-06        -0.22934E-19         0.00000E+00
    0.13940E-06        -0.26892E-19         0.00000E+00
    0.13940E-06        -0.16531E-19         0.00000E+00
    0.13940E-06        -0.12922E-19         0.00000E+00
    0.13940E-06        -0.12806E-19         0.00000E+00
    0.13940E-06        -0.76834E-20         0.00000E+00
    0.13940E-06        -0.12224E-19         0.00000E+00
    0.13940E-06         0.22119E-20         0.00000E+00
    0.13940E-06         0.14901E-19         0.00000E+00
    0.13940E-06         0.11758E-19         0.00000E+00
    0.13940E-06         0.10012E-19         0.00000E+00
    0.13940E-06         0.46566E-21         0.00000E+00
    0.13940E-06         0.76834E-20         0.00000E+00
    0.13940E-06        -0.20955E-20         0.00000E+00
    0.13940E-06         0.93132E-20         0.00000E+00
    0.13940E-06        -0.69849E-21         0.00000E+00
    0.13940E-06         0.36089E-20         0.00000E+00
    0.15026E-06         0.23283E-20         0.00000E+00
    0.15026E-06         0.87311E-20         0.00000E+00
    0.15026E-06         0.34925E-20         0.00000E+00
    0.15026E-06         0.50059E-20         0.00000E+00
    0.15026E-06         0.10361E-19         0.00000E+00
    0.15026E-06         0.23516E-19         0.00000E+00
    0.15026E-06         0.18044E-19         0.00000E+00
    0.15026E-06         0.17928E-19         0.00000E+00
    0.15026E-06         0.22585E-19         0.00000E+00
    0.15026E-06         0.13504E-19         0.00000E+00
    0.15026E-06         0.14901E-19         0.00000E+00
    0.15026E-06         0.10012E-19         0.00000E+00
    0.15026E-06         0.14668E-19         0.00000E+00
    0.15026E-06         0.12806E-19         0.00000E+00
    0.15026E-06         0.66357E-20         0.00000E+00
    0.15026E-06         0.13970E-20         0.00000E+00
    0.15026E-06        -0.41910E-20         0.00000E+00
    0.15026E-06        -0.93132E-20         0.00000E+00
    0.15026E-06        -0.93132E-20         0.00000E+00
    0.15026E-06        -0.12806E-19         0.00000E+00
    0.15026E-06        -0.94296E-20         0.00000E+00
    0.15026E-06        -0.10710E-19         0.00000E+00
    0.15026E-06        -0.44238E-20         0.00000E+00
    0.15026E-06        -0.93132E-20         0.00000E+00
    0.15026E-06        -0.27940E-20         0.00000E+00
    0.15026E-06        -0.93132E-20         0.00000E+00
    0.15026E-06        -0.11874E-19         0.00000E+00
    0.15026E-06        -0.73342E-20         0.00000E+00
    0.15026E-06        -0.19325E-19         0.00000E+00
    0.15026E-06        -0.95461E-20         0.00000E+00
    0.15026E-06        -0.10943E-19         0.00000E+00
    0.15026E-06        -0.10710E-19         0.00000E+00
    0.15026E-06        -0.21304E-19         0.00000E+00
    0.15026E-06        -0.27241E-19         0.00000E+00
    0.15026E-06        -0.26543E-19         0.00000E+00
    0.15026E-06        -0.24447E-19         0.00000E+00
    0.15026E-06        -0.11758E-19         0.00000E+00
    0.15026E-06        -0.10827E-19         0.00000E+00
    0.15026E-06        -0.13621E-19         0.00000E+00
    0.15026E-06        -0.87311E-20         0.00000E+00
    0.15026E-06         0.76834E-20         0.00000E+00
    0.15026E-06         0.13504E-19         0.00000E+00
    0.15026E-06         0.13271E-19         0.00000E+00
    0.15026E-06         0.13970E-19         0.00000E+00
    0.15026E-06         0.38417E-20         0.00000E+00
    0.15026E-06         0.65193E-20         0.00000E+00
    0.15026E-06        -0.69849E-21         0.00000E+00
    0.15026E-06         0.34925E-20         0.00000E+00
    0.15026E-06        -0.81491E-20         0.00000E+00
    0.15026E-06        -0.33760E-20         0.00000E+00
    0.16090E-06         0.62864E-20         0.00000E+00
    0.16090E-06         0.81491E-20         0.00000E+00
    0.16090E-06         0.41910E-20         0.00000E+00
    0.16090E-06         0.69849E-20         0.00000E+00
    0.16090E-06         0.95461E-20         0.00000E+00
    0.16090E-06         0.21770E-19         0.00000E+00
    0.16090E-06         0.21420E-19         0.00000E+00
    0.16090E-06         0.18859E-19         0.00000E+00
    0.16090E-06         0.19441E-19         0.00000E+00
    0.16090E-06         0.79162E-20         0.00000E+00
    0.16090E-06         0.91968E-20         0.00000E+00
    0.16090E-06         0.11642E-19         0.00000E+00
    0.16090E-06         0.14901E-19         0.00000E+00
    0.16090E-06         0.10710E-19         0.00000E+00
    0.16090E-06         0.20955E-20         0.00000E+00
    0.16090E-06        -0.11642E-20         0.00000E+00
    0.16090E-06         0.30268E-20         0.00000E+00
    0.16090E-06        -0.44238E-20         0.00000E+00
    0.16090E-06        -0.37253E-20         0.00000E+00
    0.16090E-06        -0.12107E-19         0.00000E+00
    0.16090E-06        -0.58208E-20         0.00000E+00
    0.16090E-06        -0.10943E-19         0.00000E+00
    0.16090E-06        -0.11176E-19         0.00000E+00
    0.16090E-06        -0.12573E-19         0.00000E+00
    0.16090E-06        -0.12689E-19         0.00000E+00
    0.16090E-06        -0.10943E-19         0.00000E+00
    0.16090E-06        -0.60536E-20         0.00000E+00
    0.16090E-06        -0.13039E-19         0.00000E+00
    0.16090E-06        -0.21653E-19         0.00000E+00
    0.16090E-06        -0.16764E-19         0.00000E+00
    0.16090E-06        -0.13039E-19         0.00000E+00
    0.16090E-06        -0.10012E-19         0.00000E+00
    0.16090E-06        -0.21653E-19         0.00000E+00
    0.16090E-06        -0.24913E-19         0.00000E+00
    0.16090E-06        -0.25146E-19         0.00000E+00
    0.16090E-06        -0.22002E-19         0.00000E+00
    0.16090E-06        -0.11874E-19         0.00000E+00
    0.16090E-06        -0.69849E-20         0.00000E+00
    0.16090E-06        -0.91968E-20         0.00000E+00
    0.16090E-06        -0.16065E-19         0.00000E+00
    0.16090E-06         0.27940E-20         0.00000E+00
    0.16090E-06         0.46566E-20         0.00000E+00
    0.16090E-06         0.81491E-20         0.00000E+00
    0.16090E-06         0.83819E-20         0.00000E+00
    0.16090E-06         0.38417E-20         0.00000E+00
    0.16090E-06         0.16298E-20         0.00000E+00
    0.16090E-06         0.16298E-20         0.00000E+00
    0.16090E-06         0.62864E-20         0.00000E+00
    0.16090E-06        -0.34925E-20         0.00000E+00
    0.16090E-06        -0.11642E-20         0.00000E+00
    0.17111E-06         0.44238E-20         0.00000E+00
    0.17111E-06         0.95461E-20         0.00000E+00
    0.17111E-06        -0.13970E-20         0.00000E+00
    0.17111E-06         0.48894E-20         0.00000E+00
    0.17111E-06         0.90804E-20         0.00000E+00
    0.17111E-06         0.20955E-19         0.00000E+00
    0.17111E-06         0.22119E-19         0.00000E+00
    0.17111E-06         0.17928E-19         0.00000E+00
    0.17111E-06         0.86147E-20         0.00000E+00
    0.17111E-06         0.12107E-19         0.00000E+00
    0.17111E-06         0.10245E-19         0.00000E+00
    0.17111E-06         0.12573E-19         0.00000E+00
    0.17111E-06         0.98953E-20         0.00000E+00
    0.17111E-06         0.60536E-20         0.00000E+00
    0.17111E-06        -0.66357E-20         0.00000E+00
    0.17111E-06        -0.44238E-20         0.00000E+00
    0.17111E-06        -0.48894E-20         0.00000E+00
    0.17111E-06        -0.10245E-19         0.00000E+00
    0.17111E-06        -0.11642E-20         0.00000E+00
    0.17111E-06        -0.81491E-20         0.00000E+00
    0.17111E-06        -0.88476E-20         0.00000E+00
    0.17111E-06        -0.72177E-20         0.00000E+00
    0.17111E-06        -0.53551E-20         0.00000E+00
    0.17111E-06        -0.93132E-20         0.00000E+00
    0.17111E-06        -0.11874E-19         0.00000E+00
    0.17111E-06        -0.14668E-19         0.00000E+00
    0.17111E-06        -0.11409E-19         0.00000E+00
    0.17111E-06        -0.11176E-19         0.00000E+00
    0.17111E-06        -0.22352E-19         0.00000E+00
    0.17111E-06        -0.15483E-19         0.00000E+00
    0.17111E-06        -0.17462E-19         0.00000E+00
    0.17111E-06        -0.98953E-20         0.00000E+00
    0.17111E-06        -0.18044E-19         0.00000E+00
    0.17111E-06        -0.21537E-19         0.00000E+00
    0.17111E-06        -0.19325E-19         0.00000E+00
    0.17111E-06        -0.17229E-19         0.00000E+00
    0.17111E-06        -0.14435E-19         0.00000E+00
    0.17111E-06        -0.98953E-20         0.00000E+00
    0.17111E-06        -0.14203E-19         0.00000E+00
    0.17111E-06        -0.16182E-19         0.00000E+00
    0.17111E-06        -0.37253E-20         0.00000E+00
    0.17111E-06         0.20955E-20         0.00000E+00
    0.17111E-06         0.71013E-20         0.00000E+00
    0.17111E-06         0.58208E-20         0.00000E+00
    0.17111E-06        -0.46566E-21         0.00000E+00
    0.17111E-06        -0.23283E-21         0.00000E+00
    0.17111E-06         0.13970E-20         0.00000E+00
    0.17111E-06         0.12806E-20         0.00000E+00
    0.17111E-06        -0.13970E-20         0.00000E+00
    0.17111E-06         0.17462E-20         0.00000E+00
    0.18061E-06         0.55879E-20         0.00000E+00
    0.18061E-06         0.53551E-20         0.00000E+00
    0.18061E-06        -0.93132E-21         0.00000E+00
    0.18061E-06         0.30268E-20         0.00000E+00
    0.18061E-06         0.86147E-20         0.00000E+00
    0.18061E-06         0.19092E-19         0.00000E+00
    0.18061E-06         0.17928E-19         0.00000E+00
    0.18061E-06         0.14435E-19         0.00000E+00
    0.18061E-06         0.10245E-19         0.00000E+00
    0.18061E-06         0.46566E-20         0.00000E+00
    0.18061E-06         0.83819E-20         0.00000E+00
    0.18061E-06         0.72177E-20         0.00000E+00
    0.18061E-06         0.20955E-20         0.00000E+00
    0.18061E-06        -0.45402E-20         0.00000E+00
    0.18061E-06        -0.30268E-20         0.00000E+00
    0.18061E-06        -0.10477E-19         0.00000E+00
    0.18061E-06        -0.13039E-19         0.00000E+00
    0.18061E-06        -0.10594E-19         0.00000E+00
    0.18061E-06        -0.67521E-20         0.00000E+00
    0.18061E-06        -0.10943E-19         0.00000E+00
    0.18061E-06        -0.12340E-19         0.00000E+00
    0.18061E-06        -0.11642E-20         0.00000E+00
    0.18061E-06        -0.34925E-20         0.00000E+00
    0.18061E-06        -0.11642E-20         0.00000E+00
    0.18061E-06        -0.11642E-20         0.00000E+00
    0.18061E-06        -0.52387E-20         0.00000E+00
    0.18061E-06        -0.10477E-19         0.00000E+00
    0.18061E-06        -0.41910E-20         0.00000E+00
    0.18061E-06        -0.15134E-19         0.00000E+00
    0.18061E-06        -0.13504E-19         0.00000E+00
    0.18061E-06        -0.13039E-19         0.00000E+00
    0.18061E-06        -0.14203E-19         0.00000E+00
    0.18061E-06        -0.22585E-19         0.00000E+00
    0.18061E-06        -0.31665E-19         0.00000E+00
    0.18061E-06        -0.25146E-19         0.00000E+00
    0.18061E-06        -0.20023E-19         0.00000E+00
    0.18061E-06        -0.16997E-19         0.00000E+00
    0.18061E-06        -0.94296E-20         0.00000E+00
    0.18061E-06        -0.14435E-19         0.00000E+00
    0.18061E-06        -0.14203E-19         0.00000E+00
    0.18061E-06        -0.44238E-20         0.00000E+00
    0.18061E-06         0.62864E-20         0.00000E+00
    0.18061E-06         0.57044E-20         0.00000E+00
    0.18061E-06         0.74506E-20         0.00000E+00
    0.18061E-06        -0.11642E-20         0.00000E+00
    0.18061E-06        -0.15134E-20         0.00000E+00
    0.18061E-06        -0.11642E-20         0.00000E+00
    0.18061E-06        -0.93132E-21         0.00000E+00
    0.18061E-06        -0.11642E-20         0.00000E+00
    0.18061E-06        -0.11642E-20         0.00000E+00
    0.18912E-06         0.27940E-20         0.00000E+00
    0.18912E-06         0.67521E-20         0.00000E+00
    0.18912E-06         0.19791E-20         0.00000E+00
    0.18912E-06         0.34925E-20         0.00000E+00
    0.18912E-06         0.88476E-20         0.00000E+00
    0.18912E-06         0.24214E-19         0.00000E+00
    0.18912E-06         0.20606E-19         0.00000E+00
    0.18912E-06         0.15832E-19         0.00000E+00
    0.18912E-06         0.12573E-19         0.00000E+00
    0.18912E-06         0.22119E-20         0.00000E+00
    0.18912E-06         0.23283E-20         0.00000E+00
    0.18912E-06         0.73342E-20         0.00000E+00
    0.18912E-06         0.62864E-20         0.00000E+00
    0.18912E-06        -0.69849E-21         0.00000E+00
    0.18912E-06        -0.97789E-20         0.00000E+00
    0.18912E-06        -0.15949E-19         0.00000E+00
    0.18912E-06        -0.14203E-19         0.00000E+00
    0.18912E-06        -0.14435E-19         0.00000E+00
    0.18912E-06        -0.67521E-20         0.00000E+00
    0.18912E-06        -0.95461E-20         0.00000E+00
    0.18912E-06        -0.57044E-20         0.00000E+00
    0.18912E-06         0.69849E-21         0.00000E+00
    0.18912E-06        -0.39581E-20         0.00000E+00
    0.18912E-06         0.25611E-20         0.00000E+00
    0.18912E-06         0.19791E-20         0.00000E+00
    0.18912E-06        -0.46566E-21         0.00000E+00
    0.18912E-06        -0.25611E-20         0.00000E+00
    0.18912E-06        -0.34925E-20         0.00000E+00
    0.18912E-06        -0.19791E-19         0.00000E+00
    0.18912E-06        -0.18161E-19         0.00000E+00
    0.18912E-06        -0.14901E-19         0.00000E+00
    0.18912E-06        -0.19558E-19         0.00000E+00
    0.18912E-06        -0.27474E-19         0.00000E+00
    0.18912E-06        -0.30850E-19         0.00000E+00
    0.18912E-06        -0.28405E-19         0.00000E+00
    0.18912E-06        -0.20140E-19         0.00000E+00
    0.18912E-06        -0.14203E-19         0.00000E+00
    0.18912E-06        -0.12107E-19         0.00000E+00
    0.18912E-06        -0.88476E-20         0.00000E+00
    0.18912E-06        -0.12806E-19         0.00000E+00
    0.18912E-06        -0.13970E-20         0.00000E+00
    0.18912E-06         0.54715E-20         0.00000E+00
    0.18912E-06         0.38417E-20         0.00000E+00
    0.18912E-06         0.62864E-20         0.00000E+00
    0.18912E-06         0.23283E-21         0.00000E+00
    0.18912E-06         0.18626E-20         0.00000E+00
    0.18912E-06        -0.16298E-20         0.00000E+00
    0.18912E-06         0.81491E-21         0.00000E+00
    0.18912E-06        -0.12806E-20         0.00000E+00
    0.18912E-06         0.69849E-21         0.00000E+00
    0.19637E-06         0.25611E-20         0.00000E+00
    0.19637E-06         0.62864E-20         0.00000E+00
    0.19637E-06         0.25611E-20         0.00000E+00
    0.19637E-06         0.23283E-21         0.00000E+00
    0.19637E-06         0.91968E-20         0.00000E+00
    0.19637E-06         0.23050E-19         0.00000E+00
    0.19637E-06         0.19325E-19         0.00000E+00
    0.19637E-06         0.14435E-19         0.00000E+00
    0.19637E-06         0.10245E-19         0.00000E+00
    0.19637E-06         0.27940E-20         0.00000E+00
    0.19637E-06         0.51223E-20         0.00000E+00
    0.19637E-06         0.86147E-20         0.00000E+00
    0.19637E-06         0.10245E-19         0.00000E+00
    0.19637E-06         0.83819E-20         0.00000E+00
    0.19637E-06        -0.30268E-20         0.00000E+00
    0.19637E-06        -0.67521E-20         0.00000E+00
    0.19637E-06        -0.88476E-20         0.00000E+00
    0.19637E-06        -0.12573E-19         0.00000E+00
    0.19637E-06        -0.44238E-20         0.00000E+00
    0.19637E-06        -0.41910E-20         0.00000E+00
    0.19637E-06        -0.74506E-20         0.00000E+00
    0.19637E-06        -0.46566E-20         0.00000E+00
    0.19637E-06        -0.53551E-20         0.00000E+00
    0.19637E-06        -0.46566E-21         0.00000E+00
    0.19637E-06         0.93132E-21         0.00000E+00
    0.19637E-06        -0.34925E-20         0.00000E+00
    0.19637E-06        -0.53551E-20         0.00000E+00
    0.19637E-06        -0.39581E-20         0.00000E+00
    0.19637E-06        -0.20722E-19         0.00000E+00
    0.19637E-06        -0.15367E-19         0.00000E+00
    0.19637E-06        -0.15832E-19         0.00000E+00
    0.19637E-06        -0.14435E-19         0.00000E+00
    0.19637E-06        -0.23749E-19         0.00000E+00
    0.19637E-06        -0.22817E-19         0.00000E+00
    0.19637E-06        -0.20955E-19         0.00000E+00
    0.19637E-06        -0.19092E-19         0.00000E+00
    0.19637E-06        -0.13737E-19         0.00000E+00
    0.19637E-06        -0.11642E-19         0.00000E+00
    0.19637E-06        -0.45402E-20         0.00000E+00
    0.19637E-06        -0.89640E-20         0.00000E+00
    0.19637E-06        -0.15134E-20         0.00000E+00
    0.19637E-06         0.23283E-21         0.00000E+00
    0.19637E-06         0.58208E-20         0.00000E+00
    0.19637E-06         0.18626E-20         0.00000E+00
    0.19637E-06        -0.41910E-20         0.00000E+00
    0.19637E-06         0.11642E-20         0.00000E+00
    0.19637E-06         0.93132E-21         0.00000E+00
    0.19637E-06         0.18626E-20         0.00000E+00
    0.19637E-06        -0.41910E-20         0.00000E+00
    0.19637E-06         0.23283E-20         0.00000E+00
    0.20209E-06         0.34925E-20         0.00000E+00
    0.20209E-06         0.37253E-20         0.00000E+00
    0.20209E-06         0.46566E-21         0.00000E+00
    0.20209E-06         0.23283E-21         0.00000E+00
    0.20209E-06         0.11176E-19         0.00000E+00
    0.20209E-06         0.18394E-19         0.00000E+00
    0.20209E-06         0.14901E-19         0.00000E+00
    0.20209E-06         0.10477E-19         0.00000E+00
    0.20209E-06         0.90804E-20         0.00000E+00
    0.20209E-06         0.55879E-20         0.00000E+00
    0.20209E-06         0.59372E-20         0.00000E+00
    0.20209E-06         0.52387E-20         0.00000E+00
    0.20209E-06         0.72177E-20         0.00000E+00
    0.20209E-06         0.58208E-20         0.00000E+00
    0.20209E-06        -0.16298E-20         0.00000E+00
    0.20209E-06        -0.40745E-20         0.00000E+00
    0.20209E-06        -0.13970E-20         0.00000E+00
    0.20209E-06        -0.53551E-20         0.00000E+00
    0.20209E-06        -0.46566E-20         0.00000E+00
    0.20209E-06        -0.39581E-20         0.00000E+00
    0.20209E-06        -0.62864E-20         0.00000E+00
    0.20209E-06        -0.34925E-20         0.00000E+00
    0.20209E-06        -0.48894E-20         0.00000E+00
    0.20209E-06        -0.13970E-20         0.00000E+00
    0.20209E-06         0.93132E-21         0.00000E+00
    0.20209E-06        -0.25611E-20         0.00000E+00
    0.20209E-06        -0.76834E-20         0.00000E+00
    0.20209E-06        -0.58208E-20         0.00000E+00
    0.20209E-06        -0.13039E-19         0.00000E+00
    0.20209E-06        -0.86147E-20         0.00000E+00
    0.20209E-06        -0.10710E-19         0.00000E+00
    0.20209E-06        -0.14319E-19         0.00000E+00
    0.20209E-06        -0.22585E-19         0.00000E+00
    0.20209E-06        -0.17229E-19         0.00000E+00
    0.20209E-06        -0.19441E-19         0.00000E+00
    0.20209E-06        -0.17462E-19         0.00000E+00
    0.20209E-06        -0.13271E-19         0.00000E+00
    0.20209E-06        -0.79162E-20         0.00000E+00
    0.20209E-06        -0.10477E-19         0.00000E+00
    0.20209E-06        -0.11874E-19         0.00000E+00
    0.20209E-06         0.00000E+00         0.00000E+00
    0.20209E-06        -0.23283E-21         0.00000E+00
    0.20209E-06         0.37253E-20         0.00000E+00
    0.20209E-06         0.46566E-21         0.00000E+00
    0.20209E-06        -0.69849E-21         0.00000E+00
    0.20209E-06        -0.15134E-20         0.00000E+00
    0.20209E-06         0.24447E-20         0.00000E+00
    0.20209E-06         0.46566E-20         0.00000E+00
    0.20209E-06        -0.18626E-20         0.00000E+00
    0.20209E-06         0.13970E-20         0.00000E+00
    0.20605E-06         0.69849E-21         0.00000E+00
    0.20605E-06         0.24447E-20         0.00000E+00
    0.20605E-06        -0.27940E-20         0.00000E+00
    0.20605E-06        -0.11642E-21         0.00000E+00
    0.20605E-06         0.33760E-20         0.00000E+00
    0.20605E-06         0.13504E-19         0.00000E+00
    0.20605E-06         0.13039E-19         0.00000E+00
    0.20605E-06         0.11874E-19         0.00000E+00
    0.20605E-06         0.60536E-20         0.00000E+00
    0.20605E-06         0.27940E-20         0.00000E+00
    0.20605E-06         0.25611E-20         0.00000E+00
    0.20605E-06         0.32596E-20         0.00000E+00
    0.20605E-06         0.34925E-20         0.00000E+00
    0.20605E-06         0.24447E-20         0.00000E+00
    0.20605E-06        -0.34925E-20         0.00000E+00
    0.20605E-06        -0.27940E-20         0.00000E+00
    0.20605E-06        -0.93132E-21         0.00000E+00
    0.20605E-06        -0.34925E-20         0.00000E+00
    0.20605E-06         0.11642E-20         0.00000E+00
    0.20605E-06         0.23283E-21         0.00000E+00
    0.20605E-06         0.93132E-21         0.00000E+00
    0.20605E-06         0.93132E-21         0.00000E+00
    0.20605E-06         0.25611E-20         0.00000E+00
    0.20605E-06         0.18626E-20         0.00000E+00
    0.20605E-06         0.11642E-20         0.00000E+00
    0.20605E-06         0.23283E-21         0.00000E+00
    0.20605E-06        -0.30268E-20         0.00000E+00
    0.20605E-06        -0.67521E-20         0.00000E+00
    0.20605E-06        -0.93132E-20         0.00000E+00
    0.20605E-06        -0.25611E-20         0.00000E+00
    0.20605E-06        -0.67521E-20         0.00000E+00
    0.20605E-06        -0.96625E-20         0.00000E+00
    0.20605E-06        -0.18277E-19         0.00000E+00
    0.20605E-06        -0.15483E-19         0.00000E+00
    0.20605E-06        -0.15483E-19         0.00000E+00
    0.20605E-06        -0.15600E-19         0.00000E+00
    0.20605E-06        -0.90804E-20         0.00000E+00
    0.20605E-06        -0.13504E-19         0.00000E+00
    0.20605E-06        -0.11642E-19         0.00000E+00
    0.20605E-06        -0.81491E-20         0.00000E+00
    0.20605E-06        -0.37253E-20         0.00000E+00
    0.20605E-06         0.25611E-20         0.00000E+00
    0.20605E-06         0.67521E-20         0.00000E+00
    0.20605E-06         0.53551E-20         0.00000E+00
    0.20605E-06         0.18626E-20         0.00000E+00
    0.20605E-06         0.22119E-20         0.00000E+00
    0.20605E-06         0.46566E-21         0.00000E+00
    0.20605E-06         0.34925E-20         0.00000E+00
    0.20605E-06         0.47730E-20         0.00000E+00
    0.20605E-06         0.23283E-21         0.00000E+00
    0.20807E-06        -0.93132E-21         0.00000E+00
    0.20807E-06         0.27940E-20         0.00000E+00
    0.20807E-06        -0.23283E-20         0.00000E+00
    0.20807E-06        -0.23283E-20         0.00000E+00
    0.20807E-06        -0.93132E-21         0.00000E+00
    0.20807E-06         0.69849E-20         0.00000E+00
    0.20807E-06         0.10827E-19         0.00000E+00
    0.20807E-06         0.37253E-20         0.00000E+00
    0.20807E-06         0.13970E-20         0.00000E+00
    0.20807E-06        -0.76834E-20         0.00000E+00
    0.20807E-06         0.61700E-20         0.00000E+00
    0.20807E-06         0.23283E-20         0.00000E+00
    0.20807E-06         0.37253E-20         0.00000E+00
    0.20807E-06         0.32596E-20         0.00000E+00
    0.20807E-06        -0.93132E-21         0.00000E+00
    0.20807E-06         0.00000E+00         0.00000E+00
    0.20807E-06         0.00000E+00         0.00000E+00
    0.20807E-06         0.25611E-20         0.00000E+00
    0.20807E-06        -0.51223E-20         0.00000E+00
    0.20807E-06         0.00000E+00         0.00000E+00
    0.20807E-06         0.00000E+00         0.00000E+00
    0.20807E-06        -0.13970E-20         0.00000E+00
    0.20807E-06         0.37253E-20         0.00000E+00
    0.20807E-06         0.37253E-20         0.00000E+00
    0.20807E-06         0.93132E-21         0.00000E+00
    0.20807E-06         0.00000E+00         0.00000E+00
    0.20807E-06        -0.93132E-21         0.00000E+00
    0.20807E-06        -0.13970E-20         0.00000E+00
    0.20807E-06        -0.46566E-20         0.00000E+00
    0.20807E-06        -0.23283E-20         0.00000E+00
    0.20807E-06        -0.13970E-20         0.00000E+00
    0.20807E-06        -0.54715E-20         0.00000E+00
    0.20807E-06        -0.12806E-20         0.00000E+00
    0.20807E-06        -0.69849E-20         0.00000E+00
    0.20807E-06        -0.69849E-20         0.00000E+00
    0.20807E-06        -0.69849E-20         0.00000E+00
    0.20807E-06        -0.32596E-20         0.00000E+00
    0.20807E-06        -0.69849E-20         0.00000E+00
    0.20807E-06        -0.46566E-20         0.00000E+00
    0.20807E-06        -0.10827E-19         0.00000E+00
    0.20807E-06        -0.23283E-20         0.00000E+00
    0.20807E-06         0.95461E-20         0.00000E+00
    0.20807E-06         0.55879E-20         0.00000E+00
    0.20807E-06         0.37253E-20         0.00000E+00
    0.20807E-06         0.00000E+00         0.00000E+00
    0.20807E-06         0.00000E+00         0.00000E+00
    0.20807E-06         0.00000E+00         0.00000E+00
    0.20807E-06         0.58208E-20         0.00000E+00
    0.20807E-06        -0.32596E-20         0.00000E+00
    0.20807E-06         0.67521E-20         0.00000E+00
POINT_DATA       5151
VECTORS vDarcyNodal double 
    0.85387E-13         0.00000E+00         0.00000E+00
    0.85387E-13         0.00000E+00         0.00000E+00
    0.85387E-13         0.00000E+00         0.00000E+00
    0.85387E-13         0.00000E+00         0.00000E+00
    0.85387E-13         0.00000E+00         0.00000E+00
    0.85387E-13         0.00000E+00         0.00000E+00
    0.85387E-13         0.00000E+00         0.00000E+00
    0.85387E-13         0.00000E+00         0.00000E+00
    0.85387E-13         0.00000E+00         0.00000E+00
    0.85387E-13         0.00000E+00         0.00000E+00
    0.85387E-13         0.00000E+00         0.00000E+00
    0.85387E-13         0.00000E+00         0.00000E+00
    0.85387E-13         0.00000E+00         0.00000E+00
    0.85387E-13        -0.18626E-20         0.00000E+00
    0.85387E-13         0.00000E+00         0.00000E+00
    0.85387E-13         0.18626E-20         0.00000E+00
    0.85387E-13         0.00000E+00         0.00000E+00
    0.85387E-13         0.00000E+00         0.00000E+00
    0.85387E-13         0.00000E+00         0.00000E+00
    0.85387E-13         0.00000E+00         0.00000E+00
    0.85387E-13         0.00000E+00         0.00000E+00
    0.85387E-13         0.00000E+00         0.00000E+00
    0.85387E-13         0.00000E+00         0.00000E+00
    0.85387E-13         0.00000E+00         0.00000E+00
    0.85387E-13         0.00000E+00         0.00000E+00
    0.85387E-13         0.00000E+00         0.00000E+00
    0.85387E-13         0.00000E+00         0.00000E+00
    0.85387E-13         0.00000E+00         0.00000E+00
    0.85387E-13         0.00000E+00         0.00000E+00
    0.85387E-13         0.00000E+00         0.00000E+00
    0.85387E-13         0.00000E+00         0.00000E+00
    0.85387E-13         0.00000E+00         0.00000E+00
    0.85387E-13         0.00000E+00         0.00000E+00
    0.85387E-13         0.00000E+00         0.00000E+00
    0.85387E-13         0.00000E+00         0.00000E+00
    0.85386E-13         0.00000E+00         0.00000E+00
    0.85386E-13         0.00000E+00         0.00000E+00
    0.85387E-13         0.00000E+00         0.00000E+00
    0.85386E-13         0.00000E+00         0.00000E+00
    0.85387E-13         0.00000E+00         0.00000E+00
    0.85386E-13         0.00000E+00         0.00000E+00
    0.85386E-13         0.00000E+00         0.00000E+00
    0.85387E-13         0.00000E+00         0.00000E+00
    0.85386E-13         0.00000E+00         0.00000E+00
    0.85386E-13         0.00000E+00         0.00000E+00
    0.85386E-13         0.00000E+00         0.00000E+00
    0.85386E-13         0.00000E+00         0.00000E+00
    0.85386E-13         0.00000E+00         0.00000E+00
    0.85386E-13         0.00000E+00         0.00000E+00
    0.85386E-13         0.18626E-20         0.00000E+00
    0.85386E-13         0.37253E-20         0.00000E+00
    0.87011E-13         0.00000E+00         0.00000E+00
    0.87011E-13         0.00000E+00         0.00000E+00
    0.87011E-13         0.37253E-20         0.00000E+00
    0.87011E-13         0.39042E-20         0.00000E+00
    0.87011E-13         0.55879E-20         0.00000E+00
    0.87011E-13         0.11749E-19         0.00000E+00
    0.87011E-13         0.13970E-19         0.00000E+00
    0.87011E-13         0.94921E-20         0.00000E+00
    0.87011E-13         0.74506E-20         0.00000E+00
    0.87011E-13         0.37253E-20         0.00000E+00
    0.87011E-13         0.00000E+00         0.00000E+00
    0.87011E-13         0.11102E-20         0.00000E+00
    0.87011E-13        -0.18626E-20         0.00000E+00
    0.87011E-13         0.46566E-20         0.00000E+00
    0.87011E-13         0.65193E-20         0.00000E+00
    0.87011E-13        -0.11102E-20         0.00000E+00
    0.87011E-13         0.00000E+00         0.00000E+00
    0.87011E-13         0.37253E-20         0.00000E+00
    0.87011E-13         0.55879E-20         0.00000E+00
    0.87011E-13         0.18626E-20         0.00000E+00
    0.87011E-13        -0.18626E-20         0.00000E+00
    0.87011E-13        -0.18626E-20         0.00000E+00
    0.87011E-13        -0.18626E-20         0.00000E+00
    0.87011E-13         0.20415E-20         0.00000E+00
    0.87011E-13         0.75242E-21         0.00000E+00
    0.87011E-13        -0.93132E-21         0.00000E+00
    0.87011E-13        -0.75242E-21         0.00000E+00
    0.87011E-13         0.75242E-21         0.00000E+00
    0.87011E-13         0.18626E-20         0.00000E+00
    0.87011E-13         0.00000E+00         0.00000E+00
    0.87011E-13         0.18626E-20         0.00000E+00
    0.87011E-13         0.55879E-20         0.00000E+00
    0.87011E-13         0.55879E-20         0.00000E+00
    0.87011E-13         0.37253E-20         0.00000E+00
    0.87011E-13         0.55879E-20         0.00000E+00
    0.87011E-13         0.37253E-20         0.00000E+00
    0.87011E-13        -0.37253E-20         0.00000E+00
    0.87011E-13         0.00000E+00         0.00000E+00
    0.87011E-13         0.18626E-20         0.00000E+00
    0.87011E-13         0.00000E+00         0.00000E+00
    0.87011E-13         0.54090E-20         0.00000E+00
    0.87011E-13         0.00000E+00         0.00000E+00
    0.87011E-13         0.17890E-21         0.00000E+00
    0.87011E-13         0.63404E-20         0.00000E+00
    0.87011E-13         0.48355E-20         0.00000E+00
    0.87011E-13         0.40831E-20         0.00000E+00
    0.87011E-13         0.26151E-20         0.00000E+00
    0.87011E-13         0.82030E-20         0.00000E+00
    0.87011E-13         0.11176E-19         0.00000E+00
    0.87011E-13         0.44777E-20         0.00000E+00
    0.87011E-13         0.52301E-20         0.00000E+00
    0.91943E-13        -0.37253E-20         0.00000E+00
    0.91943E-13         0.74506E-20         0.00000E+00
    0.91943E-13         0.24214E-19         0.00000E+00
    0.91943E-13         0.32023E-19         0.00000E+00
    0.91943E-13         0.23283E-19         0.00000E+00
    0.91943E-13         0.85976E-20         0.00000E+00
    0.91943E-13         0.18626E-20         0.00000E+00
    0.91943E-13        -0.57352E-21         0.00000E+00
    0.91943E-13         0.18626E-20         0.00000E+00
    0.91943E-13         0.74506E-20         0.00000E+00
    0.91943E-13         0.55879E-20         0.00000E+00
    0.91943E-13        -0.24362E-20         0.00000E+00
    0.91943E-13        -0.18626E-20         0.00000E+00
    0.91943E-13         0.37253E-20         0.00000E+00
    0.91943E-13         0.10245E-19         0.00000E+00
    0.91943E-13         0.18269E-19         0.00000E+00
    0.91943E-13         0.11176E-19         0.00000E+00
    0.91943E-13        -0.18626E-20         0.00000E+00
    0.91943E-13         0.00000E+00         0.00000E+00
    0.91943E-13         0.55879E-20         0.00000E+00
    0.91943E-13         0.24214E-19         0.00000E+00
    0.91943E-13         0.31665E-19         0.00000E+00
    0.91943E-13         0.13039E-19         0.00000E+00
    0.91943E-13        -0.24362E-20         0.00000E+00
    0.91943E-13         0.24362E-20         0.00000E+00
    0.91943E-13         0.46566E-20         0.00000E+00
    0.91943E-13         0.22204E-20         0.00000E+00
    0.91943E-13        -0.50144E-20         0.00000E+00
    0.91943E-13        -0.14901E-19         0.00000E+00
    0.91943E-13        -0.16764E-19         0.00000E+00
    0.91943E-13        -0.55879E-20         0.00000E+00
    0.91943E-13         0.18626E-20         0.00000E+00
    0.91943E-13         0.18626E-20         0.00000E+00
    0.91943E-13         0.74506E-20         0.00000E+00
    0.91943E-13         0.37253E-20         0.00000E+00
    0.91943E-13         0.00000E+00         0.00000E+00
    0.91943E-13         0.93132E-20         0.00000E+00
    0.91943E-13         0.74506E-20         0.00000E+00
    0.91943E-13         0.00000E+00         0.00000E+00
    0.91943E-13         0.18626E-20         0.00000E+00
    0.91943E-13        -0.68771E-20         0.00000E+00
    0.91943E-13        -0.93132E-21         0.00000E+00
    0.91943E-13        -0.33675E-20         0.00000E+00
    0.91943E-13        -0.13396E-19         0.00000E+00
    0.91943E-13        -0.52301E-20         0.00000E+00
    0.91943E-13         0.25782E-20         0.00000E+00
    0.91943E-13         0.80241E-20         0.00000E+00
    0.91943E-13         0.98867E-20         0.00000E+00
    0.91943E-13         0.74506E-20         0.00000E+00
    0.91943E-13         0.33675E-20         0.00000E+00
    0.91943E-13        -0.81662E-20         0.00000E+00
    0.10037E-12         0.74506E-20         0.00000E+00
    0.10037E-12         0.87397E-20         0.00000E+00
    0.10037E-12         0.13039E-19         0.00000E+00
    0.10037E-12         0.15475E-19         0.00000E+00
    0.10037E-12         0.22352E-19         0.00000E+00
    0.10037E-12         0.29229E-19         0.00000E+00
    0.10037E-12         0.22352E-19         0.00000E+00
    0.10037E-12         0.37253E-20         0.00000E+00
    0.10037E-12        -0.55879E-20         0.00000E+00
    0.10037E-12         0.37253E-20         0.00000E+00
    0.10037E-12         0.68771E-20         0.00000E+00
    0.10037E-12        -0.50144E-20         0.00000E+00
    0.10037E-12        -0.10818E-19         0.00000E+00
    0.10037E-12        -0.89554E-20         0.00000E+00
    0.10037E-12        -0.71560E-21         0.00000E+00
    0.10037E-12        -0.10602E-19         0.00000E+00
    0.10037E-12        -0.74506E-20         0.00000E+00
    0.10037E-12         0.18269E-19         0.00000E+00
    0.10037E-12         0.21420E-19         0.00000E+00
    0.10037E-12         0.10602E-19         0.00000E+00
    0.10037E-12        -0.57352E-21         0.00000E+00
    0.10037E-12        -0.80241E-20         0.00000E+00
    0.10037E-12        -0.96710E-20         0.00000E+00
    0.10037E-12        -0.18626E-20         0.00000E+00
    0.10037E-12        -0.93132E-21         0.00000E+00
    0.10037E-12         0.18626E-20         0.00000E+00
    0.10037E-12        -0.46566E-20         0.00000E+00
    0.10037E-12        -0.27940E-20         0.00000E+00
    0.10037E-12         0.12465E-19         0.00000E+00
    0.10037E-12         0.42988E-20         0.00000E+00
    0.10037E-12         0.24362E-20         0.00000E+00
    0.10037E-12         0.68771E-20         0.00000E+00
    0.10037E-12         0.65193E-20         0.00000E+00
    0.10037E-12         0.52301E-20         0.00000E+00
    0.10037E-12         0.16764E-19         0.00000E+00
    0.10037E-12         0.93132E-20         0.00000E+00
    0.10037E-12        -0.10818E-19         0.00000E+00
    0.10037E-12        -0.74506E-20         0.00000E+00
    0.10037E-12         0.27940E-20         0.00000E+00
    0.10037E-12        -0.24362E-20         0.00000E+00
    0.10037E-12         0.15048E-20         0.00000E+00
    0.10037E-12        -0.35780E-21         0.00000E+00
    0.10037E-12         0.37253E-20         0.00000E+00
    0.10037E-12         0.00000E+00         0.00000E+00
    0.10037E-12        -0.14901E-19         0.00000E+00
    0.10037E-12        -0.33675E-20         0.00000E+00
    0.10037E-12        -0.46566E-20         0.00000E+00
    0.10037E-12        -0.74506E-20         0.00000E+00
    0.10037E-12        -0.17695E-19         0.00000E+00
    0.10037E-12        -0.78084E-20         0.00000E+00
    0.10037E-12         0.74506E-20         0.00000E+00
    0.11259E-12        -0.14901E-19         0.00000E+00
    0.11259E-12        -0.13039E-19         0.00000E+00
    0.11259E-12         0.00000E+00         0.00000E+00
    0.11259E-12         0.25782E-20         0.00000E+00
    0.11259E-12        -0.83819E-20         0.00000E+00
    0.11259E-12        -0.32938E-20         0.00000E+00
    0.11259E-12        -0.93132E-21         0.00000E+00
    0.11259E-12         0.44409E-20         0.00000E+00
    0.11259E-12         0.00000E+00         0.00000E+00
    0.11259E-12        -0.37253E-20         0.00000E+00
    0.11259E-12        -0.37253E-20         0.00000E+00
    0.11259E-12        -0.58037E-20         0.00000E+00
    0.11259E-12        -0.93132E-21         0.00000E+00
    0.11259E-12         0.93132E-21         0.00000E+00
    0.11259E-12         0.46566E-20         0.00000E+00
    0.11259E-12         0.19773E-19         0.00000E+00
    0.11259E-12         0.14901E-19         0.00000E+00
    0.11259E-12        -0.74506E-20         0.00000E+00
    0.11259E-12         0.00000E+00         0.00000E+00
    0.11259E-12         0.26077E-19         0.00000E+00
    0.11259E-12         0.26077E-19         0.00000E+00
    0.11259E-12         0.93132E-20         0.00000E+00
    0.11259E-12         0.00000E+00         0.00000E+00
    0.11259E-12        -0.58037E-20         0.00000E+00
    0.11259E-12        -0.25782E-20         0.00000E+00
    0.11259E-12        -0.10245E-19         0.00000E+00
    0.11259E-12        -0.76663E-20         0.00000E+00
    0.11259E-12         0.20784E-20         0.00000E+00
    0.11259E-12         0.55879E-20         0.00000E+00
    0.11259E-12         0.14901E-19         0.00000E+00
    0.11259E-12         0.13039E-19         0.00000E+00
    0.11259E-12         0.93132E-20         0.00000E+00
    0.11259E-12         0.74506E-20         0.00000E+00
    0.11259E-12        -0.55879E-20         0.00000E+00
    0.11259E-12        -0.14901E-19         0.00000E+00
    0.11259E-12        -0.74506E-20         0.00000E+00
    0.11259E-12         0.18626E-20         0.00000E+00
    0.11259E-12         0.37253E-20         0.00000E+00
    0.11259E-12         0.18626E-20         0.00000E+00
    0.11259E-12         0.55879E-20         0.00000E+00
    0.11259E-12         0.48723E-20         0.00000E+00
    0.11259E-12         0.14901E-19         0.00000E+00
    0.11259E-12         0.11891E-19         0.00000E+00
    0.11259E-12         0.21572E-21         0.00000E+00
    0.11259E-12         0.12823E-19         0.00000E+00
    0.11259E-12         0.14470E-19         0.00000E+00
    0.11259E-12        -0.71560E-21         0.00000E+00
    0.11259E-12         0.67350E-20         0.00000E+00
    0.11259E-12         0.74506E-20         0.00000E+00
    0.11259E-12        -0.71560E-21         0.00000E+00
    0.11259E-12         0.22941E-20         0.00000E+00
    0.12906E-12         0.00000E+00         0.00000E+00
    0.12906E-12        -0.11176E-19         0.00000E+00
    0.12906E-12        -0.20273E-19         0.00000E+00
    0.12906E-12        -0.20489E-19         0.00000E+00
    0.12906E-12        -0.95289E-20         0.00000E+00
    0.12906E-12         0.55879E-20         0.00000E+00
    0.12906E-12         0.11176E-19         0.00000E+00
    0.12906E-12         0.55879E-20         0.00000E+00
    0.12906E-12        -0.18626E-20         0.00000E+00
    0.12906E-12        -0.55879E-20         0.00000E+00
    0.12906E-12        -0.81662E-20         0.00000E+00
    0.12906E-12        -0.18626E-19         0.00000E+00
    0.12906E-12        -0.21636E-19         0.00000E+00
    0.12906E-12        -0.74506E-20         0.00000E+00
    0.12906E-12         0.37253E-20         0.00000E+00
    0.12906E-12         0.00000E+00         0.00000E+00
    0.12906E-12         0.37253E-20         0.00000E+00
    0.12906E-12         0.16764E-19         0.00000E+00
    0.12906E-12         0.22352E-19         0.00000E+00
    0.12906E-12         0.93132E-20         0.00000E+00
    0.12906E-12        -0.37253E-20         0.00000E+00
    0.12906E-12         0.93132E-20         0.00000E+00
    0.12906E-12         0.14901E-19         0.00000E+00
    0.12906E-12         0.13039E-19         0.00000E+00
    0.12906E-12         0.24214E-19         0.00000E+00
    0.12906E-12         0.18626E-19         0.00000E+00
    0.12906E-12         0.55879E-20         0.00000E+00
    0.12906E-12        -0.18626E-20         0.00000E+00
    0.12906E-12        -0.18626E-20         0.00000E+00
    0.12906E-12        -0.37253E-20         0.00000E+00
    0.12906E-12        -0.37253E-20         0.00000E+00
    0.12906E-12        -0.18626E-20         0.00000E+00
    0.12906E-12        -0.11176E-19         0.00000E+00
    0.12906E-12         0.00000E+00         0.00000E+00
    0.12906E-12         0.74506E-20         0.00000E+00
    0.12906E-12        -0.55879E-20         0.00000E+00
    0.12906E-12        -0.63035E-20         0.00000E+00
    0.12906E-12         0.85976E-20         0.00000E+00
    0.12906E-12         0.20273E-19         0.00000E+00
    0.12906E-12         0.14685E-19         0.00000E+00
    0.12906E-12         0.18626E-19         0.00000E+00
    0.12906E-12         0.16764E-19         0.00000E+00
    0.12906E-12         0.20489E-19         0.00000E+00
    0.12906E-12         0.26077E-19         0.00000E+00
    0.12906E-12         0.30097E-20         0.00000E+00
    0.12906E-12        -0.25782E-20         0.00000E+00
    0.12906E-12         0.63035E-20         0.00000E+00
    0.12906E-12         0.44409E-20         0.00000E+00
    0.12906E-12         0.00000E+00         0.00000E+00
    0.12906E-12        -0.71560E-21         0.00000E+00
    0.12906E-12        -0.14312E-20         0.00000E+00
    0.15039E-12        -0.37253E-20         0.00000E+00
    0.15039E-12         0.10029E-19         0.00000E+00
    0.15039E-12         0.24214E-19         0.00000E+00
    0.15039E-12         0.21636E-19         0.00000E+00
    0.15039E-12         0.13039E-19         0.00000E+00
    0.15039E-12        -0.95289E-20         0.00000E+00
    0.15039E-12        -0.13039E-19         0.00000E+00
    0.15039E-12        -0.74506E-20         0.00000E+00
    0.15039E-12        -0.14901E-19         0.00000E+00
    0.15039E-12        -0.32596E-19         0.00000E+00
    0.15039E-12        -0.21636E-19         0.00000E+00
    0.15039E-12         0.21572E-21         0.00000E+00
    0.15039E-12        -0.11470E-20         0.00000E+00
    0.15039E-12        -0.58037E-20         0.00000E+00
    0.15039E-12        -0.19126E-19         0.00000E+00
    0.15039E-12        -0.23999E-19         0.00000E+00
    0.15039E-12        -0.22352E-19         0.00000E+00
    0.15039E-12        -0.15617E-19         0.00000E+00
    0.15039E-12        -0.16764E-19         0.00000E+00
    0.15039E-12        -0.85976E-20         0.00000E+00
    0.15039E-12        -0.20784E-20         0.00000E+00
    0.15039E-12        -0.20784E-20         0.00000E+00
    0.15039E-12         0.48723E-20         0.00000E+00
    0.15039E-12        -0.83819E-20         0.00000E+00
    0.15039E-12        -0.13970E-19         0.00000E+00
    0.15039E-12         0.93132E-20         0.00000E+00
    0.15039E-12         0.15832E-19         0.00000E+00
    0.15039E-12         0.83819E-20         0.00000E+00
    0.15039E-12         0.25782E-20         0.00000E+00
    0.15039E-12         0.10460E-19         0.00000E+00
    0.15039E-12         0.12323E-19         0.00000E+00
    0.15039E-12         0.81662E-20         0.00000E+00
    0.15039E-12         0.13970E-19         0.00000E+00
    0.15039E-12         0.39410E-20         0.00000E+00
    0.15039E-12        -0.74506E-20         0.00000E+00
    0.15039E-12         0.55879E-20         0.00000E+00
    0.15039E-12         0.19342E-19         0.00000E+00
    0.15039E-12         0.55879E-20         0.00000E+00
    0.15039E-12        -0.37253E-20         0.00000E+00
    0.15039E-12        -0.11470E-20         0.00000E+00
    0.15039E-12         0.76663E-20         0.00000E+00
    0.15039E-12         0.18842E-19         0.00000E+00
    0.15039E-12         0.16764E-19         0.00000E+00
    0.15039E-12         0.13039E-19         0.00000E+00
    0.15039E-12         0.26077E-19         0.00000E+00
    0.15039E-12         0.23067E-19         0.00000E+00
    0.15039E-12         0.18626E-20         0.00000E+00
    0.15039E-12         0.37253E-20         0.00000E+00
    0.15039E-12        -0.18626E-20         0.00000E+00
    0.15039E-12        -0.63035E-20         0.00000E+00
    0.15039E-12        -0.37253E-20         0.00000E+00
    0.17736E-12         0.10176E-19         0.00000E+00
    0.17736E-12        -0.64511E-34         0.00000E+00
    0.17736E-12         0.23625E-20         0.00000E+00
    0.17736E-12        -0.93132E-20         0.00000E+00
    0.17736E-12        -0.28440E-19         0.00000E+00
    0.17736E-12        -0.20989E-19         0.00000E+00
    0.17736E-12        -0.41567E-20         0.00000E+00
    0.17736E-12        -0.13470E-19         0.00000E+00
    0.17736E-12        -0.33528E-19         0.00000E+00
    0.17736E-12        -0.29802E-19         0.00000E+00
    0.17736E-12        -0.18626E-19         0.00000E+00
    0.17736E-12        -0.20489E-19         0.00000E+00
    0.17736E-12        -0.16764E-19         0.00000E+00
    0.17736E-12        -0.93132E-20         0.00000E+00
    0.17736E-12        -0.37253E-20         0.00000E+00
    0.17736E-12        -0.93132E-20         0.00000E+00
    0.17736E-12        -0.20489E-19         0.00000E+00
    0.17736E-12        -0.26077E-19         0.00000E+00
    0.17736E-12        -0.26077E-19         0.00000E+00
    0.17736E-12        -0.29802E-19         0.00000E+00
    0.17736E-12        -0.27940E-19         0.00000E+00
    0.17736E-12        -0.74506E-20         0.00000E+00
    0.17736E-12         0.55879E-20         0.00000E+00
    0.17736E-12         0.55879E-20         0.00000E+00
    0.17736E-12         0.18626E-20         0.00000E+00
    0.17736E-12        -0.74506E-20         0.00000E+00
    0.17736E-12        -0.37253E-20         0.00000E+00
    0.17736E-12         0.16764E-19         0.00000E+00
    0.17736E-12         0.20489E-19         0.00000E+00
    0.17736E-12         0.37253E-20         0.00000E+00
    0.17736E-12         0.00000E+00         0.00000E+00
    0.17736E-12         0.74506E-20         0.00000E+00
    0.17736E-12         0.00000E+00         0.00000E+00
    0.17736E-12        -0.11176E-19         0.00000E+00
    0.17736E-12        -0.37253E-20         0.00000E+00
    0.17736E-12         0.55879E-20         0.00000E+00
    0.17736E-12         0.55879E-20         0.00000E+00
    0.17736E-12         0.14901E-19         0.00000E+00
    0.17736E-12         0.16764E-19         0.00000E+00
    0.17736E-12         0.20921E-19         0.00000E+00
    0.17736E-12         0.22352E-19         0.00000E+00
    0.17736E-12         0.10744E-19         0.00000E+00
    0.17736E-12         0.93132E-20         0.00000E+00
    0.17736E-12         0.14901E-19         0.00000E+00
    0.17736E-12         0.37253E-20         0.00000E+00
    0.17736E-12        -0.93132E-20         0.00000E+00
    0.17736E-12        -0.60878E-20         0.00000E+00
    0.17736E-12         0.37253E-20         0.00000E+00
    0.17736E-12         0.42252E-20         0.00000E+00
    0.17736E-12        -0.74506E-20         0.00000E+00
    0.17736E-12        -0.18626E-19         0.00000E+00
    0.21096E-12         0.00000E+00         0.00000E+00
    0.21096E-12        -0.13039E-19         0.00000E+00
    0.21096E-12        -0.27940E-19         0.00000E+00
    0.21096E-12        -0.23715E-19         0.00000E+00
    0.21096E-12        -0.55879E-20         0.00000E+00
    0.21096E-12        -0.75190E-20         0.00000E+00
    0.21096E-12        -0.19558E-19         0.00000E+00
    0.21096E-12        -0.18127E-19         0.00000E+00
    0.21096E-12        -0.14901E-19         0.00000E+00
    0.21096E-12        -0.16764E-19         0.00000E+00
    0.21096E-12        -0.13039E-19         0.00000E+00
    0.21096E-12        -0.14401E-19         0.00000E+00
    0.21096E-12        -0.13039E-19         0.00000E+00
    0.21096E-12        -0.93132E-21         0.00000E+00
    0.21096E-12         0.46566E-20         0.00000E+00
    0.21096E-12        -0.79505E-20         0.00000E+00
    0.21096E-12        -0.13039E-19         0.00000E+00
    0.21096E-12        -0.55879E-20         0.00000E+00
    0.21096E-12        -0.18626E-20         0.00000E+00
    0.21096E-12        -0.18626E-20         0.00000E+00
    0.21096E-12        -0.37253E-20         0.00000E+00
    0.21096E-12        -0.14901E-19         0.00000E+00
    0.21096E-12        -0.18626E-19         0.00000E+00
    0.21096E-12        -0.69507E-20         0.00000E+00
    0.21096E-12         0.41567E-20         0.00000E+00
    0.21096E-12         0.16764E-19         0.00000E+00
    0.21096E-12         0.98131E-20         0.00000E+00
    0.21096E-12        -0.10744E-19         0.00000E+00
    0.21096E-12        -0.18626E-19         0.00000E+00
    0.21096E-12        -0.14901E-19         0.00000E+00
    0.21096E-12         0.00000E+00         0.00000E+00
    0.21096E-12         0.11176E-19         0.00000E+00
    0.21096E-12         0.18626E-19         0.00000E+00
    0.21096E-12         0.22352E-19         0.00000E+00
    0.21096E-12         0.11176E-19         0.00000E+00
    0.21096E-12         0.18626E-20         0.00000E+00
    0.21096E-12         0.93132E-20         0.00000E+00
    0.21096E-12         0.55879E-20         0.00000E+00
    0.21096E-12         0.18626E-20         0.00000E+00
    0.21096E-12         0.37253E-20         0.00000E+00
    0.21096E-12        -0.23625E-20         0.00000E+00
    0.21096E-12        -0.83819E-20         0.00000E+00
    0.21096E-12        -0.13470E-19         0.00000E+00
    0.21096E-12        -0.13538E-19         0.00000E+00
    0.21096E-12        -0.60194E-20         0.00000E+00
    0.21096E-12        -0.55195E-20         0.00000E+00
    0.21096E-12         0.13628E-20         0.00000E+00
    0.21096E-12         0.69507E-20         0.00000E+00
    0.21096E-12         0.74506E-20         0.00000E+00
    0.21096E-12         0.32254E-20         0.00000E+00
    0.21096E-12        -0.84503E-20         0.00000E+00
    0.25241E-12         0.99976E-21         0.00000E+00
    0.25241E-12        -0.18626E-20         0.00000E+00
    0.25241E-12         0.93132E-20         0.00000E+00
    0.25241E-12         0.93132E-20         0.00000E+00
    0.25241E-12        -0.13039E-19         0.00000E+00
    0.25241E-12        -0.74506E-20         0.00000E+00
    0.25241E-12        -0.65193E-20         0.00000E+00
    0.25241E-12        -0.20921E-19         0.00000E+00
    0.25241E-12        -0.20489E-19         0.00000E+00
    0.25241E-12        -0.49988E-21         0.00000E+00
    0.25241E-12        -0.49988E-21         0.00000E+00
    0.25241E-12         0.18626E-20         0.00000E+00
    0.25241E-12         0.37253E-20         0.00000E+00
    0.25241E-12        -0.14901E-19         0.00000E+00
    0.25241E-12        -0.16764E-19         0.00000E+00
    0.25241E-12         0.00000E+00         0.00000E+00
    0.25241E-12         0.74506E-20         0.00000E+00
    0.25241E-12        -0.37253E-20         0.00000E+00
    0.25241E-12        -0.37253E-20         0.00000E+00
    0.25241E-12         0.00000E+00         0.00000E+00
    0.25241E-12        -0.74506E-20         0.00000E+00
    0.25241E-12         0.37253E-20         0.00000E+00
    0.25241E-12         0.13039E-19         0.00000E+00
    0.25241E-12         0.74506E-20         0.00000E+00
    0.25241E-12         0.14901E-19         0.00000E+00
    0.25241E-12         0.98131E-20         0.00000E+00
    0.25241E-12        -0.18626E-20         0.00000E+00
    0.25241E-12         0.50881E-20         0.00000E+00
    0.25241E-12         0.55879E-20         0.00000E+00
    0.25241E-12         0.37253E-20         0.00000E+00
    0.25241E-12        -0.18626E-20         0.00000E+00
    0.25241E-12         0.23625E-20         0.00000E+00
    0.25241E-12         0.27940E-20         0.00000E+00
    0.25241E-12        -0.51565E-20         0.00000E+00
    0.25241E-12         0.37253E-20         0.00000E+00
    0.25241E-12         0.13039E-19         0.00000E+00
    0.25241E-12         0.74506E-20         0.00000E+00
    0.25241E-12         0.37253E-20         0.00000E+00
    0.25241E-12         0.00000E+00         0.00000E+00
    0.25241E-12        -0.50881E-20         0.00000E+00
    0.25241E-12        -0.37253E-20         0.00000E+00
    0.25241E-12        -0.83819E-20         0.00000E+00
    0.25241E-12         0.93132E-21         0.00000E+00
    0.25241E-12         0.11176E-19         0.00000E+00
    0.25241E-12         0.18626E-20         0.00000E+00
    0.25241E-12        -0.42252E-20         0.00000E+00
    0.25241E-12        -0.74506E-20         0.00000E+00
    0.25241E-12        -0.55879E-20         0.00000E+00
    0.25241E-12         0.18626E-20         0.00000E+00
    0.25241E-12         0.88133E-20         0.00000E+00
    0.25241E-12         0.10176E-19         0.00000E+00
    0.30322E-12         0.11176E-19         0.00000E+00
    0.30322E-12         0.13039E-19         0.00000E+00
    0.30322E-12         0.69507E-20         0.00000E+00
    0.30322E-12         0.93132E-20         0.00000E+00
    0.30322E-12         0.11676E-19         0.00000E+00
    0.30322E-12         0.18626E-20         0.00000E+00
    0.30322E-12        -0.13039E-19         0.00000E+00
    0.30322E-12        -0.74506E-20         0.00000E+00
    0.30322E-12         0.93132E-20         0.00000E+00
    0.30322E-12         0.55879E-20         0.00000E+00
    0.30322E-12        -0.51565E-20         0.00000E+00
    0.30322E-12        -0.10245E-19         0.00000E+00
    0.30322E-12        -0.32254E-20         0.00000E+00
    0.30322E-12         0.74506E-20         0.00000E+00
    0.30322E-12         0.55879E-20         0.00000E+00
    0.30322E-12        -0.37253E-20         0.00000E+00
    0.30322E-12        -0.13039E-19         0.00000E+00
    0.30322E-12        -0.93132E-20         0.00000E+00
    0.30322E-12        -0.37253E-20         0.00000E+00
    0.30322E-12         0.13039E-19         0.00000E+00
    0.30322E-12         0.24214E-19         0.00000E+00
    0.30322E-12         0.18626E-19         0.00000E+00
    0.30322E-12         0.93132E-20         0.00000E+00
    0.30322E-12         0.55879E-20         0.00000E+00
    0.30322E-12         0.55879E-20         0.00000E+00
    0.30322E-12         0.11176E-19         0.00000E+00
    0.30322E-12         0.55879E-20         0.00000E+00
    0.30322E-12        -0.55879E-20         0.00000E+00
    0.30322E-12        -0.93132E-20         0.00000E+00
    0.30322E-12        -0.20489E-19         0.00000E+00
    0.30322E-12        -0.93132E-20         0.00000E+00
    0.30322E-12         0.00000E+00         0.00000E+00
    0.30322E-12         0.18626E-20         0.00000E+00
    0.30322E-12         0.13039E-19         0.00000E+00
    0.30322E-12         0.11176E-19         0.00000E+00
    0.30322E-12         0.13039E-19         0.00000E+00
    0.30322E-12         0.15333E-19         0.00000E+00
    0.30322E-12         0.22941E-20         0.00000E+00
    0.30322E-12        -0.22941E-20         0.00000E+00
    0.30322E-12         0.14312E-20         0.00000E+00
    0.30322E-12        -0.74506E-20         0.00000E+00
    0.30322E-12         0.37253E-20         0.00000E+00
    0.30322E-12         0.93132E-20         0.00000E+00
    0.30322E-12        -0.55879E-20         0.00000E+00
    0.30322E-12         0.43144E-21         0.00000E+00
    0.30322E-12         0.78820E-20         0.00000E+00
    0.30322E-12         0.15401E-19         0.00000E+00
    0.30322E-12         0.13538E-19         0.00000E+00
    0.30322E-12         0.74506E-20         0.00000E+00
    0.30322E-12         0.32254E-20         0.00000E+00
    0.30322E-12        -0.47250E-20         0.00000E+00
    0.36523E-12        -0.74506E-20         0.00000E+00
    0.36523E-12        -0.74506E-20         0.00000E+00
    0.36523E-12         0.55879E-20         0.00000E+00
    0.36523E-12         0.93132E-20         0.00000E+00
    0.36523E-12         0.42252E-20         0.00000E+00
    0.36523E-12         0.43145E-21         0.00000E+00
    0.36523E-12         0.17942E-20         0.00000E+00
    0.36523E-12        -0.32254E-20         0.00000E+00
    0.36523E-12        -0.50881E-20         0.00000E+00
    0.36523E-12        -0.23625E-20         0.00000E+00
    0.36523E-12        -0.74506E-20         0.00000E+00
    0.36523E-12         0.49988E-21         0.00000E+00
    0.36523E-12        -0.55879E-20         0.00000E+00
    0.36523E-12        -0.14901E-19         0.00000E+00
    0.36523E-12        -0.37253E-20         0.00000E+00
    0.36523E-12         0.32254E-20         0.00000E+00
    0.36523E-12        -0.22941E-20         0.00000E+00
    0.36523E-12        -0.13628E-20         0.00000E+00
    0.36523E-12         0.17942E-20         0.00000E+00
    0.36523E-12         0.23625E-20         0.00000E+00
    0.36523E-12         0.49988E-21         0.00000E+00
    0.36523E-12        -0.79505E-20         0.00000E+00
    0.36523E-12         0.79505E-20         0.00000E+00
    0.36523E-12         0.17264E-19         0.00000E+00
    0.36523E-12         0.12039E-19         0.00000E+00
    0.36523E-12         0.93132E-21         0.00000E+00
    0.36523E-12        -0.50881E-20         0.00000E+00
    0.36523E-12         0.41567E-20         0.00000E+00
    0.36523E-12         0.55879E-20         0.00000E+00
    0.36523E-12         0.50881E-20         0.00000E+00
    0.36523E-12         0.23625E-20         0.00000E+00
    0.36523E-12         0.84503E-20         0.00000E+00
    0.36523E-12         0.21852E-19         0.00000E+00
    0.36523E-12         0.14401E-19         0.00000E+00
    0.36523E-12         0.14470E-19         0.00000E+00
    0.36523E-12         0.74506E-20         0.00000E+00
    0.36523E-12         0.37253E-20         0.00000E+00
    0.36523E-12         0.18626E-19         0.00000E+00
    0.36523E-12         0.27008E-19         0.00000E+00
    0.36523E-12         0.79505E-20         0.00000E+00
    0.36523E-12        -0.70191E-20         0.00000E+00
    0.36523E-12        -0.14470E-19         0.00000E+00
    0.36523E-12        -0.32254E-20         0.00000E+00
    0.36523E-12         0.55879E-20         0.00000E+00
    0.36523E-12        -0.42252E-20         0.00000E+00
    0.36523E-12        -0.74506E-20         0.00000E+00
    0.36523E-12        -0.93132E-20         0.00000E+00
    0.36523E-12        -0.74506E-20         0.00000E+00
    0.36523E-12         0.14312E-20         0.00000E+00
    0.36523E-12         0.13628E-20         0.00000E+00
    0.36523E-12         0.35884E-20         0.00000E+00
    0.44069E-12         0.37253E-20         0.00000E+00
    0.44069E-12        -0.43145E-21         0.00000E+00
    0.44069E-12        -0.10245E-19         0.00000E+00
    0.44069E-12        -0.79505E-20         0.00000E+00
    0.44069E-12        -0.37253E-20         0.00000E+00
    0.44069E-12        -0.69507E-20         0.00000E+00
    0.44069E-12         0.37253E-20         0.00000E+00
    0.44069E-12         0.00000E+00         0.00000E+00
    0.44069E-12        -0.74506E-20         0.00000E+00
    0.44069E-12        -0.93132E-20         0.00000E+00
    0.44069E-12         0.49988E-21         0.00000E+00
    0.44069E-12         0.10676E-19         0.00000E+00
    0.44069E-12         0.70191E-20         0.00000E+00
    0.44069E-12         0.70191E-20         0.00000E+00
    0.44069E-12        -0.37937E-20         0.00000E+00
    0.44069E-12        -0.88818E-20         0.00000E+00
    0.44069E-12        -0.37253E-20         0.00000E+00
    0.44069E-12         0.69507E-20         0.00000E+00
    0.44069E-12         0.12107E-19         0.00000E+00
    0.44069E-12         0.12607E-19         0.00000E+00
    0.44069E-12         0.98131E-20         0.00000E+00
    0.44069E-12        -0.50881E-20         0.00000E+00
    0.44069E-12        -0.79505E-20         0.00000E+00
    0.44069E-12        -0.27940E-20         0.00000E+00
    0.44069E-12        -0.62912E-34         0.00000E+00
    0.44069E-12         0.46566E-20         0.00000E+00
    0.44069E-12         0.37253E-20         0.00000E+00
    0.44069E-12         0.37253E-20         0.00000E+00
    0.44069E-12         0.13538E-19         0.00000E+00
    0.44069E-12         0.18127E-19         0.00000E+00
    0.44069E-12         0.12539E-19         0.00000E+00
    0.44069E-12         0.51565E-20         0.00000E+00
    0.44069E-12         0.27940E-20         0.00000E+00
    0.44069E-12         0.12539E-19         0.00000E+00
    0.44069E-12         0.93132E-20         0.00000E+00
    0.44069E-12         0.55879E-20         0.00000E+00
    0.44069E-12         0.12607E-19         0.00000E+00
    0.44069E-12         0.16764E-19         0.00000E+00
    0.44069E-12         0.12107E-19         0.00000E+00
    0.44069E-12         0.49988E-21         0.00000E+00
    0.44069E-12         0.41567E-20         0.00000E+00
    0.44069E-12         0.22783E-19         0.00000E+00
    0.44069E-12         0.27940E-19         0.00000E+00
    0.44069E-12         0.93132E-20         0.00000E+00
    0.44069E-12        -0.93132E-20         0.00000E+00
    0.44069E-12        -0.21852E-19         0.00000E+00
    0.44069E-12        -0.11176E-19         0.00000E+00
    0.44069E-12        -0.93132E-20         0.00000E+00
    0.44069E-12        -0.12107E-19         0.00000E+00
    0.44069E-12        -0.12607E-19         0.00000E+00
    0.44069E-12        -0.37253E-20         0.00000E+00
    0.53231E-12         0.37253E-20         0.00000E+00
    0.53231E-12         0.37253E-20         0.00000E+00
    0.53231E-12         0.74506E-20         0.00000E+00
    0.53231E-12         0.18626E-20         0.00000E+00
    0.53231E-12        -0.13039E-19         0.00000E+00
    0.53231E-12        -0.14901E-19         0.00000E+00
    0.53231E-12        -0.55879E-20         0.00000E+00
    0.53231E-12         0.00000E+00         0.00000E+00
    0.53231E-12         0.55879E-20         0.00000E+00
    0.53231E-12         0.37253E-20         0.00000E+00
    0.53231E-12        -0.55879E-20         0.00000E+00
    0.53231E-12         0.00000E+00         0.00000E+00
    0.53231E-12         0.55879E-20         0.00000E+00
    0.53231E-12        -0.37253E-20         0.00000E+00
    0.53231E-12         0.18626E-20         0.00000E+00
    0.53231E-12         0.11176E-19         0.00000E+00
    0.53231E-12         0.37253E-20         0.00000E+00
    0.53231E-12         0.18626E-20         0.00000E+00
    0.53231E-12         0.86289E-21         0.00000E+00
    0.53231E-12        -0.19203E-33         0.00000E+00
    0.53231E-12        -0.86289E-21         0.00000E+00
    0.53231E-12        -0.55879E-20         0.00000E+00
    0.53231E-12        -0.18626E-20         0.00000E+00
    0.53231E-12        -0.18626E-20         0.00000E+00
    0.53231E-12         0.00000E+00         0.00000E+00
    0.53231E-12         0.74506E-20         0.00000E+00
    0.53231E-12         0.16764E-19         0.00000E+00
    0.53231E-12         0.18626E-19         0.00000E+00
    0.53231E-12         0.24214E-19         0.00000E+00
    0.53231E-12         0.22352E-19         0.00000E+00
    0.53231E-12         0.93132E-20         0.00000E+00
    0.53231E-12         0.00000E+00         0.00000E+00
    0.53231E-12        -0.55879E-20         0.00000E+00
    0.53231E-12        -0.55879E-20         0.00000E+00
    0.53231E-12         0.37253E-20         0.00000E+00
    0.53231E-12         0.55879E-20         0.00000E+00
    0.53231E-12         0.37253E-20         0.00000E+00
    0.53231E-12         0.14901E-19         0.00000E+00
    0.53231E-12         0.22352E-19         0.00000E+00
    0.53231E-12         0.16764E-19         0.00000E+00
    0.53231E-12         0.93132E-20         0.00000E+00
    0.53231E-12        -0.55879E-20         0.00000E+00
    0.53231E-12        -0.13039E-19         0.00000E+00
    0.53231E-12         0.37253E-20         0.00000E+00
    0.53231E-12         0.13039E-19         0.00000E+00
    0.53231E-12         0.11176E-19         0.00000E+00
    0.53231E-12         0.37253E-20         0.00000E+00
    0.53231E-12        -0.37253E-20         0.00000E+00
    0.53231E-12         0.55879E-20         0.00000E+00
    0.53231E-12         0.74506E-20         0.00000E+00
    0.53231E-12         0.00000E+00         0.00000E+00
    0.64339E-12        -0.75874E-20         0.00000E+00
    0.64339E-12        -0.37253E-20         0.00000E+00
    0.64339E-12        -0.55195E-20         0.00000E+00
    0.64339E-12        -0.13039E-19         0.00000E+00
    0.64339E-12        -0.93817E-20         0.00000E+00
    0.64339E-12        -0.68425E-22         0.00000E+00
    0.64339E-12        -0.55195E-20         0.00000E+00
    0.64339E-12        -0.11107E-19         0.00000E+00
    0.64339E-12        -0.93132E-20         0.00000E+00
    0.64339E-12        -0.18626E-20         0.00000E+00
    0.64339E-12         0.18626E-20         0.00000E+00
    0.64339E-12         0.37253E-20         0.00000E+00
    0.64339E-12         0.16764E-19         0.00000E+00
    0.64339E-12         0.14901E-19         0.00000E+00
    0.64339E-12         0.00000E+00         0.00000E+00
    0.64339E-12        -0.18626E-20         0.00000E+00
    0.64339E-12         0.74506E-20         0.00000E+00
    0.64339E-12         0.18626E-20         0.00000E+00
    0.64339E-12        -0.74506E-20         0.00000E+00
    0.64339E-12        -0.74506E-20         0.00000E+00
    0.64339E-12        -0.37253E-20         0.00000E+00
    0.64339E-12        -0.37253E-20         0.00000E+00
    0.64339E-12        -0.11176E-19         0.00000E+00
    0.64339E-12        -0.93132E-20         0.00000E+00
    0.64339E-12        -0.18626E-20         0.00000E+00
    0.64339E-12         0.74506E-20         0.00000E+00
    0.64339E-12         0.24214E-19         0.00000E+00
    0.64339E-12         0.24214E-19         0.00000E+00
    0.64339E-12         0.16764E-19         0.00000E+00
    0.64339E-12         0.14901E-19         0.00000E+00
    0.64339E-12         0.37253E-20         0.00000E+00
    0.64339E-12        -0.18626E-20         0.00000E+00
    0.64339E-12         0.18626E-20         0.00000E+00
    0.64339E-12         0.18626E-20         0.00000E+00
    0.64339E-12         0.00000E+00         0.00000E+00
    0.64339E-12         0.00000E+00         0.00000E+00
    0.64339E-12        -0.18626E-20         0.00000E+00
    0.64339E-12        -0.18626E-20         0.00000E+00
    0.64339E-12         0.55879E-20         0.00000E+00
    0.64339E-12         0.16695E-19         0.00000E+00
    0.64339E-12         0.18626E-19         0.00000E+00
    0.64339E-12         0.11244E-19         0.00000E+00
    0.64339E-12         0.22352E-19         0.00000E+00
    0.64339E-12         0.20489E-19         0.00000E+00
    0.64339E-12        -0.74506E-20         0.00000E+00
    0.64339E-12        -0.11176E-19         0.00000E+00
    0.64339E-12        -0.37937E-20         0.00000E+00
    0.64339E-12        -0.46566E-20         0.00000E+00
    0.64339E-12        -0.83135E-20         0.00000E+00
    0.64339E-12        -0.37253E-20         0.00000E+00
    0.64339E-12         0.00000E+00         0.00000E+00
    0.77789E-12         0.37253E-20         0.00000E+00
    0.77789E-12        -0.17942E-20         0.00000E+00
    0.77789E-12        -0.83819E-20         0.00000E+00
    0.77789E-12        -0.47250E-20         0.00000E+00
    0.77789E-12        -0.93132E-20         0.00000E+00
    0.77789E-12        -0.17627E-19         0.00000E+00
    0.77789E-12        -0.10176E-19         0.00000E+00
    0.77789E-12        -0.93132E-20         0.00000E+00
    0.77789E-12        -0.37937E-20         0.00000E+00
    0.77789E-12         0.36569E-20         0.00000E+00
    0.77789E-12         0.37937E-20         0.00000E+00
    0.77789E-12         0.37253E-20         0.00000E+00
    0.77789E-12        -0.93816E-20         0.00000E+00
    0.77789E-12        -0.55195E-20         0.00000E+00
    0.77789E-12         0.74506E-20         0.00000E+00
    0.77789E-12        -0.93132E-21         0.00000E+00
    0.77789E-12        -0.83135E-20         0.00000E+00
    0.77789E-12        -0.99974E-21         0.00000E+00
    0.77789E-12         0.45882E-20         0.00000E+00
    0.77789E-12         0.14901E-19         0.00000E+00
    0.77789E-12         0.17764E-19         0.00000E+00
    0.77789E-12         0.12176E-19         0.00000E+00
    0.77789E-12         0.00000E+00         0.00000E+00
    0.77789E-12        -0.18626E-20         0.00000E+00
    0.77789E-12        -0.56564E-20         0.00000E+00
    0.77789E-12        -0.65193E-20         0.00000E+00
    0.77789E-12         0.47250E-20         0.00000E+00
    0.77789E-12         0.55879E-20         0.00000E+00
    0.77789E-12         0.74506E-20         0.00000E+00
    0.77789E-12         0.55195E-20         0.00000E+00
    0.77789E-12         0.18626E-20         0.00000E+00
    0.77789E-12         0.11244E-19         0.00000E+00
    0.77789E-12         0.12039E-19         0.00000E+00
    0.77789E-12        -0.99974E-21         0.00000E+00
    0.77789E-12        -0.55879E-20         0.00000E+00
    0.77789E-12        -0.93132E-20         0.00000E+00
    0.77789E-12        -0.74506E-20         0.00000E+00
    0.77789E-12         0.37937E-20         0.00000E+00
    0.77789E-12         0.56564E-20         0.00000E+00
    0.77789E-12        -0.56564E-20         0.00000E+00
    0.77789E-12        -0.68422E-22         0.00000E+00
    0.77789E-12         0.16764E-19         0.00000E+00
    0.77789E-12         0.13107E-19         0.00000E+00
    0.77789E-12         0.93816E-20         0.00000E+00
    0.77789E-12         0.33528E-19         0.00000E+00
    0.77789E-12         0.40978E-19         0.00000E+00
    0.77789E-12         0.24146E-19         0.00000E+00
    0.77789E-12        -0.68422E-22         0.00000E+00
    0.77789E-12        -0.93132E-20         0.00000E+00
    0.77789E-12        -0.93132E-20         0.00000E+00
    0.77789E-12        -0.11176E-19         0.00000E+00
    0.94061E-12        -0.11176E-19         0.00000E+00
    0.94061E-12         0.00000E+00         0.00000E+00
    0.94061E-12         0.00000E+00         0.00000E+00
    0.94061E-12        -0.13901E-19         0.00000E+00
    0.94061E-12        -0.14901E-19         0.00000E+00
    0.94061E-12        -0.14107E-19         0.00000E+00
    0.94061E-12        -0.74506E-20         0.00000E+00
    0.94061E-12         0.68419E-22         0.00000E+00
    0.94061E-12        -0.11176E-19         0.00000E+00
    0.94061E-12        -0.11176E-19         0.00000E+00
    0.94061E-12        -0.18626E-20         0.00000E+00
    0.94061E-12         0.99974E-21         0.00000E+00
    0.94061E-12         0.37253E-20         0.00000E+00
    0.94061E-12        -0.93132E-21         0.00000E+00
    0.94061E-12        -0.10245E-19         0.00000E+00
    0.94061E-12         0.27255E-20         0.00000E+00
    0.94061E-12         0.74506E-20         0.00000E+00
    0.94061E-12         0.11176E-19         0.00000E+00
    0.94061E-12         0.13039E-19         0.00000E+00
    0.94061E-12         0.37253E-20         0.00000E+00
    0.94061E-12        -0.18626E-20         0.00000E+00
    0.94061E-12        -0.11176E-19         0.00000E+00
    0.94061E-12        -0.37253E-20         0.00000E+00
    0.94061E-12         0.12176E-19         0.00000E+00
    0.94061E-12         0.11107E-19         0.00000E+00
    0.94061E-12         0.55879E-20         0.00000E+00
    0.94061E-12         0.10313E-19         0.00000E+00
    0.94061E-12         0.11107E-19         0.00000E+00
    0.94061E-12         0.55879E-20         0.00000E+00
    0.94061E-12        -0.16764E-19         0.00000E+00
    0.94061E-12        -0.16764E-19         0.00000E+00
    0.94061E-12        -0.18626E-20         0.00000E+00
    0.94061E-12         0.55879E-20         0.00000E+00
    0.94061E-12         0.74506E-20         0.00000E+00
    0.94061E-12         0.55879E-20         0.00000E+00
    0.94061E-12         0.11176E-19         0.00000E+00
    0.94061E-12         0.11176E-19         0.00000E+00
    0.94061E-12        -0.18626E-20         0.00000E+00
    0.94061E-12        -0.13039E-19         0.00000E+00
    0.94061E-12        -0.55879E-20         0.00000E+00
    0.94061E-12         0.36569E-20         0.00000E+00
    0.94061E-12        -0.19936E-34         0.00000E+00
    0.94061E-12         0.93816E-20         0.00000E+00
    0.94061E-12         0.12970E-19         0.00000E+00
    0.94061E-12         0.28624E-20         0.00000E+00
    0.94061E-12         0.29308E-20         0.00000E+00
    0.94061E-12        -0.37937E-20         0.00000E+00
    0.94061E-12        -0.19311E-20         0.00000E+00
    0.94061E-12         0.74506E-20         0.00000E+00
    0.94061E-12         0.73822E-20         0.00000E+00
    0.94061E-12         0.35885E-20         0.00000E+00
    0.11373E-11         0.37253E-20         0.00000E+00
    0.11373E-11         0.45882E-20         0.00000E+00
    0.11373E-11        -0.83819E-20         0.00000E+00
    0.11373E-11        -0.18558E-19         0.00000E+00
    0.11373E-11        -0.24214E-19         0.00000E+00
    0.11373E-11        -0.14901E-19         0.00000E+00
    0.11373E-11        -0.11176E-19         0.00000E+00
    0.11373E-11        -0.22352E-19         0.00000E+00
    0.11373E-11        -0.75190E-20         0.00000E+00
    0.11373E-11         0.37253E-20         0.00000E+00
    0.11373E-11         0.37937E-20         0.00000E+00
    0.11373E-11         0.13039E-19         0.00000E+00
    0.11373E-11         0.83135E-20         0.00000E+00
    0.11373E-11         0.37253E-20         0.00000E+00
    0.11373E-11         0.10313E-19         0.00000E+00
    0.11373E-11        -0.19311E-20         0.00000E+00
    0.11373E-11        -0.65193E-20         0.00000E+00
    0.11373E-11        -0.25146E-33         0.00000E+00
    0.11373E-11        -0.12176E-19         0.00000E+00
    0.11373E-11        -0.19489E-19         0.00000E+00
    0.11373E-11        -0.10245E-19         0.00000E+00
    0.11373E-11         0.37253E-20         0.00000E+00
    0.11373E-11        -0.18626E-20         0.00000E+00
    0.11373E-11        -0.14970E-19         0.00000E+00
    0.11373E-11        -0.55879E-20         0.00000E+00
    0.11373E-11         0.37253E-20         0.00000E+00
    0.11373E-11         0.15901E-19         0.00000E+00
    0.11373E-11         0.12107E-19         0.00000E+00
    0.11373E-11         0.36569E-20         0.00000E+00
    0.11373E-11         0.65877E-20         0.00000E+00
    0.11373E-11         0.37253E-20         0.00000E+00
    0.11373E-11         0.27940E-20         0.00000E+00
    0.11373E-11        -0.17942E-20         0.00000E+00
    0.11373E-11         0.36569E-20         0.00000E+00
    0.11373E-11        -0.37253E-20         0.00000E+00
    0.11373E-11        -0.13039E-19         0.00000E+00
    0.11373E-11        -0.11244E-19         0.00000E+00
    0.11373E-11        -0.11176E-19         0.00000E+00
    0.11373E-11        -0.92448E-20         0.00000E+00
    0.11373E-11        -0.16695E-19         0.00000E+00
    0.11373E-11        -0.22420E-19         0.00000E+00
    0.11373E-11        -0.14901E-19         0.00000E+00
    0.11373E-11        -0.55195E-20         0.00000E+00
    0.11373E-11        -0.37253E-20         0.00000E+00
    0.11373E-11         0.93132E-20         0.00000E+00
    0.11373E-11         0.27940E-19         0.00000E+00
    0.11373E-11         0.39116E-19         0.00000E+00
    0.11373E-11         0.33459E-19         0.00000E+00
    0.11373E-11         0.83819E-20         0.00000E+00
    0.11373E-11        -0.83819E-20         0.00000E+00
    0.11373E-11        -0.75874E-20         0.00000E+00
    0.13749E-11        -0.14764E-19         0.00000E+00
    0.13749E-11        -0.93132E-20         0.00000E+00
    0.13749E-11         0.37253E-20         0.00000E+00
    0.13749E-11         0.18626E-19         0.00000E+00
    0.13749E-11         0.20489E-19         0.00000E+00
    0.13749E-11         0.18626E-20         0.00000E+00
    0.13749E-11        -0.65193E-20         0.00000E+00
    0.13749E-11        -0.27256E-20         0.00000E+00
    0.13749E-11        -0.93132E-20         0.00000E+00
    0.13749E-11        -0.19626E-19         0.00000E+00
    0.13749E-11        -0.14038E-19         0.00000E+00
    0.13749E-11        -0.13039E-19         0.00000E+00
    0.13749E-11        -0.37253E-20         0.00000E+00
    0.13749E-11        -0.37253E-20         0.00000E+00
    0.13749E-11        -0.93132E-20         0.00000E+00
    0.13749E-11         0.93132E-20         0.00000E+00
    0.13749E-11         0.93132E-20         0.00000E+00
    0.13749E-11         0.55879E-20         0.00000E+00
    0.13749E-11         0.93132E-20         0.00000E+00
    0.13749E-11        -0.55879E-20         0.00000E+00
    0.13749E-11        -0.11176E-19         0.00000E+00
    0.13749E-11        -0.37253E-20         0.00000E+00
    0.13749E-11         0.37253E-20         0.00000E+00
    0.13749E-11        -0.18626E-20         0.00000E+00
    0.13749E-11        -0.74506E-20         0.00000E+00
    0.13749E-11         0.68409E-22         0.00000E+00
    0.13749E-11        -0.37253E-20         0.00000E+00
    0.13749E-11        -0.37937E-20         0.00000E+00
    0.13749E-11         0.18626E-20         0.00000E+00
    0.13749E-11        -0.37253E-20         0.00000E+00
    0.13749E-11        -0.37253E-20         0.00000E+00
    0.13749E-11         0.13107E-19         0.00000E+00
    0.13749E-11         0.25146E-19         0.00000E+00
    0.13749E-11         0.45882E-20         0.00000E+00
    0.13749E-11         0.00000E+00         0.00000E+00
    0.13749E-11         0.00000E+00         0.00000E+00
    0.13749E-11        -0.16764E-19         0.00000E+00
    0.13749E-11        -0.24214E-19         0.00000E+00
    0.13749E-11        -0.27940E-19         0.00000E+00
    0.13749E-11        -0.24146E-19         0.00000E+00
    0.13749E-11        -0.16764E-19         0.00000E+00
    0.13749E-11        -0.11176E-19         0.00000E+00
    0.13749E-11        -0.11176E-19         0.00000E+00
    0.13749E-11        -0.18626E-20         0.00000E+00
    0.13749E-11        -0.33102E-34         0.00000E+00
    0.13749E-11        -0.75190E-20         0.00000E+00
    0.13749E-11        -0.55879E-20         0.00000E+00
    0.13749E-11         0.37253E-20         0.00000E+00
    0.13749E-11         0.13039E-19         0.00000E+00
    0.13749E-11         0.73822E-20         0.00000E+00
    0.13749E-11         0.35885E-20         0.00000E+00
    0.16618E-11        -0.74506E-20         0.00000E+00
    0.16618E-11        -0.37253E-20         0.00000E+00
    0.16618E-11         0.37253E-20         0.00000E+00
    0.16618E-11         0.55879E-20         0.00000E+00
    0.16618E-11        -0.86292E-21         0.00000E+00
    0.16618E-11        -0.27940E-20         0.00000E+00
    0.16618E-11        -0.37937E-20         0.00000E+00
    0.16618E-11        -0.55879E-20         0.00000E+00
    0.16618E-11        -0.93132E-20         0.00000E+00
    0.16618E-11        -0.74506E-20         0.00000E+00
    0.16618E-11        -0.73822E-20         0.00000E+00
    0.16618E-11        -0.12107E-19         0.00000E+00
    0.16618E-11        -0.21489E-19         0.00000E+00
    0.16618E-11        -0.16695E-19         0.00000E+00
    0.16618E-11         0.93132E-21         0.00000E+00
    0.16618E-11         0.35885E-20         0.00000E+00
    0.16618E-11         0.12107E-19         0.00000E+00
    0.16618E-11         0.56563E-20         0.00000E+00
    0.16618E-11         0.00000E+00         0.00000E+00
    0.16618E-11         0.14901E-19         0.00000E+00
    0.16618E-11         0.16764E-19         0.00000E+00
    0.16618E-11         0.93132E-20         0.00000E+00
    0.16618E-11         0.18626E-20         0.00000E+00
    0.16618E-11        -0.93132E-20         0.00000E+00
    0.16618E-11        -0.14901E-19         0.00000E+00
    0.16618E-11        -0.14901E-19         0.00000E+00
    0.16618E-11        -0.37253E-20         0.00000E+00
    0.16618E-11         0.74506E-20         0.00000E+00
    0.16618E-11         0.37253E-20         0.00000E+00
    0.16618E-11         0.00000E+00         0.00000E+00
    0.16618E-11        -0.55879E-20         0.00000E+00
    0.16618E-11        -0.55879E-20         0.00000E+00
    0.16618E-11        -0.93132E-20         0.00000E+00
    0.16618E-11        -0.74506E-20         0.00000E+00
    0.16618E-11        -0.18626E-20         0.00000E+00
    0.16618E-11        -0.13107E-19         0.00000E+00
    0.16618E-11        -0.19558E-19         0.00000E+00
    0.16618E-11        -0.19489E-19         0.00000E+00
    0.16618E-11        -0.18626E-19         0.00000E+00
    0.16618E-11        -0.16764E-19         0.00000E+00
    0.16618E-11        -0.73822E-20         0.00000E+00
    0.16618E-11        -0.74506E-20         0.00000E+00
    0.16618E-11        -0.68402E-22         0.00000E+00
    0.16618E-11         0.55879E-20         0.00000E+00
    0.16618E-11         0.11176E-19         0.00000E+00
    0.16618E-11         0.11176E-19         0.00000E+00
    0.16618E-11         0.68402E-22         0.00000E+00
    0.16618E-11        -0.27940E-20         0.00000E+00
    0.16618E-11        -0.12176E-19         0.00000E+00
    0.16618E-11        -0.37937E-20         0.00000E+00
    0.16618E-11         0.73138E-20         0.00000E+00
    0.20081E-11         0.74506E-20         0.00000E+00
    0.20081E-11         0.11176E-19         0.00000E+00
    0.20081E-11         0.73822E-20         0.00000E+00
    0.20081E-11         0.74506E-20         0.00000E+00
    0.20081E-11         0.13107E-19         0.00000E+00
    0.20081E-11         0.14901E-19         0.00000E+00
    0.20081E-11         0.14901E-19         0.00000E+00
    0.20081E-11         0.37253E-20         0.00000E+00
    0.20081E-11        -0.93132E-20         0.00000E+00
    0.20081E-11        -0.13039E-19         0.00000E+00
    0.20081E-11        -0.47250E-20         0.00000E+00
    0.20081E-11         0.27940E-20         0.00000E+00
    0.20081E-11         0.37937E-20         0.00000E+00
    0.20081E-11         0.93132E-20         0.00000E+00
    0.20081E-11         0.37253E-20         0.00000E+00
    0.20081E-11        -0.13039E-19         0.00000E+00
    0.20081E-11        -0.11176E-19         0.00000E+00
    0.20081E-11         0.00000E+00         0.00000E+00
    0.20081E-11         0.18626E-20         0.00000E+00
    0.20081E-11         0.00000E+00         0.00000E+00
    0.20081E-11        -0.37253E-20         0.00000E+00
    0.20081E-11         0.00000E+00         0.00000E+00
    0.20081E-11         0.00000E+00         0.00000E+00
    0.20081E-11        -0.74506E-20         0.00000E+00
    0.20081E-11        -0.18626E-20         0.00000E+00
    0.20081E-11         0.00000E+00         0.00000E+00
    0.20081E-11        -0.14901E-19         0.00000E+00
    0.20081E-11        -0.18626E-19         0.00000E+00
    0.20081E-11        -0.37253E-20         0.00000E+00
    0.20081E-11         0.93132E-20         0.00000E+00
    0.20081E-11         0.11176E-19         0.00000E+00
    0.20081E-11         0.18626E-20         0.00000E+00
    0.20081E-11        -0.55879E-20         0.00000E+00
    0.20081E-11        -0.11176E-19         0.00000E+00
    0.20081E-11        -0.93132E-20         0.00000E+00
    0.20081E-11        -0.74506E-20         0.00000E+00
    0.20081E-11        -0.14970E-19         0.00000E+00
    0.20081E-11        -0.16832E-19         0.00000E+00
    0.20081E-11        -0.14833E-19         0.00000E+00
    0.20081E-11        -0.55195E-20         0.00000E+00
    0.20081E-11         0.18626E-20         0.00000E+00
    0.20081E-11         0.11176E-19         0.00000E+00
    0.20081E-11         0.74506E-20         0.00000E+00
    0.20081E-11        -0.55879E-20         0.00000E+00
    0.20081E-11        -0.93816E-20         0.00000E+00
    0.20081E-11        -0.75190E-20         0.00000E+00
    0.20081E-11        -0.55195E-20         0.00000E+00
    0.20081E-11         0.68395E-22         0.00000E+00
    0.20081E-11        -0.18626E-20         0.00000E+00
    0.20081E-11        -0.56563E-20         0.00000E+00
    0.20081E-11        -0.13679E-21         0.00000E+00
    0.24257E-11         0.37253E-20         0.00000E+00
    0.24257E-11         0.99971E-21         0.00000E+00
    0.24257E-11         0.28624E-20         0.00000E+00
    0.24257E-11         0.55196E-20         0.00000E+00
    0.24257E-11         0.55879E-20         0.00000E+00
    0.24257E-11         0.93816E-20         0.00000E+00
    0.24257E-11         0.74506E-20         0.00000E+00
    0.24257E-11         0.83135E-20         0.00000E+00
    0.24257E-11         0.83135E-20         0.00000E+00
    0.24257E-11         0.12176E-19         0.00000E+00
    0.24257E-11         0.20489E-19         0.00000E+00
    0.24257E-11         0.45882E-20         0.00000E+00
    0.24257E-11        -0.74506E-20         0.00000E+00
    0.24257E-11        -0.12970E-19         0.00000E+00
    0.24257E-11        -0.37253E-20         0.00000E+00
    0.24257E-11         0.13970E-19         0.00000E+00
    0.24257E-11         0.14038E-19         0.00000E+00
    0.24257E-11         0.37253E-20         0.00000E+00
    0.24257E-11        -0.85187E-20         0.00000E+00
    0.24257E-11        -0.18626E-20         0.00000E+00
    0.24257E-11         0.47934E-20         0.00000E+00
    0.24257E-11         0.00000E+00         0.00000E+00
    0.24257E-11         0.55196E-20         0.00000E+00
    0.24257E-11         0.27940E-20         0.00000E+00
    0.24257E-11        -0.15764E-19         0.00000E+00
    0.24257E-11        -0.22352E-19         0.00000E+00
    0.24257E-11        -0.14901E-19         0.00000E+00
    0.24257E-11        -0.93132E-20         0.00000E+00
    0.24257E-11        -0.11176E-19         0.00000E+00
    0.24257E-11        -0.21489E-19         0.00000E+00
    0.24257E-11        -0.21420E-19         0.00000E+00
    0.24257E-11        -0.11107E-19         0.00000E+00
    0.24257E-11         0.00000E+00         0.00000E+00
    0.24257E-11         0.55879E-20         0.00000E+00
    0.24257E-11         0.37253E-20         0.00000E+00
    0.24257E-11         0.55879E-20         0.00000E+00
    0.24257E-11         0.14901E-19         0.00000E+00
    0.24257E-11         0.37253E-20         0.00000E+00
    0.24257E-11        -0.75190E-20         0.00000E+00
    0.24257E-11        -0.11176E-19         0.00000E+00
    0.24257E-11        -0.14833E-19         0.00000E+00
    0.24257E-11        -0.18695E-19         0.00000E+00
    0.24257E-11        -0.14901E-19         0.00000E+00
    0.24257E-11        -0.14833E-19         0.00000E+00
    0.24257E-11        -0.13107E-19         0.00000E+00
    0.24257E-11        -0.37937E-20         0.00000E+00
    0.24257E-11        -0.74506E-20         0.00000E+00
    0.24257E-11        -0.14901E-19         0.00000E+00
    0.24257E-11         0.37253E-20         0.00000E+00
    0.24257E-11         0.14901E-19         0.00000E+00
    0.24257E-11         0.37253E-20         0.00000E+00
    0.29291E-11         0.37253E-20         0.00000E+00
    0.29291E-11         0.18626E-20         0.00000E+00
    0.29291E-11        -0.18626E-20         0.00000E+00
    0.29291E-11         0.18626E-20         0.00000E+00
    0.29291E-11         0.47250E-20         0.00000E+00
    0.29291E-11         0.11107E-19         0.00000E+00
    0.29291E-11         0.17558E-19         0.00000E+00
    0.29291E-11         0.16832E-19         0.00000E+00
    0.29291E-11         0.26145E-19         0.00000E+00
    0.29291E-11         0.15764E-19         0.00000E+00
    0.29291E-11        -0.55879E-20         0.00000E+00
    0.29291E-11        -0.45882E-20         0.00000E+00
    0.29291E-11         0.11176E-19         0.00000E+00
    0.29291E-11         0.93132E-20         0.00000E+00
    0.29291E-11        -0.74506E-20         0.00000E+00
    0.29291E-11        -0.18695E-19         0.00000E+00
    0.29291E-11         0.19310E-20         0.00000E+00
    0.29291E-11         0.25214E-19         0.00000E+00
    0.29291E-11         0.23146E-19         0.00000E+00
    0.29291E-11         0.15901E-19         0.00000E+00
    0.29291E-11         0.68374E-22         0.00000E+00
    0.29291E-11        -0.12176E-19         0.00000E+00
    0.29291E-11        -0.64509E-20         0.00000E+00
    0.29291E-11        -0.45882E-20         0.00000E+00
    0.29291E-11        -0.29307E-20         0.00000E+00
    0.29291E-11        -0.55879E-20         0.00000E+00
    0.29291E-11        -0.21352E-19         0.00000E+00
    0.29291E-11        -0.24283E-19         0.00000E+00
    0.29291E-11        -0.16764E-19         0.00000E+00
    0.29291E-11        -0.17764E-19         0.00000E+00
    0.29291E-11        -0.16695E-19         0.00000E+00
    0.29291E-11        -0.45199E-20         0.00000E+00
    0.29291E-11        -0.47250E-20         0.00000E+00
    0.29291E-11        -0.17764E-19         0.00000E+00
    0.29291E-11        -0.26009E-19         0.00000E+00
    0.29291E-11        -0.18626E-19         0.00000E+00
    0.29291E-11        -0.11176E-19         0.00000E+00
    0.29291E-11        -0.74506E-20         0.00000E+00
    0.29291E-11        -0.93132E-20         0.00000E+00
    0.29291E-11        -0.14833E-19         0.00000E+00
    0.29291E-11        -0.37937E-20         0.00000E+00
    0.29291E-11         0.73822E-20         0.00000E+00
    0.29291E-11         0.11244E-19         0.00000E+00
    0.29291E-11         0.16551E-34         0.00000E+00
    0.29291E-11        -0.13107E-19         0.00000E+00
    0.29291E-11        -0.11176E-19         0.00000E+00
    0.29291E-11        -0.18626E-20         0.00000E+00
    0.29291E-11         0.13039E-19         0.00000E+00
    0.29291E-11         0.18695E-19         0.00000E+00
    0.29291E-11         0.45882E-20         0.00000E+00
    0.29291E-11        -0.58614E-20         0.00000E+00
    0.35358E-11        -0.35886E-20         0.00000E+00
    0.35358E-11        -0.37253E-20         0.00000E+00
    0.35358E-11         0.55879E-20         0.00000E+00
    0.35358E-11         0.18626E-19         0.00000E+00
    0.35358E-11         0.19558E-19         0.00000E+00
    0.35358E-11         0.16695E-19         0.00000E+00
    0.35358E-11        -0.19310E-20         0.00000E+00
    0.35358E-11        -0.55879E-20         0.00000E+00
    0.35358E-11        -0.10313E-19         0.00000E+00
    0.35358E-11        -0.13039E-19         0.00000E+00
    0.35358E-11         0.11244E-19         0.00000E+00
    0.35358E-11         0.14970E-19         0.00000E+00
    0.35358E-11         0.00000E+00         0.00000E+00
    0.35358E-11         0.68360E-22         0.00000E+00
    0.35358E-11         0.83135E-20         0.00000E+00
    0.35358E-11         0.10176E-19         0.00000E+00
    0.35358E-11        -0.18626E-20         0.00000E+00
    0.35358E-11        -0.11244E-19         0.00000E+00
    0.35358E-11        -0.12039E-19         0.00000E+00
    0.35358E-11        -0.27256E-20         0.00000E+00
    0.35358E-11         0.47250E-20         0.00000E+00
    0.35358E-11        -0.27256E-20         0.00000E+00
    0.35358E-11        -0.10313E-19         0.00000E+00
    0.35358E-11        -0.93132E-20         0.00000E+00
    0.35358E-11        -0.16832E-19         0.00000E+00
    0.35358E-11        -0.74506E-20         0.00000E+00
    0.35358E-11        -0.12039E-19         0.00000E+00
    0.35358E-11        -0.30870E-19         0.00000E+00
    0.35358E-11        -0.29802E-19         0.00000E+00
    0.35358E-11        -0.31665E-19         0.00000E+00
    0.35358E-11        -0.25146E-19         0.00000E+00
    0.35358E-11        -0.91765E-20         0.00000E+00
    0.35358E-11         0.37937E-20         0.00000E+00
    0.35358E-11         0.17943E-20         0.00000E+00
    0.35358E-11         0.37253E-20         0.00000E+00
    0.35358E-11        -0.47250E-20         0.00000E+00
    0.35358E-11        -0.10381E-19         0.00000E+00
    0.35358E-11        -0.73822E-20         0.00000E+00
    0.35358E-11         0.37253E-20         0.00000E+00
    0.35358E-11         0.10245E-19         0.00000E+00
    0.35358E-11         0.83819E-20         0.00000E+00
    0.35358E-11         0.37253E-20         0.00000E+00
    0.35358E-11        -0.93132E-20         0.00000E+00
    0.35358E-11        -0.83135E-20         0.00000E+00
    0.35358E-11         0.65876E-20         0.00000E+00
    0.35358E-11         0.14833E-19         0.00000E+00
    0.35358E-11         0.93132E-20         0.00000E+00
    0.35358E-11        -0.13039E-19         0.00000E+00
    0.35358E-11        -0.11176E-19         0.00000E+00
    0.35358E-11         0.17943E-20         0.00000E+00
    0.35358E-11         0.35886E-20         0.00000E+00
    0.42665E-11         0.37253E-20         0.00000E+00
    0.42665E-11         0.93816E-20         0.00000E+00
    0.42665E-11         0.74506E-20         0.00000E+00
    0.42665E-11         0.11108E-19         0.00000E+00
    0.42665E-11         0.93132E-20         0.00000E+00
    0.42665E-11        -0.64509E-20         0.00000E+00
    0.42665E-11         0.93132E-21         0.00000E+00
    0.42665E-11         0.93132E-20         0.00000E+00
    0.42665E-11         0.12107E-19         0.00000E+00
    0.42665E-11         0.37253E-20         0.00000E+00
    0.42665E-11        -0.27256E-20         0.00000E+00
    0.42665E-11         0.86298E-21         0.00000E+00
    0.42665E-11        -0.86298E-21         0.00000E+00
    0.42665E-11        -0.11108E-19         0.00000E+00
    0.42665E-11        -0.11313E-19         0.00000E+00
    0.42665E-11        -0.37936E-20         0.00000E+00
    0.42665E-11         0.37253E-20         0.00000E+00
    0.42665E-11         0.27256E-20         0.00000E+00
    0.42665E-11        -0.11176E-19         0.00000E+00
    0.42665E-11        -0.15764E-19         0.00000E+00
    0.42665E-11        -0.20421E-19         0.00000E+00
    0.42665E-11        -0.14833E-19         0.00000E+00
    0.42665E-11        -0.20557E-19         0.00000E+00
    0.42665E-11        -0.28871E-19         0.00000E+00
    0.42665E-11        -0.26077E-19         0.00000E+00
    0.42665E-11        -0.24214E-19         0.00000E+00
    0.42665E-11        -0.93132E-20         0.00000E+00
    0.42665E-11         0.93132E-21         0.00000E+00
    0.42665E-11         0.37936E-20         0.00000E+00
    0.42665E-11        -0.99967E-21         0.00000E+00
    0.42665E-11        -0.14038E-19         0.00000E+00
    0.42665E-11        -0.21352E-19         0.00000E+00
    0.42665E-11        -0.15832E-19         0.00000E+00
    0.42665E-11        -0.68343E-22         0.00000E+00
    0.42665E-11         0.00000E+00         0.00000E+00
    0.42665E-11        -0.74506E-20         0.00000E+00
    0.42665E-11        -0.36569E-20         0.00000E+00
    0.42665E-11         0.18626E-20         0.00000E+00
    0.42665E-11         0.74506E-20         0.00000E+00
    0.42665E-11         0.93816E-20         0.00000E+00
    0.42665E-11        -0.68343E-22         0.00000E+00
    0.42665E-11        -0.11244E-19         0.00000E+00
    0.42665E-11        -0.74506E-20         0.00000E+00
    0.42665E-11        -0.37253E-20         0.00000E+00
    0.42665E-11        -0.11176E-19         0.00000E+00
    0.42665E-11        -0.10176E-19         0.00000E+00
    0.42665E-11        -0.37253E-20         0.00000E+00
    0.42665E-11         0.46566E-20         0.00000E+00
    0.42665E-11         0.65193E-20         0.00000E+00
    0.42665E-11         0.73822E-20         0.00000E+00
    0.42665E-11         0.37253E-20         0.00000E+00
    0.51461E-11        -0.37253E-20         0.00000E+00
    0.51461E-11        -0.37936E-20         0.00000E+00
    0.51461E-11         0.18626E-20         0.00000E+00
    0.51461E-11        -0.79468E-21         0.00000E+00
    0.51461E-11         0.46566E-20         0.00000E+00
    0.51461E-11         0.14833E-19         0.00000E+00
    0.51461E-11         0.93132E-20         0.00000E+00
    0.51461E-11        -0.37253E-20         0.00000E+00
    0.51461E-11        -0.14901E-19         0.00000E+00
    0.51461E-11        -0.11108E-19         0.00000E+00
    0.51461E-11        -0.18626E-20         0.00000E+00
    0.51461E-11        -0.37936E-20         0.00000E+00
    0.51461E-11        -0.93132E-20         0.00000E+00
    0.51461E-11        -0.74506E-20         0.00000E+00
    0.51461E-11        -0.13039E-19         0.00000E+00
    0.51461E-11        -0.25077E-19         0.00000E+00
    0.51461E-11        -0.32528E-19         0.00000E+00
    0.51461E-11        -0.39184E-19         0.00000E+00
    0.51461E-11        -0.24283E-19         0.00000E+00
    0.51461E-11        -0.11176E-19         0.00000E+00
    0.51461E-11        -0.11176E-19         0.00000E+00
    0.51461E-11        -0.16695E-19         0.00000E+00
    0.51461E-11        -0.24146E-19         0.00000E+00
    0.51461E-11        -0.29802E-19         0.00000E+00
    0.51461E-11        -0.25214E-19         0.00000E+00
    0.51461E-11        -0.12176E-19         0.00000E+00
    0.51461E-11        -0.36570E-20         0.00000E+00
    0.51461E-11        -0.55196E-20         0.00000E+00
    0.51461E-11        -0.75189E-20         0.00000E+00
    0.51461E-11        -0.56563E-20         0.00000E+00
    0.51461E-11        -0.11176E-19         0.00000E+00
    0.51461E-11        -0.16764E-19         0.00000E+00
    0.51461E-11        -0.16695E-19         0.00000E+00
    0.51461E-11        -0.22283E-19         0.00000E+00
    0.51461E-11        -0.13107E-19         0.00000E+00
    0.51461E-11        -0.68323E-22         0.00000E+00
    0.51461E-11         0.11176E-19         0.00000E+00
    0.51461E-11         0.14901E-19         0.00000E+00
    0.51461E-11         0.00000E+00         0.00000E+00
    0.51461E-11        -0.36570E-20         0.00000E+00
    0.51461E-11        -0.93132E-20         0.00000E+00
    0.51461E-11        -0.11244E-19         0.00000E+00
    0.51461E-11        -0.13039E-19         0.00000E+00
    0.51461E-11        -0.13039E-19         0.00000E+00
    0.51461E-11        -0.14901E-19         0.00000E+00
    0.51461E-11        -0.73823E-20         0.00000E+00
    0.51461E-11         0.46566E-20         0.00000E+00
    0.51461E-11        -0.68323E-22         0.00000E+00
    0.51461E-11         0.13039E-19         0.00000E+00
    0.51461E-11         0.92449E-20         0.00000E+00
    0.51461E-11        -0.13665E-21         0.00000E+00
    0.62046E-11        -0.14901E-19         0.00000E+00
    0.62046E-11        -0.37253E-20         0.00000E+00
    0.62046E-11         0.11176E-19         0.00000E+00
    0.62046E-11         0.74506E-20         0.00000E+00
    0.62046E-11        -0.13039E-19         0.00000E+00
    0.62046E-11        -0.18626E-19         0.00000E+00
    0.62046E-11        -0.13039E-19         0.00000E+00
    0.62046E-11        -0.13039E-19         0.00000E+00
    0.62046E-11        -0.74506E-20         0.00000E+00
    0.62046E-11        -0.55879E-20         0.00000E+00
    0.62046E-11        -0.74506E-20         0.00000E+00
    0.62046E-11        -0.93132E-20         0.00000E+00
    0.62046E-11        -0.93132E-20         0.00000E+00
    0.62046E-11        -0.14901E-19         0.00000E+00
    0.62046E-11        -0.26077E-19         0.00000E+00
    0.62046E-11        -0.31665E-19         0.00000E+00
    0.62046E-11        -0.22352E-19         0.00000E+00
    0.62046E-11        -0.20489E-19         0.00000E+00
    0.62046E-11        -0.25282E-19         0.00000E+00
    0.62046E-11        -0.16764E-19         0.00000E+00
    0.62046E-11        -0.19421E-19         0.00000E+00
    0.62046E-11        -0.22352E-19         0.00000E+00
    0.62046E-11        -0.13039E-19         0.00000E+00
    0.62046E-11        -0.55879E-20         0.00000E+00
    0.62046E-11        -0.93132E-20         0.00000E+00
    0.62046E-11        -0.16764E-19         0.00000E+00
    0.62046E-11        -0.16764E-19         0.00000E+00
    0.62046E-11        -0.26077E-19         0.00000E+00
    0.62046E-11        -0.40978E-19         0.00000E+00
    0.62046E-11        -0.33528E-19         0.00000E+00
    0.62046E-11        -0.18626E-19         0.00000E+00
    0.62046E-11        -0.11176E-19         0.00000E+00
    0.62046E-11        -0.93132E-20         0.00000E+00
    0.62046E-11        -0.11176E-19         0.00000E+00
    0.62046E-11        -0.24214E-19         0.00000E+00
    0.62046E-11        -0.26077E-19         0.00000E+00
    0.62046E-11        -0.22352E-19         0.00000E+00
    0.62046E-11        -0.11176E-19         0.00000E+00
    0.62046E-11         0.11176E-19         0.00000E+00
    0.62046E-11         0.74506E-20         0.00000E+00
    0.62046E-11         0.11176E-19         0.00000E+00
    0.62046E-11         0.18626E-19         0.00000E+00
    0.62046E-11         0.11176E-19         0.00000E+00
    0.62046E-11        -0.11176E-19         0.00000E+00
    0.62046E-11        -0.33528E-19         0.00000E+00
    0.62046E-11        -0.33528E-19         0.00000E+00
    0.62046E-11        -0.26077E-19         0.00000E+00
    0.62046E-11        -0.22352E-19         0.00000E+00
    0.62046E-11        -0.20489E-19         0.00000E+00
    0.62046E-11        -0.55879E-20         0.00000E+00
    0.62046E-11         0.74506E-20         0.00000E+00
    0.74776E-11         0.10903E-19         0.00000E+00
    0.74776E-11         0.10245E-19         0.00000E+00
    0.74776E-11        -0.45201E-20         0.00000E+00
    0.74776E-11        -0.13039E-19         0.00000E+00
    0.74776E-11        -0.11176E-19         0.00000E+00
    0.74776E-11        -0.16764E-19         0.00000E+00
    0.74776E-11        -0.14901E-19         0.00000E+00
    0.74776E-11        -0.15038E-19         0.00000E+00
    0.74776E-11        -0.19558E-19         0.00000E+00
    0.74776E-11        -0.17559E-19         0.00000E+00
    0.74776E-11        -0.16764E-19         0.00000E+00
    0.74776E-11        -0.20489E-19         0.00000E+00
    0.74776E-11        -0.74506E-20         0.00000E+00
    0.74776E-11        -0.37253E-20         0.00000E+00
    0.74776E-11        -0.18626E-19         0.00000E+00
    0.74776E-11        -0.19694E-19         0.00000E+00
    0.74776E-11        -0.26077E-19         0.00000E+00
    0.74776E-11        -0.26872E-19         0.00000E+00
    0.74776E-11        -0.24214E-19         0.00000E+00
    0.74776E-11        -0.13039E-19         0.00000E+00
    0.74776E-11        -0.11176E-19         0.00000E+00
    0.74776E-11        -0.27940E-19         0.00000E+00
    0.74776E-11        -0.33528E-19         0.00000E+00
    0.74776E-11        -0.27940E-19         0.00000E+00
    0.74776E-11        -0.29802E-19         0.00000E+00
    0.74776E-11        -0.26077E-19         0.00000E+00
    0.74776E-11        -0.18626E-19         0.00000E+00
    0.74776E-11        -0.16764E-19         0.00000E+00
    0.74776E-11        -0.20489E-19         0.00000E+00
    0.74776E-11        -0.14901E-19         0.00000E+00
    0.74776E-11        -0.37253E-20         0.00000E+00
    0.74776E-11        -0.18626E-19         0.00000E+00
    0.74776E-11        -0.24214E-19         0.00000E+00
    0.74776E-11        -0.16764E-19         0.00000E+00
    0.74776E-11        -0.22352E-19         0.00000E+00
    0.74776E-11        -0.24214E-19         0.00000E+00
    0.74776E-11        -0.14901E-19         0.00000E+00
    0.74776E-11        -0.74506E-20         0.00000E+00
    0.74776E-11        -0.74506E-20         0.00000E+00
    0.74776E-11        -0.85184E-20         0.00000E+00
    0.74776E-11        -0.18626E-19         0.00000E+00
    0.74776E-11        -0.17559E-19         0.00000E+00
    0.74776E-11        -0.74506E-20         0.00000E+00
    0.74776E-11        -0.74506E-20         0.00000E+00
    0.74776E-11        -0.55879E-20         0.00000E+00
    0.74776E-11        -0.37253E-20         0.00000E+00
    0.74776E-11        -0.18626E-20         0.00000E+00
    0.74776E-11         0.73140E-20         0.00000E+00
    0.74776E-11         0.46566E-20         0.00000E+00
    0.74776E-11        -0.45201E-20         0.00000E+00
    0.74776E-11        -0.74506E-20         0.00000E+00
    0.90078E-11        -0.13311E-19         0.00000E+00
    0.90078E-11        -0.74506E-20         0.00000E+00
    0.90078E-11         0.29304E-20         0.00000E+00
    0.90078E-11         0.00000E+00         0.00000E+00
    0.90078E-11        -0.10381E-19         0.00000E+00
    0.90078E-11        -0.17832E-19         0.00000E+00
    0.90078E-11        -0.25009E-19         0.00000E+00
    0.90078E-11        -0.26872E-19         0.00000E+00
    0.90078E-11        -0.29802E-19         0.00000E+00
    0.90078E-11        -0.22352E-19         0.00000E+00
    0.90078E-11        -0.13039E-19         0.00000E+00
    0.90078E-11        -0.11176E-19         0.00000E+00
    0.90078E-11        -0.24214E-19         0.00000E+00
    0.90078E-11        -0.20489E-19         0.00000E+00
    0.90078E-11        -0.11176E-19         0.00000E+00
    0.90078E-11        -0.93132E-20         0.00000E+00
    0.90078E-11        -0.18626E-20         0.00000E+00
    0.90078E-11        -0.18626E-20         0.00000E+00
    0.90078E-11        -0.18626E-20         0.00000E+00
    0.90078E-11        -0.16764E-19         0.00000E+00
    0.90078E-11        -0.35390E-19         0.00000E+00
    0.90078E-11        -0.35390E-19         0.00000E+00
    0.90078E-11        -0.37253E-19         0.00000E+00
    0.90078E-11        -0.29802E-19         0.00000E+00
    0.90078E-11        -0.16764E-19         0.00000E+00
    0.90078E-11        -0.14901E-19         0.00000E+00
    0.90078E-11        -0.16764E-19         0.00000E+00
    0.90078E-11        -0.24214E-19         0.00000E+00
    0.90078E-11        -0.26077E-19         0.00000E+00
    0.90078E-11        -0.26077E-19         0.00000E+00
    0.90078E-11        -0.31665E-19         0.00000E+00
    0.90078E-11        -0.18626E-19         0.00000E+00
    0.90078E-11        -0.55879E-20         0.00000E+00
    0.90078E-11        -0.93132E-20         0.00000E+00
    0.90078E-11        -0.13039E-19         0.00000E+00
    0.90078E-11        -0.14901E-19         0.00000E+00
    0.90078E-11        -0.22352E-19         0.00000E+00
    0.90078E-11        -0.33528E-19         0.00000E+00
    0.90078E-11        -0.26077E-19         0.00000E+00
    0.90078E-11        -0.21557E-19         0.00000E+00
    0.90078E-11        -0.22352E-19         0.00000E+00
    0.90078E-11        -0.23147E-19         0.00000E+00
    0.90078E-11        -0.31665E-19         0.00000E+00
    0.90078E-11        -0.29802E-19         0.00000E+00
    0.90078E-11        -0.16764E-19         0.00000E+00
    0.90078E-11        -0.55879E-20         0.00000E+00
    0.90078E-11        -0.13175E-19         0.00000E+00
    0.90078E-11        -0.16764E-19         0.00000E+00
    0.90078E-11        -0.91768E-20         0.00000E+00
    0.90078E-11        -0.18626E-20         0.00000E+00
    0.90078E-11         0.37253E-20         0.00000E+00
    0.10846E-10         0.95860E-20         0.00000E+00
    0.10846E-10         0.37253E-20         0.00000E+00
    0.10846E-10        -0.10381E-19         0.00000E+00
    0.10846E-10        -0.12902E-19         0.00000E+00
    0.10846E-10        -0.46566E-20         0.00000E+00
    0.10846E-10        -0.47930E-20         0.00000E+00
    0.10846E-10        -0.13833E-19         0.00000E+00
    0.10846E-10        -0.21284E-19         0.00000E+00
    0.10846E-10        -0.12244E-19         0.00000E+00
    0.10846E-10        -0.65193E-20         0.00000E+00
    0.10846E-10        -0.17695E-19         0.00000E+00
    0.10846E-10        -0.93132E-20         0.00000E+00
    0.10846E-10         0.37253E-20         0.00000E+00
    0.10846E-10        -0.37253E-20         0.00000E+00
    0.10846E-10        -0.10108E-19         0.00000E+00
    0.10846E-10        -0.10381E-19         0.00000E+00
    0.10846E-10        -0.47930E-20         0.00000E+00
    0.10846E-10        -0.93132E-20         0.00000E+00
    0.10846E-10        -0.31665E-19         0.00000E+00
    0.10846E-10        -0.41773E-19         0.00000E+00
    0.10846E-10        -0.28735E-19         0.00000E+00
    0.10846E-10        -0.13039E-19         0.00000E+00
    0.10846E-10        -0.93132E-20         0.00000E+00
    0.10846E-10        -0.22352E-19         0.00000E+00
    0.10846E-10        -0.26077E-19         0.00000E+00
    0.10846E-10        -0.29802E-19         0.00000E+00
    0.10846E-10        -0.26077E-19         0.00000E+00
    0.10846E-10        -0.18626E-20         0.00000E+00
    0.10846E-10         0.26576E-20         0.00000E+00
    0.10846E-10         0.18626E-20         0.00000E+00
    0.10846E-10        -0.63829E-20         0.00000E+00
    0.10846E-10        -0.26077E-19         0.00000E+00
    0.10846E-10        -0.37253E-19         0.00000E+00
    0.10846E-10        -0.37253E-19         0.00000E+00
    0.10846E-10        -0.27940E-19         0.00000E+00
    0.10846E-10        -0.29007E-19         0.00000E+00
    0.10846E-10        -0.14901E-19         0.00000E+00
    0.10846E-10        -0.79494E-21         0.00000E+00
    0.10846E-10        -0.17832E-19         0.00000E+00
    0.10846E-10        -0.27145E-19         0.00000E+00
    0.10846E-10        -0.18626E-19         0.00000E+00
    0.10846E-10        -0.23147E-19         0.00000E+00
    0.10846E-10        -0.24214E-19         0.00000E+00
    0.10846E-10        -0.19694E-19         0.00000E+00
    0.10846E-10        -0.26872E-19         0.00000E+00
    0.10846E-10        -0.28735E-19         0.00000E+00
    0.10846E-10        -0.19694E-19         0.00000E+00
    0.10846E-10        -0.46566E-20         0.00000E+00
    0.10846E-10        -0.54515E-20         0.00000E+00
    0.10846E-10        -0.74506E-20         0.00000E+00
    0.10846E-10        -0.11176E-19         0.00000E+00
    0.13054E-10        -0.74506E-20         0.00000E+00
    0.13054E-10        -0.63830E-20         0.00000E+00
    0.13054E-10        -0.37253E-20         0.00000E+00
    0.13054E-10         0.63830E-20         0.00000E+00
    0.13054E-10         0.93132E-20         0.00000E+00
    0.13054E-10         0.66555E-20         0.00000E+00
    0.13054E-10         0.15969E-19         0.00000E+00
    0.13054E-10         0.14901E-19         0.00000E+00
    0.13054E-10        -0.29303E-20         0.00000E+00
    0.13054E-10        -0.85182E-20         0.00000E+00
    0.13054E-10        -0.10108E-19         0.00000E+00
    0.13054E-10        -0.18626E-19         0.00000E+00
    0.13054E-10        -0.21557E-19         0.00000E+00
    0.13054E-10        -0.23147E-19         0.00000E+00
    0.13054E-10        -0.93132E-20         0.00000E+00
    0.13054E-10        -0.74506E-20         0.00000E+00
    0.13054E-10        -0.13834E-19         0.00000E+00
    0.13054E-10        -0.25282E-19         0.00000E+00
    0.13054E-10        -0.17831E-19         0.00000E+00
    0.13054E-10        -0.37253E-20         0.00000E+00
    0.13054E-10        -0.19421E-19         0.00000E+00
    0.13054E-10        -0.32460E-19         0.00000E+00
    0.13054E-10        -0.29802E-19         0.00000E+00
    0.13054E-10        -0.20489E-19         0.00000E+00
    0.13054E-10        -0.10381E-19         0.00000E+00
    0.13054E-10        -0.18626E-20         0.00000E+00
    0.13054E-10        -0.45203E-20         0.00000E+00
    0.13054E-10        -0.11176E-19         0.00000E+00
    0.13054E-10        -0.16764E-19         0.00000E+00
    0.13054E-10        -0.25282E-19         0.00000E+00
    0.13054E-10        -0.20489E-19         0.00000E+00
    0.13054E-10        -0.26577E-20         0.00000E+00
    0.13054E-10        -0.85182E-20         0.00000E+00
    0.13054E-10        -0.25282E-19         0.00000E+00
    0.13054E-10        -0.22352E-19         0.00000E+00
    0.13054E-10        -0.55879E-20         0.00000E+00
    0.13054E-10        -0.37253E-20         0.00000E+00
    0.13054E-10        -0.82456E-20         0.00000E+00
    0.13054E-10         0.47929E-20         0.00000E+00
    0.13054E-10         0.82456E-20         0.00000E+00
    0.13054E-10        -0.10676E-20         0.00000E+00
    0.13054E-10        -0.13039E-19         0.00000E+00
    0.13054E-10        -0.26872E-19         0.00000E+00
    0.13054E-10        -0.25009E-19         0.00000E+00
    0.13054E-10        -0.20489E-19         0.00000E+00
    0.13054E-10        -0.16764E-19         0.00000E+00
    0.13054E-10        -0.15969E-19         0.00000E+00
    0.13054E-10        -0.66555E-20         0.00000E+00
    0.13054E-10         0.18626E-20         0.00000E+00
    0.13054E-10         0.55879E-20         0.00000E+00
    0.13054E-10         0.11176E-19         0.00000E+00
    0.15704E-10        -0.37253E-20         0.00000E+00
    0.15704E-10        -0.37253E-20         0.00000E+00
    0.15704E-10        -0.37253E-20         0.00000E+00
    0.15704E-10        -0.93132E-20         0.00000E+00
    0.15704E-10        -0.13039E-19         0.00000E+00
    0.15704E-10        -0.26578E-20         0.00000E+00
    0.15704E-10         0.82457E-20         0.00000E+00
    0.15704E-10        -0.10675E-20         0.00000E+00
    0.15704E-10        -0.74506E-20         0.00000E+00
    0.15704E-10        -0.27940E-20         0.00000E+00
    0.15704E-10         0.13616E-21         0.00000E+00
    0.15704E-10         0.00000E+00         0.00000E+00
    0.15704E-10        -0.37253E-20         0.00000E+00
    0.15704E-10        -0.11176E-19         0.00000E+00
    0.15704E-10        -0.13039E-19         0.00000E+00
    0.15704E-10        -0.11040E-19         0.00000E+00
    0.15704E-10        -0.35891E-20         0.00000E+00
    0.15704E-10        -0.12243E-19         0.00000E+00
    0.15704E-10        -0.22624E-19         0.00000E+00
    0.15704E-10        -0.18626E-19         0.00000E+00
    0.15704E-10        -0.19422E-19         0.00000E+00
    0.15704E-10        -0.21284E-19         0.00000E+00
    0.15704E-10        -0.15696E-19         0.00000E+00
    0.15704E-10        -0.21557E-19         0.00000E+00
    0.15704E-10        -0.30870E-19         0.00000E+00
    0.15704E-10        -0.23147E-19         0.00000E+00
    0.15704E-10        -0.63831E-20         0.00000E+00
    0.15704E-10         0.79516E-21         0.00000E+00
    0.15704E-10         0.13834E-19         0.00000E+00
    0.15704E-10         0.13039E-19         0.00000E+00
    0.15704E-10         0.55879E-20         0.00000E+00
    0.15704E-10        -0.10108E-19         0.00000E+00
    0.15704E-10        -0.74506E-20         0.00000E+00
    0.15704E-10         0.63831E-20         0.00000E+00
    0.15704E-10        -0.18626E-20         0.00000E+00
    0.15704E-10        -0.11176E-19         0.00000E+00
    0.15704E-10        -0.93132E-20         0.00000E+00
    0.15704E-10        -0.55879E-20         0.00000E+00
    0.15704E-10        -0.18626E-20         0.00000E+00
    0.15704E-10        -0.18626E-20         0.00000E+00
    0.15704E-10        -0.18626E-20         0.00000E+00
    0.15704E-10        -0.55879E-20         0.00000E+00
    0.15704E-10        -0.55879E-20         0.00000E+00
    0.15704E-10        -0.82457E-20         0.00000E+00
    0.15704E-10        -0.10108E-19         0.00000E+00
    0.15704E-10        -0.57241E-20         0.00000E+00
    0.15704E-10        -0.27940E-20         0.00000E+00
    0.15704E-10        -0.65193E-20         0.00000E+00
    0.15704E-10        -0.18763E-19         0.00000E+00
    0.15704E-10        -0.24214E-19         0.00000E+00
    0.15704E-10        -0.26077E-19         0.00000E+00
    0.18882E-10        -0.18626E-19         0.00000E+00
    0.18882E-10        -0.13039E-19         0.00000E+00
    0.18882E-10         0.00000E+00         0.00000E+00
    0.18882E-10         0.12243E-19         0.00000E+00
    0.18882E-10         0.17695E-19         0.00000E+00
    0.18882E-10         0.15560E-19         0.00000E+00
    0.18882E-10         0.27940E-20         0.00000E+00
    0.18882E-10         0.38613E-20         0.00000E+00
    0.18882E-10        -0.37253E-20         0.00000E+00
    0.18882E-10        -0.16764E-19         0.00000E+00
    0.18882E-10        -0.22352E-19         0.00000E+00
    0.18882E-10        -0.28735E-19         0.00000E+00
    0.18882E-10        -0.16764E-19         0.00000E+00
    0.18882E-10        -0.18626E-20         0.00000E+00
    0.18882E-10        -0.55879E-20         0.00000E+00
    0.18882E-10        -0.85179E-20         0.00000E+00
    0.18882E-10        -0.37253E-20         0.00000E+00
    0.18882E-10        -0.55879E-20         0.00000E+00
    0.18882E-10        -0.55879E-20         0.00000E+00
    0.18882E-10        -0.22352E-19         0.00000E+00
    0.18882E-10        -0.29802E-19         0.00000E+00
    0.18882E-10        -0.18626E-19         0.00000E+00
    0.18882E-10        -0.14901E-19         0.00000E+00
    0.18882E-10        -0.10109E-19         0.00000E+00
    0.18882E-10        -0.10673E-20         0.00000E+00
    0.18882E-10        -0.18626E-20         0.00000E+00
    0.18882E-10        -0.63832E-20         0.00000E+00
    0.18882E-10        -0.85179E-20         0.00000E+00
    0.18882E-10        -0.16764E-19         0.00000E+00
    0.18882E-10        -0.16764E-19         0.00000E+00
    0.18882E-10        -0.13039E-19         0.00000E+00
    0.18882E-10        -0.55879E-20         0.00000E+00
    0.18882E-10        -0.93132E-20         0.00000E+00
    0.18882E-10        -0.20489E-19         0.00000E+00
    0.18882E-10        -0.55879E-20         0.00000E+00
    0.18882E-10         0.11176E-19         0.00000E+00
    0.18882E-10         0.22352E-19         0.00000E+00
    0.18882E-10         0.33528E-19         0.00000E+00
    0.18882E-10         0.18626E-19         0.00000E+00
    0.18882E-10         0.37253E-20         0.00000E+00
    0.18882E-10         0.79531E-21         0.00000E+00
    0.18882E-10         0.66180E-34         0.00000E+00
    0.18882E-10         0.10381E-19         0.00000E+00
    0.18882E-10         0.45206E-20         0.00000E+00
    0.18882E-10        -0.10109E-19         0.00000E+00
    0.18882E-10        -0.14629E-19         0.00000E+00
    0.18882E-10        -0.16900E-19         0.00000E+00
    0.18882E-10        -0.57240E-20         0.00000E+00
    0.18882E-10         0.74506E-20         0.00000E+00
    0.18882E-10         0.15696E-19         0.00000E+00
    0.18882E-10         0.31393E-19         0.00000E+00
    0.22693E-10         0.53163E-20         0.00000E+00
    0.22693E-10         0.46566E-20         0.00000E+00
    0.22693E-10        -0.17268E-20         0.00000E+00
    0.22693E-10        -0.74506E-20         0.00000E+00
    0.22693E-10        -0.93132E-20         0.00000E+00
    0.22693E-10        -0.74506E-20         0.00000E+00
    0.22693E-10         0.79548E-21         0.00000E+00
    0.22693E-10         0.82461E-20         0.00000E+00
    0.22693E-10        -0.11971E-19         0.00000E+00
    0.22693E-10        -0.25010E-19         0.00000E+00
    0.22693E-10        -0.12243E-19         0.00000E+00
    0.22693E-10         0.83819E-20         0.00000E+00
    0.22693E-10         0.38611E-20         0.00000E+00
    0.22693E-10        -0.82461E-20         0.00000E+00
    0.22693E-10        -0.74506E-20         0.00000E+00
    0.22693E-10        -0.21556E-19         0.00000E+00
    0.22693E-10        -0.26077E-19         0.00000E+00
    0.22693E-10        -0.15968E-19         0.00000E+00
    0.22693E-10        -0.47925E-20         0.00000E+00
    0.22693E-10        -0.26581E-20         0.00000E+00
    0.22693E-10        -0.11971E-19         0.00000E+00
    0.22693E-10        -0.26077E-19         0.00000E+00
    0.22693E-10        -0.29802E-19         0.00000E+00
    0.22693E-10        -0.20353E-19         0.00000E+00
    0.22693E-10        -0.75864E-20         0.00000E+00
    0.22693E-10        -0.93132E-20         0.00000E+00
    0.22693E-10        -0.63834E-20         0.00000E+00
    0.22693E-10         0.63834E-20         0.00000E+00
    0.22693E-10         0.11176E-19         0.00000E+00
    0.22693E-10         0.37253E-20         0.00000E+00
    0.22693E-10         0.37253E-20         0.00000E+00
    0.22693E-10         0.12243E-19         0.00000E+00
    0.22693E-10         0.24214E-19         0.00000E+00
    0.22693E-10         0.25010E-19         0.00000E+00
    0.22693E-10         0.37253E-20         0.00000E+00
    0.22693E-10        -0.10672E-20         0.00000E+00
    0.22693E-10         0.18626E-20         0.00000E+00
    0.22693E-10        -0.10109E-19         0.00000E+00
    0.22693E-10        -0.15968E-19         0.00000E+00
    0.22693E-10        -0.74506E-20         0.00000E+00
    0.22693E-10         0.47925E-20         0.00000E+00
    0.22693E-10        -0.10672E-20         0.00000E+00
    0.22693E-10        -0.17831E-19         0.00000E+00
    0.22693E-10        -0.15697E-19         0.00000E+00
    0.22693E-10         0.10672E-20         0.00000E+00
    0.22693E-10         0.37253E-20         0.00000E+00
    0.22693E-10        -0.38611E-20         0.00000E+00
    0.22693E-10        -0.55879E-20         0.00000E+00
    0.22693E-10        -0.93132E-21         0.00000E+00
    0.22693E-10        -0.47925E-20         0.00000E+00
    0.22693E-10        -0.14901E-19         0.00000E+00
    0.27259E-10        -0.74506E-20         0.00000E+00
    0.27259E-10        -0.10380E-19         0.00000E+00
    0.27259E-10         0.55879E-20         0.00000E+00
    0.27259E-10         0.19693E-19         0.00000E+00
    0.27259E-10         0.11176E-19         0.00000E+00
    0.27259E-10         0.00000E+00         0.00000E+00
    0.27259E-10        -0.37253E-20         0.00000E+00
    0.27259E-10        -0.55879E-20         0.00000E+00
    0.27259E-10        -0.29296E-20         0.00000E+00
    0.27259E-10         0.37253E-20         0.00000E+00
    0.27259E-10        -0.63836E-20         0.00000E+00
    0.27259E-10        -0.29802E-19         0.00000E+00
    0.27259E-10        -0.34595E-19         0.00000E+00
    0.27259E-10        -0.16764E-19         0.00000E+00
    0.27259E-10        -0.13834E-19         0.00000E+00
    0.27259E-10        -0.66549E-20         0.00000E+00
    0.27259E-10         0.93132E-21         0.00000E+00
    0.27259E-10        -0.65193E-20         0.00000E+00
    0.27259E-10        -0.10380E-19         0.00000E+00
    0.27259E-10        -0.19422E-19         0.00000E+00
    0.27259E-10        -0.24214E-19         0.00000E+00
    0.27259E-10        -0.14901E-19         0.00000E+00
    0.27259E-10        -0.37253E-20         0.00000E+00
    0.27259E-10         0.79569E-21         0.00000E+00
    0.27259E-10         0.00000E+00         0.00000E+00
    0.27259E-10        -0.18626E-20         0.00000E+00
    0.27259E-10        -0.26583E-20         0.00000E+00
    0.27259E-10         0.55879E-20         0.00000E+00
    0.27259E-10         0.11972E-19         0.00000E+00
    0.27259E-10         0.66549E-20         0.00000E+00
    0.27259E-10        -0.74506E-20         0.00000E+00
    0.27259E-10        -0.37253E-20         0.00000E+00
    0.27259E-10         0.15968E-19         0.00000E+00
    0.27259E-10         0.11972E-19         0.00000E+00
    0.27259E-10         0.13039E-19         0.00000E+00
    0.27259E-10         0.55879E-20         0.00000E+00
    0.27259E-10        -0.85175E-20         0.00000E+00
    0.27259E-10        -0.93132E-20         0.00000E+00
    0.27259E-10        -0.10109E-19         0.00000E+00
    0.27259E-10        -0.45210E-20         0.00000E+00
    0.27259E-10        -0.29296E-20         0.00000E+00
    0.27259E-10         0.74506E-20         0.00000E+00
    0.27259E-10         0.66549E-20         0.00000E+00
    0.27259E-10        -0.93132E-20         0.00000E+00
    0.27259E-10        -0.26077E-19         0.00000E+00
    0.27259E-10        -0.22352E-19         0.00000E+00
    0.27259E-10         0.00000E+00         0.00000E+00
    0.27259E-10        -0.19983E-20         0.00000E+00
    0.27259E-10        -0.19558E-19         0.00000E+00
    0.27259E-10        -0.13039E-19         0.00000E+00
    0.27259E-10         0.53167E-20         0.00000E+00
    0.32726E-10        -0.74506E-20         0.00000E+00
    0.32726E-10         0.37253E-20         0.00000E+00
    0.32726E-10         0.45212E-20         0.00000E+00
    0.32726E-10        -0.29293E-20         0.00000E+00
    0.32726E-10         0.13174E-19         0.00000E+00
    0.32726E-10         0.26212E-19         0.00000E+00
    0.32726E-10         0.63839E-20         0.00000E+00
    0.32726E-10        -0.17831E-19         0.00000E+00
    0.32726E-10        -0.24214E-19         0.00000E+00
    0.32726E-10        -0.82465E-20         0.00000E+00
    0.32726E-10        -0.37253E-20         0.00000E+00
    0.32726E-10        -0.29293E-20         0.00000E+00
    0.32726E-10        -0.55879E-20         0.00000E+00
    0.32726E-10        -0.17560E-19         0.00000E+00
    0.32726E-10        -0.93132E-20         0.00000E+00
    0.32726E-10        -0.93132E-20         0.00000E+00
    0.32726E-10        -0.83819E-20         0.00000E+00
    0.32726E-10        -0.13174E-19         0.00000E+00
    0.32726E-10        -0.14901E-19         0.00000E+00
    0.32726E-10        -0.18626E-19         0.00000E+00
    0.32726E-10        -0.24214E-19         0.00000E+00
    0.32726E-10        -0.24214E-19         0.00000E+00
    0.32726E-10        -0.22352E-19         0.00000E+00
    0.32726E-10        -0.91778E-20         0.00000E+00
    0.32726E-10         0.83819E-20         0.00000E+00
    0.32726E-10         0.15697E-19         0.00000E+00
    0.32726E-10         0.11176E-19         0.00000E+00
    0.32726E-10         0.13039E-19         0.00000E+00
    0.32726E-10         0.13039E-19         0.00000E+00
    0.32726E-10        -0.35899E-20         0.00000E+00
    0.32726E-10         0.83819E-20         0.00000E+00
    0.32726E-10         0.13834E-19         0.00000E+00
    0.32726E-10        -0.55879E-20         0.00000E+00
    0.32726E-10        -0.82465E-20         0.00000E+00
    0.32726E-10        -0.18626E-20         0.00000E+00
    0.32726E-10         0.26586E-20         0.00000E+00
    0.32726E-10         0.00000E+00         0.00000E+00
    0.32726E-10        -0.37253E-20         0.00000E+00
    0.32726E-10        -0.74506E-20         0.00000E+00
    0.32726E-10        -0.19422E-19         0.00000E+00
    0.32726E-10        -0.28736E-19         0.00000E+00
    0.32726E-10        -0.23418E-19         0.00000E+00
    0.32726E-10        -0.20489E-19         0.00000E+00
    0.32726E-10        -0.21285E-19         0.00000E+00
    0.32726E-10        -0.15968E-19         0.00000E+00
    0.32726E-10        -0.15968E-19         0.00000E+00
    0.32726E-10        -0.16764E-19         0.00000E+00
    0.32726E-10        -0.45212E-20         0.00000E+00
    0.32726E-10         0.66546E-20         0.00000E+00
    0.32726E-10        -0.47920E-20         0.00000E+00
    0.32726E-10        -0.13309E-19         0.00000E+00
    0.39268E-10         0.95834E-20         0.00000E+00
    0.39268E-10         0.74506E-20         0.00000E+00
    0.39268E-10         0.93132E-20         0.00000E+00
    0.39268E-10         0.13039E-19         0.00000E+00
    0.39268E-10         0.27940E-20         0.00000E+00
    0.39268E-10         0.93132E-21         0.00000E+00
    0.39268E-10         0.65193E-20         0.00000E+00
    0.39268E-10         0.13507E-21         0.00000E+00
    0.39268E-10        -0.93132E-20         0.00000E+00
    0.39268E-10        -0.14105E-19         0.00000E+00
    0.39268E-10        -0.12242E-19         0.00000E+00
    0.39268E-10        -0.13039E-19         0.00000E+00
    0.39268E-10        -0.14901E-19         0.00000E+00
    0.39268E-10        -0.37253E-20         0.00000E+00
    0.39268E-10        -0.93132E-20         0.00000E+00
    0.39268E-10        -0.22352E-19         0.00000E+00
    0.39268E-10        -0.24214E-19         0.00000E+00
    0.39268E-10        -0.18626E-19         0.00000E+00
    0.39268E-10        -0.11176E-19         0.00000E+00
    0.39268E-10         0.37253E-20         0.00000E+00
    0.39268E-10         0.55879E-20         0.00000E+00
    0.39268E-10        -0.55879E-20         0.00000E+00
    0.39268E-10        -0.37253E-20         0.00000E+00
    0.39268E-10         0.18626E-20         0.00000E+00
    0.39268E-10        -0.74506E-20         0.00000E+00
    0.39268E-10        -0.11972E-19         0.00000E+00
    0.39268E-10         0.93132E-20         0.00000E+00
    0.39268E-10         0.11972E-19         0.00000E+00
    0.39268E-10         0.00000E+00         0.00000E+00
    0.39268E-10         0.55879E-20         0.00000E+00
    0.39268E-10        -0.18626E-20         0.00000E+00
    0.39268E-10        -0.45215E-20         0.00000E+00
    0.39268E-10         0.93132E-20         0.00000E+00
    0.39268E-10         0.17560E-19         0.00000E+00
    0.39268E-10         0.11176E-19         0.00000E+00
    0.39268E-10        -0.37253E-20         0.00000E+00
    0.39268E-10        -0.14901E-19         0.00000E+00
    0.39268E-10        -0.29802E-19         0.00000E+00
    0.39268E-10        -0.27940E-19         0.00000E+00
    0.39268E-10        -0.19423E-19         0.00000E+00
    0.39268E-10        -0.13039E-19         0.00000E+00
    0.39268E-10        -0.74506E-20         0.00000E+00
    0.39268E-10        -0.55879E-20         0.00000E+00
    0.39268E-10        -0.20489E-19         0.00000E+00
    0.39268E-10        -0.29802E-19         0.00000E+00
    0.39268E-10        -0.23418E-19         0.00000E+00
    0.39268E-10        -0.16764E-19         0.00000E+00
    0.39268E-10        -0.93132E-20         0.00000E+00
    0.39268E-10        -0.11176E-19         0.00000E+00
    0.39268E-10         0.79625E-21         0.00000E+00
    0.39268E-10         0.16494E-19         0.00000E+00
    0.47092E-10        -0.74506E-20         0.00000E+00
    0.47092E-10        -0.63846E-20         0.00000E+00
    0.47092E-10         0.00000E+00         0.00000E+00
    0.47092E-10         0.26593E-20         0.00000E+00
    0.47092E-10         0.13471E-21         0.00000E+00
    0.47092E-10        -0.46566E-20         0.00000E+00
    0.47092E-10        -0.17830E-19         0.00000E+00
    0.47092E-10        -0.11176E-19         0.00000E+00
    0.47092E-10        -0.74506E-20         0.00000E+00
    0.47092E-10        -0.11176E-19         0.00000E+00
    0.47092E-10         0.00000E+00         0.00000E+00
    0.47092E-10         0.11176E-19         0.00000E+00
    0.47092E-10         0.13039E-19         0.00000E+00
    0.47092E-10         0.55879E-20         0.00000E+00
    0.47092E-10        -0.18626E-20         0.00000E+00
    0.47092E-10         0.18626E-20         0.00000E+00
    0.47092E-10         0.55879E-20         0.00000E+00
    0.47092E-10        -0.14901E-19         0.00000E+00
    0.47092E-10        -0.35390E-19         0.00000E+00
    0.47092E-10        -0.31665E-19         0.00000E+00
    0.47092E-10        -0.13039E-19         0.00000E+00
    0.47092E-10         0.00000E+00         0.00000E+00
    0.47092E-10         0.00000E+00         0.00000E+00
    0.47092E-10        -0.79662E-21         0.00000E+00
    0.47092E-10         0.93132E-20         0.00000E+00
    0.47092E-10         0.93132E-20         0.00000E+00
    0.47092E-10        -0.18626E-20         0.00000E+00
    0.47092E-10         0.45219E-20         0.00000E+00
    0.47092E-10         0.13039E-19         0.00000E+00
    0.47092E-10         0.55879E-20         0.00000E+00
    0.47092E-10        -0.18626E-20         0.00000E+00
    0.47092E-10        -0.11176E-19         0.00000E+00
    0.47092E-10        -0.11176E-19         0.00000E+00
    0.47092E-10         0.11176E-19         0.00000E+00
    0.47092E-10         0.13039E-19         0.00000E+00
    0.47092E-10        -0.55879E-20         0.00000E+00
    0.47092E-10        -0.13835E-19         0.00000E+00
    0.47092E-10        -0.26593E-20         0.00000E+00
    0.47092E-10         0.79662E-21         0.00000E+00
    0.47092E-10         0.79662E-21         0.00000E+00
    0.47092E-10         0.18626E-20         0.00000E+00
    0.47092E-10        -0.37253E-20         0.00000E+00
    0.47092E-10        -0.93132E-20         0.00000E+00
    0.47092E-10        -0.74506E-20         0.00000E+00
    0.47092E-10        -0.74506E-20         0.00000E+00
    0.47092E-10        -0.11176E-19         0.00000E+00
    0.47092E-10        -0.14901E-19         0.00000E+00
    0.47092E-10        -0.23148E-19         0.00000E+00
    0.47092E-10        -0.21286E-19         0.00000E+00
    0.47092E-10        -0.11445E-19         0.00000E+00
    0.47092E-10        -0.79894E-20         0.00000E+00
    0.56443E-10         0.18626E-19         0.00000E+00
    0.56443E-10         0.20489E-19         0.00000E+00
    0.56443E-10         0.11176E-19         0.00000E+00
    0.56443E-10         0.00000E+00         0.00000E+00
    0.56443E-10        -0.54537E-20         0.00000E+00
    0.56443E-10        -0.93132E-21         0.00000E+00
    0.56443E-10         0.11973E-19         0.00000E+00
    0.56443E-10         0.74506E-20         0.00000E+00
    0.56443E-10         0.37253E-20         0.00000E+00
    0.56443E-10         0.14901E-19         0.00000E+00
    0.56443E-10         0.12241E-19         0.00000E+00
    0.56443E-10        -0.18626E-20         0.00000E+00
    0.56443E-10        -0.10379E-19         0.00000E+00
    0.56443E-10        -0.63850E-20         0.00000E+00
    0.56443E-10        -0.37253E-20         0.00000E+00
    0.56443E-10        -0.23552E-19         0.00000E+00
    0.56443E-10        -0.30734E-19         0.00000E+00
    0.56443E-10        -0.10110E-19         0.00000E+00
    0.56443E-10         0.74506E-20         0.00000E+00
    0.56443E-10         0.18626E-20         0.00000E+00
    0.56443E-10        -0.18626E-19         0.00000E+00
    0.56443E-10        -0.22352E-19         0.00000E+00
    0.56443E-10        -0.11176E-19         0.00000E+00
    0.56443E-10         0.00000E+00         0.00000E+00
    0.56443E-10         0.00000E+00         0.00000E+00
    0.56443E-10        -0.55879E-20         0.00000E+00
    0.56443E-10         0.00000E+00         0.00000E+00
    0.56443E-10         0.00000E+00         0.00000E+00
    0.56443E-10         0.00000E+00         0.00000E+00
    0.56443E-10         0.16764E-19         0.00000E+00
    0.56443E-10         0.20489E-19         0.00000E+00
    0.56443E-10         0.74506E-20         0.00000E+00
    0.56443E-10        -0.55879E-20         0.00000E+00
    0.56443E-10        -0.11176E-19         0.00000E+00
    0.56443E-10         0.18626E-20         0.00000E+00
    0.56443E-10         0.10110E-19         0.00000E+00
    0.56443E-10         0.11176E-19         0.00000E+00
    0.56443E-10         0.10379E-19         0.00000E+00
    0.56443E-10        -0.18626E-20         0.00000E+00
    0.56443E-10        -0.74506E-20         0.00000E+00
    0.56443E-10        -0.11973E-19         0.00000E+00
    0.56443E-10        -0.55879E-20         0.00000E+00
    0.56443E-10         0.63850E-20         0.00000E+00
    0.56443E-10         0.37253E-20         0.00000E+00
    0.56443E-10        -0.37253E-20         0.00000E+00
    0.56443E-10        -0.74506E-20         0.00000E+00
    0.56443E-10        -0.63850E-20         0.00000E+00
    0.56443E-10         0.46566E-20         0.00000E+00
    0.56443E-10         0.11042E-19         0.00000E+00
    0.56443E-10         0.26597E-20         0.00000E+00
    0.56443E-10         0.15941E-20         0.00000E+00
    0.67612E-10        -0.11176E-19         0.00000E+00
    0.67612E-10        -0.37253E-20         0.00000E+00
    0.67612E-10         0.74506E-20         0.00000E+00
    0.67612E-10         0.11176E-19         0.00000E+00
    0.67612E-10         0.13039E-19         0.00000E+00
    0.67612E-10         0.26077E-19         0.00000E+00
    0.67612E-10         0.26077E-19         0.00000E+00
    0.67612E-10         0.11176E-19         0.00000E+00
    0.67612E-10         0.47904E-20         0.00000E+00
    0.67612E-10        -0.18626E-20         0.00000E+00
    0.67612E-10        -0.29277E-20         0.00000E+00
    0.67612E-10         0.18626E-20         0.00000E+00
    0.67612E-10        -0.66530E-20         0.00000E+00
    0.67612E-10        -0.11176E-19         0.00000E+00
    0.67612E-10        -0.45229E-20         0.00000E+00
    0.67612E-10        -0.37253E-20         0.00000E+00
    0.67612E-10        -0.18626E-20         0.00000E+00
    0.67612E-10        -0.12241E-19         0.00000E+00
    0.67612E-10        -0.29802E-19         0.00000E+00
    0.67612E-10        -0.25012E-19         0.00000E+00
    0.67612E-10        -0.55879E-20         0.00000E+00
    0.67612E-10        -0.37253E-20         0.00000E+00
    0.67612E-10        -0.13039E-19         0.00000E+00
    0.67612E-10        -0.18626E-19         0.00000E+00
    0.67612E-10        -0.18626E-19         0.00000E+00
    0.67612E-10        -0.11176E-19         0.00000E+00
    0.67612E-10        -0.93132E-20         0.00000E+00
    0.67612E-10        -0.18626E-20         0.00000E+00
    0.67612E-10         0.55879E-20         0.00000E+00
    0.67612E-10        -0.55879E-20         0.00000E+00
    0.67612E-10        -0.74506E-20         0.00000E+00
    0.67612E-10         0.37253E-20         0.00000E+00
    0.67612E-10         0.18626E-19         0.00000E+00
    0.67612E-10         0.28737E-19         0.00000E+00
    0.67612E-10         0.24214E-19         0.00000E+00
    0.67612E-10         0.74506E-20         0.00000E+00
    0.67612E-10        -0.18626E-20         0.00000E+00
    0.67612E-10         0.47904E-20         0.00000E+00
    0.67612E-10         0.18626E-19         0.00000E+00
    0.67612E-10         0.16764E-19         0.00000E+00
    0.67612E-10         0.37253E-20         0.00000E+00
    0.67612E-10         0.18626E-20         0.00000E+00
    0.67612E-10        -0.37253E-20         0.00000E+00
    0.67612E-10        -0.37253E-20         0.00000E+00
    0.67612E-10         0.74506E-20         0.00000E+00
    0.67612E-10         0.93132E-20         0.00000E+00
    0.67612E-10         0.14901E-19         0.00000E+00
    0.67612E-10         0.16764E-19         0.00000E+00
    0.67612E-10        -0.10651E-20         0.00000E+00
    0.67612E-10        -0.66530E-20         0.00000E+00
    0.67612E-10        -0.74506E-20         0.00000E+00
    0.80942E-10         0.74506E-20         0.00000E+00
    0.80942E-10         0.74506E-20         0.00000E+00
    0.80942E-10         0.45235E-20         0.00000E+00
    0.80942E-10         0.26608E-20         0.00000E+00
    0.80942E-10         0.38584E-20         0.00000E+00
    0.80942E-10         0.16897E-19         0.00000E+00
    0.80942E-10         0.22352E-19         0.00000E+00
    0.80942E-10         0.20489E-19         0.00000E+00
    0.80942E-10         0.14901E-19         0.00000E+00
    0.80942E-10         0.14901E-19         0.00000E+00
    0.80942E-10         0.82488E-20         0.00000E+00
    0.80942E-10        -0.29271E-20         0.00000E+00
    0.80942E-10         0.14901E-19         0.00000E+00
    0.80942E-10         0.14103E-19         0.00000E+00
    0.80942E-10        -0.10910E-19         0.00000E+00
    0.80942E-10        -0.11176E-19         0.00000E+00
    0.80942E-10        -0.47897E-20         0.00000E+00
    0.80942E-10        -0.10378E-19         0.00000E+00
    0.80942E-10        -0.12240E-19         0.00000E+00
    0.80942E-10        -0.74506E-20         0.00000E+00
    0.80942E-10        -0.15699E-19         0.00000E+00
    0.80942E-10        -0.32463E-19         0.00000E+00
    0.80942E-10        -0.34592E-19         0.00000E+00
    0.80942E-10        -0.16764E-19         0.00000E+00
    0.80942E-10        -0.13039E-19         0.00000E+00
    0.80942E-10        -0.25013E-19         0.00000E+00
    0.80942E-10        -0.18626E-19         0.00000E+00
    0.80942E-10        -0.11442E-19         0.00000E+00
    0.80942E-10        -0.82488E-20         0.00000E+00
    0.80942E-10         0.19691E-19         0.00000E+00
    0.80942E-10         0.28738E-19         0.00000E+00
    0.80942E-10         0.27940E-19         0.00000E+00
    0.80942E-10         0.30069E-19         0.00000E+00
    0.80942E-10         0.15966E-19         0.00000E+00
    0.80942E-10        -0.39915E-20         0.00000E+00
    0.80942E-10        -0.39915E-20         0.00000E+00
    0.80942E-10         0.00000E+00         0.00000E+00
    0.80942E-10        -0.55879E-20         0.00000E+00
    0.80942E-10        -0.10111E-19         0.00000E+00
    0.80942E-10        -0.63861E-20         0.00000E+00
    0.80942E-10         0.55879E-20         0.00000E+00
    0.80942E-10         0.10111E-19         0.00000E+00
    0.80942E-10         0.74506E-20         0.00000E+00
    0.80942E-10         0.47897E-20         0.00000E+00
    0.80942E-10         0.82488E-20         0.00000E+00
    0.80942E-10         0.10111E-19         0.00000E+00
    0.80942E-10        -0.45235E-20         0.00000E+00
    0.80942E-10         0.47897E-20         0.00000E+00
    0.80942E-10         0.18626E-19         0.00000E+00
    0.80942E-10         0.82488E-20         0.00000E+00
    0.80942E-10        -0.21289E-20         0.00000E+00
    0.96840E-10         0.00000E+00         0.00000E+00
    0.96840E-10        -0.29263E-20         0.00000E+00
    0.96840E-10        -0.55879E-20         0.00000E+00
    0.96840E-10         0.12107E-19         0.00000E+00
    0.96840E-10         0.18626E-19         0.00000E+00
    0.96840E-10         0.27940E-20         0.00000E+00
    0.96840E-10         0.93132E-21         0.00000E+00
    0.96840E-10         0.55879E-20         0.00000E+00
    0.96840E-10         0.13970E-19         0.00000E+00
    0.96840E-10         0.21553E-19         0.00000E+00
    0.96840E-10         0.20489E-19         0.00000E+00
    0.96840E-10         0.16764E-19         0.00000E+00
    0.96840E-10         0.55879E-20         0.00000E+00
    0.96840E-10         0.18626E-20         0.00000E+00
    0.96840E-10        -0.47890E-20         0.00000E+00
    0.96840E-10        -0.15965E-19         0.00000E+00
    0.96840E-10        -0.14901E-19         0.00000E+00
    0.96840E-10        -0.55879E-20         0.00000E+00
    0.96840E-10        -0.18626E-20         0.00000E+00
    0.96840E-10        -0.93132E-20         0.00000E+00
    0.96840E-10        -0.16764E-19         0.00000E+00
    0.96840E-10        -0.18626E-20         0.00000E+00
    0.96840E-10        -0.18626E-20         0.00000E+00
    0.96840E-10        -0.91809E-20         0.00000E+00
    0.96840E-10        -0.13970E-19         0.00000E+00
    0.96840E-10        -0.10377E-19         0.00000E+00
    0.96840E-10         0.00000E+00         0.00000E+00
    0.96840E-10        -0.37253E-20         0.00000E+00
    0.96840E-10        -0.55879E-20         0.00000E+00
    0.96840E-10        -0.11176E-19         0.00000E+00
    0.96840E-10        -0.63869E-20         0.00000E+00
    0.96840E-10        -0.45242E-20         0.00000E+00
    0.96840E-10        -0.14102E-19         0.00000E+00
    0.96840E-10         0.26616E-20         0.00000E+00
    0.96840E-10         0.24214E-19         0.00000E+00
    0.96840E-10         0.25278E-19         0.00000E+00
    0.96840E-10         0.85143E-20         0.00000E+00
    0.96840E-10         0.00000E+00         0.00000E+00
    0.96840E-10         0.11975E-19         0.00000E+00
    0.96840E-10         0.14901E-19         0.00000E+00
    0.96840E-10         0.18626E-20         0.00000E+00
    0.96840E-10        -0.18626E-20         0.00000E+00
    0.96840E-10         0.37253E-20         0.00000E+00
    0.96840E-10         0.18626E-19         0.00000E+00
    0.96840E-10         0.11176E-19         0.00000E+00
    0.96840E-10        -0.18626E-20         0.00000E+00
    0.96840E-10         0.11176E-19         0.00000E+00
    0.96840E-10         0.15700E-19         0.00000E+00
    0.96840E-10         0.57203E-20         0.00000E+00
    0.96840E-10         0.93132E-21         0.00000E+00
    0.96840E-10         0.53232E-20         0.00000E+00
    0.11579E-09         0.00000E+00         0.00000E+00
    0.11579E-09        -0.63878E-20         0.00000E+00
    0.11579E-09        -0.63878E-20         0.00000E+00
    0.11579E-09        -0.12239E-19         0.00000E+00
    0.11579E-09        -0.18626E-20         0.00000E+00
    0.11579E-09         0.74506E-20         0.00000E+00
    0.11579E-09        -0.47881E-20         0.00000E+00
    0.11579E-09        -0.55879E-20         0.00000E+00
    0.11579E-09         0.55879E-20         0.00000E+00
    0.11579E-09         0.74506E-20         0.00000E+00
    0.11579E-09        -0.18626E-20         0.00000E+00
    0.11579E-09        -0.37253E-20         0.00000E+00
    0.11579E-09         0.18626E-20         0.00000E+00
    0.11579E-09         0.47881E-20         0.00000E+00
    0.11579E-09         0.25146E-33         0.00000E+00
    0.11579E-09         0.11976E-19         0.00000E+00
    0.11579E-09         0.15964E-19         0.00000E+00
    0.11579E-09         0.15964E-19         0.00000E+00
    0.11579E-09         0.15701E-19         0.00000E+00
    0.11579E-09         0.18626E-19         0.00000E+00
    0.11579E-09         0.22352E-19         0.00000E+00
    0.11579E-09         0.26625E-20         0.00000E+00
    0.11579E-09        -0.11176E-19         0.00000E+00
    0.11579E-09        -0.45251E-20         0.00000E+00
    0.11579E-09        -0.37253E-20         0.00000E+00
    0.11579E-09        -0.10628E-20         0.00000E+00
    0.11579E-09        -0.55879E-20         0.00000E+00
    0.11579E-09        -0.74506E-20         0.00000E+00
    0.11579E-09        -0.37253E-20         0.00000E+00
    0.11579E-09        -0.93132E-20         0.00000E+00
    0.11579E-09        -0.20489E-19         0.00000E+00
    0.11579E-09        -0.10913E-19         0.00000E+00
    0.11579E-09         0.13039E-19         0.00000E+00
    0.11579E-09         0.16501E-19         0.00000E+00
    0.11579E-09         0.11176E-19         0.00000E+00
    0.11579E-09         0.11176E-19         0.00000E+00
    0.11579E-09         0.13039E-19         0.00000E+00
    0.11579E-09         0.11176E-19         0.00000E+00
    0.11579E-09         0.00000E+00         0.00000E+00
    0.11579E-09        -0.82504E-20         0.00000E+00
    0.11579E-09         0.10628E-20         0.00000E+00
    0.11579E-09         0.10113E-19         0.00000E+00
    0.11579E-09         0.37253E-20         0.00000E+00
    0.11579E-09        -0.26625E-20         0.00000E+00
    0.11579E-09         0.63878E-20         0.00000E+00
    0.11579E-09         0.17564E-19         0.00000E+00
    0.11579E-09         0.74506E-20         0.00000E+00
    0.11579E-09        -0.55879E-20         0.00000E+00
    0.11579E-09         0.18626E-20         0.00000E+00
    0.11579E-09         0.10113E-19         0.00000E+00
    0.11579E-09         0.12776E-19         0.00000E+00
    0.13835E-09        -0.37253E-20         0.00000E+00
    0.13835E-09        -0.18626E-20         0.00000E+00
    0.13835E-09        -0.82515E-20         0.00000E+00
    0.13835E-09        -0.18626E-19         0.00000E+00
    0.13835E-09        -0.29001E-19         0.00000E+00
    0.13835E-09        -0.24214E-19         0.00000E+00
    0.13835E-09        -0.74506E-20         0.00000E+00
    0.13835E-09        -0.18626E-20         0.00000E+00
    0.13835E-09        -0.82515E-20         0.00000E+00
    0.13835E-09        -0.26636E-20         0.00000E+00
    0.13835E-09         0.45262E-20         0.00000E+00
    0.13835E-09         0.18626E-20         0.00000E+00
    0.13835E-09         0.00000E+00         0.00000E+00
    0.13835E-09         0.00000E+00         0.00000E+00
    0.13835E-09         0.10375E-19         0.00000E+00
    0.13835E-09         0.74506E-20         0.00000E+00
    0.13835E-09         0.13839E-19         0.00000E+00
    0.13835E-09         0.29802E-19         0.00000E+00
    0.13835E-09         0.13839E-19         0.00000E+00
    0.13835E-09         0.74506E-20         0.00000E+00
    0.13835E-09        -0.53271E-20         0.00000E+00
    0.13835E-09        -0.18626E-20         0.00000E+00
    0.13835E-09         0.63889E-20         0.00000E+00
    0.13835E-09        -0.93132E-20         0.00000E+00
    0.13835E-09        -0.74506E-20         0.00000E+00
    0.13835E-09        -0.18626E-20         0.00000E+00
    0.13835E-09        -0.55879E-20         0.00000E+00
    0.13835E-09        -0.47870E-20         0.00000E+00
    0.13835E-09        -0.74506E-20         0.00000E+00
    0.13835E-09         0.29244E-20         0.00000E+00
    0.13835E-09         0.19427E-19         0.00000E+00
    0.13835E-09         0.13039E-19         0.00000E+00
    0.13835E-09         0.11437E-19         0.00000E+00
    0.13835E-09         0.17565E-19         0.00000E+00
    0.13835E-09         0.15702E-19         0.00000E+00
    0.13835E-09         0.14901E-19         0.00000E+00
    0.13835E-09         0.26077E-19         0.00000E+00
    0.13835E-09         0.15963E-19         0.00000E+00
    0.13835E-09         0.37253E-20         0.00000E+00
    0.13835E-09         0.19427E-19         0.00000E+00
    0.13835E-09         0.27940E-19         0.00000E+00
    0.13835E-09         0.17826E-19         0.00000E+00
    0.13835E-09         0.85123E-20         0.00000E+00
    0.13835E-09        -0.21235E-20         0.00000E+00
    0.13835E-09        -0.12238E-19         0.00000E+00
    0.13835E-09        -0.82515E-20         0.00000E+00
    0.13835E-09        -0.55879E-20         0.00000E+00
    0.13835E-09        -0.37253E-20         0.00000E+00
    0.13835E-09        -0.63889E-20         0.00000E+00
    0.13835E-09        -0.93132E-20         0.00000E+00
    0.13835E-09        -0.58487E-20         0.00000E+00
    0.16520E-09         0.37253E-20         0.00000E+00
    0.16520E-09        -0.55879E-20         0.00000E+00
    0.16520E-09        -0.74506E-20         0.00000E+00
    0.16520E-09        -0.37253E-20         0.00000E+00
    0.16520E-09        -0.11978E-19         0.00000E+00
    0.16520E-09        -0.18626E-19         0.00000E+00
    0.16520E-09        -0.21550E-19         0.00000E+00
    0.16520E-09        -0.26879E-19         0.00000E+00
    0.16520E-09        -0.14901E-19         0.00000E+00
    0.16520E-09        -0.66484E-20         0.00000E+00
    0.16520E-09        -0.45275E-20         0.00000E+00
    0.16520E-09         0.11978E-19         0.00000E+00
    0.16520E-09         0.63901E-20         0.00000E+00
    0.16520E-09         0.39835E-20         0.00000E+00
    0.16520E-09         0.66484E-20         0.00000E+00
    0.16520E-09         0.12780E-19         0.00000E+00
    0.16520E-09         0.74506E-20         0.00000E+00
    0.16520E-09         0.18626E-20         0.00000E+00
    0.16520E-09         0.27681E-19         0.00000E+00
    0.16520E-09         0.21550E-19         0.00000E+00
    0.16520E-09        -0.11978E-19         0.00000E+00
    0.16520E-09        -0.18626E-19         0.00000E+00
    0.16520E-09         0.85110E-20         0.00000E+00
    0.16520E-09         0.23412E-19         0.00000E+00
    0.16520E-09         0.53297E-20         0.00000E+00
    0.16520E-09         0.18626E-20         0.00000E+00
    0.16520E-09         0.10374E-19         0.00000E+00
    0.16520E-09         0.13841E-19         0.00000E+00
    0.16520E-09         0.13841E-19         0.00000E+00
    0.16520E-09         0.10374E-19         0.00000E+00
    0.16520E-09         0.25825E-21         0.00000E+00
    0.16520E-09         0.93132E-20         0.00000E+00
    0.16520E-09         0.22093E-19         0.00000E+00
    0.16520E-09         0.26077E-19         0.00000E+00
    0.16520E-09         0.27137E-19         0.00000E+00
    0.16520E-09         0.20231E-19         0.00000E+00
    0.16520E-09         0.55879E-20         0.00000E+00
    0.16520E-09         0.85110E-20         0.00000E+00
    0.16520E-09         0.93132E-20         0.00000E+00
    0.16520E-09         0.80220E-21         0.00000E+00
    0.16520E-09         0.18626E-20         0.00000E+00
    0.16520E-09         0.47857E-20         0.00000E+00
    0.16520E-09        -0.85110E-20         0.00000E+00
    0.16520E-09        -0.93132E-20         0.00000E+00
    0.16520E-09        -0.82528E-20         0.00000E+00
    0.16520E-09        -0.15030E-19         0.00000E+00
    0.16520E-09        -0.75797E-20         0.00000E+00
    0.16520E-09         0.25825E-21         0.00000E+00
    0.16520E-09         0.19918E-20         0.00000E+00
    0.16520E-09         0.25357E-20         0.00000E+00
    0.16520E-09         0.90550E-20         0.00000E+00
    0.19713E-09         0.00000E+00         0.00000E+00
    0.19713E-09         0.18626E-20         0.00000E+00
    0.19713E-09         0.45290E-20         0.00000E+00
    0.19713E-09         0.45290E-20         0.00000E+00
    0.19713E-09         0.21178E-20         0.00000E+00
    0.19713E-09         0.11431E-19         0.00000E+00
    0.19713E-09         0.10117E-19         0.00000E+00
    0.19713E-09         0.80372E-21         0.00000E+00
    0.19713E-09        -0.13039E-19         0.00000E+00
    0.19713E-09        -0.23411E-19         0.00000E+00
    0.19713E-09        -0.66469E-20         0.00000E+00
    0.19713E-09        -0.45290E-20         0.00000E+00
    0.19713E-09        -0.63917E-20         0.00000E+00
    0.19713E-09        -0.37253E-20         0.00000E+00
    0.19713E-09        -0.80372E-21         0.00000E+00
    0.19713E-09         0.37253E-20         0.00000E+00
    0.19713E-09         0.62641E-20         0.00000E+00
    0.19713E-09        -0.19902E-20         0.00000E+00
    0.19713E-09        -0.11980E-19         0.00000E+00
    0.19713E-09        -0.37253E-20         0.00000E+00
    0.19713E-09         0.19430E-19         0.00000E+00
    0.19713E-09         0.18626E-19         0.00000E+00
    0.19713E-09         0.10589E-20         0.00000E+00
    0.19713E-09        -0.10921E-19         0.00000E+00
    0.19713E-09        -0.12235E-19         0.00000E+00
    0.19713E-09        -0.74506E-20         0.00000E+00
    0.19713E-09        -0.18626E-20         0.00000E+00
    0.19713E-09         0.26664E-20         0.00000E+00
    0.19713E-09         0.95684E-20         0.00000E+00
    0.19713E-09         0.28999E-19         0.00000E+00
    0.19713E-09         0.34331E-19         0.00000E+00
    0.19713E-09         0.27940E-19         0.00000E+00
    0.19713E-09         0.32469E-19         0.00000E+00
    0.19713E-09         0.27684E-19         0.00000E+00
    0.19713E-09         0.14097E-19         0.00000E+00
    0.19713E-09         0.16764E-19         0.00000E+00
    0.19713E-09         0.27136E-19         0.00000E+00
    0.19713E-09         0.24470E-19         0.00000E+00
    0.19713E-09         0.21293E-19         0.00000E+00
    0.19713E-09         0.20234E-19         0.00000E+00
    0.19713E-09         0.19430E-19         0.00000E+00
    0.19713E-09         0.11176E-19         0.00000E+00
    0.19713E-09         0.66469E-20         0.00000E+00
    0.19713E-09         0.47842E-20         0.00000E+00
    0.19713E-09        -0.18626E-20         0.00000E+00
    0.19713E-09        -0.73230E-20         0.00000E+00
    0.19713E-09        -0.20489E-19         0.00000E+00
    0.19713E-09        -0.15029E-19         0.00000E+00
    0.19713E-09        -0.29216E-20         0.00000E+00
    0.19713E-09         0.80372E-21         0.00000E+00
    0.19713E-09        -0.37253E-20         0.00000E+00
    0.23505E-09         0.13290E-19         0.00000E+00
    0.23505E-09         0.20489E-19         0.00000E+00
    0.23505E-09         0.16764E-19         0.00000E+00
    0.23505E-09         0.11176E-19         0.00000E+00
    0.23505E-09         0.63935E-20         0.00000E+00
    0.23505E-09        -0.75764E-20         0.00000E+00
    0.23505E-09         0.93132E-21         0.00000E+00
    0.23505E-09         0.13039E-19         0.00000E+00
    0.23505E-09         0.14901E-19         0.00000E+00
    0.23505E-09         0.18626E-19         0.00000E+00
    0.23505E-09         0.93132E-21         0.00000E+00
    0.23505E-09        -0.73248E-20         0.00000E+00
    0.23505E-09        -0.74506E-20         0.00000E+00
    0.23505E-09        -0.10119E-19         0.00000E+00
    0.23505E-09         0.10571E-20         0.00000E+00
    0.23505E-09        -0.10370E-19         0.00000E+00
    0.23505E-09        -0.11176E-19         0.00000E+00
    0.23505E-09        -0.10571E-20         0.00000E+00
    0.23505E-09         0.53364E-20         0.00000E+00
    0.23505E-09         0.18626E-20         0.00000E+00
    0.23505E-09        -0.19432E-19         0.00000E+00
    0.23505E-09        -0.17569E-19         0.00000E+00
    0.23505E-09         0.00000E+00         0.00000E+00
    0.23505E-09         0.19884E-20         0.00000E+00
    0.23505E-09        -0.12579E-21         0.00000E+00
    0.23505E-09         0.55879E-20         0.00000E+00
    0.23505E-09         0.74506E-20         0.00000E+00
    0.23505E-09         0.13039E-19         0.00000E+00
    0.23505E-09         0.23409E-19         0.00000E+00
    0.23505E-09         0.22352E-19         0.00000E+00
    0.23505E-09         0.26077E-19         0.00000E+00
    0.23505E-09         0.32471E-19         0.00000E+00
    0.23505E-09         0.20489E-19         0.00000E+00
    0.23505E-09         0.19432E-19         0.00000E+00
    0.23505E-09         0.27940E-19         0.00000E+00
    0.23505E-09         0.18626E-19         0.00000E+00
    0.23505E-09         0.11176E-19         0.00000E+00
    0.23505E-09         0.26077E-19         0.00000E+00
    0.23505E-09         0.27940E-19         0.00000E+00
    0.23505E-09         0.14901E-19         0.00000E+00
    0.23505E-09         0.93132E-20         0.00000E+00
    0.23505E-09         0.74506E-20         0.00000E+00
    0.23505E-09         0.45308E-20         0.00000E+00
    0.23505E-09        -0.18626E-20         0.00000E+00
    0.23505E-09         0.95648E-20         0.00000E+00
    0.23505E-09         0.15958E-19         0.00000E+00
    0.23505E-09         0.82561E-20         0.00000E+00
    0.23505E-09        -0.93132E-20         0.00000E+00
    0.23505E-09        -0.16764E-19         0.00000E+00
    0.23505E-09        -0.85077E-20         0.00000E+00
    0.23505E-09        -0.21142E-20         0.00000E+00
    0.28007E-09        -0.95605E-20         0.00000E+00
    0.28007E-09        -0.74506E-20         0.00000E+00
    0.28007E-09         0.10549E-20         0.00000E+00
    0.28007E-09         0.74506E-20         0.00000E+00
    0.28007E-09         0.11176E-19         0.00000E+00
    0.28007E-09         0.15709E-19         0.00000E+00
    0.28007E-09         0.13846E-19         0.00000E+00
    0.28007E-09         0.66429E-20         0.00000E+00
    0.28007E-09         0.37253E-20         0.00000E+00
    0.28007E-09         0.63956E-20         0.00000E+00
    0.28007E-09        -0.26703E-20         0.00000E+00
    0.28007E-09        -0.15709E-19         0.00000E+00
    0.28007E-09        -0.19681E-19         0.00000E+00
    0.28007E-09        -0.13039E-19         0.00000E+00
    0.28007E-09         0.21099E-20         0.00000E+00
    0.28007E-09         0.47802E-20         0.00000E+00
    0.28007E-09        -0.66429E-20         0.00000E+00
    0.28007E-09        -0.11423E-19         0.00000E+00
    0.28007E-09        -0.12231E-19         0.00000E+00
    0.28007E-09        -0.93132E-20         0.00000E+00
    0.28007E-09        -0.18626E-20         0.00000E+00
    0.28007E-09        -0.11176E-19         0.00000E+00
    0.28007E-09        -0.21297E-19         0.00000E+00
    0.28007E-09        -0.11984E-19         0.00000E+00
    0.28007E-09        -0.85055E-20         0.00000E+00
    0.28007E-09        -0.74506E-20         0.00000E+00
    0.28007E-09         0.47802E-20         0.00000E+00
    0.28007E-09         0.19434E-19         0.00000E+00
    0.28007E-09         0.21297E-19         0.00000E+00
    0.28007E-09         0.20736E-19         0.00000E+00
    0.28007E-09         0.29926E-19         0.00000E+00
    0.28007E-09         0.40047E-19         0.00000E+00
    0.28007E-09         0.44703E-19         0.00000E+00
    0.28007E-09         0.36198E-19         0.00000E+00
    0.28007E-09         0.20489E-19         0.00000E+00
    0.28007E-09         0.82583E-20         0.00000E+00
    0.28007E-09         0.26703E-20         0.00000E+00
    0.28007E-09        -0.45330E-20         0.00000E+00
    0.28007E-09         0.18626E-20         0.00000E+00
    0.28007E-09         0.19434E-19         0.00000E+00
    0.28007E-09         0.20489E-19         0.00000E+00
    0.28007E-09         0.55879E-20         0.00000E+00
    0.28007E-09        -0.63956E-20         0.00000E+00
    0.28007E-09         0.29176E-20         0.00000E+00
    0.28007E-09         0.80770E-21         0.00000E+00
    0.28007E-09        -0.33102E-34         0.00000E+00
    0.28007E-09         0.85055E-20         0.00000E+00
    0.28007E-09         0.11984E-19         0.00000E+00
    0.28007E-09         0.23159E-19         0.00000E+00
    0.28007E-09         0.20489E-19         0.00000E+00
    0.28007E-09         0.14901E-19         0.00000E+00
    0.33345E-09         0.00000E+00         0.00000E+00
    0.33345E-09         0.66403E-20         0.00000E+00
    0.33345E-09         0.18626E-20         0.00000E+00
    0.33345E-09        -0.66403E-20         0.00000E+00
    0.33345E-09        -0.81028E-21         0.00000E+00
    0.33345E-09         0.85030E-20         0.00000E+00
    0.33345E-09         0.54669E-20         0.00000E+00
    0.33345E-09        -0.83819E-20         0.00000E+00
    0.33345E-09        -0.10245E-19         0.00000E+00
    0.33345E-09        -0.75716E-20         0.00000E+00
    0.33345E-09         0.18626E-20         0.00000E+00
    0.33345E-09         0.85030E-20         0.00000E+00
    0.33345E-09        -0.45356E-20         0.00000E+00
    0.33345E-09        -0.14091E-19         0.00000E+00
    0.33345E-09        -0.45356E-20         0.00000E+00
    0.33345E-09        -0.37253E-20         0.00000E+00
    0.33345E-09        -0.58300E-20         0.00000E+00
    0.33345E-09        -0.13039E-19         0.00000E+00
    0.33345E-09        -0.26077E-19         0.00000E+00
    0.33345E-09        -0.24214E-19         0.00000E+00
    0.33345E-09        -0.13849E-19         0.00000E+00
    0.33345E-09        -0.13849E-19         0.00000E+00
    0.33345E-09        -0.14091E-19         0.00000E+00
    0.33345E-09        -0.13039E-19         0.00000E+00
    0.33345E-09        -0.11176E-19         0.00000E+00
    0.33345E-09        -0.10524E-20         0.00000E+00
    0.33345E-09         0.18626E-20         0.00000E+00
    0.33345E-09         0.10366E-19         0.00000E+00
    0.33345E-09         0.24214E-19         0.00000E+00
    0.33345E-09         0.30613E-19         0.00000E+00
    0.33345E-09         0.24214E-19         0.00000E+00
    0.33345E-09         0.16764E-19         0.00000E+00
    0.33345E-09         0.11176E-19         0.00000E+00
    0.33345E-09         0.37253E-20         0.00000E+00
    0.33345E-09         0.00000E+00         0.00000E+00
    0.33345E-09        -0.18626E-20         0.00000E+00
    0.33345E-09         0.37253E-20         0.00000E+00
    0.33345E-09         0.22352E-19         0.00000E+00
    0.33345E-09         0.28182E-19         0.00000E+00
    0.33345E-09         0.20489E-19         0.00000E+00
    0.33345E-09         0.23972E-19         0.00000E+00
    0.33345E-09         0.19679E-19         0.00000E+00
    0.33345E-09         0.13039E-19         0.00000E+00
    0.33345E-09         0.11176E-19         0.00000E+00
    0.33345E-09         0.37253E-20         0.00000E+00
    0.33345E-09        -0.47777E-20         0.00000E+00
    0.33345E-09        -0.55879E-20         0.00000E+00
    0.33345E-09         0.19837E-20         0.00000E+00
    0.33345E-09        -0.93132E-21         0.00000E+00
    0.33345E-09        -0.66403E-20         0.00000E+00
    0.33345E-09        -0.11176E-19         0.00000E+00
    0.39670E-09        -0.53520E-20         0.00000E+00
    0.39670E-09        -0.93132E-20         0.00000E+00
    0.39670E-09        -0.29120E-20         0.00000E+00
    0.39670E-09        -0.81334E-21         0.00000E+00
    0.39670E-09        -0.64013E-20         0.00000E+00
    0.39670E-09        -0.12225E-19         0.00000E+00
    0.39670E-09        -0.66372E-20         0.00000E+00
    0.39670E-09        -0.55879E-20         0.00000E+00
    0.39670E-09        -0.84999E-20         0.00000E+00
    0.39670E-09        -0.27940E-20         0.00000E+00
    0.39670E-09        -0.16646E-19         0.00000E+00
    0.39670E-09        -0.29802E-19         0.00000E+00
    0.39670E-09        -0.20489E-19         0.00000E+00
    0.39670E-09         0.18626E-20         0.00000E+00
    0.39670E-09         0.20489E-19         0.00000E+00
    0.39670E-09         0.27940E-19         0.00000E+00
    0.39670E-09         0.18626E-19         0.00000E+00
    0.39670E-09        -0.55879E-20         0.00000E+00
    0.39670E-09        -0.74506E-20         0.00000E+00
    0.39670E-09        -0.93132E-20         0.00000E+00
    0.39670E-09        -0.18626E-19         0.00000E+00
    0.39670E-09        -0.14901E-19         0.00000E+00
    0.39670E-09        -0.16764E-19         0.00000E+00
    0.39670E-09        -0.16764E-19         0.00000E+00
    0.39670E-09        -0.14901E-19         0.00000E+00
    0.39670E-09        -0.14901E-19         0.00000E+00
    0.39670E-09        -0.18626E-20         0.00000E+00
    0.39670E-09         0.93132E-20         0.00000E+00
    0.39670E-09         0.13039E-19         0.00000E+00
    0.39670E-09         0.93132E-20         0.00000E+00
    0.39670E-09        -0.18626E-20         0.00000E+00
    0.39670E-09        -0.26760E-20         0.00000E+00
    0.39670E-09         0.93132E-20         0.00000E+00
    0.39670E-09         0.20489E-19         0.00000E+00
    0.39670E-09         0.18626E-19         0.00000E+00
    0.39670E-09         0.11989E-19         0.00000E+00
    0.39670E-09         0.00000E+00         0.00000E+00
    0.39670E-09        -0.26760E-20         0.00000E+00
    0.39670E-09         0.74506E-20         0.00000E+00
    0.39670E-09         0.13852E-19         0.00000E+00
    0.39670E-09         0.10363E-19         0.00000E+00
    0.39670E-09         0.13039E-19         0.00000E+00
    0.39670E-09         0.17577E-19         0.00000E+00
    0.39670E-09         0.55879E-20         0.00000E+00
    0.39670E-09        -0.93132E-20         0.00000E+00
    0.39670E-09        -0.81334E-21         0.00000E+00
    0.39670E-09         0.16764E-19         0.00000E+00
    0.39670E-09         0.25028E-19         0.00000E+00
    0.39670E-09         0.21538E-19         0.00000E+00
    0.39670E-09         0.10127E-19         0.00000E+00
    0.39670E-09         0.32534E-20         0.00000E+00
    0.47157E-09         0.74506E-20         0.00000E+00
    0.47157E-09         0.26796E-20         0.00000E+00
    0.47157E-09        -0.13039E-19         0.00000E+00
    0.47157E-09        -0.64049E-20         0.00000E+00
    0.47157E-09         0.15016E-19         0.00000E+00
    0.47157E-09         0.13970E-19         0.00000E+00
    0.47157E-09        -0.29083E-20         0.00000E+00
    0.47157E-09        -0.14901E-19         0.00000E+00
    0.47157E-09        -0.37253E-20         0.00000E+00
    0.47157E-09        -0.37253E-20         0.00000E+00
    0.47157E-09        -0.37253E-20         0.00000E+00
    0.47157E-09         0.37253E-20         0.00000E+00
    0.47157E-09         0.18626E-20         0.00000E+00
    0.47157E-09         0.10359E-19         0.00000E+00
    0.47157E-09         0.14901E-19         0.00000E+00
    0.47157E-09        -0.10359E-19         0.00000E+00
    0.47157E-09        -0.24214E-19         0.00000E+00
    0.47157E-09        -0.93132E-20         0.00000E+00
    0.47157E-09        -0.10457E-20         0.00000E+00
    0.47157E-09        -0.18626E-20         0.00000E+00
    0.47157E-09         0.10457E-20         0.00000E+00
    0.47157E-09         0.10457E-20         0.00000E+00
    0.47157E-09         0.00000E+00         0.00000E+00
    0.47157E-09        -0.74506E-20         0.00000E+00
    0.47157E-09        -0.18626E-20         0.00000E+00
    0.47157E-09         0.82676E-20         0.00000E+00
    0.47157E-09        -0.55879E-20         0.00000E+00
    0.47157E-09        -0.13855E-19         0.00000E+00
    0.47157E-09         0.00000E+00         0.00000E+00
    0.47157E-09         0.64049E-20         0.00000E+00
    0.47157E-09         0.14901E-19         0.00000E+00
    0.47157E-09         0.26077E-19         0.00000E+00
    0.47157E-09         0.14901E-19         0.00000E+00
    0.47157E-09         0.11176E-19         0.00000E+00
    0.47157E-09         0.18626E-19         0.00000E+00
    0.47157E-09         0.74506E-20         0.00000E+00
    0.47157E-09        -0.55879E-20         0.00000E+00
    0.47157E-09        -0.14901E-19         0.00000E+00
    0.47157E-09        -0.13039E-19         0.00000E+00
    0.47157E-09        -0.55879E-20         0.00000E+00
    0.47157E-09        -0.74506E-20         0.00000E+00
    0.47157E-09        -0.93132E-20         0.00000E+00
    0.47157E-09        -0.74506E-20         0.00000E+00
    0.47157E-09         0.00000E+00         0.00000E+00
    0.47157E-09         0.93132E-20         0.00000E+00
    0.47157E-09         0.93132E-20         0.00000E+00
    0.47157E-09         0.37253E-20         0.00000E+00
    0.47157E-09         0.13039E-19         0.00000E+00
    0.47157E-09         0.20489E-19         0.00000E+00
    0.47157E-09         0.45423E-20         0.00000E+00
    0.47157E-09        -0.20913E-20         0.00000E+00
    0.56009E-09        -0.74506E-20         0.00000E+00
    0.56009E-09        -0.37253E-20         0.00000E+00
    0.56009E-09         0.14080E-19         0.00000E+00
    0.56009E-09         0.27940E-19         0.00000E+00
    0.56009E-09         0.13039E-19         0.00000E+00
    0.56009E-09         0.37253E-20         0.00000E+00
    0.56009E-09         0.11997E-19         0.00000E+00
    0.56009E-09         0.93132E-20         0.00000E+00
    0.56009E-09         0.29040E-20         0.00000E+00
    0.56009E-09         0.10245E-19         0.00000E+00
    0.56009E-09         0.18516E-19         0.00000E+00
    0.56009E-09         0.15722E-19         0.00000E+00
    0.56009E-09         0.13970E-19         0.00000E+00
    0.56009E-09         0.56980E-20         0.00000E+00
    0.56009E-09        -0.37253E-20         0.00000E+00
    0.56009E-09         0.73406E-20         0.00000E+00
    0.56009E-09         0.19558E-19         0.00000E+00
    0.56009E-09         0.16764E-19         0.00000E+00
    0.56009E-09         0.74506E-20         0.00000E+00
    0.56009E-09         0.84919E-20         0.00000E+00
    0.56009E-09        -0.55879E-20         0.00000E+00
    0.56009E-09        -0.20489E-19         0.00000E+00
    0.56009E-09        -0.11176E-19         0.00000E+00
    0.56009E-09         0.47666E-20         0.00000E+00
    0.56009E-09         0.74506E-20         0.00000E+00
    0.56009E-09         0.45466E-20         0.00000E+00
    0.56009E-09         0.00000E+00         0.00000E+00
    0.56009E-09        -0.37253E-20         0.00000E+00
    0.56009E-09        -0.37253E-20         0.00000E+00
    0.56009E-09         0.37253E-20         0.00000E+00
    0.56009E-09         0.93132E-20         0.00000E+00
    0.56009E-09         0.18626E-20         0.00000E+00
    0.56009E-09        -0.18626E-20         0.00000E+00
    0.56009E-09         0.45466E-20         0.00000E+00
    0.56009E-09         0.14901E-19         0.00000E+00
    0.56009E-09         0.15722E-19         0.00000E+00
    0.56009E-09         0.18626E-20         0.00000E+00
    0.56009E-09         0.39453E-20         0.00000E+00
    0.56009E-09         0.47666E-20         0.00000E+00
    0.56009E-09        -0.59574E-34         0.00000E+00
    0.56009E-09        -0.10413E-20         0.00000E+00
    0.56009E-09        -0.11176E-19         0.00000E+00
    0.56009E-09        -0.11997E-19         0.00000E+00
    0.56009E-09        -0.14901E-19         0.00000E+00
    0.56009E-09        -0.13039E-19         0.00000E+00
    0.56009E-09         0.27940E-20         0.00000E+00
    0.56009E-09        -0.46566E-20         0.00000E+00
    0.56009E-09        -0.14901E-19         0.00000E+00
    0.56009E-09        -0.10355E-19         0.00000E+00
    0.56009E-09         0.82130E-21         0.00000E+00
    0.56009E-09         0.90932E-20         0.00000E+00
    0.66466E-09         0.37253E-20         0.00000E+00
    0.66466E-09         0.55879E-20         0.00000E+00
    0.66466E-09         0.37253E-20         0.00000E+00
    0.66466E-09         0.18626E-20         0.00000E+00
    0.66466E-09        -0.18626E-20         0.00000E+00
    0.66466E-09         0.00000E+00         0.00000E+00
    0.66466E-09         0.55879E-20         0.00000E+00
    0.66466E-09         0.74506E-20         0.00000E+00
    0.66466E-09         0.22352E-19         0.00000E+00
    0.66466E-09         0.29802E-19         0.00000E+00
    0.66466E-09         0.22352E-19         0.00000E+00
    0.66466E-09         0.11176E-19         0.00000E+00
    0.66466E-09         0.55879E-20         0.00000E+00
    0.66466E-09         0.11176E-19         0.00000E+00
    0.66466E-09         0.11176E-19         0.00000E+00
    0.66466E-09         0.37253E-20         0.00000E+00
    0.66466E-09        -0.74506E-20         0.00000E+00
    0.66466E-09        -0.37253E-20         0.00000E+00
    0.66466E-09        -0.37253E-20         0.00000E+00
    0.66466E-09        -0.13039E-19         0.00000E+00
    0.66466E-09        -0.11176E-19         0.00000E+00
    0.66466E-09        -0.55879E-20         0.00000E+00
    0.66466E-09        -0.13039E-19         0.00000E+00
    0.66466E-09        -0.22352E-19         0.00000E+00
    0.66466E-09        -0.55879E-20         0.00000E+00
    0.66466E-09         0.18626E-20         0.00000E+00
    0.66466E-09         0.00000E+00         0.00000E+00
    0.66466E-09         0.55879E-20         0.00000E+00
    0.66466E-09         0.13039E-19         0.00000E+00
    0.66466E-09         0.14691E-19         0.00000E+00
    0.66466E-09         0.53781E-20         0.00000E+00
    0.66466E-09         0.88015E-20         0.00000E+00
    0.66466E-09         0.10454E-19         0.00000E+00
    0.66466E-09         0.53781E-20         0.00000E+00
    0.66466E-09        -0.74506E-20         0.00000E+00
    0.66466E-09        -0.93132E-20         0.00000E+00
    0.66466E-09         0.37253E-20         0.00000E+00
    0.66466E-09         0.74506E-20         0.00000E+00
    0.66466E-09         0.11176E-19         0.00000E+00
    0.66466E-09         0.55879E-20         0.00000E+00
    0.66466E-09        -0.37253E-20         0.00000E+00
    0.66466E-09         0.00000E+00         0.00000E+00
    0.66466E-09        -0.55879E-20         0.00000E+00
    0.66466E-09        -0.11386E-19         0.00000E+00
    0.66466E-09        -0.93132E-20         0.00000E+00
    0.66466E-09        -0.14691E-19         0.00000E+00
    0.66466E-09        -0.13039E-19         0.00000E+00
    0.66466E-09        -0.37253E-20         0.00000E+00
    0.66466E-09        -0.55879E-20         0.00000E+00
    0.66466E-09        -0.13039E-19         0.00000E+00
    0.66466E-09        -0.14901E-19         0.00000E+00
    0.78805E-09         0.00000E+00         0.00000E+00
    0.78805E-09         0.00000E+00         0.00000E+00
    0.78805E-09         0.00000E+00         0.00000E+00
    0.78805E-09         0.37253E-20         0.00000E+00
    0.78805E-09         0.11176E-19         0.00000E+00
    0.78805E-09         0.93132E-20         0.00000E+00
    0.78805E-09         0.55879E-20         0.00000E+00
    0.78805E-09         0.11176E-19         0.00000E+00
    0.78805E-09         0.74506E-20         0.00000E+00
    0.78805E-09        -0.57856E-20         0.00000E+00
    0.78805E-09        -0.93132E-20         0.00000E+00
    0.78805E-09        -0.72529E-20         0.00000E+00
    0.78805E-09        -0.13236E-19         0.00000E+00
    0.78805E-09        -0.21223E-19         0.00000E+00
    0.78805E-09        -0.21223E-19         0.00000E+00
    0.78805E-09        -0.20603E-20         0.00000E+00
    0.78805E-09         0.18626E-19         0.00000E+00
    0.78805E-09         0.93132E-20         0.00000E+00
    0.78805E-09        -0.39229E-20         0.00000E+00
    0.78805E-09        -0.19765E-21         0.00000E+00
    0.78805E-09         0.57856E-20         0.00000E+00
    0.78805E-09         0.19765E-21         0.00000E+00
    0.78805E-09         0.00000E+00         0.00000E+00
    0.78805E-09        -0.18626E-20         0.00000E+00
    0.78805E-09        -0.11176E-19         0.00000E+00
    0.78805E-09        -0.18626E-20         0.00000E+00
    0.78805E-09         0.37253E-20         0.00000E+00
    0.78805E-09         0.74506E-20         0.00000E+00
    0.78805E-09         0.13039E-19         0.00000E+00
    0.78805E-09         0.91156E-20         0.00000E+00
    0.78805E-09        -0.19765E-21         0.00000E+00
    0.78805E-09        -0.79866E-20         0.00000E+00
    0.78805E-09        -0.55879E-20         0.00000E+00
    0.78805E-09         0.81843E-20         0.00000E+00
    0.78805E-09         0.13236E-19         0.00000E+00
    0.78805E-09         0.16650E-20         0.00000E+00
    0.78805E-09        -0.74506E-20         0.00000E+00
    0.78805E-09         0.57856E-20         0.00000E+00
    0.78805E-09         0.13039E-19         0.00000E+00
    0.78805E-09         0.11176E-19         0.00000E+00
    0.78805E-09         0.55879E-20         0.00000E+00
    0.78805E-09        -0.95109E-20         0.00000E+00
    0.78805E-09        -0.74506E-20         0.00000E+00
    0.78805E-09         0.19765E-21         0.00000E+00
    0.78805E-09         0.00000E+00         0.00000E+00
    0.78805E-09         0.00000E+00         0.00000E+00
    0.78805E-09        -0.37253E-20         0.00000E+00
    0.78805E-09        -0.74506E-20         0.00000E+00
    0.78805E-09         0.55879E-20         0.00000E+00
    0.78805E-09         0.93132E-20         0.00000E+00
    0.78805E-09         0.00000E+00         0.00000E+00
    0.93347E-09        -0.11542E-19         0.00000E+00
    0.93347E-09        -0.13039E-19         0.00000E+00
    0.93347E-09         0.20459E-20         0.00000E+00
    0.93347E-09         0.24214E-19         0.00000E+00
    0.93347E-09         0.33344E-19         0.00000E+00
    0.93347E-09         0.18626E-19         0.00000E+00
    0.93347E-09         0.18327E-21         0.00000E+00
    0.93347E-09        -0.37253E-20         0.00000E+00
    0.93347E-09         0.00000E+00         0.00000E+00
    0.93347E-09         0.74506E-20         0.00000E+00
    0.93347E-09         0.74506E-20         0.00000E+00
    0.93347E-09         0.00000E+00         0.00000E+00
    0.93347E-09        -0.11176E-19         0.00000E+00
    0.93347E-09        -0.13039E-19         0.00000E+00
    0.93347E-09        -0.13039E-19         0.00000E+00
    0.93347E-09        -0.93132E-20         0.00000E+00
    0.93347E-09        -0.37253E-20         0.00000E+00
    0.93347E-09        -0.10428E-19         0.00000E+00
    0.93347E-09        -0.48399E-20         0.00000E+00
    0.93347E-09         0.94965E-20         0.00000E+00
    0.93347E-09         0.76339E-20         0.00000E+00
    0.93347E-09         0.37253E-20         0.00000E+00
    0.93347E-09         0.55879E-20         0.00000E+00
    0.93347E-09         0.37253E-20         0.00000E+00
    0.93347E-09        -0.18626E-20         0.00000E+00
    0.93347E-09        -0.11176E-19         0.00000E+00
    0.93347E-09        -0.11176E-19         0.00000E+00
    0.93347E-09        -0.37253E-20         0.00000E+00
    0.93347E-09        -0.11176E-19         0.00000E+00
    0.93347E-09        -0.74506E-20         0.00000E+00
    0.93347E-09         0.93132E-20         0.00000E+00
    0.93347E-09         0.11176E-19         0.00000E+00
    0.93347E-09         0.74506E-20         0.00000E+00
    0.93347E-09        -0.37253E-20         0.00000E+00
    0.93347E-09        -0.74506E-20         0.00000E+00
    0.93347E-09        -0.37253E-20         0.00000E+00
    0.93347E-09        -0.55879E-20         0.00000E+00
    0.93347E-09        -0.14901E-19         0.00000E+00
    0.93347E-09        -0.11176E-19         0.00000E+00
    0.93347E-09         0.37253E-20         0.00000E+00
    0.93347E-09         0.11176E-19         0.00000E+00
    0.93347E-09         0.14718E-19         0.00000E+00
    0.93347E-09         0.14901E-19         0.00000E+00
    0.93347E-09         0.94965E-20         0.00000E+00
    0.93347E-09         0.35420E-20         0.00000E+00
    0.93347E-09         0.66204E-34         0.00000E+00
    0.93347E-09        -0.54047E-20         0.00000E+00
    0.93347E-09        -0.74506E-20         0.00000E+00
    0.93347E-09        -0.16016E-19         0.00000E+00
    0.93347E-09        -0.15832E-19         0.00000E+00
    0.93347E-09        -0.33588E-20         0.00000E+00
    0.11047E-08         0.37253E-20         0.00000E+00
    0.11047E-08         0.18626E-20         0.00000E+00
    0.11047E-08         0.18626E-20         0.00000E+00
    0.11047E-08        -0.18626E-20         0.00000E+00
    0.11047E-08        -0.94795E-20         0.00000E+00
    0.11047E-08         0.37253E-20         0.00000E+00
    0.11047E-08         0.57542E-20         0.00000E+00
    0.11047E-08         0.37253E-20         0.00000E+00
    0.11047E-08         0.13039E-19         0.00000E+00
    0.11047E-08         0.55879E-20         0.00000E+00
    0.11047E-08        -0.93132E-20         0.00000E+00
    0.11047E-08        -0.16764E-19         0.00000E+00
    0.11047E-08        -0.16764E-19         0.00000E+00
    0.11047E-08        -0.20489E-19         0.00000E+00
    0.11047E-08        -0.16764E-19         0.00000E+00
    0.11047E-08        -0.74506E-20         0.00000E+00
    0.11047E-08         0.55879E-20         0.00000E+00
    0.11047E-08         0.11176E-19         0.00000E+00
    0.11047E-08         0.74506E-20         0.00000E+00
    0.11047E-08         0.93132E-20         0.00000E+00
    0.11047E-08         0.74506E-20         0.00000E+00
    0.11047E-08         0.11176E-19         0.00000E+00
    0.11047E-08         0.11176E-19         0.00000E+00
    0.11047E-08         0.00000E+00         0.00000E+00
    0.11047E-08        -0.74506E-20         0.00000E+00
    0.11047E-08        -0.18626E-20         0.00000E+00
    0.11047E-08        -0.55879E-20         0.00000E+00
    0.11047E-08        -0.14901E-19         0.00000E+00
    0.11047E-08        -0.93132E-20         0.00000E+00
    0.11047E-08        -0.37253E-20         0.00000E+00
    0.11047E-08         0.74506E-20         0.00000E+00
    0.11047E-08         0.11176E-19         0.00000E+00
    0.11047E-08         0.18626E-20         0.00000E+00
    0.11047E-08        -0.55879E-20         0.00000E+00
    0.11047E-08        -0.93132E-20         0.00000E+00
    0.11047E-08        -0.14901E-19         0.00000E+00
    0.11047E-08        -0.13039E-19         0.00000E+00
    0.11047E-08        -0.74506E-20         0.00000E+00
    0.11047E-08        -0.11176E-19         0.00000E+00
    0.11047E-08        -0.11176E-19         0.00000E+00
    0.11047E-08        -0.74506E-20         0.00000E+00
    0.11047E-08         0.00000E+00         0.00000E+00
    0.11047E-08         0.18626E-20         0.00000E+00
    0.11047E-08         0.16964E-20         0.00000E+00
    0.11047E-08         0.55879E-20         0.00000E+00
    0.11047E-08         0.76168E-20         0.00000E+00
    0.11047E-08         0.54217E-20         0.00000E+00
    0.11047E-08        -0.38915E-20         0.00000E+00
    0.11047E-08         0.00000E+00         0.00000E+00
    0.11047E-08         0.38915E-20         0.00000E+00
    0.11047E-08         0.33251E-21         0.00000E+00
    0.13060E-08        -0.40176E-20         0.00000E+00
    0.13060E-08        -0.55879E-20         0.00000E+00
    0.13060E-08        -0.14755E-19         0.00000E+00
    0.13060E-08        -0.16764E-19         0.00000E+00
    0.13060E-08         0.78517E-21         0.00000E+00
    0.13060E-08         0.00000E+00         0.00000E+00
    0.13060E-08        -0.55879E-20         0.00000E+00
    0.13060E-08        -0.10058E-32         0.00000E+00
    0.13060E-08         0.18626E-20         0.00000E+00
    0.13060E-08        -0.10190E-32         0.00000E+00
    0.13060E-08        -0.27940E-20         0.00000E+00
    0.13060E-08        -0.13039E-19         0.00000E+00
    0.13060E-08        -0.91671E-20         0.00000E+00
    0.13060E-08        -0.16764E-19         0.00000E+00
    0.13060E-08        -0.16764E-19         0.00000E+00
    0.13060E-08        -0.74506E-20         0.00000E+00
    0.13060E-08        -0.55879E-20         0.00000E+00
    0.13060E-08        -0.14901E-19         0.00000E+00
    0.13060E-08        -0.11322E-19         0.00000E+00
    0.13060E-08         0.37253E-20         0.00000E+00
    0.13060E-08        -0.17165E-20         0.00000E+00
    0.13060E-08        -0.11176E-19         0.00000E+00
    0.13060E-08        -0.11176E-19         0.00000E+00
    0.13060E-08         0.37253E-20         0.00000E+00
    0.13060E-08         0.20489E-19         0.00000E+00
    0.13060E-08         0.11176E-19         0.00000E+00
    0.13060E-08        -0.18626E-20         0.00000E+00
    0.13060E-08        -0.37253E-20         0.00000E+00
    0.13060E-08        -0.74506E-20         0.00000E+00
    0.13060E-08         0.00000E+00         0.00000E+00
    0.13060E-08         0.55879E-20         0.00000E+00
    0.13060E-08         0.11176E-19         0.00000E+00
    0.13060E-08         0.93132E-20         0.00000E+00
    0.13060E-08         0.37253E-20         0.00000E+00
    0.13060E-08         0.14901E-19         0.00000E+00
    0.13060E-08         0.55879E-20         0.00000E+00
    0.13060E-08        -0.37253E-20         0.00000E+00
    0.13060E-08         0.18626E-20         0.00000E+00
    0.13060E-08        -0.74506E-20         0.00000E+00
    0.13060E-08        -0.11176E-19         0.00000E+00
    0.13060E-08        -0.18626E-20         0.00000E+00
    0.13060E-08        -0.18626E-20         0.00000E+00
    0.13060E-08        -0.11322E-19         0.00000E+00
    0.13060E-08        -0.11176E-19         0.00000E+00
    0.13060E-08         0.38714E-20         0.00000E+00
    0.13060E-08         0.93132E-20         0.00000E+00
    0.13060E-08         0.91671E-20         0.00000E+00
    0.13060E-08         0.14901E-19         0.00000E+00
    0.13060E-08         0.38714E-20         0.00000E+00
    0.13060E-08        -0.37253E-20         0.00000E+00
    0.13060E-08         0.00000E+00         0.00000E+00
    0.15424E-08        -0.24484E-21         0.00000E+00
    0.15424E-08        -0.12242E-21         0.00000E+00
    0.15424E-08        -0.74506E-20         0.00000E+00
    0.15424E-08        -0.11053E-19         0.00000E+00
    0.15424E-08         0.37253E-20         0.00000E+00
    0.15424E-08         0.13970E-19         0.00000E+00
    0.15424E-08         0.83819E-20         0.00000E+00
    0.15424E-08         0.36029E-20         0.00000E+00
    0.15424E-08         0.57104E-20         0.00000E+00
    0.15424E-08         0.94356E-20         0.00000E+00
    0.15424E-08         0.74506E-20         0.00000E+00
    0.15424E-08        -0.19851E-20         0.00000E+00
    0.15424E-08         0.18626E-20         0.00000E+00
    0.15424E-08         0.19851E-20         0.00000E+00
    0.15424E-08        -0.93132E-20         0.00000E+00
    0.15424E-08        -0.11298E-19         0.00000E+00
    0.15424E-08        -0.74506E-20         0.00000E+00
    0.15424E-08        -0.93132E-20         0.00000E+00
    0.15424E-08        -0.15024E-19         0.00000E+00
    0.15424E-08        -0.20367E-19         0.00000E+00
    0.15424E-08        -0.16641E-19         0.00000E+00
    0.15424E-08        -0.74506E-20         0.00000E+00
    0.15424E-08        -0.37253E-20         0.00000E+00
    0.15424E-08        -0.11176E-19         0.00000E+00
    0.15424E-08        -0.14901E-19         0.00000E+00
    0.15424E-08        -0.55879E-20         0.00000E+00
    0.15424E-08         0.00000E+00         0.00000E+00
    0.15424E-08         0.37253E-20         0.00000E+00
    0.15424E-08         0.16641E-19         0.00000E+00
    0.15424E-08         0.20489E-19         0.00000E+00
    0.15424E-08         0.37253E-20         0.00000E+00
    0.15424E-08        -0.55879E-20         0.00000E+00
    0.15424E-08        -0.55879E-20         0.00000E+00
    0.15424E-08         0.18626E-20         0.00000E+00
    0.15424E-08         0.13161E-19         0.00000E+00
    0.15424E-08         0.91908E-20         0.00000E+00
    0.15424E-08         0.73282E-20         0.00000E+00
    0.15424E-08         0.13039E-19         0.00000E+00
    0.15424E-08         0.75730E-20         0.00000E+00
    0.15424E-08        -0.16641E-19         0.00000E+00
    0.15424E-08        -0.22352E-19         0.00000E+00
    0.15424E-08        -0.11176E-19         0.00000E+00
    0.15424E-08         0.18626E-20         0.00000E+00
    0.15424E-08         0.18626E-19         0.00000E+00
    0.15424E-08         0.16764E-19         0.00000E+00
    0.15424E-08         0.73282E-20         0.00000E+00
    0.15424E-08         0.55879E-20         0.00000E+00
    0.15424E-08         0.11176E-19         0.00000E+00
    0.15424E-08         0.11053E-19         0.00000E+00
    0.15424E-08         0.75730E-20         0.00000E+00
    0.15424E-08         0.76954E-20         0.00000E+00
    0.18197E-08         0.18887E-21         0.00000E+00
    0.18197E-08         0.18626E-20         0.00000E+00
    0.18197E-08        -0.94433E-22         0.00000E+00
    0.18197E-08        -0.36309E-20         0.00000E+00
    0.18197E-08         0.37253E-20         0.00000E+00
    0.18197E-08         0.12944E-19         0.00000E+00
    0.18197E-08         0.18626E-19         0.00000E+00
    0.18197E-08         0.16764E-19         0.00000E+00
    0.18197E-08         0.94077E-20         0.00000E+00
    0.18197E-08         0.13133E-19         0.00000E+00
    0.18197E-08         0.64248E-20         0.00000E+00
    0.18197E-08        -0.10194E-32         0.00000E+00
    0.18197E-08         0.93132E-21         0.00000E+00
    0.18197E-08        -0.16764E-19         0.00000E+00
    0.18197E-08        -0.73561E-20         0.00000E+00
    0.18197E-08        -0.55879E-20         0.00000E+00
    0.18197E-08        -0.74506E-20         0.00000E+00
    0.18197E-08         0.36309E-20         0.00000E+00
    0.18197E-08         0.17682E-20         0.00000E+00
    0.18197E-08        -0.18626E-20         0.00000E+00
    0.18197E-08        -0.36309E-20         0.00000E+00
    0.18197E-08         0.19571E-20         0.00000E+00
    0.18197E-08        -0.18626E-20         0.00000E+00
    0.18197E-08        -0.93132E-20         0.00000E+00
    0.18197E-08        -0.75450E-20         0.00000E+00
    0.18197E-08        -0.37253E-20         0.00000E+00
    0.18197E-08         0.94433E-22         0.00000E+00
    0.18197E-08         0.00000E+00         0.00000E+00
    0.18197E-08        -0.37253E-20         0.00000E+00
    0.18197E-08         0.37253E-20         0.00000E+00
    0.18197E-08         0.11176E-19         0.00000E+00
    0.18197E-08         0.55879E-20         0.00000E+00
    0.18197E-08         0.00000E+00         0.00000E+00
    0.18197E-08        -0.94433E-22         0.00000E+00
    0.18197E-08        -0.18626E-20         0.00000E+00
    0.18197E-08         0.19571E-20         0.00000E+00
    0.18197E-08         0.92188E-20         0.00000E+00
    0.18197E-08         0.37253E-20         0.00000E+00
    0.18197E-08        -0.13235E-33         0.00000E+00
    0.18197E-08        -0.74506E-20         0.00000E+00
    0.18197E-08        -0.74506E-20         0.00000E+00
    0.18197E-08         0.11911E-33         0.00000E+00
    0.18197E-08        -0.36309E-20         0.00000E+00
    0.18197E-08        -0.56824E-20         0.00000E+00
    0.18197E-08         0.37253E-20         0.00000E+00
    0.18197E-08         0.94077E-20         0.00000E+00
    0.18197E-08         0.73561E-20         0.00000E+00
    0.18197E-08         0.13970E-19         0.00000E+00
    0.18197E-08         0.12202E-19         0.00000E+00
    0.18197E-08         0.36309E-20         0.00000E+00
    0.18197E-08        -0.18887E-21         0.00000E+00
    0.21444E-08         0.00000E+00         0.00000E+00
    0.21444E-08         0.47181E-20         0.00000E+00
    0.21444E-08         0.14901E-19         0.00000E+00
    0.21444E-08         0.17634E-19         0.00000E+00
    0.21444E-08         0.18626E-19         0.00000E+00
    0.21444E-08         0.20489E-19         0.00000E+00
    0.21444E-08         0.24214E-19         0.00000E+00
    0.21444E-08         0.29864E-19         0.00000E+00
    0.21444E-08         0.31665E-19         0.00000E+00
    0.21444E-08         0.22352E-19         0.00000E+00
    0.21444E-08         0.11237E-19         0.00000E+00
    0.21444E-08         0.00000E+00         0.00000E+00
    0.21444E-08        -0.18626E-20         0.00000E+00
    0.21444E-08         0.93132E-20         0.00000E+00
    0.21444E-08         0.83204E-20         0.00000E+00
    0.21444E-08        -0.15832E-19         0.00000E+00
    0.21444E-08        -0.23283E-19         0.00000E+00
    0.21444E-08        -0.15894E-19         0.00000E+00
    0.21444E-08        -0.13039E-19         0.00000E+00
    0.21444E-08        -0.93132E-20         0.00000E+00
    0.21444E-08         0.19241E-20         0.00000E+00
    0.21444E-08         0.75121E-20         0.00000E+00
    0.21444E-08         0.00000E+00         0.00000E+00
    0.21444E-08        -0.37253E-20         0.00000E+00
    0.21444E-08        -0.19241E-20         0.00000E+00
    0.21444E-08         0.37253E-20         0.00000E+00
    0.21444E-08         0.93747E-20         0.00000E+00
    0.21444E-08         0.73891E-20         0.00000E+00
    0.21444E-08         0.55879E-20         0.00000E+00
    0.21444E-08         0.14901E-19         0.00000E+00
    0.21444E-08         0.16764E-19         0.00000E+00
    0.21444E-08         0.11237E-19         0.00000E+00
    0.21444E-08        -0.56494E-20         0.00000E+00
    0.21444E-08        -0.20489E-19         0.00000E+00
    0.21444E-08        -0.55265E-20         0.00000E+00
    0.21444E-08         0.18012E-20         0.00000E+00
    0.21444E-08         0.55879E-20         0.00000E+00
    0.21444E-08         0.13039E-19         0.00000E+00
    0.21444E-08         0.36638E-20         0.00000E+00
    0.21444E-08         0.61470E-22         0.00000E+00
    0.21444E-08        -0.37253E-20         0.00000E+00
    0.21444E-08        -0.56494E-20         0.00000E+00
    0.21444E-08         0.11176E-19         0.00000E+00
    0.21444E-08         0.20551E-19         0.00000E+00
    0.21444E-08         0.13100E-19         0.00000E+00
    0.21444E-08         0.55879E-20         0.00000E+00
    0.21444E-08         0.55265E-20         0.00000E+00
    0.21444E-08         0.13039E-19         0.00000E+00
    0.21444E-08         0.10245E-19         0.00000E+00
    0.21444E-08         0.86985E-21         0.00000E+00
    0.21444E-08         0.37253E-20         0.00000E+00
    0.25242E-08         0.00000E+00         0.00000E+00
    0.25242E-08        -0.18626E-20         0.00000E+00
    0.25242E-08         0.18853E-20         0.00000E+00
    0.25242E-08         0.74506E-20         0.00000E+00
    0.25242E-08         0.13016E-19         0.00000E+00
    0.25242E-08         0.18626E-19         0.00000E+00
    0.25242E-08         0.24214E-19         0.00000E+00
    0.25242E-08         0.24214E-19         0.00000E+00
    0.25242E-08         0.20489E-19         0.00000E+00
    0.25242E-08         0.16764E-19         0.00000E+00
    0.25242E-08         0.65419E-20         0.00000E+00
    0.25242E-08         0.11176E-19         0.00000E+00
    0.25242E-08         0.12085E-19         0.00000E+00
    0.25242E-08         0.22690E-22         0.00000E+00
    0.25242E-08        -0.15832E-19         0.00000E+00
    0.25242E-08        -0.17695E-19         0.00000E+00
    0.25242E-08        -0.18604E-19         0.00000E+00
    0.25242E-08        -0.20512E-19         0.00000E+00
    0.25242E-08        -0.56106E-20         0.00000E+00
    0.25242E-08        -0.18626E-20         0.00000E+00
    0.25242E-08         0.18626E-20         0.00000E+00
    0.25242E-08         0.13061E-19         0.00000E+00
    0.25242E-08         0.13061E-19         0.00000E+00
    0.25242E-08         0.55879E-20         0.00000E+00
    0.25242E-08        -0.22690E-22         0.00000E+00
    0.25242E-08         0.18626E-20         0.00000E+00
    0.25242E-08         0.37480E-20         0.00000E+00
    0.25242E-08         0.55879E-20         0.00000E+00
    0.25242E-08         0.37253E-20         0.00000E+00
    0.25242E-08         0.37026E-20         0.00000E+00
    0.25242E-08         0.11153E-19         0.00000E+00
    0.25242E-08         0.74733E-20         0.00000E+00
    0.25242E-08        -0.74506E-20         0.00000E+00
    0.25242E-08        -0.13039E-19         0.00000E+00
    0.25242E-08        -0.37253E-20         0.00000E+00
    0.25242E-08         0.18400E-20         0.00000E+00
    0.25242E-08         0.18626E-20         0.00000E+00
    0.25242E-08         0.56106E-20         0.00000E+00
    0.25242E-08         0.93359E-20         0.00000E+00
    0.25242E-08         0.18400E-20         0.00000E+00
    0.25242E-08        -0.56106E-20         0.00000E+00
    0.25242E-08        -0.18400E-20         0.00000E+00
    0.25242E-08         0.74733E-20         0.00000E+00
    0.25242E-08         0.24214E-19         0.00000E+00
    0.25242E-08         0.31642E-19         0.00000E+00
    0.25242E-08         0.22329E-19         0.00000E+00
    0.25242E-08         0.20489E-19         0.00000E+00
    0.25242E-08         0.14901E-19         0.00000E+00
    0.25242E-08        -0.18626E-20         0.00000E+00
    0.25242E-08         0.00000E+00         0.00000E+00
    0.25242E-08         0.74506E-20         0.00000E+00
    0.29677E-08         0.37253E-20         0.00000E+00
    0.29677E-08         0.11153E-19         0.00000E+00
    0.29677E-08         0.14878E-19         0.00000E+00
    0.29677E-08         0.37482E-20         0.00000E+00
    0.29677E-08         0.93361E-20         0.00000E+00
    0.29677E-08         0.24192E-19         0.00000E+00
    0.29677E-08         0.16741E-19         0.00000E+00
    0.29677E-08         0.74735E-20         0.00000E+00
    0.29677E-08         0.56108E-20         0.00000E+00
    0.29677E-08        -0.74506E-20         0.00000E+00
    0.29677E-08        -0.93132E-20         0.00000E+00
    0.29677E-08        -0.74506E-20         0.00000E+00
    0.29677E-08        -0.11176E-19         0.00000E+00
    0.29677E-08        -0.11176E-19         0.00000E+00
    0.29677E-08        -0.11176E-19         0.00000E+00
    0.29677E-08        -0.18626E-19         0.00000E+00
    0.29677E-08        -0.31665E-19         0.00000E+00
    0.29677E-08        -0.22352E-19         0.00000E+00
    0.29677E-08        -0.37024E-20         0.00000E+00
    0.29677E-08         0.74506E-20         0.00000E+00
    0.29677E-08         0.18604E-19         0.00000E+00
    0.29677E-08         0.22352E-19         0.00000E+00
    0.29677E-08         0.20489E-19         0.00000E+00
    0.29677E-08         0.21398E-19         0.00000E+00
    0.29677E-08         0.13039E-19         0.00000E+00
    0.29677E-08        -0.83590E-20         0.00000E+00
    0.29677E-08        -0.74506E-20         0.00000E+00
    0.29677E-08        -0.18626E-20         0.00000E+00
    0.29677E-08        -0.55879E-20         0.00000E+00
    0.29677E-08        -0.74506E-20         0.00000E+00
    0.29677E-08        -0.93132E-20         0.00000E+00
    0.29677E-08        -0.93132E-20         0.00000E+00
    0.29677E-08        -0.55879E-20         0.00000E+00
    0.29677E-08        -0.37253E-20         0.00000E+00
    0.29677E-08        -0.18626E-20         0.00000E+00
    0.29677E-08         0.37482E-20         0.00000E+00
    0.29677E-08         0.11176E-19         0.00000E+00
    0.29677E-08         0.14878E-19         0.00000E+00
    0.29677E-08         0.16764E-19         0.00000E+00
    0.29677E-08         0.13039E-19         0.00000E+00
    0.29677E-08         0.14924E-19         0.00000E+00
    0.29677E-08         0.16764E-19         0.00000E+00
    0.29677E-08         0.14855E-19         0.00000E+00
    0.29677E-08         0.22352E-19         0.00000E+00
    0.29677E-08         0.18649E-19         0.00000E+00
    0.29677E-08         0.93132E-20         0.00000E+00
    0.29677E-08         0.18398E-20         0.00000E+00
    0.29677E-08         0.46566E-20         0.00000E+00
    0.29677E-08         0.65421E-20         0.00000E+00
    0.29677E-08         0.37253E-20         0.00000E+00
    0.29677E-08         0.37253E-20         0.00000E+00
    0.34849E-08         0.37253E-20         0.00000E+00
    0.34849E-08         0.55879E-20         0.00000E+00
    0.34849E-08         0.74506E-20         0.00000E+00
    0.34849E-08         0.14825E-19         0.00000E+00
    0.34849E-08         0.22352E-19         0.00000E+00
    0.34849E-08         0.20565E-19         0.00000E+00
    0.34849E-08         0.17771E-19         0.00000E+00
    0.34849E-08         0.18626E-19         0.00000E+00
    0.34849E-08         0.12031E-19         0.00000E+00
    0.34849E-08         0.37253E-20         0.00000E+00
    0.34849E-08        -0.93132E-20         0.00000E+00
    0.34849E-08        -0.11176E-19         0.00000E+00
    0.34849E-08        -0.37253E-20         0.00000E+00
    0.34849E-08        -0.38016E-20         0.00000E+00
    0.34849E-08        -0.16764E-19         0.00000E+00
    0.34849E-08        -0.31589E-19         0.00000E+00
    0.34849E-08        -0.31665E-19         0.00000E+00
    0.34849E-08        -0.18626E-19         0.00000E+00
    0.34849E-08        -0.18626E-20         0.00000E+00
    0.34849E-08         0.18626E-20         0.00000E+00
    0.34849E-08         0.55879E-20         0.00000E+00
    0.34849E-08         0.22275E-19         0.00000E+00
    0.34849E-08         0.29802E-19         0.00000E+00
    0.34849E-08         0.27008E-19         0.00000E+00
    0.34849E-08         0.29802E-19         0.00000E+00
    0.34849E-08         0.19558E-19         0.00000E+00
    0.34849E-08         0.55116E-20         0.00000E+00
    0.34849E-08        -0.55116E-20         0.00000E+00
    0.34849E-08        -0.14825E-19         0.00000E+00
    0.34849E-08        -0.93132E-20         0.00000E+00
    0.34849E-08         0.00000E+00         0.00000E+00
    0.34849E-08         0.85497E-21         0.00000E+00
    0.34849E-08        -0.10321E-19         0.00000E+00
    0.34849E-08        -0.20413E-19         0.00000E+00
    0.34849E-08        -0.16687E-19         0.00000E+00
    0.34849E-08        -0.13039E-19         0.00000E+00
    0.34849E-08        -0.14901E-19         0.00000E+00
    0.34849E-08        -0.37253E-20         0.00000E+00
    0.34849E-08         0.74506E-20         0.00000E+00
    0.34849E-08         0.74506E-20         0.00000E+00
    0.34849E-08         0.74506E-20         0.00000E+00
    0.34849E-08         0.13039E-19         0.00000E+00
    0.34849E-08         0.22428E-19         0.00000E+00
    0.34849E-08         0.26932E-19         0.00000E+00
    0.34849E-08         0.21344E-19         0.00000E+00
    0.34849E-08         0.14978E-19         0.00000E+00
    0.34849E-08         0.73742E-20         0.00000E+00
    0.34849E-08         0.74506E-20         0.00000E+00
    0.34849E-08         0.56643E-20         0.00000E+00
    0.34849E-08         0.55879E-20         0.00000E+00
    0.34849E-08         0.37253E-20         0.00000E+00
    0.40868E-08         0.00000E+00         0.00000E+00
    0.40868E-08         0.00000E+00         0.00000E+00
    0.40868E-08         0.74506E-20         0.00000E+00
    0.40868E-08         0.55879E-20         0.00000E+00
    0.40868E-08         0.74506E-20         0.00000E+00
    0.40868E-08         0.27940E-19         0.00000E+00
    0.40868E-08         0.35390E-19         0.00000E+00
    0.40868E-08         0.21559E-19         0.00000E+00
    0.40868E-08         0.18626E-19         0.00000E+00
    0.40868E-08         0.99665E-20         0.00000E+00
    0.40868E-08         0.54489E-20         0.00000E+00
    0.40868E-08         0.13903E-21         0.00000E+00
    0.40868E-08         0.13903E-21         0.00000E+00
    0.40868E-08         0.74506E-20         0.00000E+00
    0.40868E-08        -0.18626E-20         0.00000E+00
    0.40868E-08        -0.11176E-19         0.00000E+00
    0.40868E-08        -0.24214E-19         0.00000E+00
    0.40868E-08        -0.22352E-19         0.00000E+00
    0.40868E-08        -0.55879E-20         0.00000E+00
    0.40868E-08         0.37253E-20         0.00000E+00
    0.40868E-08         0.55879E-20         0.00000E+00
    0.40868E-08         0.74506E-20         0.00000E+00
    0.40868E-08         0.13039E-19         0.00000E+00
    0.40868E-08         0.13039E-19         0.00000E+00
    0.40868E-08         0.75896E-20         0.00000E+00
    0.40868E-08         0.93132E-20         0.00000E+00
    0.40868E-08         0.11037E-19         0.00000E+00
    0.40868E-08         0.93132E-20         0.00000E+00
    0.40868E-08         0.37253E-20         0.00000E+00
    0.40868E-08         0.18626E-20         0.00000E+00
    0.40868E-08         0.18626E-20         0.00000E+00
    0.40868E-08        -0.57270E-20         0.00000E+00
    0.40868E-08        -0.24214E-19         0.00000E+00
    0.40868E-08        -0.38977E-19         0.00000E+00
    0.40868E-08        -0.39116E-19         0.00000E+00
    0.40868E-08        -0.29802E-19         0.00000E+00
    0.40868E-08        -0.74506E-20         0.00000E+00
    0.40868E-08         0.00000E+00         0.00000E+00
    0.40868E-08        -0.55879E-20         0.00000E+00
    0.40868E-08        -0.74506E-20         0.00000E+00
    0.40868E-08         0.00000E+00         0.00000E+00
    0.40868E-08         0.94523E-20         0.00000E+00
    0.40868E-08         0.15832E-19         0.00000E+00
    0.40868E-08         0.21281E-19         0.00000E+00
    0.40868E-08         0.14901E-19         0.00000E+00
    0.40868E-08         0.74506E-20         0.00000E+00
    0.40868E-08         0.55879E-20         0.00000E+00
    0.40868E-08         0.74506E-20         0.00000E+00
    0.40868E-08         0.55879E-20         0.00000E+00
    0.40868E-08         0.13903E-21         0.00000E+00
    0.40868E-08        -0.34472E-20         0.00000E+00
    0.47863E-08         0.74506E-20         0.00000E+00
    0.47863E-08         0.74506E-20         0.00000E+00
    0.47863E-08         0.55879E-20         0.00000E+00
    0.47863E-08         0.00000E+00         0.00000E+00
    0.47863E-08         0.95256E-20         0.00000E+00
    0.47863E-08         0.26077E-19         0.00000E+00
    0.47863E-08         0.29590E-19         0.00000E+00
    0.47863E-08         0.25865E-19         0.00000E+00
    0.47863E-08         0.23283E-19         0.00000E+00
    0.47863E-08         0.14901E-19         0.00000E+00
    0.47863E-08         0.74506E-20         0.00000E+00
    0.47863E-08         0.14182E-19         0.00000E+00
    0.47863E-08         0.16764E-19         0.00000E+00
    0.47863E-08         0.13039E-19         0.00000E+00
    0.47863E-08         0.18626E-20         0.00000E+00
    0.47863E-08        -0.81695E-20         0.00000E+00
    0.47863E-08        -0.74506E-20         0.00000E+00
    0.47863E-08        -0.13039E-19         0.00000E+00
    0.47863E-08        -0.37253E-20         0.00000E+00
    0.47863E-08         0.71893E-21         0.00000E+00
    0.47863E-08        -0.18626E-20         0.00000E+00
    0.47863E-08         0.55879E-20         0.00000E+00
    0.47863E-08         0.13039E-19         0.00000E+00
    0.47863E-08         0.20489E-19         0.00000E+00
    0.47863E-08         0.19770E-19         0.00000E+00
    0.47863E-08         0.91008E-20         0.00000E+00
    0.47863E-08        -0.85943E-20         0.00000E+00
    0.47863E-08        -0.91008E-20         0.00000E+00
    0.47863E-08        -0.74506E-20         0.00000E+00
    0.47863E-08        -0.93132E-20         0.00000E+00
    0.47863E-08        -0.37253E-20         0.00000E+00
    0.47863E-08        -0.55879E-20         0.00000E+00
    0.47863E-08        -0.14901E-19         0.00000E+00
    0.47863E-08        -0.18414E-19         0.00000E+00
    0.47863E-08        -0.24214E-19         0.00000E+00
    0.47863E-08        -0.30015E-19         0.00000E+00
    0.47863E-08        -0.29802E-19         0.00000E+00
    0.47863E-08        -0.24214E-19         0.00000E+00
    0.47863E-08        -0.18626E-19         0.00000E+00
    0.47863E-08        -0.18626E-19         0.00000E+00
    0.47863E-08        -0.93132E-20         0.00000E+00
    0.47863E-08         0.18626E-20         0.00000E+00
    0.47863E-08         0.13039E-19         0.00000E+00
    0.47863E-08         0.14182E-19         0.00000E+00
    0.47863E-08         0.93132E-20         0.00000E+00
    0.47863E-08         0.60945E-20         0.00000E+00
    0.47863E-08         0.18626E-20         0.00000E+00
    0.47863E-08        -0.25816E-20         0.00000E+00
    0.47863E-08        -0.74506E-20         0.00000E+00
    0.47863E-08        -0.25816E-20         0.00000E+00
    0.47863E-08         0.97380E-20         0.00000E+00
    0.55976E-08         0.37253E-20         0.00000E+00
    0.55976E-08         0.74506E-20         0.00000E+00
    0.55976E-08         0.96114E-20         0.00000E+00
    0.55976E-08         0.11474E-19         0.00000E+00
    0.55976E-08         0.22352E-19         0.00000E+00
    0.55976E-08         0.35390E-19         0.00000E+00
    0.55976E-08         0.31367E-19         0.00000E+00
    0.55976E-08         0.22687E-19         0.00000E+00
    0.55976E-08         0.22985E-19         0.00000E+00
    0.55976E-08         0.22650E-19         0.00000E+00
    0.55976E-08         0.18925E-19         0.00000E+00
    0.55976E-08         0.20489E-19         0.00000E+00
    0.55976E-08         0.18626E-19         0.00000E+00
    0.55976E-08         0.15534E-19         0.00000E+00
    0.55976E-08         0.83819E-20         0.00000E+00
    0.55976E-08        -0.34272E-20         0.00000E+00
    0.55976E-08        -0.74506E-20         0.00000E+00
    0.55976E-08        -0.80838E-20         0.00000E+00
    0.55976E-08        -0.37253E-20         0.00000E+00
    0.55976E-08         0.63320E-21         0.00000E+00
    0.55976E-08        -0.55879E-20         0.00000E+00
    0.55976E-08         0.18626E-20         0.00000E+00
    0.55976E-08         0.10543E-19         0.00000E+00
    0.55976E-08         0.10245E-19         0.00000E+00
    0.55976E-08         0.74506E-20         0.00000E+00
    0.55976E-08         0.43585E-20         0.00000E+00
    0.55976E-08         0.24958E-20         0.00000E+00
    0.55976E-08         0.24589E-20         0.00000E+00
    0.55976E-08        -0.13970E-19         0.00000E+00
    0.55976E-08        -0.10543E-19         0.00000E+00
    0.55976E-08        -0.55879E-20         0.00000E+00
    0.55976E-08        -0.93132E-20         0.00000E+00
    0.55976E-08        -0.16764E-19         0.00000E+00
    0.55976E-08        -0.33528E-19         0.00000E+00
    0.55976E-08        -0.39116E-19         0.00000E+00
    0.55976E-08        -0.33528E-19         0.00000E+00
    0.55976E-08        -0.24214E-19         0.00000E+00
    0.55976E-08        -0.22352E-19         0.00000E+00
    0.55976E-08        -0.24214E-19         0.00000E+00
    0.55976E-08        -0.20489E-19         0.00000E+00
    0.55976E-08        -0.93132E-20         0.00000E+00
    0.55976E-08         0.63320E-21         0.00000E+00
    0.55976E-08         0.93132E-20         0.00000E+00
    0.55976E-08         0.19856E-19         0.00000E+00
    0.55976E-08         0.14268E-19         0.00000E+00
    0.55976E-08         0.86800E-20         0.00000E+00
    0.55976E-08         0.55879E-20         0.00000E+00
    0.55976E-08         0.43585E-20         0.00000E+00
    0.55976E-08         0.80838E-20         0.00000E+00
    0.55976E-08         0.12294E-20         0.00000E+00
    0.55976E-08        -0.12664E-20         0.00000E+00
    0.65370E-08         0.10110E-19         0.00000E+00
    0.65370E-08         0.46566E-20         0.00000E+00
    0.65370E-08         0.51898E-20         0.00000E+00
    0.65370E-08         0.55879E-20         0.00000E+00
    0.65370E-08         0.97114E-20         0.00000E+00
    0.65370E-08         0.30734E-19         0.00000E+00
    0.65370E-08         0.48962E-19         0.00000E+00
    0.65370E-08         0.46566E-19         0.00000E+00
    0.65370E-08         0.37651E-19         0.00000E+00
    0.65370E-08         0.27008E-19         0.00000E+00
    0.65370E-08         0.18626E-19         0.00000E+00
    0.65370E-08         0.15832E-19         0.00000E+00
    0.65370E-08         0.18228E-19         0.00000E+00
    0.65370E-08         0.14901E-19         0.00000E+00
    0.65370E-08        -0.37253E-20         0.00000E+00
    0.65370E-08        -0.93132E-20         0.00000E+00
    0.65370E-08        -0.74506E-20         0.00000E+00
    0.65370E-08        -0.74506E-20         0.00000E+00
    0.65370E-08        -0.33271E-20         0.00000E+00
    0.65370E-08        -0.18626E-20         0.00000E+00
    0.65370E-08        -0.22608E-20         0.00000E+00
    0.65370E-08        -0.18626E-20         0.00000E+00
    0.65370E-08         0.18626E-20         0.00000E+00
    0.65370E-08         0.70524E-20         0.00000E+00
    0.65370E-08         0.12505E-19         0.00000E+00
    0.65370E-08         0.13039E-19         0.00000E+00
    0.65370E-08         0.33271E-20         0.00000E+00
    0.65370E-08        -0.23958E-20         0.00000E+00
    0.65370E-08        -0.93132E-20         0.00000E+00
    0.65370E-08        -0.93132E-20         0.00000E+00
    0.65370E-08        -0.55879E-20         0.00000E+00
    0.65370E-08        -0.13039E-19         0.00000E+00
    0.65370E-08        -0.24214E-19         0.00000E+00
    0.65370E-08        -0.31665E-19         0.00000E+00
    0.65370E-08        -0.27940E-19         0.00000E+00
    0.65370E-08        -0.22885E-19         0.00000E+00
    0.65370E-08        -0.22352E-19         0.00000E+00
    0.65370E-08        -0.23681E-19         0.00000E+00
    0.65370E-08        -0.24748E-19         0.00000E+00
    0.65370E-08        -0.23283E-19         0.00000E+00
    0.65370E-08        -0.13039E-19         0.00000E+00
    0.65370E-08         0.83819E-20         0.00000E+00
    0.65370E-08         0.22885E-19         0.00000E+00
    0.65370E-08         0.18626E-19         0.00000E+00
    0.65370E-08         0.11574E-19         0.00000E+00
    0.65370E-08         0.46566E-20         0.00000E+00
    0.65370E-08         0.23958E-20         0.00000E+00
    0.65370E-08         0.18626E-20         0.00000E+00
    0.65370E-08         0.13295E-20         0.00000E+00
    0.65370E-08         0.31921E-20         0.00000E+00
    0.65370E-08         0.11176E-19         0.00000E+00
    0.76223E-08         0.37253E-20         0.00000E+00
    0.76223E-08         0.37253E-20         0.00000E+00
    0.76223E-08         0.79653E-20         0.00000E+00
    0.76223E-08         0.11691E-19         0.00000E+00
    0.76223E-08         0.20489E-19         0.00000E+00
    0.76223E-08         0.37669E-19         0.00000E+00
    0.76223E-08         0.46566E-19         0.00000E+00
    0.76223E-08         0.42841E-19         0.00000E+00
    0.76223E-08         0.22768E-19         0.00000E+00
    0.76223E-08         0.13039E-19         0.00000E+00
    0.76223E-08         0.13039E-19         0.00000E+00
    0.76223E-08         0.24214E-19         0.00000E+00
    0.76223E-08         0.24214E-19         0.00000E+00
    0.76223E-08         0.16764E-19         0.00000E+00
    0.76223E-08         0.37253E-20         0.00000E+00
    0.76223E-08        -0.37253E-20         0.00000E+00
    0.76223E-08        -0.55879E-20         0.00000E+00
    0.76223E-08        -0.14386E-19         0.00000E+00
    0.76223E-08        -0.10661E-19         0.00000E+00
    0.76223E-08        -0.88967E-20         0.00000E+00
    0.76223E-08        -0.93132E-20         0.00000E+00
    0.76223E-08         0.33087E-20         0.00000E+00
    0.76223E-08         0.74506E-20         0.00000E+00
    0.76223E-08         0.54897E-20         0.00000E+00
    0.76223E-08         0.55879E-20         0.00000E+00
    0.76223E-08         0.33087E-20         0.00000E+00
    0.76223E-08         0.00000E+00         0.00000E+00
    0.76223E-08         0.23774E-20         0.00000E+00
    0.76223E-08        -0.61027E-20         0.00000E+00
    0.76223E-08        -0.23774E-20         0.00000E+00
    0.76223E-08         0.00000E+00         0.00000E+00
    0.76223E-08        -0.93132E-20         0.00000E+00
    0.76223E-08        -0.24214E-19         0.00000E+00
    0.76223E-08        -0.39116E-19         0.00000E+00
    0.76223E-08        -0.35390E-19         0.00000E+00
    0.76223E-08        -0.24631E-19         0.00000E+00
    0.76223E-08        -0.17695E-19         0.00000E+00
    0.76223E-08        -0.11691E-19         0.00000E+00
    0.76223E-08        -0.13039E-19         0.00000E+00
    0.76223E-08        -0.18626E-19         0.00000E+00
    0.76223E-08        -0.74506E-20         0.00000E+00
    0.76223E-08         0.55879E-20         0.00000E+00
    0.76223E-08         0.98280E-20         0.00000E+00
    0.76223E-08         0.13039E-19         0.00000E+00
    0.76223E-08         0.55879E-20         0.00000E+00
    0.76223E-08        -0.32105E-20         0.00000E+00
    0.76223E-08        -0.37253E-20         0.00000E+00
    0.76223E-08        -0.51477E-21         0.00000E+00
    0.76223E-08        -0.42401E-20         0.00000E+00
    0.76223E-08        -0.32105E-20         0.00000E+00
    0.76223E-08         0.10295E-20         0.00000E+00
    0.88737E-08         0.74506E-20         0.00000E+00
    0.88737E-08         0.81010E-20         0.00000E+00
    0.88737E-08         0.74506E-20         0.00000E+00
    0.88737E-08         0.12388E-19         0.00000E+00
    0.88737E-08         0.21139E-19         0.00000E+00
    0.88737E-08         0.30453E-19         0.00000E+00
    0.88737E-08         0.36603E-19         0.00000E+00
    0.88737E-08         0.39116E-19         0.00000E+00
    0.88737E-08         0.39766E-19         0.00000E+00
    0.88737E-08         0.32877E-19         0.00000E+00
    0.88737E-08         0.18626E-19         0.00000E+00
    0.88737E-08         0.81010E-20         0.00000E+00
    0.88737E-08         0.12388E-19         0.00000E+00
    0.88737E-08         0.16113E-19         0.00000E+00
    0.88737E-08         0.13039E-19         0.00000E+00
    0.88737E-08         0.62383E-20         0.00000E+00
    0.88737E-08         0.25130E-20         0.00000E+00
    0.88737E-08         0.00000E+00         0.00000E+00
    0.88737E-08         0.18626E-20         0.00000E+00
    0.88737E-08         0.30749E-20         0.00000E+00
    0.88737E-08         0.18626E-20         0.00000E+00
    0.88737E-08         0.00000E+00         0.00000E+00
    0.88737E-08        -0.37253E-20         0.00000E+00
    0.88737E-08         0.43757E-20         0.00000E+00
    0.88737E-08         0.00000E+00         0.00000E+00
    0.88737E-08         0.00000E+00         0.00000E+00
    0.88737E-08         0.55879E-20         0.00000E+00
    0.88737E-08        -0.37253E-20         0.00000E+00
    0.88737E-08        -0.13039E-19         0.00000E+00
    0.88737E-08        -0.15552E-19         0.00000E+00
    0.88737E-08        -0.11176E-19         0.00000E+00
    0.88737E-08        -0.13039E-19         0.00000E+00
    0.88737E-08        -0.14901E-19         0.00000E+00
    0.88737E-08        -0.19839E-19         0.00000E+00
    0.88737E-08        -0.30453E-19         0.00000E+00
    0.88737E-08        -0.31665E-19         0.00000E+00
    0.88737E-08        -0.20489E-19         0.00000E+00
    0.88737E-08        -0.93132E-20         0.00000E+00
    0.88737E-08        -0.68002E-20         0.00000E+00
    0.88737E-08        -0.11826E-19         0.00000E+00
    0.88737E-08        -0.13039E-19         0.00000E+00
    0.88737E-08        -0.12123E-20         0.00000E+00
    0.88737E-08         0.68002E-20         0.00000E+00
    0.88737E-08         0.86628E-20         0.00000E+00
    0.88737E-08         0.62383E-20         0.00000E+00
    0.88737E-08         0.93132E-21         0.00000E+00
    0.88737E-08         0.28094E-21         0.00000E+00
    0.88737E-08        -0.12123E-20         0.00000E+00
    0.88737E-08        -0.93132E-21         0.00000E+00
    0.88737E-08        -0.27940E-20         0.00000E+00
    0.88737E-08         0.13008E-20         0.00000E+00
    0.10313E-07         0.72037E-20         0.00000E+00
    0.10313E-07         0.13039E-19         0.00000E+00
    0.10313E-07         0.15025E-19         0.00000E+00
    0.10313E-07         0.11052E-19         0.00000E+00
    0.10313E-07         0.14778E-19         0.00000E+00
    0.10313E-07         0.26077E-19         0.00000E+00
    0.10313E-07         0.33651E-19         0.00000E+00
    0.10313E-07         0.31665E-19         0.00000E+00
    0.10313E-07         0.22352E-19         0.00000E+00
    0.10313E-07         0.11299E-19         0.00000E+00
    0.10313E-07         0.14901E-19         0.00000E+00
    0.10313E-07         0.20366E-19         0.00000E+00
    0.10313E-07         0.27816E-19         0.00000E+00
    0.10313E-07         0.29926E-19         0.00000E+00
    0.10313E-07         0.15025E-19         0.00000E+00
    0.10313E-07         0.54645E-20         0.00000E+00
    0.10313E-07         0.54645E-20         0.00000E+00
    0.10313E-07         0.55879E-20         0.00000E+00
    0.10313E-07         0.11176E-19         0.00000E+00
    0.10313E-07         0.16764E-19         0.00000E+00
    0.10313E-07         0.11176E-19         0.00000E+00
    0.10313E-07         0.11176E-19         0.00000E+00
    0.10313E-07         0.13039E-19         0.00000E+00
    0.10313E-07         0.38487E-20         0.00000E+00
    0.10313E-07         0.00000E+00         0.00000E+00
    0.10313E-07        -0.18626E-20         0.00000E+00
    0.10313E-07        -0.13039E-19         0.00000E+00
    0.10313E-07        -0.15025E-19         0.00000E+00
    0.10313E-07        -0.22352E-19         0.00000E+00
    0.10313E-07        -0.25954E-19         0.00000E+00
    0.10313E-07        -0.22352E-19         0.00000E+00
    0.10313E-07        -0.20489E-19         0.00000E+00
    0.10313E-07        -0.22352E-19         0.00000E+00
    0.10313E-07        -0.33651E-19         0.00000E+00
    0.10313E-07        -0.35390E-19         0.00000E+00
    0.10313E-07        -0.24214E-19         0.00000E+00
    0.10313E-07        -0.93132E-20         0.00000E+00
    0.10313E-07        -0.74506E-20         0.00000E+00
    0.10313E-07        -0.11052E-19         0.00000E+00
    0.10313E-07        -0.11052E-19         0.00000E+00
    0.10313E-07         0.00000E+00         0.00000E+00
    0.10313E-07         0.16640E-19         0.00000E+00
    0.10313E-07         0.18626E-19         0.00000E+00
    0.10313E-07         0.13162E-19         0.00000E+00
    0.10313E-07         0.11052E-19         0.00000E+00
    0.10313E-07         0.11052E-19         0.00000E+00
    0.10313E-07         0.11299E-19         0.00000E+00
    0.10313E-07         0.11299E-19         0.00000E+00
    0.10313E-07         0.54645E-20         0.00000E+00
    0.10313E-07         0.17392E-20         0.00000E+00
    0.10313E-07         0.37253E-20         0.00000E+00
    0.11966E-07         0.11058E-19         0.00000E+00
    0.11966E-07         0.16705E-19         0.00000E+00
    0.11966E-07         0.20548E-19         0.00000E+00
    0.11966E-07         0.16823E-19         0.00000E+00
    0.11966E-07         0.20489E-19         0.00000E+00
    0.11966E-07         0.39116E-19         0.00000E+00
    0.11966E-07         0.44644E-19         0.00000E+00
    0.11966E-07         0.33528E-19         0.00000E+00
    0.11966E-07         0.33587E-19         0.00000E+00
    0.11966E-07         0.24155E-19         0.00000E+00
    0.11966E-07         0.14842E-19         0.00000E+00
    0.11966E-07         0.20489E-19         0.00000E+00
    0.11966E-07         0.22411E-19         0.00000E+00
    0.11966E-07         0.20489E-19         0.00000E+00
    0.11966E-07         0.14901E-19         0.00000E+00
    0.11966E-07         0.11235E-19         0.00000E+00
    0.11966E-07         0.11117E-19         0.00000E+00
    0.11966E-07         0.83819E-20         0.00000E+00
    0.11966E-07         0.10304E-19         0.00000E+00
    0.11966E-07         0.74506E-20         0.00000E+00
    0.11966E-07         0.55879E-20         0.00000E+00
    0.11966E-07         0.74506E-20         0.00000E+00
    0.11966E-07         0.11176E-19         0.00000E+00
    0.11966E-07         0.14842E-19         0.00000E+00
    0.11966E-07         0.10245E-19         0.00000E+00
    0.11966E-07         0.84410E-20         0.00000E+00
    0.11966E-07         0.18626E-20         0.00000E+00
    0.11966E-07        -0.74506E-20         0.00000E+00
    0.11966E-07        -0.11176E-19         0.00000E+00
    0.11966E-07        -0.93132E-20         0.00000E+00
    0.11966E-07        -0.16764E-19         0.00000E+00
    0.11966E-07        -0.23342E-19         0.00000E+00
    0.11966E-07        -0.27940E-19         0.00000E+00
    0.11966E-07        -0.23283E-19         0.00000E+00
    0.11966E-07        -0.26077E-19         0.00000E+00
    0.11966E-07        -0.35331E-19         0.00000E+00
    0.11966E-07        -0.29861E-19         0.00000E+00
    0.11966E-07        -0.18686E-19         0.00000E+00
    0.11966E-07        -0.74506E-20         0.00000E+00
    0.11966E-07        -0.74506E-20         0.00000E+00
    0.11966E-07        -0.73914E-20         0.00000E+00
    0.11966E-07         0.37844E-20         0.00000E+00
    0.11966E-07         0.14901E-19         0.00000E+00
    0.11966E-07         0.16764E-19         0.00000E+00
    0.11966E-07         0.55879E-20         0.00000E+00
    0.11966E-07         0.18626E-20         0.00000E+00
    0.11966E-07        -0.18626E-20         0.00000E+00
    0.11966E-07        -0.37844E-20         0.00000E+00
    0.11966E-07        -0.59144E-22         0.00000E+00
    0.11966E-07         0.59144E-22         0.00000E+00
    0.11966E-07         0.11829E-21         0.00000E+00
    0.13857E-07         0.00000E+00         0.00000E+00
    0.13857E-07         0.74506E-20         0.00000E+00
    0.13857E-07         0.17425E-19         0.00000E+00
    0.13857E-07         0.10245E-19         0.00000E+00
    0.13857E-07         0.11446E-19         0.00000E+00
    0.13857E-07         0.29802E-19         0.00000E+00
    0.13857E-07         0.40978E-19         0.00000E+00
    0.13857E-07         0.27940E-19         0.00000E+00
    0.13857E-07         0.20489E-19         0.00000E+00
    0.13857E-07         0.27940E-19         0.00000E+00
    0.13857E-07         0.33528E-19         0.00000E+00
    0.13857E-07         0.35120E-19         0.00000E+00
    0.13857E-07         0.31395E-19         0.00000E+00
    0.13857E-07         0.22352E-19         0.00000E+00
    0.13857E-07         0.49270E-20         0.00000E+00
    0.13857E-07        -0.81115E-20         0.00000E+00
    0.13857E-07        -0.74506E-20         0.00000E+00
    0.13857E-07         0.18626E-20         0.00000E+00
    0.13857E-07         0.18626E-19         0.00000E+00
    0.13857E-07         0.16764E-19         0.00000E+00
    0.13857E-07         0.37253E-20         0.00000E+00
    0.13857E-07         0.00000E+00         0.00000E+00
    0.13857E-07         0.74506E-20         0.00000E+00
    0.13857E-07         0.14901E-19         0.00000E+00
    0.13857E-07         0.13039E-19         0.00000E+00
    0.13857E-07         0.55879E-20         0.00000E+00
    0.13857E-07        -0.18626E-20         0.00000E+00
    0.13857E-07        -0.93132E-20         0.00000E+00
    0.13857E-07        -0.26077E-19         0.00000E+00
    0.13857E-07        -0.22352E-19         0.00000E+00
    0.13857E-07        -0.74506E-20         0.00000E+00
    0.13857E-07        -0.12378E-19         0.00000E+00
    0.13857E-07        -0.17695E-19         0.00000E+00
    0.13857E-07        -0.31395E-19         0.00000E+00
    0.13857E-07        -0.35390E-19         0.00000E+00
    0.13857E-07        -0.22352E-19         0.00000E+00
    0.13857E-07        -0.93132E-20         0.00000E+00
    0.13857E-07        -0.18626E-20         0.00000E+00
    0.13857E-07        -0.74506E-20         0.00000E+00
    0.13857E-07        -0.86523E-20         0.00000E+00
    0.13857E-07         0.00000E+00         0.00000E+00
    0.13857E-07         0.74506E-20         0.00000E+00
    0.13857E-07         0.15562E-19         0.00000E+00
    0.13857E-07         0.13039E-19         0.00000E+00
    0.13857E-07         0.86523E-20         0.00000E+00
    0.13857E-07         0.30644E-20         0.00000E+00
    0.13857E-07        -0.67897E-20         0.00000E+00
    0.13857E-07         0.55879E-20         0.00000E+00
    0.13857E-07         0.49270E-20         0.00000E+00
    0.13857E-07        -0.66092E-21         0.00000E+00
    0.13857E-07         0.61287E-20         0.00000E+00
    0.16017E-07         0.11176E-19         0.00000E+00
    0.16017E-07         0.13039E-19         0.00000E+00
    0.16017E-07         0.13039E-19         0.00000E+00
    0.16017E-07         0.13039E-19         0.00000E+00
    0.16017E-07         0.22352E-19         0.00000E+00
    0.16017E-07         0.33013E-19         0.00000E+00
    0.16017E-07         0.40978E-19         0.00000E+00
    0.16017E-07         0.40978E-19         0.00000E+00
    0.16017E-07         0.26077E-19         0.00000E+00
    0.16017E-07         0.79650E-20         0.00000E+00
    0.16017E-07         0.37253E-20         0.00000E+00
    0.16017E-07         0.16764E-19         0.00000E+00
    0.16017E-07         0.29802E-19         0.00000E+00
    0.16017E-07         0.20906E-19         0.00000E+00
    0.16017E-07         0.13039E-19         0.00000E+00
    0.16017E-07         0.14484E-19         0.00000E+00
    0.16017E-07         0.14387E-19         0.00000E+00
    0.16017E-07         0.93132E-21         0.00000E+00
    0.16017E-07        -0.60049E-20         0.00000E+00
    0.16017E-07        -0.37253E-20         0.00000E+00
    0.16017E-07        -0.37253E-20         0.00000E+00
    0.16017E-07        -0.37253E-20         0.00000E+00
    0.16017E-07         0.37253E-20         0.00000E+00
    0.16017E-07         0.93132E-20         0.00000E+00
    0.16017E-07         0.11176E-19         0.00000E+00
    0.16017E-07         0.10661E-19         0.00000E+00
    0.16017E-07         0.27940E-20         0.00000E+00
    0.16017E-07        -0.41695E-21         0.00000E+00
    0.16017E-07        -0.74506E-20         0.00000E+00
    0.16017E-07        -0.16764E-19         0.00000E+00
    0.16017E-07        -0.20489E-19         0.00000E+00
    0.16017E-07        -0.18626E-19         0.00000E+00
    0.16017E-07        -0.24214E-19         0.00000E+00
    0.16017E-07        -0.27940E-19         0.00000E+00
    0.16017E-07        -0.20489E-19         0.00000E+00
    0.16017E-07        -0.22352E-19         0.00000E+00
    0.16017E-07        -0.20489E-19         0.00000E+00
    0.16017E-07        -0.14901E-19         0.00000E+00
    0.16017E-07        -0.74506E-20         0.00000E+00
    0.16017E-07        -0.55879E-20         0.00000E+00
    0.16017E-07        -0.51710E-20         0.00000E+00
    0.16017E-07         0.97302E-20         0.00000E+00
    0.16017E-07         0.14484E-19         0.00000E+00
    0.16017E-07         0.14901E-19         0.00000E+00
    0.16017E-07         0.37253E-20         0.00000E+00
    0.16017E-07        -0.37253E-20         0.00000E+00
    0.16017E-07         0.27940E-20         0.00000E+00
    0.16017E-07         0.42397E-20         0.00000E+00
    0.16017E-07         0.18626E-20         0.00000E+00
    0.16017E-07         0.33083E-20         0.00000E+00
    0.16017E-07         0.10342E-19         0.00000E+00
    0.18476E-07         0.21342E-20         0.00000E+00
    0.18476E-07         0.74506E-20         0.00000E+00
    0.18476E-07         0.11971E-19         0.00000E+00
    0.18476E-07         0.11176E-19         0.00000E+00
    0.18476E-07         0.14901E-19         0.00000E+00
    0.18476E-07         0.26077E-19         0.00000E+00
    0.18476E-07         0.31665E-19         0.00000E+00
    0.18476E-07         0.26077E-19         0.00000E+00
    0.18476E-07         0.26077E-19         0.00000E+00
    0.18476E-07         0.24214E-19         0.00000E+00
    0.18476E-07         0.18626E-19         0.00000E+00
    0.18476E-07         0.18626E-19         0.00000E+00
    0.18476E-07         0.16764E-19         0.00000E+00
    0.18476E-07         0.16764E-19         0.00000E+00
    0.18476E-07         0.13039E-19         0.00000E+00
    0.18476E-07         0.18626E-20         0.00000E+00
    0.18476E-07        -0.74506E-20         0.00000E+00
    0.18476E-07        -0.11176E-19         0.00000E+00
    0.18476E-07         0.00000E+00         0.00000E+00
    0.18476E-07         0.74506E-20         0.00000E+00
    0.18476E-07         0.74506E-20         0.00000E+00
    0.18476E-07         0.93132E-20         0.00000E+00
    0.18476E-07         0.11176E-19         0.00000E+00
    0.18476E-07         0.14106E-19         0.00000E+00
    0.18476E-07         0.11176E-19         0.00000E+00
    0.18476E-07         0.00000E+00         0.00000E+00
    0.18476E-07        -0.37253E-20         0.00000E+00
    0.18476E-07         0.45208E-20         0.00000E+00
    0.18476E-07        -0.55879E-20         0.00000E+00
    0.18476E-07        -0.93132E-20         0.00000E+00
    0.18476E-07        -0.37253E-20         0.00000E+00
    0.18476E-07        -0.13834E-19         0.00000E+00
    0.18476E-07        -0.22352E-19         0.00000E+00
    0.18476E-07        -0.29007E-19         0.00000E+00
    0.18476E-07        -0.37253E-19         0.00000E+00
    0.18476E-07        -0.33528E-19         0.00000E+00
    0.18476E-07        -0.18626E-19         0.00000E+00
    0.18476E-07        -0.13039E-19         0.00000E+00
    0.18476E-07        -0.20489E-19         0.00000E+00
    0.18476E-07        -0.18626E-19         0.00000E+00
    0.18476E-07        -0.55879E-20         0.00000E+00
    0.18476E-07         0.55879E-20         0.00000E+00
    0.18476E-07         0.13039E-19         0.00000E+00
    0.18476E-07         0.11176E-19         0.00000E+00
    0.18476E-07         0.55879E-20         0.00000E+00
    0.18476E-07         0.19984E-20         0.00000E+00
    0.18476E-07        -0.79369E-34         0.00000E+00
    0.18476E-07         0.17269E-20         0.00000E+00
    0.18476E-07         0.37253E-20         0.00000E+00
    0.18476E-07         0.26582E-20         0.00000E+00
    0.18476E-07         0.15911E-20         0.00000E+00
    0.21268E-07         0.37253E-20         0.00000E+00
    0.21268E-07         0.10988E-19         0.00000E+00
    0.21268E-07         0.14901E-19         0.00000E+00
    0.21268E-07         0.13039E-19         0.00000E+00
    0.21268E-07         0.16764E-19         0.00000E+00
    0.21268E-07         0.28127E-19         0.00000E+00
    0.21268E-07         0.33528E-19         0.00000E+00
    0.21268E-07         0.29802E-19         0.00000E+00
    0.21268E-07         0.26077E-19         0.00000E+00
    0.21268E-07         0.20489E-19         0.00000E+00
    0.21268E-07         0.20489E-19         0.00000E+00
    0.21268E-07         0.24027E-19         0.00000E+00
    0.21268E-07         0.34646E-19         0.00000E+00
    0.21268E-07         0.30921E-19         0.00000E+00
    0.21268E-07         0.35377E-20         0.00000E+00
    0.21268E-07        -0.93132E-20         0.00000E+00
    0.21268E-07        -0.18626E-20         0.00000E+00
    0.21268E-07         0.18626E-20         0.00000E+00
    0.21268E-07         0.93132E-20         0.00000E+00
    0.21268E-07         0.14901E-19         0.00000E+00
    0.21268E-07         0.74506E-20         0.00000E+00
    0.21268E-07         0.18626E-20         0.00000E+00
    0.21268E-07         0.18626E-20         0.00000E+00
    0.21268E-07         0.35377E-20         0.00000E+00
    0.21268E-07         0.55879E-20         0.00000E+00
    0.21268E-07         0.93132E-20         0.00000E+00
    0.21268E-07         0.74506E-20         0.00000E+00
    0.21268E-07        -0.16751E-20         0.00000E+00
    0.21268E-07        -0.14901E-19         0.00000E+00
    0.21268E-07        -0.16764E-19         0.00000E+00
    0.21268E-07        -0.13039E-19         0.00000E+00
    0.21268E-07        -0.93132E-20         0.00000E+00
    0.21268E-07        -0.18626E-19         0.00000E+00
    0.21268E-07        -0.35390E-19         0.00000E+00
    0.21268E-07        -0.31665E-19         0.00000E+00
    0.21268E-07        -0.23096E-19         0.00000E+00
    0.21268E-07        -0.13970E-19         0.00000E+00
    0.21268E-07        -0.95008E-20         0.00000E+00
    0.21268E-07        -0.16764E-19         0.00000E+00
    0.21268E-07        -0.16764E-19         0.00000E+00
    0.21268E-07        -0.67068E-20         0.00000E+00
    0.21268E-07         0.65193E-20         0.00000E+00
    0.21268E-07         0.95008E-20         0.00000E+00
    0.21268E-07         0.91257E-20         0.00000E+00
    0.21268E-07        -0.46566E-20         0.00000E+00
    0.21268E-07        -0.11920E-19         0.00000E+00
    0.21268E-07        -0.72630E-20         0.00000E+00
    0.21268E-07        -0.18754E-21         0.00000E+00
    0.21268E-07        -0.50317E-20         0.00000E+00
    0.21268E-07        -0.24189E-20         0.00000E+00
    0.21268E-07        -0.11125E-20         0.00000E+00
    0.24428E-07         0.74506E-20         0.00000E+00
    0.24428E-07         0.93132E-20         0.00000E+00
    0.24428E-07         0.13597E-19         0.00000E+00
    0.24428E-07         0.18626E-19         0.00000E+00
    0.24428E-07         0.21793E-19         0.00000E+00
    0.24428E-07         0.33528E-19         0.00000E+00
    0.24428E-07         0.44145E-19         0.00000E+00
    0.24428E-07         0.41910E-19         0.00000E+00
    0.24428E-07         0.40605E-19         0.00000E+00
    0.24428E-07         0.37253E-19         0.00000E+00
    0.24428E-07         0.29802E-19         0.00000E+00
    0.24428E-07         0.33528E-19         0.00000E+00
    0.24428E-07         0.29802E-19         0.00000E+00
    0.24428E-07         0.24587E-19         0.00000E+00
    0.24428E-07         0.14901E-19         0.00000E+00
    0.24428E-07         0.83819E-20         0.00000E+00
    0.24428E-07         0.37253E-20         0.00000E+00
    0.24428E-07        -0.31668E-20         0.00000E+00
    0.24428E-07         0.18626E-20         0.00000E+00
    0.24428E-07         0.74506E-20         0.00000E+00
    0.24428E-07         0.18626E-20         0.00000E+00
    0.24428E-07         0.18626E-20         0.00000E+00
    0.24428E-07         0.55879E-20         0.00000E+00
    0.24428E-07         0.13039E-19         0.00000E+00
    0.24428E-07         0.14901E-19         0.00000E+00
    0.24428E-07         0.93132E-20         0.00000E+00
    0.24428E-07         0.18626E-20         0.00000E+00
    0.24428E-07        -0.93132E-20         0.00000E+00
    0.24428E-07        -0.20489E-19         0.00000E+00
    0.24428E-07        -0.22352E-19         0.00000E+00
    0.24428E-07        -0.18626E-19         0.00000E+00
    0.24428E-07        -0.16764E-19         0.00000E+00
    0.24428E-07        -0.24214E-19         0.00000E+00
    0.24428E-07        -0.27940E-19         0.00000E+00
    0.24428E-07        -0.22352E-19         0.00000E+00
    0.24428E-07        -0.14901E-19         0.00000E+00
    0.24428E-07        -0.89404E-20         0.00000E+00
    0.24428E-07        -0.12666E-19         0.00000E+00
    0.24428E-07        -0.17137E-19         0.00000E+00
    0.24428E-07        -0.20862E-19         0.00000E+00
    0.24428E-07        -0.14901E-19         0.00000E+00
    0.24428E-07         0.18626E-20         0.00000E+00
    0.24428E-07         0.14901E-19         0.00000E+00
    0.24428E-07         0.93132E-20         0.00000E+00
    0.24428E-07        -0.37253E-20         0.00000E+00
    0.24428E-07        -0.93132E-20         0.00000E+00
    0.24428E-07        -0.11176E-19         0.00000E+00
    0.24428E-07        -0.37253E-20         0.00000E+00
    0.24428E-07         0.18626E-20         0.00000E+00
    0.24428E-07         0.33525E-20         0.00000E+00
    0.24428E-07         0.10430E-19         0.00000E+00
    0.27991E-07         0.37253E-20         0.00000E+00
    0.27991E-07         0.55879E-20         0.00000E+00
    0.27991E-07        -0.98310E-21         0.00000E+00
    0.27991E-07        -0.18626E-20         0.00000E+00
    0.27991E-07         0.15884E-19         0.00000E+00
    0.27991E-07         0.33528E-19         0.00000E+00
    0.27991E-07         0.37253E-19         0.00000E+00
    0.27991E-07         0.27940E-19         0.00000E+00
    0.27991E-07         0.28819E-19         0.00000E+00
    0.27991E-07         0.37253E-19         0.00000E+00
    0.27991E-07         0.34511E-19         0.00000E+00
    0.27991E-07         0.30785E-19         0.00000E+00
    0.27991E-07         0.31665E-19         0.00000E+00
    0.27991E-07         0.28819E-19         0.00000E+00
    0.27991E-07         0.20489E-19         0.00000E+00
    0.27991E-07         0.13039E-19         0.00000E+00
    0.27991E-07         0.93132E-20         0.00000E+00
    0.27991E-07         0.74506E-20         0.00000E+00
    0.27991E-07         0.13039E-19         0.00000E+00
    0.27991E-07         0.13039E-19         0.00000E+00
    0.27991E-07         0.18626E-20         0.00000E+00
    0.27991E-07         0.37253E-20         0.00000E+00
    0.27991E-07         0.93132E-20         0.00000E+00
    0.27991E-07         0.11176E-19         0.00000E+00
    0.27991E-07         0.14901E-19         0.00000E+00
    0.27991E-07         0.11176E-19         0.00000E+00
    0.27991E-07         0.00000E+00         0.00000E+00
    0.27991E-07        -0.93132E-20         0.00000E+00
    0.27991E-07        -0.18626E-19         0.00000E+00
    0.27991E-07        -0.18626E-19         0.00000E+00
    0.27991E-07        -0.14901E-19         0.00000E+00
    0.27991E-07        -0.14901E-19         0.00000E+00
    0.27991E-07        -0.18626E-19         0.00000E+00
    0.27991E-07        -0.30682E-19         0.00000E+00
    0.27991E-07        -0.35390E-19         0.00000E+00
    0.27991E-07        -0.32648E-19         0.00000E+00
    0.27991E-07        -0.24214E-19         0.00000E+00
    0.27991E-07        -0.16764E-19         0.00000E+00
    0.27991E-07        -0.11176E-19         0.00000E+00
    0.27991E-07        -0.11176E-19         0.00000E+00
    0.27991E-07        -0.74506E-20         0.00000E+00
    0.27991E-07         0.37253E-20         0.00000E+00
    0.27991E-07         0.64675E-20         0.00000E+00
    0.27991E-07         0.11176E-19         0.00000E+00
    0.27991E-07         0.10296E-19         0.00000E+00
    0.27991E-07         0.55879E-20         0.00000E+00
    0.27991E-07        -0.28457E-20         0.00000E+00
    0.27991E-07        -0.13039E-19         0.00000E+00
    0.27991E-07        -0.10193E-19         0.00000E+00
    0.27991E-07        -0.87954E-21         0.00000E+00
    0.27991E-07         0.56915E-20         0.00000E+00
    0.31995E-07         0.37253E-20         0.00000E+00
    0.31995E-07         0.74506E-20         0.00000E+00
    0.31995E-07         0.11176E-19         0.00000E+00
    0.31995E-07         0.11176E-19         0.00000E+00
    0.31995E-07         0.20489E-19         0.00000E+00
    0.31995E-07         0.40978E-19         0.00000E+00
    0.31995E-07         0.51759E-19         0.00000E+00
    0.31995E-07         0.49360E-19         0.00000E+00
    0.31995E-07         0.38579E-19         0.00000E+00
    0.31995E-07         0.26077E-19         0.00000E+00
    0.31995E-07         0.24214E-19         0.00000E+00
    0.31995E-07         0.26077E-19         0.00000E+00
    0.31995E-07         0.22352E-19         0.00000E+00
    0.31995E-07         0.22747E-19         0.00000E+00
    0.31995E-07         0.18626E-19         0.00000E+00
    0.31995E-07         0.10781E-19         0.00000E+00
    0.31995E-07         0.74506E-20         0.00000E+00
    0.31995E-07         0.37253E-20         0.00000E+00
    0.31995E-07         0.74506E-20         0.00000E+00
    0.31995E-07         0.13039E-19         0.00000E+00
    0.31995E-07         0.11176E-19         0.00000E+00
    0.31995E-07         0.93132E-20         0.00000E+00
    0.31995E-07         0.11176E-19         0.00000E+00
    0.31995E-07         0.14901E-19         0.00000E+00
    0.31995E-07         0.11176E-19         0.00000E+00
    0.31995E-07         0.37253E-20         0.00000E+00
    0.31995E-07         0.00000E+00         0.00000E+00
    0.31995E-07        -0.55879E-20         0.00000E+00
    0.31995E-07        -0.18626E-19         0.00000E+00
    0.31995E-07        -0.20489E-19         0.00000E+00
    0.31995E-07        -0.18626E-19         0.00000E+00
    0.31995E-07        -0.24214E-19         0.00000E+00
    0.31995E-07        -0.33528E-19         0.00000E+00
    0.31995E-07        -0.40978E-19         0.00000E+00
    0.31995E-07        -0.39116E-19         0.00000E+00
    0.31995E-07        -0.29802E-19         0.00000E+00
    0.31995E-07        -0.16764E-19         0.00000E+00
    0.31995E-07        -0.93132E-20         0.00000E+00
    0.31995E-07        -0.93132E-20         0.00000E+00
    0.31995E-07        -0.14901E-19         0.00000E+00
    0.31995E-07        -0.11176E-19         0.00000E+00
    0.31995E-07         0.55879E-20         0.00000E+00
    0.31995E-07         0.15438E-19         0.00000E+00
    0.31995E-07         0.12107E-19         0.00000E+00
    0.31995E-07         0.97080E-20         0.00000E+00
    0.31995E-07         0.41201E-20         0.00000E+00
    0.31995E-07         0.93132E-20         0.00000E+00
    0.31995E-07         0.16369E-19         0.00000E+00
    0.31995E-07         0.74506E-20         0.00000E+00
    0.31995E-07        -0.39478E-21         0.00000E+00
    0.31995E-07         0.29357E-20         0.00000E+00
    0.36477E-07         0.11176E-19         0.00000E+00
    0.36477E-07         0.13039E-19         0.00000E+00
    0.36477E-07         0.18626E-19         0.00000E+00
    0.36477E-07         0.24214E-19         0.00000E+00
    0.36477E-07         0.32753E-19         0.00000E+00
    0.36477E-07         0.40978E-19         0.00000E+00
    0.36477E-07         0.41752E-19         0.00000E+00
    0.36477E-07         0.36479E-19         0.00000E+00
    0.36477E-07         0.29802E-19         0.00000E+00
    0.36477E-07         0.26851E-19         0.00000E+00
    0.36477E-07         0.26077E-19         0.00000E+00
    0.36477E-07         0.27940E-19         0.00000E+00
    0.36477E-07         0.27940E-19         0.00000E+00
    0.36477E-07         0.26077E-19         0.00000E+00
    0.36477E-07         0.18626E-19         0.00000E+00
    0.36477E-07         0.13039E-19         0.00000E+00
    0.36477E-07         0.11176E-19         0.00000E+00
    0.36477E-07         0.74506E-20         0.00000E+00
    0.36477E-07         0.11176E-19         0.00000E+00
    0.36477E-07         0.14901E-19         0.00000E+00
    0.36477E-07         0.11176E-19         0.00000E+00
    0.36477E-07         0.74506E-20         0.00000E+00
    0.36477E-07         0.74506E-20         0.00000E+00
    0.36477E-07         0.74506E-20         0.00000E+00
    0.36477E-07         0.37253E-20         0.00000E+00
    0.36477E-07         0.18626E-20         0.00000E+00
    0.36477E-07        -0.55879E-20         0.00000E+00
    0.36477E-07        -0.14901E-19         0.00000E+00
    0.36477E-07        -0.18626E-19         0.00000E+00
    0.36477E-07        -0.20489E-19         0.00000E+00
    0.36477E-07        -0.24214E-19         0.00000E+00
    0.36477E-07        -0.27940E-19         0.00000E+00
    0.36477E-07        -0.27940E-19         0.00000E+00
    0.36477E-07        -0.24214E-19         0.00000E+00
    0.36477E-07        -0.24214E-19         0.00000E+00
    0.36477E-07        -0.24989E-19         0.00000E+00
    0.36477E-07        -0.15832E-19         0.00000E+00
    0.36477E-07        -0.76078E-20         0.00000E+00
    0.36477E-07        -0.77414E-21         0.00000E+00
    0.36477E-07        -0.37253E-20         0.00000E+00
    0.36477E-07        -0.66764E-20         0.00000E+00
    0.36477E-07         0.10885E-20         0.00000E+00
    0.36477E-07         0.66764E-20         0.00000E+00
    0.36477E-07         0.11950E-19         0.00000E+00
    0.36477E-07         0.13813E-19         0.00000E+00
    0.36477E-07         0.38825E-20         0.00000E+00
    0.36477E-07        -0.65193E-20         0.00000E+00
    0.36477E-07        -0.85391E-20         0.00000E+00
    0.36477E-07        -0.44994E-20         0.00000E+00
    0.36477E-07        -0.26368E-20         0.00000E+00
    0.36477E-07         0.37253E-20         0.00000E+00
    0.41471E-07        -0.21575E-20         0.00000E+00
    0.41471E-07         0.74506E-20         0.00000E+00
    0.41471E-07         0.14117E-19         0.00000E+00
    0.41471E-07         0.12255E-19         0.00000E+00
    0.41471E-07         0.24998E-19         0.00000E+00
    0.41471E-07         0.38821E-19         0.00000E+00
    0.41471E-07         0.45782E-19         0.00000E+00
    0.41471E-07         0.45782E-19         0.00000E+00
    0.41471E-07         0.42841E-19         0.00000E+00
    0.41471E-07         0.33528E-19         0.00000E+00
    0.41471E-07         0.26077E-19         0.00000E+00
    0.41471E-07         0.27940E-19         0.00000E+00
    0.41471E-07         0.29802E-19         0.00000E+00
    0.41471E-07         0.27940E-19         0.00000E+00
    0.41471E-07         0.23430E-19         0.00000E+00
    0.41471E-07         0.13822E-19         0.00000E+00
    0.41471E-07         0.34304E-20         0.00000E+00
    0.41471E-07         0.18626E-20         0.00000E+00
    0.41471E-07         0.38727E-20         0.00000E+00
    0.41471E-07         0.94606E-20         0.00000E+00
    0.41471E-07         0.55879E-20         0.00000E+00
    0.41471E-07        -0.18626E-20         0.00000E+00
    0.41471E-07        -0.18626E-20         0.00000E+00
    0.41471E-07         0.74506E-20         0.00000E+00
    0.41471E-07         0.93132E-20         0.00000E+00
    0.41471E-07         0.37253E-20         0.00000E+00
    0.41471E-07        -0.37253E-20         0.00000E+00
    0.41471E-07        -0.74506E-20         0.00000E+00
    0.41471E-07        -0.20489E-19         0.00000E+00
    0.41471E-07        -0.27940E-19         0.00000E+00
    0.41471E-07        -0.20489E-19         0.00000E+00
    0.41471E-07        -0.14901E-19         0.00000E+00
    0.41471E-07        -0.18626E-19         0.00000E+00
    0.41471E-07        -0.29802E-19         0.00000E+00
    0.41471E-07        -0.26077E-19         0.00000E+00
    0.41471E-07        -0.20637E-19         0.00000E+00
    0.41471E-07        -0.16911E-19         0.00000E+00
    0.41471E-07        -0.14901E-19         0.00000E+00
    0.41471E-07        -0.11960E-19         0.00000E+00
    0.41471E-07        -0.13970E-19         0.00000E+00
    0.41471E-07        -0.11176E-19         0.00000E+00
    0.41471E-07        -0.35779E-20         0.00000E+00
    0.41471E-07         0.37253E-20         0.00000E+00
    0.41471E-07         0.74506E-20         0.00000E+00
    0.41471E-07        -0.38727E-20         0.00000E+00
    0.41471E-07        -0.13039E-19         0.00000E+00
    0.41471E-07        -0.18626E-20         0.00000E+00
    0.41471E-07        -0.14742E-21         0.00000E+00
    0.41471E-07        -0.71557E-20         0.00000E+00
    0.41471E-07        -0.37253E-20         0.00000E+00
    0.41471E-07        -0.80403E-20         0.00000E+00
    0.47013E-07         0.11176E-19         0.00000E+00
    0.47013E-07         0.13039E-19         0.00000E+00
    0.47013E-07         0.12669E-19         0.00000E+00
    0.47013E-07         0.14532E-19         0.00000E+00
    0.47013E-07         0.24214E-19         0.00000E+00
    0.47013E-07         0.33897E-19         0.00000E+00
    0.47013E-07         0.39485E-19         0.00000E+00
    0.47013E-07         0.37253E-19         0.00000E+00
    0.47013E-07         0.37253E-19         0.00000E+00
    0.47013E-07         0.31665E-19         0.00000E+00
    0.47013E-07         0.26077E-19         0.00000E+00
    0.47013E-07         0.33528E-19         0.00000E+00
    0.47013E-07         0.35021E-19         0.00000E+00
    0.47013E-07         0.36322E-19         0.00000E+00
    0.47013E-07         0.25884E-19         0.00000E+00
    0.47013E-07         0.46566E-20         0.00000E+00
    0.47013E-07         0.42873E-20         0.00000E+00
    0.47013E-07         0.93132E-20         0.00000E+00
    0.47013E-07         0.14934E-20         0.00000E+00
    0.47013E-07        -0.93132E-20         0.00000E+00
    0.47013E-07        -0.10807E-19         0.00000E+00
    0.47013E-07        -0.55879E-20         0.00000E+00
    0.47013E-07         0.00000E+00         0.00000E+00
    0.47013E-07         0.93132E-20         0.00000E+00
    0.47013E-07         0.11176E-19         0.00000E+00
    0.47013E-07         0.93132E-20         0.00000E+00
    0.47013E-07         0.37253E-20         0.00000E+00
    0.47013E-07        -0.74506E-20         0.00000E+00
    0.47013E-07        -0.18626E-19         0.00000E+00
    0.47013E-07        -0.26077E-19         0.00000E+00
    0.47013E-07        -0.22352E-19         0.00000E+00
    0.47013E-07        -0.20489E-19         0.00000E+00
    0.47013E-07        -0.26077E-19         0.00000E+00
    0.47013E-07        -0.29802E-19         0.00000E+00
    0.47013E-07        -0.27940E-19         0.00000E+00
    0.47013E-07        -0.26077E-19         0.00000E+00
    0.47013E-07        -0.22352E-19         0.00000E+00
    0.47013E-07        -0.18626E-19         0.00000E+00
    0.47013E-07        -0.22352E-19         0.00000E+00
    0.47013E-07        -0.22721E-19         0.00000E+00
    0.47013E-07        -0.96825E-20         0.00000E+00
    0.47013E-07         0.40946E-20         0.00000E+00
    0.47013E-07         0.59572E-20         0.00000E+00
    0.47013E-07         0.14934E-20         0.00000E+00
    0.47013E-07        -0.36928E-21         0.00000E+00
    0.47013E-07        -0.37253E-20         0.00000E+00
    0.47013E-07        -0.13601E-19         0.00000E+00
    0.47013E-07        -0.98753E-20         0.00000E+00
    0.47013E-07        -0.37253E-20         0.00000E+00
    0.47013E-07         0.24247E-20         0.00000E+00
    0.47013E-07         0.12300E-19         0.00000E+00
    0.53130E-07         0.27253E-20         0.00000E+00
    0.53130E-07         0.37253E-20         0.00000E+00
    0.53130E-07         0.60880E-20         0.00000E+00
    0.53130E-07         0.93132E-20         0.00000E+00
    0.53130E-07         0.16264E-19         0.00000E+00
    0.53130E-07         0.29802E-19         0.00000E+00
    0.53130E-07         0.40978E-19         0.00000E+00
    0.53130E-07         0.33528E-19         0.00000E+00
    0.53130E-07         0.22852E-19         0.00000E+00
    0.53130E-07         0.24214E-19         0.00000E+00
    0.53130E-07         0.25577E-19         0.00000E+00
    0.53130E-07         0.21852E-19         0.00000E+00
    0.53130E-07         0.24714E-19         0.00000E+00
    0.53130E-07         0.20989E-19         0.00000E+00
    0.53130E-07         0.74506E-20         0.00000E+00
    0.53130E-07         0.93132E-20         0.00000E+00
    0.53130E-07         0.11176E-19         0.00000E+00
    0.53130E-07         0.37253E-20         0.00000E+00
    0.53130E-07         0.32253E-20         0.00000E+00
    0.53130E-07         0.37253E-20         0.00000E+00
    0.53130E-07         0.50002E-21         0.00000E+00
    0.53130E-07         0.00000E+00         0.00000E+00
    0.53130E-07         0.55879E-20         0.00000E+00
    0.53130E-07         0.13039E-19         0.00000E+00
    0.53130E-07         0.13039E-19         0.00000E+00
    0.53130E-07         0.13039E-19         0.00000E+00
    0.53130E-07         0.74506E-20         0.00000E+00
    0.53130E-07        -0.74506E-20         0.00000E+00
    0.53130E-07        -0.22352E-19         0.00000E+00
    0.53130E-07        -0.18626E-19         0.00000E+00
    0.53130E-07        -0.15401E-19         0.00000E+00
    0.53130E-07        -0.22352E-19         0.00000E+00
    0.53130E-07        -0.29302E-19         0.00000E+00
    0.53130E-07        -0.35890E-19         0.00000E+00
    0.53130E-07        -0.29802E-19         0.00000E+00
    0.53130E-07        -0.31665E-19         0.00000E+00
    0.53130E-07        -0.33528E-19         0.00000E+00
    0.53130E-07        -0.25577E-19         0.00000E+00
    0.53130E-07        -0.22352E-19         0.00000E+00
    0.53130E-07        -0.20989E-19         0.00000E+00
    0.53130E-07        -0.17264E-19         0.00000E+00
    0.53130E-07        -0.50879E-20         0.00000E+00
    0.53130E-07         0.60880E-20         0.00000E+00
    0.53130E-07         0.55879E-20         0.00000E+00
    0.53130E-07        -0.23627E-20         0.00000E+00
    0.53130E-07        -0.27940E-20         0.00000E+00
    0.53130E-07         0.93132E-20         0.00000E+00
    0.53130E-07         0.12107E-19         0.00000E+00
    0.53130E-07         0.42253E-20         0.00000E+00
    0.53130E-07        -0.50002E-21         0.00000E+00
    0.53130E-07        -0.10000E-20         0.00000E+00
    0.59847E-07         0.10114E-19         0.00000E+00
    0.59847E-07         0.12508E-19         0.00000E+00
    0.59847E-07         0.11176E-19         0.00000E+00
    0.59847E-07         0.74506E-20         0.00000E+00
    0.59847E-07         0.13039E-19         0.00000E+00
    0.59847E-07         0.21020E-19         0.00000E+00
    0.59847E-07         0.24214E-19         0.00000E+00
    0.59847E-07         0.23283E-19         0.00000E+00
    0.59847E-07         0.24214E-19         0.00000E+00
    0.59847E-07         0.20489E-19         0.00000E+00
    0.59847E-07         0.10245E-19         0.00000E+00
    0.59847E-07         0.22352E-19         0.00000E+00
    0.59847E-07         0.26608E-19         0.00000E+00
    0.59847E-07         0.29802E-19         0.00000E+00
    0.59847E-07         0.22352E-19         0.00000E+00
    0.59847E-07         0.87823E-20         0.00000E+00
    0.59847E-07         0.65193E-20         0.00000E+00
    0.59847E-07         0.27940E-20         0.00000E+00
    0.59847E-07        -0.93132E-21         0.00000E+00
    0.59847E-07         0.14623E-20         0.00000E+00
    0.59847E-07         0.18626E-20         0.00000E+00
    0.59847E-07         0.55879E-20         0.00000E+00
    0.59847E-07         0.74506E-20         0.00000E+00
    0.59847E-07         0.93132E-20         0.00000E+00
    0.59847E-07         0.11176E-19         0.00000E+00
    0.59847E-07         0.55879E-20         0.00000E+00
    0.59847E-07        -0.74506E-20         0.00000E+00
    0.59847E-07        -0.18626E-19         0.00000E+00
    0.59847E-07        -0.22352E-19         0.00000E+00
    0.59847E-07        -0.22352E-19         0.00000E+00
    0.59847E-07        -0.22352E-19         0.00000E+00
    0.59847E-07        -0.20489E-19         0.00000E+00
    0.59847E-07        -0.22883E-19         0.00000E+00
    0.59847E-07        -0.35390E-19         0.00000E+00
    0.59847E-07        -0.40447E-19         0.00000E+00
    0.59847E-07        -0.27940E-19         0.00000E+00
    0.59847E-07        -0.14901E-19         0.00000E+00
    0.59847E-07        -0.98442E-20         0.00000E+00
    0.59847E-07        -0.16764E-19         0.00000E+00
    0.59847E-07        -0.24214E-19         0.00000E+00
    0.59847E-07        -0.74506E-20         0.00000E+00
    0.59847E-07         0.13039E-19         0.00000E+00
    0.59847E-07         0.16764E-19         0.00000E+00
    0.59847E-07         0.13039E-19         0.00000E+00
    0.59847E-07         0.10645E-19         0.00000E+00
    0.59847E-07        -0.22630E-20         0.00000E+00
    0.59847E-07        -0.18626E-20         0.00000E+00
    0.59847E-07         0.37253E-20         0.00000E+00
    0.59847E-07         0.33249E-20         0.00000E+00
    0.59847E-07        -0.23936E-20         0.00000E+00
    0.59847E-07        -0.10619E-20         0.00000E+00
    0.67179E-07        -0.84066E-20         0.00000E+00
    0.67179E-07        -0.44989E-33         0.00000E+00
    0.67179E-07         0.60659E-20         0.00000E+00
    0.67179E-07         0.13846E-20         0.00000E+00
    0.67179E-07         0.93132E-20         0.00000E+00
    0.67179E-07         0.28418E-19         0.00000E+00
    0.67179E-07         0.31187E-19         0.00000E+00
    0.67179E-07         0.25599E-19         0.00000E+00
    0.67179E-07         0.28418E-19         0.00000E+00
    0.67179E-07         0.18626E-19         0.00000E+00
    0.67179E-07         0.12561E-19         0.00000E+00
    0.67179E-07         0.19104E-19         0.00000E+00
    0.67179E-07         0.16764E-19         0.00000E+00
    0.67179E-07         0.16286E-19         0.00000E+00
    0.67179E-07         0.13039E-19         0.00000E+00
    0.67179E-07         0.97912E-20         0.00000E+00
    0.67179E-07         0.55879E-20         0.00000E+00
    0.67179E-07         0.27940E-20         0.00000E+00
    0.67179E-07         0.14901E-19         0.00000E+00
    0.67179E-07         0.79039E-20         0.00000E+00
    0.67179E-07         0.00000E+00         0.00000E+00
    0.67179E-07        -0.74506E-20         0.00000E+00
    0.67179E-07        -0.55879E-20         0.00000E+00
    0.67179E-07        -0.37253E-20         0.00000E+00
    0.67179E-07        -0.88352E-20         0.00000E+00
    0.67179E-07        -0.11176E-19         0.00000E+00
    0.67179E-07        -0.19104E-19         0.00000E+00
    0.67179E-07        -0.18626E-19         0.00000E+00
    0.67179E-07        -0.20489E-19         0.00000E+00
    0.67179E-07        -0.20489E-19         0.00000E+00
    0.67179E-07        -0.13039E-19         0.00000E+00
    0.67179E-07        -0.16764E-19         0.00000E+00
    0.67179E-07        -0.21874E-19         0.00000E+00
    0.67179E-07        -0.28871E-19         0.00000E+00
    0.67179E-07        -0.29802E-19         0.00000E+00
    0.67179E-07        -0.26984E-19         0.00000E+00
    0.67179E-07        -0.30280E-19         0.00000E+00
    0.67179E-07        -0.19104E-19         0.00000E+00
    0.67179E-07        -0.97665E-20         0.00000E+00
    0.67179E-07        -0.74506E-20         0.00000E+00
    0.67179E-07        -0.18626E-20         0.00000E+00
    0.67179E-07         0.11176E-19         0.00000E+00
    0.67179E-07         0.26077E-19         0.00000E+00
    0.67179E-07         0.22352E-19         0.00000E+00
    0.67179E-07         0.13039E-19         0.00000E+00
    0.67179E-07         0.74506E-20         0.00000E+00
    0.67179E-07         0.37253E-20         0.00000E+00
    0.67179E-07         0.37253E-20         0.00000E+00
    0.67179E-07        -0.18626E-20         0.00000E+00
    0.67179E-07        -0.18626E-20         0.00000E+00
    0.67179E-07         0.37253E-20         0.00000E+00
    0.75131E-07         0.11176E-19         0.00000E+00
    0.75131E-07         0.10503E-19         0.00000E+00
    0.75131E-07         0.49149E-20         0.00000E+00
    0.75131E-07         0.00000E+00         0.00000E+00
    0.75131E-07         0.99863E-20         0.00000E+00
    0.75131E-07         0.24887E-19         0.00000E+00
    0.75131E-07         0.29129E-19         0.00000E+00
    0.75131E-07         0.29802E-19         0.00000E+00
    0.75131E-07         0.20489E-19         0.00000E+00
    0.75131E-07         0.14228E-19         0.00000E+00
    0.75131E-07         0.13712E-19         0.00000E+00
    0.75131E-07         0.16764E-19         0.00000E+00
    0.75131E-07         0.21679E-19         0.00000E+00
    0.75131E-07         0.16091E-19         0.00000E+00
    0.75131E-07         0.55879E-20         0.00000E+00
    0.75131E-07        -0.23792E-20         0.00000E+00
    0.75131E-07        -0.49149E-20         0.00000E+00
    0.75131E-07         0.00000E+00         0.00000E+00
    0.75131E-07         0.67306E-21         0.00000E+00
    0.75131E-07        -0.81236E-20         0.00000E+00
    0.75131E-07        -0.81236E-20         0.00000E+00
    0.75131E-07        -0.37253E-20         0.00000E+00
    0.75131E-07        -0.93132E-20         0.00000E+00
    0.75131E-07        -0.11176E-19         0.00000E+00
    0.75131E-07        -0.55879E-20         0.00000E+00
    0.75131E-07        -0.55879E-20         0.00000E+00
    0.75131E-07        -0.99863E-20         0.00000E+00
    0.75131E-07        -0.16764E-19         0.00000E+00
    0.75131E-07        -0.24214E-19         0.00000E+00
    0.75131E-07        -0.22352E-19         0.00000E+00
    0.75131E-07        -0.21679E-19         0.00000E+00
    0.75131E-07        -0.20489E-19         0.00000E+00
    0.75131E-07        -0.23025E-19         0.00000E+00
    0.75131E-07        -0.29802E-19         0.00000E+00
    0.75131E-07        -0.30061E-19         0.00000E+00
    0.75131E-07        -0.22610E-19         0.00000E+00
    0.75131E-07        -0.12780E-19         0.00000E+00
    0.75131E-07        -0.12107E-19         0.00000E+00
    0.75131E-07        -0.12365E-19         0.00000E+00
    0.75131E-07        -0.93132E-20         0.00000E+00
    0.75131E-07         0.39836E-20         0.00000E+00
    0.75131E-07         0.15832E-19         0.00000E+00
    0.75131E-07         0.14901E-19         0.00000E+00
    0.75131E-07         0.17953E-19         0.00000E+00
    0.75131E-07         0.14643E-19         0.00000E+00
    0.75131E-07         0.90550E-20         0.00000E+00
    0.75131E-07        -0.16044E-20         0.00000E+00
    0.75131E-07        -0.18626E-20         0.00000E+00
    0.75131E-07        -0.21209E-20         0.00000E+00
    0.75131E-07        -0.30522E-20         0.00000E+00
    0.75131E-07         0.13461E-20         0.00000E+00
    0.83693E-07         0.74506E-20         0.00000E+00
    0.83693E-07         0.92505E-20         0.00000E+00
    0.83693E-07         0.11176E-19         0.00000E+00
    0.83693E-07         0.11239E-19         0.00000E+00
    0.83693E-07         0.16764E-19         0.00000E+00
    0.83693E-07         0.26014E-19         0.00000E+00
    0.83693E-07         0.31602E-19         0.00000E+00
    0.83693E-07         0.28002E-19         0.00000E+00
    0.83693E-07         0.22414E-19         0.00000E+00
    0.83693E-07         0.14838E-19         0.00000E+00
    0.83693E-07         0.55252E-20         0.00000E+00
    0.83693E-07         0.37880E-20         0.00000E+00
    0.83693E-07         0.11239E-19         0.00000E+00
    0.83693E-07         0.16764E-19         0.00000E+00
    0.83693E-07         0.11113E-19         0.00000E+00
    0.83693E-07        -0.62735E-22         0.00000E+00
    0.83693E-07        -0.93132E-20         0.00000E+00
    0.83693E-07        -0.16701E-19         0.00000E+00
    0.83693E-07        -0.73878E-20         0.00000E+00
    0.83693E-07         0.17999E-20         0.00000E+00
    0.83693E-07        -0.11176E-19         0.00000E+00
    0.83693E-07        -0.16701E-19         0.00000E+00
    0.83693E-07        -0.56507E-20         0.00000E+00
    0.83693E-07         0.55252E-20         0.00000E+00
    0.83693E-07         0.37880E-20         0.00000E+00
    0.83693E-07        -0.37253E-20         0.00000E+00
    0.83693E-07        -0.75133E-20         0.00000E+00
    0.83693E-07        -0.37253E-20         0.00000E+00
    0.83693E-07        -0.11113E-19         0.00000E+00
    0.83693E-07        -0.20489E-19         0.00000E+00
    0.83693E-07        -0.18689E-19         0.00000E+00
    0.83693E-07        -0.16764E-19         0.00000E+00
    0.83693E-07        -0.18626E-19         0.00000E+00
    0.83693E-07        -0.27877E-19         0.00000E+00
    0.83693E-07        -0.29740E-19         0.00000E+00
    0.83693E-07        -0.26077E-19         0.00000E+00
    0.83693E-07        -0.18689E-19         0.00000E+00
    0.83693E-07        -0.11239E-19         0.00000E+00
    0.83693E-07        -0.74506E-20         0.00000E+00
    0.83693E-07        -0.11113E-19         0.00000E+00
    0.83693E-07        -0.93132E-20         0.00000E+00
    0.83693E-07         0.18626E-20         0.00000E+00
    0.83693E-07         0.37880E-20         0.00000E+00
    0.83693E-07         0.55879E-20         0.00000E+00
    0.83693E-07         0.55879E-20         0.00000E+00
    0.83693E-07         0.83192E-20         0.00000E+00
    0.83693E-07         0.17632E-19         0.00000E+00
    0.83693E-07         0.14901E-19         0.00000E+00
    0.83693E-07         0.93760E-20         0.00000E+00
    0.83693E-07         0.57134E-20         0.00000E+00
    0.83693E-07         0.38508E-20         0.00000E+00
    0.92839E-07         0.37253E-20         0.00000E+00
    0.92839E-07         0.13039E-19         0.00000E+00
    0.92839E-07         0.18109E-19         0.00000E+00
    0.92839E-07         0.11176E-19         0.00000E+00
    0.92839E-07         0.17282E-19         0.00000E+00
    0.92839E-07         0.33528E-19         0.00000E+00
    0.92839E-07         0.40978E-19         0.00000E+00
    0.92839E-07         0.33528E-19         0.00000E+00
    0.92839E-07         0.26491E-19         0.00000E+00
    0.92839E-07         0.20903E-19         0.00000E+00
    0.92839E-07         0.11694E-19         0.00000E+00
    0.92839E-07         0.13970E-19         0.00000E+00
    0.92839E-07         0.13039E-19         0.00000E+00
    0.92839E-07        -0.18626E-20         0.00000E+00
    0.92839E-07        -0.70370E-20         0.00000E+00
    0.92839E-07        -0.11176E-19         0.00000E+00
    0.92839E-07        -0.10658E-19         0.00000E+00
    0.92839E-07        -0.55879E-20         0.00000E+00
    0.92839E-07        -0.50702E-20         0.00000E+00
    0.92839E-07        -0.83819E-20         0.00000E+00
    0.92839E-07        -0.19668E-20         0.00000E+00
    0.92839E-07         0.37253E-20         0.00000E+00
    0.92839E-07        -0.41389E-20         0.00000E+00
    0.92839E-07        -0.10245E-19         0.00000E+00
    0.92839E-07        -0.27940E-20         0.00000E+00
    0.92839E-07         0.18626E-20         0.00000E+00
    0.92839E-07         0.65193E-20         0.00000E+00
    0.92839E-07         0.51774E-21         0.00000E+00
    0.92839E-07        -0.37253E-20         0.00000E+00
    0.92839E-07        -0.14491E-20         0.00000E+00
    0.92839E-07        -0.41389E-20         0.00000E+00
    0.92839E-07        -0.14901E-19         0.00000E+00
    0.92839E-07        -0.19662E-19         0.00000E+00
    0.92839E-07        -0.27422E-19         0.00000E+00
    0.92839E-07        -0.31147E-19         0.00000E+00
    0.92839E-07        -0.18626E-19         0.00000E+00
    0.92839E-07        -0.55879E-20         0.00000E+00
    0.92839E-07        -0.42430E-20         0.00000E+00
    0.92839E-07        -0.16764E-19         0.00000E+00
    0.92839E-07        -0.21834E-19         0.00000E+00
    0.92839E-07        -0.74506E-20         0.00000E+00
    0.92839E-07         0.32075E-20         0.00000E+00
    0.92839E-07         0.10658E-19         0.00000E+00
    0.92839E-07         0.10349E-19         0.00000E+00
    0.92839E-07         0.42430E-20         0.00000E+00
    0.92839E-07         0.50702E-20         0.00000E+00
    0.92839E-07        -0.18626E-20         0.00000E+00
    0.92839E-07        -0.55879E-20         0.00000E+00
    0.92839E-07        -0.23804E-20         0.00000E+00
    0.92839E-07         0.00000E+00         0.00000E+00
    0.92839E-07         0.10355E-20         0.00000E+00
    0.10252E-06         0.37253E-20         0.00000E+00
    0.10252E-06         0.55879E-20         0.00000E+00
    0.10252E-06         0.74506E-20         0.00000E+00
    0.10252E-06         0.13039E-19         0.00000E+00
    0.10252E-06         0.20489E-19         0.00000E+00
    0.10252E-06         0.29802E-19         0.00000E+00
    0.10252E-06         0.42841E-19         0.00000E+00
    0.10252E-06         0.44521E-19         0.00000E+00
    0.10252E-06         0.24214E-19         0.00000E+00
    0.10252E-06         0.13221E-19         0.00000E+00
    0.10252E-06         0.67019E-20         0.00000E+00
    0.10252E-06         0.65193E-20         0.00000E+00
    0.10252E-06         0.16764E-19         0.00000E+00
    0.10252E-06         0.10993E-19         0.00000E+00
    0.10252E-06        -0.36537E-21         0.00000E+00
    0.10252E-06        -0.63366E-20         0.00000E+00
    0.10252E-06        -0.37253E-20         0.00000E+00
    0.10252E-06        -0.91305E-20         0.00000E+00
    0.10252E-06        -0.15650E-19         0.00000E+00
    0.10252E-06        -0.10610E-19         0.00000E+00
    0.10252E-06        -0.10427E-19         0.00000E+00
    0.10252E-06        -0.44739E-20         0.00000E+00
    0.10252E-06        -0.74864E-21         0.00000E+00
    0.10252E-06         0.18626E-20         0.00000E+00
    0.10252E-06         0.00000E+00         0.00000E+00
    0.10252E-06        -0.10427E-19         0.00000E+00
    0.10252E-06        -0.14901E-19         0.00000E+00
    0.10252E-06        -0.55879E-20         0.00000E+00
    0.10252E-06        -0.67019E-20         0.00000E+00
    0.10252E-06        -0.93132E-20         0.00000E+00
    0.10252E-06        -0.26113E-20         0.00000E+00
    0.10252E-06        -0.18626E-20         0.00000E+00
    0.10252E-06        -0.74506E-20         0.00000E+00
    0.10252E-06        -0.18626E-19         0.00000E+00
    0.10252E-06        -0.27940E-19         0.00000E+00
    0.10252E-06        -0.30551E-19         0.00000E+00
    0.10252E-06        -0.22352E-19         0.00000E+00
    0.10252E-06        -0.13787E-19         0.00000E+00
    0.10252E-06        -0.93132E-20         0.00000E+00
    0.10252E-06        -0.85646E-20         0.00000E+00
    0.10252E-06        -0.48393E-20         0.00000E+00
    0.10252E-06         0.74506E-20         0.00000E+00
    0.10252E-06         0.13039E-19         0.00000E+00
    0.10252E-06         0.11176E-19         0.00000E+00
    0.10252E-06         0.67019E-20         0.00000E+00
    0.10252E-06         0.18626E-20         0.00000E+00
    0.10252E-06         0.18626E-20         0.00000E+00
    0.10252E-06         0.37253E-20         0.00000E+00
    0.10252E-06         0.37253E-20         0.00000E+00
    0.10252E-06         0.18626E-20         0.00000E+00
    0.10252E-06         0.00000E+00         0.00000E+00
    0.11268E-06         0.37253E-20         0.00000E+00
    0.11268E-06         0.55879E-20         0.00000E+00
    0.11268E-06         0.11176E-19         0.00000E+00
    0.11268E-06         0.13039E-19         0.00000E+00
    0.11268E-06         0.17700E-19         0.00000E+00
    0.11268E-06         0.32596E-19         0.00000E+00
    0.11268E-06         0.33523E-19         0.00000E+00
    0.11268E-06         0.28876E-19         0.00000E+00
    0.11268E-06         0.23283E-19         0.00000E+00
    0.11268E-06         0.93082E-20         0.00000E+00
    0.11268E-06         0.93638E-21         0.00000E+00
    0.11268E-06        -0.93638E-21         0.00000E+00
    0.11268E-06         0.55829E-20         0.00000E+00
    0.11268E-06         0.17705E-19         0.00000E+00
    0.11268E-06         0.83870E-20         0.00000E+00
    0.11268E-06        -0.74607E-20         0.00000E+00
    0.11268E-06        -0.14901E-19         0.00000E+00
    0.11268E-06        -0.15832E-19         0.00000E+00
    0.11268E-06        -0.13980E-19         0.00000E+00
    0.11268E-06        -0.11171E-19         0.00000E+00
    0.11268E-06        -0.93082E-20         0.00000E+00
    0.11268E-06        -0.74506E-20         0.00000E+00
    0.11268E-06        -0.18576E-20         0.00000E+00
    0.11268E-06         0.37303E-20         0.00000E+00
    0.11268E-06         0.74405E-20         0.00000E+00
    0.11268E-06        -0.37253E-20         0.00000E+00
    0.11268E-06        -0.10239E-19         0.00000E+00
    0.11268E-06        -0.12112E-19         0.00000E+00
    0.11268E-06        -0.21425E-19         0.00000E+00
    0.11268E-06        -0.13965E-19         0.00000E+00
    0.11268E-06        -0.74405E-20         0.00000E+00
    0.11268E-06        -0.37253E-20         0.00000E+00
    0.11268E-06        -0.55980E-20         0.00000E+00
    0.11268E-06        -0.19558E-19         0.00000E+00
    0.11268E-06        -0.17690E-19         0.00000E+00
    0.11268E-06        -0.16774E-19         0.00000E+00
    0.11268E-06        -0.14901E-19         0.00000E+00
    0.11268E-06        -0.11171E-19         0.00000E+00
    0.11268E-06        -0.37253E-20         0.00000E+00
    0.11268E-06        -0.46617E-20         0.00000E+00
    0.11268E-06         0.18626E-20         0.00000E+00
    0.11268E-06         0.12112E-19         0.00000E+00
    0.11268E-06         0.93082E-20         0.00000E+00
    0.11268E-06         0.11176E-19         0.00000E+00
    0.11268E-06         0.74556E-20         0.00000E+00
    0.11268E-06        -0.50551E-23         0.00000E+00
    0.11268E-06         0.46516E-20         0.00000E+00
    0.11268E-06         0.65294E-20         0.00000E+00
    0.11268E-06         0.37303E-20         0.00000E+00
    0.11268E-06        -0.46667E-20         0.00000E+00
    0.11268E-06        -0.37354E-20         0.00000E+00
    0.12320E-06         0.74506E-20         0.00000E+00
    0.12320E-06         0.93132E-20         0.00000E+00
    0.12320E-06         0.74506E-20         0.00000E+00
    0.12320E-06         0.11176E-19         0.00000E+00
    0.12320E-06         0.16805E-19         0.00000E+00
    0.12320E-06         0.20448E-19         0.00000E+00
    0.12320E-06         0.18544E-19         0.00000E+00
    0.12320E-06         0.16805E-19         0.00000E+00
    0.12320E-06         0.14942E-19         0.00000E+00
    0.12320E-06         0.11176E-19         0.00000E+00
    0.12320E-06         0.74506E-20         0.00000E+00
    0.12320E-06         0.93542E-20         0.00000E+00
    0.12320E-06         0.56289E-20         0.00000E+00
    0.12320E-06        -0.18626E-20         0.00000E+00
    0.12320E-06        -0.93132E-20         0.00000E+00
    0.12320E-06        -0.74506E-20         0.00000E+00
    0.12320E-06        -0.19036E-20         0.00000E+00
    0.12320E-06        -0.12189E-19         0.00000E+00
    0.12320E-06        -0.17736E-19         0.00000E+00
    0.12320E-06        -0.14901E-19         0.00000E+00
    0.12320E-06        -0.73686E-20         0.00000E+00
    0.12320E-06         0.19036E-20         0.00000E+00
    0.12320E-06         0.18217E-20         0.00000E+00
    0.12320E-06         0.56289E-20         0.00000E+00
    0.12320E-06         0.10204E-19         0.00000E+00
    0.12320E-06         0.83409E-20         0.00000E+00
    0.12320E-06         0.40982E-22         0.00000E+00
    0.12320E-06        -0.55879E-20         0.00000E+00
    0.12320E-06        -0.12998E-19         0.00000E+00
    0.12320E-06        -0.16723E-19         0.00000E+00
    0.12320E-06        -0.11176E-19         0.00000E+00
    0.12320E-06        -0.11176E-19         0.00000E+00
    0.12320E-06        -0.18626E-19         0.00000E+00
    0.12320E-06        -0.27981E-19         0.00000E+00
    0.12320E-06        -0.27981E-19         0.00000E+00
    0.12320E-06        -0.18667E-19         0.00000E+00
    0.12320E-06        -0.12107E-19         0.00000E+00
    0.12320E-06        -0.64783E-20         0.00000E+00
    0.12320E-06        -0.13079E-19         0.00000E+00
    0.12320E-06        -0.18667E-19         0.00000E+00
    0.12320E-06        -0.11135E-19         0.00000E+00
    0.12320E-06         0.56699E-20         0.00000E+00
    0.12320E-06         0.15832E-19         0.00000E+00
    0.12320E-06         0.13929E-19         0.00000E+00
    0.12320E-06         0.13039E-19         0.00000E+00
    0.12320E-06         0.11176E-19         0.00000E+00
    0.12320E-06         0.74506E-20         0.00000E+00
    0.12320E-06         0.55879E-20         0.00000E+00
    0.12320E-06         0.18626E-20         0.00000E+00
    0.12320E-06        -0.28349E-20         0.00000E+00
    0.12320E-06        -0.19446E-20         0.00000E+00
    0.13397E-06         0.37253E-20         0.00000E+00
    0.13397E-06         0.74506E-20         0.00000E+00
    0.13397E-06         0.13116E-19         0.00000E+00
    0.13397E-06         0.93906E-20         0.00000E+00
    0.13397E-06         0.54332E-20         0.00000E+00
    0.13397E-06         0.16609E-19         0.00000E+00
    0.13397E-06         0.24292E-19         0.00000E+00
    0.13397E-06         0.16841E-19         0.00000E+00
    0.13397E-06         0.93132E-20         0.00000E+00
    0.13397E-06         0.38027E-20         0.00000E+00
    0.13397E-06         0.77374E-22         0.00000E+00
    0.13397E-06         0.36479E-20         0.00000E+00
    0.13397E-06         0.12961E-19         0.00000E+00
    0.13397E-06         0.14901E-19         0.00000E+00
    0.13397E-06         0.55106E-20         0.00000E+00
    0.13397E-06        -0.37253E-20         0.00000E+00
    0.13397E-06        -0.72958E-20         0.00000E+00
    0.13397E-06        -0.55106E-20         0.00000E+00
    0.13397E-06        -0.77374E-22         0.00000E+00
    0.13397E-06         0.74506E-20         0.00000E+00
    0.13397E-06         0.75280E-20         0.00000E+00
    0.13397E-06         0.37253E-20         0.00000E+00
    0.13397E-06        -0.38027E-20         0.00000E+00
    0.13397E-06        -0.57427E-20         0.00000E+00
    0.13397E-06        -0.17853E-20         0.00000E+00
    0.13397E-06        -0.93132E-20         0.00000E+00
    0.13397E-06        -0.55879E-20         0.00000E+00
    0.13397E-06        -0.55106E-20         0.00000E+00
    0.13397E-06        -0.13193E-19         0.00000E+00
    0.13397E-06        -0.13116E-19         0.00000E+00
    0.13397E-06        -0.16686E-19         0.00000E+00
    0.13397E-06        -0.18626E-19         0.00000E+00
    0.13397E-06        -0.18549E-19         0.00000E+00
    0.13397E-06        -0.22197E-19         0.00000E+00
    0.13397E-06        -0.29880E-19         0.00000E+00
    0.13397E-06        -0.22352E-19         0.00000E+00
    0.13397E-06        -0.14979E-19         0.00000E+00
    0.13397E-06        -0.15056E-19         0.00000E+00
    0.13397E-06        -0.17853E-20         0.00000E+00
    0.13397E-06        -0.54332E-20         0.00000E+00
    0.13397E-06        -0.11098E-19         0.00000E+00
    0.13397E-06         0.37253E-20         0.00000E+00
    0.13397E-06         0.73732E-20         0.00000E+00
    0.13397E-06         0.73732E-20         0.00000E+00
    0.13397E-06         0.55879E-20         0.00000E+00
    0.13397E-06         0.27166E-20         0.00000E+00
    0.13397E-06         0.46566E-20         0.00000E+00
    0.13397E-06         0.93906E-20         0.00000E+00
    0.13397E-06         0.14047E-19         0.00000E+00
    0.13397E-06         0.10322E-19         0.00000E+00
    0.13397E-06         0.74506E-20         0.00000E+00
    0.14483E-06         0.11876E-19         0.00000E+00
    0.14483E-06         0.55879E-20         0.00000E+00
    0.14483E-06         0.37253E-20         0.00000E+00
    0.14483E-06         0.18626E-20         0.00000E+00
    0.14483E-06         0.48879E-20         0.00000E+00
    0.14483E-06         0.20489E-19         0.00000E+00
    0.14483E-06         0.22702E-19         0.00000E+00
    0.14483E-06         0.18976E-19         0.00000E+00
    0.14483E-06         0.15482E-19         0.00000E+00
    0.14483E-06         0.16764E-19         0.00000E+00
    0.14483E-06         0.14320E-19         0.00000E+00
    0.14483E-06         0.89632E-20         0.00000E+00
    0.14483E-06         0.13039E-19         0.00000E+00
    0.14483E-06         0.20839E-19         0.00000E+00
    0.14483E-06         0.11757E-19         0.00000E+00
    0.14483E-06        -0.53566E-20         0.00000E+00
    0.14483E-06        -0.23132E-21         0.00000E+00
    0.14483E-06        -0.11757E-19         0.00000E+00
    0.14483E-06        -0.13039E-19         0.00000E+00
    0.14483E-06        -0.71006E-20         0.00000E+00
    0.14483E-06        -0.15251E-19         0.00000E+00
    0.14483E-06        -0.13389E-19         0.00000E+00
    0.14483E-06        -0.18626E-20         0.00000E+00
    0.14483E-06         0.33753E-20         0.00000E+00
    0.14483E-06         0.68693E-20         0.00000E+00
    0.14483E-06        -0.37253E-20         0.00000E+00
    0.14483E-06        -0.19908E-19         0.00000E+00
    0.14483E-06        -0.14551E-19         0.00000E+00
    0.14483E-06        -0.11757E-19         0.00000E+00
    0.14483E-06        -0.11526E-19         0.00000E+00
    0.14483E-06        -0.11176E-19         0.00000E+00
    0.14483E-06        -0.13039E-19         0.00000E+00
    0.14483E-06        -0.19908E-19         0.00000E+00
    0.14483E-06        -0.21420E-19         0.00000E+00
    0.14483E-06        -0.21420E-19         0.00000E+00
    0.14483E-06        -0.15132E-19         0.00000E+00
    0.14483E-06        -0.16764E-19         0.00000E+00
    0.14483E-06        -0.14901E-19         0.00000E+00
    0.14483E-06        -0.17695E-19         0.00000E+00
    0.14483E-06        -0.10245E-19         0.00000E+00
    0.14483E-06         0.55879E-20         0.00000E+00
    0.14483E-06         0.98945E-20         0.00000E+00
    0.14483E-06         0.16764E-19         0.00000E+00
    0.14483E-06         0.11176E-19         0.00000E+00
    0.14483E-06         0.43066E-20         0.00000E+00
    0.14483E-06         0.50066E-20         0.00000E+00
    0.14483E-06         0.35000E-21         0.00000E+00
    0.14483E-06        -0.59379E-20         0.00000E+00
    0.14483E-06        -0.37253E-20         0.00000E+00
    0.14483E-06         0.12813E-20         0.00000E+00
    0.14483E-06         0.62879E-20         0.00000E+00
    0.15558E-06        -0.52732E-20         0.00000E+00
    0.15558E-06         0.55879E-20         0.00000E+00
    0.15558E-06         0.74506E-20         0.00000E+00
    0.15558E-06         0.74506E-20         0.00000E+00
    0.15558E-06         0.11950E-19         0.00000E+00
    0.15558E-06         0.13812E-19         0.00000E+00
    0.15558E-06         0.18626E-19         0.00000E+00
    0.15558E-06         0.21420E-19         0.00000E+00
    0.15558E-06         0.24214E-19         0.00000E+00
    0.15558E-06         0.16764E-19         0.00000E+00
    0.15558E-06         0.65193E-20         0.00000E+00
    0.15558E-06         0.10402E-19         0.00000E+00
    0.15558E-06         0.11176E-19         0.00000E+00
    0.15558E-06         0.76080E-20         0.00000E+00
    0.15558E-06         0.38827E-20         0.00000E+00
    0.15558E-06         0.11950E-19         0.00000E+00
    0.15558E-06         0.18626E-20         0.00000E+00
    0.15558E-06        -0.20200E-20         0.00000E+00
    0.15558E-06        -0.31087E-20         0.00000E+00
    0.15558E-06        -0.11176E-19         0.00000E+00
    0.15558E-06        -0.12881E-19         0.00000E+00
    0.15558E-06        -0.11018E-19         0.00000E+00
    0.15558E-06        -0.14901E-19         0.00000E+00
    0.15558E-06        -0.22194E-19         0.00000E+00
    0.15558E-06        -0.15990E-19         0.00000E+00
    0.15558E-06        -0.13970E-19         0.00000E+00
    0.15558E-06        -0.55879E-20         0.00000E+00
    0.15558E-06        -0.37253E-20         0.00000E+00
    0.15558E-06        -0.10087E-19         0.00000E+00
    0.15558E-06        -0.13970E-19         0.00000E+00
    0.15558E-06        -0.83819E-20         0.00000E+00
    0.15558E-06        -0.48140E-20         0.00000E+00
    0.15558E-06        -0.16764E-19         0.00000E+00
    0.15558E-06        -0.29028E-19         0.00000E+00
    0.15558E-06        -0.30734E-19         0.00000E+00
    0.15558E-06        -0.29802E-19         0.00000E+00
    0.15558E-06        -0.21420E-19         0.00000E+00
    0.15558E-06        -0.74506E-20         0.00000E+00
    0.15558E-06        -0.46566E-20         0.00000E+00
    0.15558E-06        -0.12107E-19         0.00000E+00
    0.15558E-06        -0.74506E-20         0.00000E+00
    0.15558E-06         0.65193E-20         0.00000E+00
    0.15558E-06         0.91558E-20         0.00000E+00
    0.15558E-06         0.14901E-19         0.00000E+00
    0.15558E-06         0.11491E-19         0.00000E+00
    0.15558E-06         0.38827E-20         0.00000E+00
    0.15558E-06         0.91558E-20         0.00000E+00
    0.15558E-06         0.55879E-20         0.00000E+00
    0.15558E-06         0.00000E+00         0.00000E+00
    0.15558E-06        -0.57453E-20         0.00000E+00
    0.15558E-06        -0.77653E-20         0.00000E+00
    0.16601E-06         0.55879E-20         0.00000E+00
    0.16601E-06         0.73965E-20         0.00000E+00
    0.16601E-06         0.55879E-20         0.00000E+00
    0.16601E-06         0.28481E-20         0.00000E+00
    0.16601E-06         0.74506E-20         0.00000E+00
    0.16601E-06         0.17695E-19         0.00000E+00
    0.16601E-06         0.25092E-19         0.00000E+00
    0.16601E-06         0.18572E-19         0.00000E+00
    0.16601E-06         0.12107E-19         0.00000E+00
    0.16601E-06         0.13039E-19         0.00000E+00
    0.16601E-06         0.10245E-19         0.00000E+00
    0.16601E-06         0.98871E-20         0.00000E+00
    0.16601E-06         0.15832E-19         0.00000E+00
    0.16601E-06         0.16190E-19         0.00000E+00
    0.16601E-06         0.57386E-21         0.00000E+00
    0.16601E-06        -0.65193E-20         0.00000E+00
    0.16601E-06         0.13429E-20         0.00000E+00
    0.16601E-06        -0.55879E-20         0.00000E+00
    0.16601E-06        -0.75047E-20         0.00000E+00
    0.16601E-06        -0.46566E-20         0.00000E+00
    0.16601E-06        -0.55338E-20         0.00000E+00
    0.16601E-06        -0.36712E-20         0.00000E+00
    0.16601E-06        -0.65734E-20         0.00000E+00
    0.16601E-06        -0.74506E-20         0.00000E+00
    0.16601E-06        -0.13039E-19         0.00000E+00
    0.16601E-06        -0.14901E-19         0.00000E+00
    0.16601E-06        -0.12053E-19         0.00000E+00
    0.16601E-06        -0.12161E-19         0.00000E+00
    0.16601E-06        -0.19612E-19         0.00000E+00
    0.16601E-06        -0.28297E-19         0.00000E+00
    0.16601E-06        -0.20489E-19         0.00000E+00
    0.16601E-06        -0.10764E-19         0.00000E+00
    0.16601E-06        -0.14901E-19         0.00000E+00
    0.16601E-06        -0.17695E-19         0.00000E+00
    0.16601E-06        -0.17641E-19         0.00000E+00
    0.16601E-06        -0.17749E-19         0.00000E+00
    0.16601E-06        -0.14955E-19         0.00000E+00
    0.16601E-06        -0.11122E-19         0.00000E+00
    0.16601E-06        -0.92591E-20         0.00000E+00
    0.16601E-06        -0.14024E-19         0.00000E+00
    0.16601E-06        -0.55879E-20         0.00000E+00
    0.16601E-06         0.27940E-20         0.00000E+00
    0.16601E-06         0.27399E-20         0.00000E+00
    0.16601E-06         0.37253E-20         0.00000E+00
    0.16601E-06         0.37253E-20         0.00000E+00
    0.16601E-06         0.18626E-20         0.00000E+00
    0.16601E-06        -0.87722E-21         0.00000E+00
    0.16601E-06         0.28481E-20         0.00000E+00
    0.16601E-06         0.37253E-20         0.00000E+00
    0.16601E-06         0.18085E-20         0.00000E+00
    0.16601E-06         0.17544E-20         0.00000E+00
    0.17586E-06         0.22309E-20         0.00000E+00
    0.17586E-06         0.74506E-20         0.00000E+00
    0.17586E-06         0.54038E-20         0.00000E+00
    0.17586E-06         0.93132E-21         0.00000E+00
    0.17586E-06         0.55879E-20         0.00000E+00
    0.17586E-06         0.13688E-19         0.00000E+00
    0.17586E-06         0.17414E-19         0.00000E+00
    0.17586E-06         0.19839E-19         0.00000E+00
    0.17586E-06         0.15832E-19         0.00000E+00
    0.17586E-06         0.62377E-20         0.00000E+00
    0.17586E-06         0.10060E-19         0.00000E+00
    0.17586E-06         0.10060E-19         0.00000E+00
    0.17586E-06         0.15811E-20         0.00000E+00
    0.17586E-06        -0.93132E-21         0.00000E+00
    0.17586E-06         0.10287E-20         0.00000E+00
    0.17586E-06        -0.29781E-20         0.00000E+00
    0.17586E-06        -0.12854E-19         0.00000E+00
    0.17586E-06        -0.12670E-19         0.00000E+00
    0.17586E-06        -0.63351E-20         0.00000E+00
    0.17586E-06        -0.55879E-20         0.00000E+00
    0.17586E-06        -0.11176E-19         0.00000E+00
    0.17586E-06        -0.11176E-19         0.00000E+00
    0.17586E-06        -0.43751E-20         0.00000E+00
    0.17586E-06        -0.62377E-20         0.00000E+00
    0.17586E-06        -0.86634E-20         0.00000E+00
    0.17586E-06        -0.10710E-19         0.00000E+00
    0.17586E-06        -0.13223E-19         0.00000E+00
    0.17586E-06        -0.11923E-19         0.00000E+00
    0.17586E-06        -0.14717E-19         0.00000E+00
    0.17586E-06        -0.68876E-20         0.00000E+00
    0.17586E-06        -0.71691E-20         0.00000E+00
    0.17586E-06        -0.13970E-19         0.00000E+00
    0.17586E-06        -0.12573E-19         0.00000E+00
    0.17586E-06        -0.23099E-19         0.00000E+00
    0.17586E-06        -0.22352E-19         0.00000E+00
    0.17586E-06        -0.18442E-19         0.00000E+00
    0.17586E-06        -0.17511E-19         0.00000E+00
    0.17586E-06        -0.11360E-19         0.00000E+00
    0.17586E-06        -0.13039E-19         0.00000E+00
    0.17586E-06        -0.17511E-19         0.00000E+00
    0.17586E-06        -0.14901E-19         0.00000E+00
    0.17586E-06        -0.37253E-20         0.00000E+00
    0.17586E-06         0.63351E-20         0.00000E+00
    0.17586E-06         0.10060E-19         0.00000E+00
    0.17586E-06         0.64981E-21         0.00000E+00
    0.17586E-06        -0.32596E-20         0.00000E+00
    0.17586E-06         0.26098E-20         0.00000E+00
    0.17586E-06         0.64981E-21         0.00000E+00
    0.17586E-06        -0.21442E-20         0.00000E+00
    0.17586E-06        -0.18626E-20         0.00000E+00
    0.17586E-06         0.00000E+00         0.00000E+00
    0.18486E-06         0.55879E-20         0.00000E+00
    0.18486E-06         0.42687E-20         0.00000E+00
    0.18486E-06         0.14747E-20         0.00000E+00
    0.18486E-06         0.93132E-21         0.00000E+00
    0.18486E-06         0.55102E-20         0.00000E+00
    0.18486E-06         0.16298E-19         0.00000E+00
    0.18486E-06         0.19558E-19         0.00000E+00
    0.18486E-06         0.12495E-19         0.00000E+00
    0.18486E-06         0.11176E-19         0.00000E+00
    0.18486E-06         0.89253E-20         0.00000E+00
    0.18486E-06         0.33373E-20         0.00000E+00
    0.18486E-06         0.46566E-20         0.00000E+00
    0.18486E-06         0.65193E-20         0.00000E+00
    0.18486E-06         0.17072E-20         0.00000E+00
    0.18486E-06        -0.76060E-20         0.00000E+00
    0.18486E-06        -0.96234E-20         0.00000E+00
    0.18486E-06        -0.12417E-19         0.00000E+00
    0.18486E-06        -0.13039E-19         0.00000E+00
    0.18486E-06        -0.13039E-19         0.00000E+00
    0.18486E-06        -0.13039E-19         0.00000E+00
    0.18486E-06        -0.13039E-19         0.00000E+00
    0.18486E-06        -0.33373E-20         0.00000E+00
    0.18486E-06         0.38794E-21         0.00000E+00
    0.18486E-06         0.93132E-21         0.00000E+00
    0.18486E-06         0.52000E-20         0.00000E+00
    0.18486E-06         0.46566E-20         0.00000E+00
    0.18486E-06        -0.13970E-20         0.00000E+00
    0.18486E-06        -0.46566E-20         0.00000E+00
    0.18486E-06        -0.66747E-20         0.00000E+00
    0.18486E-06        -0.15755E-19         0.00000E+00
    0.18486E-06        -0.16608E-19         0.00000E+00
    0.18486E-06        -0.14513E-19         0.00000E+00
    0.18486E-06        -0.23749E-19         0.00000E+00
    0.18486E-06        -0.33450E-19         0.00000E+00
    0.18486E-06        -0.35390E-19         0.00000E+00
    0.18486E-06        -0.28483E-19         0.00000E+00
    0.18486E-06        -0.20023E-19         0.00000E+00
    0.18486E-06        -0.13892E-19         0.00000E+00
    0.18486E-06        -0.11176E-19         0.00000E+00
    0.18486E-06        -0.13039E-19         0.00000E+00
    0.18486E-06        -0.37253E-20         0.00000E+00
    0.18486E-06         0.69072E-20         0.00000E+00
    0.18486E-06         0.69072E-20         0.00000E+00
    0.18486E-06         0.52000E-20         0.00000E+00
    0.18486E-06         0.52000E-20         0.00000E+00
    0.18486E-06        -0.14747E-20         0.00000E+00
    0.18486E-06        -0.46566E-20         0.00000E+00
    0.18486E-06        -0.41132E-20         0.00000E+00
    0.18486E-06        -0.54338E-21         0.00000E+00
    0.18486E-06         0.00000E+00         0.00000E+00
    0.18486E-06        -0.77588E-21         0.00000E+00
    0.19274E-06         0.00000E+00         0.00000E+00
    0.19274E-06         0.50480E-20         0.00000E+00
    0.19274E-06         0.79162E-20         0.00000E+00
    0.19274E-06         0.47309E-20         0.00000E+00
    0.19274E-06         0.73763E-20         0.00000E+00
    0.19274E-06         0.17621E-19         0.00000E+00
    0.19274E-06         0.24289E-19         0.00000E+00
    0.19274E-06         0.22817E-19         0.00000E+00
    0.19274E-06         0.18161E-19         0.00000E+00
    0.19274E-06         0.65936E-20         0.00000E+00
    0.19274E-06         0.27940E-20         0.00000E+00
    0.19274E-06         0.59793E-20         0.00000E+00
    0.19274E-06         0.78419E-20         0.00000E+00
    0.19274E-06         0.51966E-20         0.00000E+00
    0.19274E-06        -0.14713E-20         0.00000E+00
    0.19274E-06        -0.16764E-19         0.00000E+00
    0.19274E-06        -0.23134E-19         0.00000E+00
    0.19274E-06        -0.15832E-19         0.00000E+00
    0.19274E-06        -0.83819E-20         0.00000E+00
    0.19274E-06        -0.27940E-20         0.00000E+00
    0.19274E-06        -0.14713E-20         0.00000E+00
    0.19274E-06        -0.53998E-21         0.00000E+00
    0.19274E-06        -0.27196E-20         0.00000E+00
    0.19274E-06        -0.18626E-20         0.00000E+00
    0.19274E-06        -0.93132E-21         0.00000E+00
    0.19274E-06        -0.27196E-20         0.00000E+00
    0.19274E-06        -0.93132E-21         0.00000E+00
    0.19274E-06        -0.24026E-20         0.00000E+00
    0.19274E-06        -0.14901E-19         0.00000E+00
    0.19274E-06        -0.21812E-19         0.00000E+00
    0.19274E-06        -0.17695E-19         0.00000E+00
    0.19274E-06        -0.17695E-19         0.00000E+00
    0.19274E-06        -0.20489E-19         0.00000E+00
    0.19274E-06        -0.26077E-19         0.00000E+00
    0.19274E-06        -0.25146E-19         0.00000E+00
    0.19274E-06        -0.20489E-19         0.00000E+00
    0.19274E-06        -0.14901E-19         0.00000E+00
    0.19274E-06        -0.14901E-19         0.00000E+00
    0.19274E-06        -0.85305E-20         0.00000E+00
    0.19274E-06        -0.93132E-20         0.00000E+00
    0.19274E-06        -0.12890E-19         0.00000E+00
    0.19274E-06        -0.19370E-20         0.00000E+00
    0.19274E-06         0.23283E-20         0.00000E+00
    0.19274E-06         0.65193E-20         0.00000E+00
    0.19274E-06         0.13970E-20         0.00000E+00
    0.19274E-06         0.28683E-20         0.00000E+00
    0.19274E-06         0.55879E-20         0.00000E+00
    0.19274E-06         0.22540E-20         0.00000E+00
    0.19274E-06         0.00000E+00         0.00000E+00
    0.19274E-06        -0.13227E-20         0.00000E+00
    0.19274E-06         0.00000E+00         0.00000E+00
    0.19923E-06         0.52835E-20         0.00000E+00
    0.19923E-06         0.37253E-20         0.00000E+00
    0.19923E-06         0.27940E-20         0.00000E+00
    0.19923E-06         0.00000E+00         0.00000E+00
    0.19923E-06         0.32596E-20         0.00000E+00
    0.19923E-06         0.15367E-19         0.00000E+00
    0.19923E-06         0.19092E-19         0.00000E+00
    0.19923E-06         0.10710E-19         0.00000E+00
    0.19923E-06         0.69849E-20         0.00000E+00
    0.19923E-06         0.69849E-20         0.00000E+00
    0.19923E-06         0.37253E-20         0.00000E+00
    0.19923E-06         0.65193E-20         0.00000E+00
    0.19923E-06         0.10710E-19         0.00000E+00
    0.19923E-06         0.13352E-19         0.00000E+00
    0.19923E-06         0.65193E-20         0.00000E+00
    0.19923E-06         0.61786E-21         0.00000E+00
    0.19923E-06        -0.18626E-20         0.00000E+00
    0.19923E-06        -0.46566E-20         0.00000E+00
    0.19923E-06        -0.96267E-20         0.00000E+00
    0.19923E-06        -0.65193E-20         0.00000E+00
    0.19923E-06        -0.93132E-20         0.00000E+00
    0.19923E-06        -0.10245E-19         0.00000E+00
    0.19923E-06        -0.74506E-20         0.00000E+00
    0.19923E-06        -0.37253E-20         0.00000E+00
    0.19923E-06         0.18626E-20         0.00000E+00
    0.19923E-06         0.12448E-20         0.00000E+00
    0.19923E-06        -0.55879E-20         0.00000E+00
    0.19923E-06        -0.77640E-20         0.00000E+00
    0.19923E-06        -0.83819E-20         0.00000E+00
    0.19923E-06        -0.14901E-19         0.00000E+00
    0.19923E-06        -0.12725E-19         0.00000E+00
    0.19923E-06        -0.12725E-19         0.00000E+00
    0.19923E-06        -0.16764E-19         0.00000E+00
    0.19923E-06        -0.19871E-19         0.00000E+00
    0.19923E-06        -0.19871E-19         0.00000E+00
    0.19923E-06        -0.22352E-19         0.00000E+00
    0.19923E-06        -0.18626E-19         0.00000E+00
    0.19923E-06        -0.93132E-20         0.00000E+00
    0.19923E-06        -0.52745E-20         0.00000E+00
    0.19923E-06        -0.11642E-19         0.00000E+00
    0.19923E-06        -0.51223E-20         0.00000E+00
    0.19923E-06         0.46566E-21         0.00000E+00
    0.19923E-06         0.20148E-20         0.00000E+00
    0.19923E-06         0.93132E-21         0.00000E+00
    0.19923E-06        -0.37253E-20         0.00000E+00
    0.19923E-06        -0.55879E-20         0.00000E+00
    0.19923E-06        -0.37253E-20         0.00000E+00
    0.19923E-06         0.00000E+00         0.00000E+00
    0.19923E-06        -0.18626E-20         0.00000E+00
    0.19923E-06         0.62058E-20         0.00000E+00
    0.19923E-06         0.14274E-19         0.00000E+00
    0.20407E-06         0.31526E-20         0.00000E+00
    0.20407E-06         0.27940E-20         0.00000E+00
    0.20407E-06        -0.64497E-21         0.00000E+00
    0.20407E-06         0.64497E-21         0.00000E+00
    0.20407E-06         0.80956E-20         0.00000E+00
    0.20407E-06         0.13325E-19         0.00000E+00
    0.20407E-06         0.13325E-19         0.00000E+00
    0.20407E-06         0.13970E-19         0.00000E+00
    0.20407E-06         0.17981E-19         0.00000E+00
    0.20407E-06         0.74506E-20         0.00000E+00
    0.20407E-06         0.64497E-21         0.00000E+00
    0.20407E-06         0.46566E-20         0.00000E+00
    0.20407E-06         0.18626E-20         0.00000E+00
    0.20407E-06         0.93132E-21         0.00000E+00
    0.20407E-06        -0.18626E-20         0.00000E+00
    0.20407E-06        -0.55879E-20         0.00000E+00
    0.20407E-06        -0.37253E-20         0.00000E+00
    0.20407E-06        -0.93132E-21         0.00000E+00
    0.20407E-06         0.00000E+00         0.00000E+00
    0.20407E-06        -0.93132E-21         0.00000E+00
    0.20407E-06         0.00000E+00         0.00000E+00
    0.20407E-06         0.18626E-20         0.00000E+00
    0.20407E-06         0.00000E+00         0.00000E+00
    0.20407E-06        -0.27940E-20         0.00000E+00
    0.20407E-06        -0.18626E-20         0.00000E+00
    0.20407E-06        -0.18626E-20         0.00000E+00
    0.20407E-06        -0.37253E-20         0.00000E+00
    0.20407E-06        -0.74506E-20         0.00000E+00
    0.20407E-06        -0.10245E-19         0.00000E+00
    0.20407E-06        -0.55879E-20         0.00000E+00
    0.20407E-06        -0.65193E-20         0.00000E+00
    0.20407E-06        -0.13325E-19         0.00000E+00
    0.20407E-06        -0.20489E-19         0.00000E+00
    0.20407E-06        -0.20955E-19         0.00000E+00
    0.20407E-06        -0.15832E-19         0.00000E+00
    0.20407E-06        -0.16943E-19         0.00000E+00
    0.20407E-06        -0.13039E-19         0.00000E+00
    0.20407E-06        -0.11928E-19         0.00000E+00
    0.20407E-06        -0.12573E-19         0.00000E+00
    0.20407E-06        -0.11821E-19         0.00000E+00
    0.20407E-06        -0.63399E-20         0.00000E+00
    0.20407E-06        -0.18626E-20         0.00000E+00
    0.20407E-06         0.75201E-21         0.00000E+00
    0.20407E-06         0.27940E-20         0.00000E+00
    0.20407E-06         0.27940E-20         0.00000E+00
    0.20407E-06         0.29733E-20         0.00000E+00
    0.20407E-06         0.46566E-20         0.00000E+00
    0.20407E-06         0.72713E-20         0.00000E+00
    0.20407E-06         0.48359E-20         0.00000E+00
    0.20407E-06         0.68056E-20         0.00000E+00
    0.20407E-06         0.95273E-20         0.00000E+00
    0.20706E-06        -0.18626E-20         0.00000E+00
    0.20706E-06        -0.41746E-20         0.00000E+00
    0.20706E-06         0.93132E-21         0.00000E+00
    0.20706E-06         0.13806E-20         0.00000E+00
    0.20706E-06        -0.97625E-20         0.00000E+00
    0.20706E-06        -0.44929E-21         0.00000E+00
    0.20706E-06         0.17662E-19         0.00000E+00
    0.20706E-06         0.14419E-19         0.00000E+00
    0.20706E-06         0.60700E-20         0.00000E+00
    0.20706E-06         0.93132E-21         0.00000E+00
    0.20706E-06        -0.18626E-20         0.00000E+00
    0.20706E-06         0.93132E-21         0.00000E+00
    0.20706E-06         0.55879E-20         0.00000E+00
    0.20706E-06         0.48203E-21         0.00000E+00
    0.20706E-06         0.18626E-20         0.00000E+00
    0.20706E-06         0.51059E-20         0.00000E+00
    0.20706E-06         0.00000E+00         0.00000E+00
    0.20706E-06        -0.37253E-20         0.00000E+00
    0.20706E-06        -0.27940E-20         0.00000E+00
    0.20706E-06         0.18626E-20         0.00000E+00
    0.20706E-06         0.93132E-21         0.00000E+00
    0.20706E-06        -0.93132E-21         0.00000E+00
    0.20706E-06         0.27940E-20         0.00000E+00
    0.20706E-06         0.74506E-20         0.00000E+00
    0.20706E-06         0.46566E-20         0.00000E+00
    0.20706E-06         0.18626E-20         0.00000E+00
    0.20706E-06         0.00000E+00         0.00000E+00
    0.20706E-06        -0.27940E-20         0.00000E+00
    0.20706E-06        -0.65193E-20         0.00000E+00
    0.20706E-06        -0.74506E-20         0.00000E+00
    0.20706E-06        -0.46566E-20         0.00000E+00
    0.20706E-06        -0.64865E-20         0.00000E+00
    0.20706E-06        -0.65193E-20         0.00000E+00
    0.20706E-06        -0.93460E-20         0.00000E+00
    0.20706E-06        -0.14901E-19         0.00000E+00
    0.20706E-06        -0.14901E-19         0.00000E+00
    0.20706E-06        -0.11176E-19         0.00000E+00
    0.20706E-06        -0.10245E-19         0.00000E+00
    0.20706E-06        -0.11176E-19         0.00000E+00
    0.20706E-06        -0.83819E-20         0.00000E+00
    0.20706E-06        -0.55879E-20         0.00000E+00
    0.20706E-06         0.93132E-21         0.00000E+00
    0.20706E-06         0.83819E-20         0.00000E+00
    0.20706E-06         0.28103E-20         0.00000E+00
    0.20706E-06         0.41910E-20         0.00000E+00
    0.20706E-06         0.60372E-20         0.00000E+00
    0.20706E-06        -0.60372E-20         0.00000E+00
    0.20706E-06        -0.69685E-20         0.00000E+00
    0.20706E-06         0.74342E-20         0.00000E+00
    0.20706E-06         0.88148E-20         0.00000E+00
    0.20706E-06        -0.96406E-21         0.00000E+00
    0.20807E-06         0.00000E+00         0.00000E+00
    0.20807E-06         0.00000E+00         0.00000E+00
    0.20807E-06         0.00000E+00         0.00000E+00
    0.20807E-06         0.00000E+00         0.00000E+00
    0.20807E-06         0.00000E+00         0.00000E+00
    0.20807E-06         0.00000E+00         0.00000E+00
    0.20807E-06         0.00000E+00         0.00000E+00
    0.20807E-06         0.00000E+00         0.00000E+00
    0.20807E-06         0.00000E+00         0.00000E+00
    0.20807E-06        -0.55879E-20         0.00000E+00
    0.20807E-06         0.00000E+00         0.00000E+00
    0.20807E-06         0.55879E-20         0.00000E+00
    0.20807E-06         0.00000E+00         0.00000E+00
    0.20807E-06         0.00000E+00         0.00000E+00
    0.20807E-06         0.00000E+00         0.00000E+00
    0.20807E-06         0.00000E+00         0.00000E+00
    0.20807E-06         0.00000E+00         0.00000E+00
    0.20807E-06         0.55879E-20         0.00000E+00
    0.20807E-06         0.00000E+00         0.00000E+00
    0.20807E-06        -0.55879E-20         0.00000E+00
    0.20807E-06         0.00000E+00         0.00000E+00
    0.20807E-06         0.00000E+00         0.00000E+00
    0.20807E-06         0.00000E+00         0.00000E+00
    0.20807E-06         0.00000E+00         0.00000E+00
    0.20807E-06         0.00000E+00         0.00000E+00
    0.20807E-06         0.00000E+00         0.00000E+00
    0.20807E-06         0.00000E+00         0.00000E+00
    0.20807E-06         0.00000E+00         0.00000E+00
    0.20807E-06         0.00000E+00         0.00000E+00
    0.20807E-06         0.00000E+00         0.00000E+00
    0.20807E-06         0.00000E+00         0.00000E+00
    0.20807E-06         0.00000E+00         0.00000E+00
    0.20807E-06         0.00000E+00         0.00000E+00
    0.20807E-06         0.00000E+00         0.00000E+00
    0.20807E-06         0.00000E+00         0.00000E+00
    0.20807E-06         0.00000E+00         0.00000E+00
    0.20807E-06         0.00000E+00         0.00000E+00
    0.20807E-06         0.00000E+00         0.00000E+00
    0.20807E-06         0.00000E+00         0.00000E+00
    0.20807E-06        -0.65193E-20         0.00000E+00
    0.20807E-06        -0.55879E-20         0.00000E+00
    0.20807E-06         0.55879E-20         0.00000E+00
    0.20807E-06         0.55879E-20         0.00000E+00
    0.20807E-06         0.00000E+00         0.00000E+00
    0.20807E-06         0.00000E+00         0.00000E+00
    0.20807E-06         0.00000E+00         0.00000E+00
    0.20807E-06         0.00000E+00         0.00000E+00
    0.20807E-06         0.55879E-20         0.00000E+00
    0.20807E-06         0.93132E-21         0.00000E+00
    0.20807E-06         0.00000E+00         0.00000E+00
    0.20807E-06         0.11176E-19         0.00000E+00
CELL_DATA       5000
TENSORS stressef double 
    0.25800E+04         0.16778E+01         0.00000E+00
    0.16778E+01        -0.82369E-01         0.00000E+00
    0.00000E+00         0.00000E+00         0.00000E+00
 
    0.25922E+04         0.53046E+01         0.00000E+00
    0.53046E+01         0.13351E+01         0.00000E+00
    0.00000E+00         0.00000E+00         0.00000E+00
 
    0.26016E+04         0.89604E+01         0.00000E+00
    0.89604E+01         0.42076E+01         0.00000E+00
    0.00000E+00         0.00000E+00         0.00000E+00
 
    0.26080E+04         0.12634E+02         0.00000E+00
    0.12634E+02         0.85448E+01         0.00000E+00
    0.00000E+00         0.00000E+00         0.00000E+00
 
    0.26115E+04         0.16319E+02         0.00000E+00
    0.16319E+02         0.14353E+02         0.00000E+00
    0.00000E+00         0.00000E+00         0.00000E+00
 
    0.26122E+04         0.20008E+02         0.00000E+00
    0.20008E+02         0.21635E+02         0.00000E+00
    0.00000E+00         0.00000E+00         0.00000E+00
 
    0.26098E+04         0.23696E+02         0.00000E+00
    0.23696E+02         0.30393E+02         0.00000E+00
    0.00000E+00         0.00000E+00         0.00000E+00
 
    0.26046E+04         0.27378E+02         0.00000E+00
    0.27378E+02         0.40626E+02         0.00000E+00
    0.00000E+00         0.00000E+00         0.00000E+00
 
    0.25964E+04         0.31051E+02         0.00000E+00
    0.31051E+02         0.52331E+02         0.00000E+00
    0.00000E+00         0.00000E+00         0.00000E+00
 
    0.25852E+04         0.34709E+02         0.00000E+00
    0.34709E+02         0.65502E+02         0.00000E+00
    0.00000E+00         0.00000E+00         0.00000E+00
 
    0.25712E+04         0.38349E+02         0.00000E+00
    0.38349E+02         0.80135E+02         0.00000E+00
    0.00000E+00         0.00000E+00         0.00000E+00
 
    0.25542E+04         0.41965E+02         0.00000E+00
    0.41965E+02         0.96219E+02         0.00000E+00
    0.00000E+00         0.00000E+00         0.00000E+00
 
    0.25343E+04         0.45555E+02         0.00000E+00
    0.45555E+02         0.11375E+03         0.00000E+00
    0.00000E+00         0.00000E+00         0.00000E+00
 
    0.25114E+04         0.49114E+02         0.00000E+00
    0.49114E+02         0.13271E+03         0.00000E+00
    0.00000E+00         0.00000E+00         0.00000E+00
 
    0.24857E+04         0.52638E+02         0.00000E+00
    0.52638E+02         0.15308E+03         0.00000E+00
    0.00000E+00         0.00000E+00         0.00000E+00
 
    0.24571E+04         0.56122E+02         0.00000E+00
    0.56122E+02         0.17486E+03         0.00000E+00
    0.00000E+00         0.00000E+00         0.00000E+00
 
    0.24257E+04         0.59564E+02         0.00000E+00
    0.59564E+02         0.19803E+03         0.00000E+00
    0.00000E+00         0.00000E+00         0.00000E+00
 
    0.23914E+04         0.62959E+02         0.00000E+00
    0.62959E+02         0.22256E+03         0.00000E+00
    0.00000E+00         0.00000E+00         0.00000E+00
 
    0.23543E+04         0.66302E+02         0.00000E+00
    0.66302E+02         0.24845E+03         0.00000E+00
    0.00000E+00         0.00000E+00         0.00000E+00
 
    0.23145E+04         0.69591E+02         0.00000E+00
    0.69591E+02         0.27566E+03         0.00000E+00
    0.00000E+00         0.00000E+00         0.00000E+00
 
    0.22719E+04         0.72822E+02         0.00000E+00
    0.72822E+02         0.30418E+03         0.00000E+00
    0.00000E+00         0.00000E+00         0.00000E+00
 
    0.22265E+04         0.75990E+02         0.00000E+00
    0.75990E+02         0.33397E+03         0.00000E+00
    0.00000E+00         0.00000E+00         0.00000E+00
 
    0.21785E+04         0.79092E+02         0.00000E+00
    0.79092E+02         0.36503E+03         0.00000E+00
    0.00000E+00         0.00000E+00         0.00000E+00
 
    0.21278E+04         0.82124E+02         0.00000E+00
    0.82124E+02         0.39731E+03         0.00000E+00
    0.00000E+00         0.00000E+00         0.00000E+00
 
    0.20746E+04         0.85083E+02         0.00000E+00
    0.85083E+02         0.43079E+03         0.00000E+00
    0.00000E+00         0.00000E+00         0.00000E+00
 
    0.20187E+04         0.87965E+02         0.00000E+00
    0.87965E+02         0.46544E+03         0.00000E+00
    0.00000E+00         0.00000E+00         0.00000E+00
 
    0.19604E+04         0.90767E+02         0.00000E+00
    0.90767E+02         0.50123E+03         0.00000E+00
    0.00000E+00         0.00000E+00         0.00000E+00
 
    0.18995E+04         0.93485E+02         0.00000E+00
    0.93485E+02         0.53813E+03         0.00000E+00
    0.00000E+00         0.00000E+00         0.00000E+00
 
    0.18363E+04         0.96116E+02         0.00000E+00
    0.96116E+02         0.57609E+03         0.00000E+00
    0.00000E+00         0.00000E+00         0.00000E+00
 
    0.17706E+04         0.98656E+02         0.00000E+00
    0.98656E+02         0.61509E+03         0.00000E+00
    0.00000E+00         0.00000E+00         0.00000E+00
 
    0.17026E+04         0.10110E+03         0.00000E+00
    0.10110E+03         0.65509E+03         0.00000E+00
    0.00000E+00         0.00000E+00         0.00000E+00
 
    0.16324E+04         0.10345E+03         0.00000E+00
    0.10345E+03         0.69605E+03         0.00000E+00
    0.00000E+00         0.00000E+00         0.00000E+00
 
    0.15599E+04         0.10570E+03         0.00000E+00
    0.10570E+03         0.73793E+03         0.00000E+00
    0.00000E+00         0.00000E+00         0.00000E+00
 
    0.14853E+04         0.10785E+03         0.00000E+00
    0.10785E+03         0.78070E+03         0.00000E+00
    0.00000E+00         0.00000E+00         0.00000E+00
 
    0.14085E+04         0.10989E+03         0.00000E+00
    0.10989E+03         0.82430E+03         0.00000E+00
    0.00000E+00         0.00000E+00         0.00000E+00
 
    0.13297E+04         0.11183E+03         0.00000E+00
    0.11183E+03         0.86869E+03         0.00000E+00
    0.00000E+00         0.00000E+00         0.00000E+00
 
    0.12490E+04         0.11365E+03         0.00000E+00
    0.11365E+03         0.91384E+03         0.00000E+00
    0.00000E+00         0.00000E+00         0.00000E+00
 
    0.11663E+04         0.11536E+03         0.00000E+00
    0.11536E+03         0.95970E+03         0.00000E+00
    0.00000E+00         0.00000E+00         0.00000E+00
 
    0.10818E+04         0.11695E+03         0.00000E+00
    0.11695E+03         0.10062E+04         0.00000E+00
    0.00000E+00         0.00000E+00         0.00000E+00
 
    0.99547E+03         0.11842E+03         0.00000E+00
    0.11842E+03         0.10533E+04         0.00000E+00
    0.00000E+00         0.00000E+00         0.00000E+00
 
    0.90745E+03         0.11978E+03         0.00000E+00
    0.11978E+03         0.11010E+04         0.00000E+00
    0.00000E+00         0.00000E+00         0.00000E+00
 
    0.81779E+03         0.12101E+03         0.00000E+00
    0.12101E+03         0.11493E+04         0.00000E+00
    0.00000E+00         0.00000E+00         0.00000E+00
 
    0.72657E+03         0.12212E+03         0.00000E+00
    0.12212E+03         0.11979E+04         0.00000E+00
    0.00000E+00         0.00000E+00         0.00000E+00
 
    0.63385E+03         0.12310E+03         0.00000E+00
    0.12310E+03         0.12470E+04         0.00000E+00
    0.00000E+00         0.00000E+00         0.00000E+00
 
    0.53971E+03         0.12395E+03         0.00000E+00
    0.12395E+03         0.12965E+04         0.00000E+00
    0.00000E+00         0.00000E+00         0.00000E+00
 
    0.44422E+03         0.12468E+03         0.00000E+00
    0.12468E+03         0.13463E+04         0.00000E+00
    0.00000E+00         0.00000E+00         0.00000E+00
 
    0.34747E+03         0.12527E+03         0.00000E+00
    0.12527E+03         0.13963E+04         0.00000E+00
    0.00000E+00         0.00000E+00         0.00000E+00
 
    0.24951E+03         0.12574E+03         0.00000E+00
    0.12574E+03         0.14466E+04         0.00000E+00
    0.00000E+00         0.00000E+00         0.00000E+00
 
    0.15044E+03         0.12609E+03         0.00000E+00
    0.12609E+03         0.14970E+04         0.00000E+00
    0.00000E+00         0.00000E+00         0.00000E+00
 
    0.50315E+02         0.12632E+03         0.00000E+00
    0.12632E+03         0.15475E+04         0.00000E+00
    0.00000E+00         0.00000E+00         0.00000E+00
 
    0.26152E+04         0.53397E+01         0.00000E+00
    0.53397E+01        -0.92301E+00         0.00000E+00
    0.00000E+00         0.00000E+00         0.00000E+00
 
    0.26277E+04         0.16253E+02         0.00000E+00
    0.16253E+02         0.56304E+00         0.00000E+00
    0.00000E+00         0.00000E+00         0.00000E+00
 
    0.26373E+04         0.27241E+02         0.00000E+00
    0.27241E+02         0.35289E+01         0.00000E+00
    0.00000E+00         0.00000E+00         0.00000E+00
 
    0.26439E+04         0.38282E+02         0.00000E+00
    0.38282E+02         0.79792E+01         0.00000E+00
    0.00000E+00         0.00000E+00         0.00000E+00
 
    0.26475E+04         0.49358E+02         0.00000E+00
    0.49358E+02         0.13918E+02         0.00000E+00
    0.00000E+00         0.00000E+00         0.00000E+00
 
    0.26482E+04         0.60451E+02         0.00000E+00
    0.60451E+02         0.21347E+02         0.00000E+00
    0.00000E+00         0.00000E+00         0.00000E+00
 
    0.26459E+04         0.71546E+02         0.00000E+00
    0.71546E+02         0.30269E+02         0.00000E+00
    0.00000E+00         0.00000E+00         0.00000E+00
 
    0.26405E+04         0.82627E+02         0.00000E+00
    0.82627E+02         0.40681E+02         0.00000E+00
    0.00000E+00         0.00000E+00         0.00000E+00
 
    0.26322E+04         0.93682E+02         0.00000E+00
    0.93682E+02         0.52582E+02         0.00000E+00
    0.00000E+00         0.00000E+00         0.00000E+00
 
    0.26209E+04         0.10470E+03         0.00000E+00
    0.10470E+03         0.65968E+02         0.00000E+00
    0.00000E+00         0.00000E+00         0.00000E+00
 
    0.26067E+04         0.11565E+03         0.00000E+00
    0.11565E+03         0.80831E+02         0.00000E+00
    0.00000E+00         0.00000E+00         0.00000E+00
 
    0.25894E+04         0.12655E+03         0.00000E+00
    0.12655E+03         0.97165E+02         0.00000E+00
    0.00000E+00         0.00000E+00         0.00000E+00
 
    0.25692E+04         0.13736E+03         0.00000E+00
    0.13736E+03         0.11496E+03         0.00000E+00
    0.00000E+00         0.00000E+00         0.00000E+00
 
    0.25461E+04         0.14808E+03         0.00000E+00
    0.14808E+03         0.13420E+03         0.00000E+00
    0.00000E+00         0.00000E+00         0.00000E+00
 
    0.25200E+04         0.15869E+03         0.00000E+00
    0.15869E+03         0.15488E+03         0.00000E+00
    0.00000E+00         0.00000E+00         0.00000E+00
 
    0.24910E+04         0.16919E+03         0.00000E+00
    0.16919E+03         0.17698E+03         0.00000E+00
    0.00000E+00         0.00000E+00         0.00000E+00
 
    0.24591E+04         0.17956E+03         0.00000E+00
    0.17956E+03         0.20049E+03         0.00000E+00
    0.00000E+00         0.00000E+00         0.00000E+00
 
    0.24243E+04         0.18979E+03         0.00000E+00
    0.18979E+03         0.22538E+03         0.00000E+00
    0.00000E+00         0.00000E+00         0.00000E+00
 
    0.23867E+04         0.19986E+03         0.00000E+00
    0.19986E+03         0.25163E+03         0.00000E+00
    0.00000E+00         0.00000E+00         0.00000E+00
 
    0.23463E+04         0.20977E+03         0.00000E+00
    0.20977E+03         0.27924E+03         0.00000E+00
    0.00000E+00         0.00000E+00         0.00000E+00
 
    0.23030E+04         0.21951E+03         0.00000E+00
    0.21951E+03         0.30816E+03         0.00000E+00
    0.00000E+00         0.00000E+00         0.00000E+00
 
    0.22571E+04         0.22905E+03         0.00000E+00
    0.22905E+03         0.33839E+03         0.00000E+00
    0.00000E+00         0.00000E+00         0.00000E+00
 
    0.22084E+04         0.23840E+03         0.00000E+00
    0.23840E+03         0.36988E+03         0.00000E+00
    0.00000E+00         0.00000E+00         0.00000E+00
 
    0.21570E+04         0.24754E+03         0.00000E+00
    0.24754E+03         0.40263E+03         0.00000E+00
    0.00000E+00         0.00000E+00         0.00000E+00
 
    0.21030E+04         0.25646E+03         0.00000E+00
    0.25646E+03         0.43658E+03         0.00000E+00
    0.00000E+00         0.00000E+00         0.00000E+00
 
    0.20464E+04         0.26514E+03         0.00000E+00
    0.26514E+03         0.47172E+03         0.00000E+00
    0.00000E+00         0.00000E+00         0.00000E+00
 
    0.19872E+04         0.27358E+03         0.00000E+00
    0.27358E+03         0.50802E+03         0.00000E+00
    0.00000E+00         0.00000E+00         0.00000E+00
 
    0.19255E+04         0.28177E+03         0.00000E+00
    0.28177E+03         0.54543E+03         0.00000E+00
    0.00000E+00         0.00000E+00         0.00000E+00
 
    0.18613E+04         0.28970E+03         0.00000E+00
    0.28970E+03         0.58394E+03         0.00000E+00
    0.00000E+00         0.00000E+00         0.00000E+00
 
    0.17947E+04         0.29736E+03         0.00000E+00
    0.29736E+03         0.62349E+03         0.00000E+00
    0.00000E+00         0.00000E+00         0.00000E+00
 
    0.17258E+04         0.30473E+03         0.00000E+00
    0.30473E+03         0.66405E+03         0.00000E+00
    0.00000E+00         0.00000E+00         0.00000E+00
 
    0.16546E+04         0.31181E+03         0.00000E+00
    0.31181E+03         0.70558E+03         0.00000E+00
    0.00000E+00         0.00000E+00         0.00000E+00
 
    0.15811E+04         0.31859E+03         0.00000E+00
    0.31859E+03         0.74805E+03         0.00000E+00
    0.00000E+00         0.00000E+00         0.00000E+00
 
    0.15054E+04         0.32506E+03         0.00000E+00
    0.32506E+03         0.79141E+03         0.00000E+00
    0.00000E+00         0.00000E+00         0.00000E+00
 
    0.14276E+04         0.33122E+03         0.00000E+00
    0.33122E+03         0.83563E+03         0.00000E+00
    0.00000E+00         0.00000E+00         0.00000E+00
 
    0.13477E+04         0.33704E+03         0.00000E+00
    0.33704E+03         0.88064E+03         0.00000E+00
    0.00000E+00         0.00000E+00         0.00000E+00
 
    0.12658E+04         0.34254E+03         0.00000E+00
    0.34254E+03         0.92642E+03         0.00000E+00
    0.00000E+00         0.00000E+00         0.00000E+00
 
    0.11820E+04         0.34768E+03         0.00000E+00
    0.34768E+03         0.97292E+03         0.00000E+00
    0.00000E+00         0.00000E+00         0.00000E+00
 
    0.10963E+04         0.35248E+03         0.00000E+00
    0.35248E+03         0.10201E+04         0.00000E+00
    0.00000E+00         0.00000E+00         0.00000E+00
 
    0.10088E+04         0.35693E+03         0.00000E+00
    0.35693E+03         0.10679E+04         0.00000E+00
    0.00000E+00         0.00000E+00         0.00000E+00
 
    0.91953E+03         0.36100E+03         0.00000E+00
    0.36100E+03         0.11162E+04         0.00000E+00
    0.00000E+00         0.00000E+00         0.00000E+00
 
    0.82863E+03         0.36471E+03         0.00000E+00
    0.36471E+03         0.11651E+04         0.00000E+00
    0.00000E+00         0.00000E+00         0.00000E+00
 
    0.73615E+03         0.36804E+03         0.00000E+00
    0.36804E+03         0.12145E+04         0.00000E+00
    0.00000E+00         0.00000E+00         0.00000E+00
 
    0.64216E+03         0.37099E+03         0.00000E+00
    0.37099E+03         0.12643E+04         0.00000E+00
    0.00000E+00         0.00000E+00         0.00000E+00
 
    0.54673E+03         0.37356E+03         0.00000E+00
    0.37356E+03         0.13144E+04         0.00000E+00
    0.00000E+00         0.00000E+00         0.00000E+00
 
    0.44995E+03         0.37573E+03         0.00000E+00
    0.37573E+03         0.13649E+04         0.00000E+00
    0.00000E+00         0.00000E+00         0.00000E+00
 
    0.35189E+03         0.37752E+03         0.00000E+00
    0.37752E+03         0.14156E+04         0.00000E+00
    0.00000E+00         0.00000E+00         0.00000E+00
 
    0.25265E+03         0.37890E+03         0.00000E+00
    0.37890E+03         0.14665E+04         0.00000E+00
    0.00000E+00         0.00000E+00         0.00000E+00
 
    0.15229E+03         0.37989E+03         0.00000E+00
    0.37989E+03         0.15176E+04         0.00000E+00
    0.00000E+00         0.00000E+00         0.00000E+00
 
    0.50925E+02         0.38049E+03         0.00000E+00
    0.38049E+03         0.15688E+04         0.00000E+00
    0.00000E+00         0.00000E+00         0.00000E+00
 
    0.26874E+04         0.90707E+01         0.00000E+00
    0.90707E+01        -0.18401E+01         0.00000E+00
    0.00000E+00         0.00000E+00         0.00000E+00
 
    0.27003E+04         0.27515E+02         0.00000E+00
    0.27515E+02        -0.32094E+00         0.00000E+00
    0.00000E+00         0.00000E+00         0.00000E+00
 
    0.27102E+04         0.46043E+02         0.00000E+00
    0.46043E+02         0.27310E+01         0.00000E+00
    0.00000E+00         0.00000E+00         0.00000E+00
 
    0.27171E+04         0.64635E+02         0.00000E+00
    0.64635E+02         0.73178E+01         0.00000E+00
    0.00000E+00         0.00000E+00         0.00000E+00
 
    0.27209E+04         0.83269E+02         0.00000E+00
    0.83269E+02         0.13441E+02         0.00000E+00
    0.00000E+00         0.00000E+00         0.00000E+00
 
    0.27216E+04         0.10192E+03         0.00000E+00
    0.10192E+03         0.21101E+02         0.00000E+00
    0.00000E+00         0.00000E+00         0.00000E+00
 
    0.27192E+04         0.12058E+03         0.00000E+00
    0.12058E+03         0.30297E+02         0.00000E+00
    0.00000E+00         0.00000E+00         0.00000E+00
 
    0.27137E+04         0.13920E+03         0.00000E+00
    0.13920E+03         0.41026E+02         0.00000E+00
    0.00000E+00         0.00000E+00         0.00000E+00
 
    0.27052E+04         0.15778E+03         0.00000E+00
    0.15778E+03         0.53287E+02         0.00000E+00
    0.00000E+00         0.00000E+00         0.00000E+00
 
    0.26936E+04         0.17630E+03         0.00000E+00
    0.17630E+03         0.67072E+02         0.00000E+00
    0.00000E+00         0.00000E+00         0.00000E+00
 
    0.26789E+04         0.19472E+03         0.00000E+00
    0.19472E+03         0.82375E+02         0.00000E+00
    0.00000E+00         0.00000E+00         0.00000E+00
 
    0.26612E+04         0.21303E+03         0.00000E+00
    0.21303E+03         0.99189E+02         0.00000E+00
    0.00000E+00         0.00000E+00         0.00000E+00
 
    0.26404E+04         0.23121E+03         0.00000E+00
    0.23121E+03         0.11750E+03         0.00000E+00
    0.00000E+00         0.00000E+00         0.00000E+00
 
    0.26166E+04         0.24923E+03         0.00000E+00
    0.24923E+03         0.13730E+03         0.00000E+00
    0.00000E+00         0.00000E+00         0.00000E+00
 
    0.25897E+04         0.26707E+03         0.00000E+00
    0.26707E+03         0.15858E+03         0.00000E+00
    0.00000E+00         0.00000E+00         0.00000E+00
 
    0.25599E+04         0.28472E+03         0.00000E+00
    0.28472E+03         0.18131E+03         0.00000E+00
    0.00000E+00         0.00000E+00         0.00000E+00
 
    0.25271E+04         0.30216E+03         0.00000E+00
    0.30216E+03         0.20549E+03         0.00000E+00
    0.00000E+00         0.00000E+00         0.00000E+00
 
    0.24914E+04         0.31935E+03         0.00000E+00
    0.31935E+03         0.23109E+03         0.00000E+00
    0.00000E+00         0.00000E+00         0.00000E+00
 
    0.24527E+04         0.33629E+03         0.00000E+00
    0.33629E+03         0.25810E+03         0.00000E+00
    0.00000E+00         0.00000E+00         0.00000E+00
 
    0.24111E+04         0.35296E+03         0.00000E+00
    0.35296E+03         0.28648E+03         0.00000E+00
    0.00000E+00         0.00000E+00         0.00000E+00
 
    0.23667E+04         0.36933E+03         0.00000E+00
    0.36933E+03         0.31623E+03         0.00000E+00
    0.00000E+00         0.00000E+00         0.00000E+00
 
    0.23194E+04         0.38538E+03         0.00000E+00
    0.38538E+03         0.34730E+03         0.00000E+00
    0.00000E+00         0.00000E+00         0.00000E+00
 
    0.22694E+04         0.40110E+03         0.00000E+00
    0.40110E+03         0.37969E+03         0.00000E+00
    0.00000E+00         0.00000E+00         0.00000E+00
 
    0.22165E+04         0.41646E+03         0.00000E+00
    0.41646E+03         0.41335E+03         0.00000E+00
    0.00000E+00         0.00000E+00         0.00000E+00
 
    0.21610E+04         0.43146E+03         0.00000E+00
    0.43146E+03         0.44826E+03         0.00000E+00
    0.00000E+00         0.00000E+00         0.00000E+00
 
    0.21028E+04         0.44606E+03         0.00000E+00
    0.44606E+03         0.48439E+03         0.00000E+00
    0.00000E+00         0.00000E+00         0.00000E+00
 
    0.20419E+04         0.46026E+03         0.00000E+00
    0.46026E+03         0.52170E+03         0.00000E+00
    0.00000E+00         0.00000E+00         0.00000E+00
 
    0.19785E+04         0.47403E+03         0.00000E+00
    0.47403E+03         0.56016E+03         0.00000E+00
    0.00000E+00         0.00000E+00         0.00000E+00
 
    0.19126E+04         0.48737E+03         0.00000E+00
    0.48737E+03         0.59974E+03         0.00000E+00
    0.00000E+00         0.00000E+00         0.00000E+00
 
    0.18441E+04         0.50024E+03         0.00000E+00
    0.50024E+03         0.64039E+03         0.00000E+00
    0.00000E+00         0.00000E+00         0.00000E+00
 
    0.17733E+04         0.51264E+03         0.00000E+00
    0.51264E+03         0.68208E+03         0.00000E+00
    0.00000E+00         0.00000E+00         0.00000E+00
 
    0.17001E+04         0.52455E+03         0.00000E+00
    0.52455E+03         0.72478E+03         0.00000E+00
    0.00000E+00         0.00000E+00         0.00000E+00
 
    0.16245E+04         0.53595E+03         0.00000E+00
    0.53595E+03         0.76843E+03         0.00000E+00
    0.00000E+00         0.00000E+00         0.00000E+00
 
    0.15467E+04         0.54684E+03         0.00000E+00
    0.54684E+03         0.81300E+03         0.00000E+00
    0.00000E+00         0.00000E+00         0.00000E+00
 
    0.14668E+04         0.55718E+03         0.00000E+00
    0.55718E+03         0.85844E+03         0.00000E+00
    0.00000E+00         0.00000E+00         0.00000E+00
 
    0.13847E+04         0.56698E+03         0.00000E+00
    0.56698E+03         0.90471E+03         0.00000E+00
    0.00000E+00         0.00000E+00         0.00000E+00
 
    0.13005E+04         0.57621E+03         0.00000E+00
    0.57621E+03         0.95176E+03         0.00000E+00
    0.00000E+00         0.00000E+00         0.00000E+00
 
    0.12143E+04         0.58487E+03         0.00000E+00
    0.58487E+03         0.99954E+03         0.00000E+00
    0.00000E+00         0.00000E+00         0.00000E+00
 
    0.11263E+04         0.59294E+03         0.00000E+00
    0.59294E+03         0.10480E+04         0.00000E+00
    0.00000E+00         0.00000E+00         0.00000E+00
 
    0.10364E+04         0.60040E+03         0.00000E+00
    0.60040E+03         0.10971E+04         0.00000E+00
    0.00000E+00         0.00000E+00         0.00000E+00
 
    0.94466E+03         0.60726E+03         0.00000E+00
    0.60726E+03         0.11468E+04         0.00000E+00
    0.00000E+00         0.00000E+00         0.00000E+00
 
    0.85125E+03         0.61348E+03         0.00000E+00
    0.61348E+03         0.11971E+04         0.00000E+00
    0.00000E+00         0.00000E+00         0.00000E+00
 
    0.75623E+03         0.61908E+03         0.00000E+00
    0.61908E+03         0.12478E+04         0.00000E+00
    0.00000E+00         0.00000E+00         0.00000E+00
 
    0.65966E+03         0.62403E+03         0.00000E+00
    0.62403E+03         0.12989E+04         0.00000E+00
    0.00000E+00         0.00000E+00         0.00000E+00
 
    0.56162E+03         0.62832E+03         0.00000E+00
    0.62832E+03         0.13505E+04         0.00000E+00
    0.00000E+00         0.00000E+00         0.00000E+00
 
    0.46219E+03         0.63195E+03         0.00000E+00
    0.63195E+03         0.14023E+04         0.00000E+00
    0.00000E+00         0.00000E+00         0.00000E+00
 
    0.36146E+03         0.63491E+03         0.00000E+00
    0.63491E+03         0.14544E+04         0.00000E+00
    0.00000E+00         0.00000E+00         0.00000E+00
 
    0.25952E+03         0.63719E+03         0.00000E+00
    0.63719E+03         0.15068E+04         0.00000E+00
    0.00000E+00         0.00000E+00         0.00000E+00
 
    0.15644E+03         0.63879E+03         0.00000E+00
    0.63879E+03         0.15592E+04         0.00000E+00
    0.00000E+00         0.00000E+00         0.00000E+00
 
    0.52313E+02         0.63968E+03         0.00000E+00
    0.63968E+03         0.16118E+04         0.00000E+00
    0.00000E+00         0.00000E+00         0.00000E+00
 
    0.27977E+04         0.12917E+02         0.00000E+00
    0.12917E+02        -0.28273E+01         0.00000E+00
    0.00000E+00         0.00000E+00         0.00000E+00
 
    0.28112E+04         0.39155E+02         0.00000E+00
    0.39155E+02        -0.12458E+01         0.00000E+00
    0.00000E+00         0.00000E+00         0.00000E+00
 
    0.28215E+04         0.65502E+02         0.00000E+00
    0.65502E+02         0.19301E+01         0.00000E+00
    0.00000E+00         0.00000E+00         0.00000E+00
 
    0.28286E+04         0.91928E+02         0.00000E+00
    0.91928E+02         0.67052E+01         0.00000E+00
    0.00000E+00         0.00000E+00         0.00000E+00
 
    0.28326E+04         0.11840E+03         0.00000E+00
    0.11840E+03         0.13082E+02         0.00000E+00
    0.00000E+00         0.00000E+00         0.00000E+00
 
    0.28333E+04         0.14490E+03         0.00000E+00
    0.14490E+03         0.21062E+02         0.00000E+00
    0.00000E+00         0.00000E+00         0.00000E+00
 
    0.28308E+04         0.17138E+03         0.00000E+00
    0.17138E+03         0.30643E+02         0.00000E+00
    0.00000E+00         0.00000E+00         0.00000E+00
 
    0.28251E+04         0.19783E+03         0.00000E+00
    0.19783E+03         0.41824E+02         0.00000E+00
    0.00000E+00         0.00000E+00         0.00000E+00
 
    0.28162E+04         0.22420E+03         0.00000E+00
    0.22420E+03         0.54600E+02         0.00000E+00
    0.00000E+00         0.00000E+00         0.00000E+00
 
    0.28041E+04         0.25048E+03         0.00000E+00
    0.25048E+03         0.68966E+02         0.00000E+00
    0.00000E+00         0.00000E+00         0.00000E+00
 
    0.27888E+04         0.27662E+03         0.00000E+00
    0.27662E+03         0.84913E+02         0.00000E+00
    0.00000E+00         0.00000E+00         0.00000E+00
 
    0.27704E+04         0.30260E+03         0.00000E+00
    0.30260E+03         0.10243E+03         0.00000E+00
    0.00000E+00         0.00000E+00         0.00000E+00
 
    0.27487E+04         0.32839E+03         0.00000E+00
    0.32839E+03         0.12151E+03         0.00000E+00
    0.00000E+00         0.00000E+00         0.00000E+00
 
    0.27239E+04         0.35397E+03         0.00000E+00
    0.35397E+03         0.14215E+03         0.00000E+00
    0.00000E+00         0.00000E+00         0.00000E+00
 
    0.26960E+04         0.37929E+03         0.00000E+00
    0.37929E+03         0.16431E+03         0.00000E+00
    0.00000E+00         0.00000E+00         0.00000E+00
 
    0.26649E+04         0.40433E+03         0.00000E+00
    0.40433E+03         0.18800E+03         0.00000E+00
    0.00000E+00         0.00000E+00         0.00000E+00
 
    0.26307E+04         0.42907E+03         0.00000E+00
    0.42907E+03         0.21318E+03         0.00000E+00
    0.00000E+00         0.00000E+00         0.00000E+00
 
    0.25935E+04         0.45347E+03         0.00000E+00
    0.45347E+03         0.23985E+03         0.00000E+00
    0.00000E+00         0.00000E+00         0.00000E+00
 
    0.25532E+04         0.47751E+03         0.00000E+00
    0.47751E+03         0.26797E+03         0.00000E+00
    0.00000E+00         0.00000E+00         0.00000E+00
 
    0.25099E+04         0.50115E+03         0.00000E+00
    0.50115E+03         0.29754E+03         0.00000E+00
    0.00000E+00         0.00000E+00         0.00000E+00
 
    0.24636E+04         0.52438E+03         0.00000E+00
    0.52438E+03         0.32852E+03         0.00000E+00
    0.00000E+00         0.00000E+00         0.00000E+00
 
    0.24144E+04         0.54716E+03         0.00000E+00
    0.54716E+03         0.36088E+03         0.00000E+00
    0.00000E+00         0.00000E+00         0.00000E+00
 
    0.23622E+04         0.56946E+03         0.00000E+00
    0.56946E+03         0.39460E+03         0.00000E+00
    0.00000E+00         0.00000E+00         0.00000E+00
 
    0.23072E+04         0.59126E+03         0.00000E+00
    0.59126E+03         0.42965E+03         0.00000E+00
    0.00000E+00         0.00000E+00         0.00000E+00
 
    0.22494E+04         0.61254E+03         0.00000E+00
    0.61254E+03         0.46601E+03         0.00000E+00
    0.00000E+00         0.00000E+00         0.00000E+00
 
    0.21888E+04         0.63327E+03         0.00000E+00
    0.63327E+03         0.50362E+03         0.00000E+00
    0.00000E+00         0.00000E+00         0.00000E+00
 
    0.21254E+04         0.65341E+03         0.00000E+00
    0.65341E+03         0.54247E+03         0.00000E+00
    0.00000E+00         0.00000E+00         0.00000E+00
 
    0.20594E+04         0.67296E+03         0.00000E+00
    0.67296E+03         0.58252E+03         0.00000E+00
    0.00000E+00         0.00000E+00         0.00000E+00
 
    0.19907E+04         0.69187E+03         0.00000E+00
    0.69187E+03         0.62372E+03         0.00000E+00
    0.00000E+00         0.00000E+00         0.00000E+00
 
    0.19195E+04         0.71014E+03         0.00000E+00
    0.71014E+03         0.66605E+03         0.00000E+00
    0.00000E+00         0.00000E+00         0.00000E+00
 
    0.18457E+04         0.72774E+03         0.00000E+00
    0.72774E+03         0.70946E+03         0.00000E+00
    0.00000E+00         0.00000E+00         0.00000E+00
 
    0.17695E+04         0.74464E+03         0.00000E+00
    0.74464E+03         0.75390E+03         0.00000E+00
    0.00000E+00         0.00000E+00         0.00000E+00
 
    0.16908E+04         0.76082E+03         0.00000E+00
    0.76082E+03         0.79934E+03         0.00000E+00
    0.00000E+00         0.00000E+00         0.00000E+00
 
    0.16098E+04         0.77626E+03         0.00000E+00
    0.77626E+03         0.84574E+03         0.00000E+00
    0.00000E+00         0.00000E+00         0.00000E+00
 
    0.15266E+04         0.79094E+03         0.00000E+00
    0.79094E+03         0.89304E+03         0.00000E+00
    0.00000E+00         0.00000E+00         0.00000E+00
 
    0.14411E+04         0.80484E+03         0.00000E+00
    0.80484E+03         0.94121E+03         0.00000E+00
    0.00000E+00         0.00000E+00         0.00000E+00
 
    0.13535E+04         0.81793E+03         0.00000E+00
    0.81793E+03         0.99019E+03         0.00000E+00
    0.00000E+00         0.00000E+00         0.00000E+00
 
    0.12638E+04         0.83021E+03         0.00000E+00
    0.83021E+03         0.10399E+04         0.00000E+00
    0.00000E+00         0.00000E+00         0.00000E+00
 
    0.11722E+04         0.84166E+03         0.00000E+00
    0.84166E+03         0.10904E+04         0.00000E+00
    0.00000E+00         0.00000E+00         0.00000E+00
 
    0.10786E+04         0.85224E+03         0.00000E+00
    0.85224E+03         0.11415E+04         0.00000E+00
    0.00000E+00         0.00000E+00         0.00000E+00
 
    0.98312E+03         0.86196E+03         0.00000E+00
    0.86196E+03         0.11932E+04         0.00000E+00
    0.00000E+00         0.00000E+00         0.00000E+00
 
    0.88591E+03         0.87078E+03         0.00000E+00
    0.87078E+03         0.12455E+04         0.00000E+00
    0.00000E+00         0.00000E+00         0.00000E+00
 
    0.78701E+03         0.87871E+03         0.00000E+00
    0.87871E+03         0.12983E+04         0.00000E+00
    0.00000E+00         0.00000E+00         0.00000E+00
 
    0.68650E+03         0.88571E+03         0.00000E+00
    0.88571E+03         0.13515E+04         0.00000E+00
    0.00000E+00         0.00000E+00         0.00000E+00
 
    0.58447E+03         0.89178E+03         0.00000E+00
    0.89178E+03         0.14052E+04         0.00000E+00
    0.00000E+00         0.00000E+00         0.00000E+00
 
    0.48100E+03         0.89691E+03         0.00000E+00
    0.89691E+03         0.14591E+04         0.00000E+00
    0.00000E+00         0.00000E+00         0.00000E+00
 
    0.37617E+03         0.90107E+03         0.00000E+00
    0.90107E+03         0.15134E+04         0.00000E+00
    0.00000E+00         0.00000E+00         0.00000E+00
 
    0.27008E+03         0.90427E+03         0.00000E+00
    0.90427E+03         0.15678E+04         0.00000E+00
    0.00000E+00         0.00000E+00         0.00000E+00
 
    0.16280E+03         0.90648E+03         0.00000E+00
    0.90648E+03         0.16224E+04         0.00000E+00
    0.00000E+00         0.00000E+00         0.00000E+00
 
    0.54441E+02         0.90771E+03         0.00000E+00
    0.90771E+03         0.16771E+04         0.00000E+00
    0.00000E+00         0.00000E+00         0.00000E+00
 
    0.29476E+04         0.16944E+02         0.00000E+00
    0.16944E+02        -0.39327E+01         0.00000E+00
    0.00000E+00         0.00000E+00         0.00000E+00
 
    0.29618E+04         0.51345E+02         0.00000E+00
    0.51345E+02        -0.22669E+01         0.00000E+00
    0.00000E+00         0.00000E+00         0.00000E+00
 
    0.29727E+04         0.85883E+02         0.00000E+00
    0.85883E+02         0.10791E+01         0.00000E+00
    0.00000E+00         0.00000E+00         0.00000E+00
 
    0.29802E+04         0.12052E+03         0.00000E+00
    0.12052E+03         0.61100E+01         0.00000E+00
    0.00000E+00         0.00000E+00         0.00000E+00
 
    0.29843E+04         0.15521E+03         0.00000E+00
    0.15521E+03         0.12829E+02         0.00000E+00
    0.00000E+00         0.00000E+00         0.00000E+00
 
    0.29850E+04         0.18993E+03         0.00000E+00
    0.18993E+03         0.21237E+02         0.00000E+00
    0.00000E+00         0.00000E+00         0.00000E+00
 
    0.29824E+04         0.22463E+03         0.00000E+00
    0.22463E+03         0.31333E+02         0.00000E+00
    0.00000E+00         0.00000E+00         0.00000E+00
 
    0.29764E+04         0.25927E+03         0.00000E+00
    0.25927E+03         0.43116E+02         0.00000E+00
    0.00000E+00         0.00000E+00         0.00000E+00
 
    0.29670E+04         0.29381E+03         0.00000E+00
    0.29381E+03         0.56580E+02         0.00000E+00
    0.00000E+00         0.00000E+00         0.00000E+00
 
    0.29542E+04         0.32822E+03         0.00000E+00
    0.32822E+03         0.71719E+02         0.00000E+00
    0.00000E+00         0.00000E+00         0.00000E+00
 
    0.29380E+04         0.36245E+03         0.00000E+00
    0.36245E+03         0.88526E+02         0.00000E+00
    0.00000E+00         0.00000E+00         0.00000E+00
 
    0.29186E+04         0.39648E+03         0.00000E+00
    0.39648E+03         0.10699E+03         0.00000E+00
    0.00000E+00         0.00000E+00         0.00000E+00
 
    0.28957E+04         0.43025E+03         0.00000E+00
    0.43025E+03         0.12710E+03         0.00000E+00
    0.00000E+00         0.00000E+00         0.00000E+00
 
    0.28695E+04         0.46373E+03         0.00000E+00
    0.46373E+03         0.14884E+03         0.00000E+00
    0.00000E+00         0.00000E+00         0.00000E+00
 
    0.28401E+04         0.49688E+03         0.00000E+00
    0.49688E+03         0.17220E+03         0.00000E+00
    0.00000E+00         0.00000E+00         0.00000E+00
 
    0.28073E+04         0.52967E+03         0.00000E+00
    0.52967E+03         0.19716E+03         0.00000E+00
    0.00000E+00         0.00000E+00         0.00000E+00
 
    0.27713E+04         0.56206E+03         0.00000E+00
    0.56206E+03         0.22370E+03         0.00000E+00
    0.00000E+00         0.00000E+00         0.00000E+00
 
    0.27320E+04         0.59400E+03         0.00000E+00
    0.59400E+03         0.25180E+03         0.00000E+00
    0.00000E+00         0.00000E+00         0.00000E+00
 
    0.26896E+04         0.62547E+03         0.00000E+00
    0.62547E+03         0.28144E+03         0.00000E+00
    0.00000E+00         0.00000E+00         0.00000E+00
 
    0.26439E+04         0.65642E+03         0.00000E+00
    0.65642E+03         0.31259E+03         0.00000E+00
    0.00000E+00         0.00000E+00         0.00000E+00
 
    0.25951E+04         0.68682E+03         0.00000E+00
    0.68682E+03         0.34523E+03         0.00000E+00
    0.00000E+00         0.00000E+00         0.00000E+00
 
    0.25432E+04         0.71664E+03         0.00000E+00
    0.71664E+03         0.37933E+03         0.00000E+00
    0.00000E+00         0.00000E+00         0.00000E+00
 
    0.24883E+04         0.74584E+03         0.00000E+00
    0.74584E+03         0.41486E+03         0.00000E+00
    0.00000E+00         0.00000E+00         0.00000E+00
 
    0.24303E+04         0.77438E+03         0.00000E+00
    0.77438E+03         0.45179E+03         0.00000E+00
    0.00000E+00         0.00000E+00         0.00000E+00
 
    0.23694E+04         0.80223E+03         0.00000E+00
    0.80223E+03         0.49009E+03         0.00000E+00
    0.00000E+00         0.00000E+00         0.00000E+00
 
    0.23055E+04         0.82936E+03         0.00000E+00
    0.82936E+03         0.52972E+03         0.00000E+00
    0.00000E+00         0.00000E+00         0.00000E+00
 
    0.22387E+04         0.85573E+03         0.00000E+00
    0.85573E+03         0.57065E+03         0.00000E+00
    0.00000E+00         0.00000E+00         0.00000E+00
 
    0.21692E+04         0.88131E+03         0.00000E+00
    0.88131E+03         0.61283E+03         0.00000E+00
    0.00000E+00         0.00000E+00         0.00000E+00
 
    0.20968E+04         0.90608E+03         0.00000E+00
    0.90608E+03         0.65624E+03         0.00000E+00
    0.00000E+00         0.00000E+00         0.00000E+00
 
    0.20217E+04         0.92999E+03         0.00000E+00
    0.92999E+03         0.70083E+03         0.00000E+00
    0.00000E+00         0.00000E+00         0.00000E+00
 
    0.19440E+04         0.95302E+03         0.00000E+00
    0.95302E+03         0.74655E+03         0.00000E+00
    0.00000E+00         0.00000E+00         0.00000E+00
 
    0.18637E+04         0.97514E+03         0.00000E+00
    0.97514E+03         0.79337E+03         0.00000E+00
    0.00000E+00         0.00000E+00         0.00000E+00
 
    0.17809E+04         0.99631E+03         0.00000E+00
    0.99631E+03         0.84123E+03         0.00000E+00
    0.00000E+00         0.00000E+00         0.00000E+00
 
    0.16955E+04         0.10165E+04         0.00000E+00
    0.10165E+04         0.89010E+03         0.00000E+00
    0.00000E+00         0.00000E+00         0.00000E+00
 
    0.16078E+04         0.10357E+04         0.00000E+00
    0.10357E+04         0.93993E+03         0.00000E+00
    0.00000E+00         0.00000E+00         0.00000E+00
 
    0.15178E+04         0.10539E+04         0.00000E+00
    0.10539E+04         0.99065E+03         0.00000E+00
    0.00000E+00         0.00000E+00         0.00000E+00
 
    0.14255E+04         0.10711E+04         0.00000E+00
    0.10711E+04         0.10422E+04         0.00000E+00
    0.00000E+00         0.00000E+00         0.00000E+00
 
    0.13311E+04         0.10871E+04         0.00000E+00
    0.10871E+04         0.10946E+04         0.00000E+00
    0.00000E+00         0.00000E+00         0.00000E+00
 
    0.12345E+04         0.11021E+04         0.00000E+00
    0.11021E+04         0.11478E+04         0.00000E+00
    0.00000E+00         0.00000E+00         0.00000E+00
 
    0.11359E+04         0.11160E+04         0.00000E+00
    0.11160E+04         0.12016E+04         0.00000E+00
    0.00000E+00         0.00000E+00         0.00000E+00
 
    0.10354E+04         0.11287E+04         0.00000E+00
    0.11287E+04         0.12561E+04         0.00000E+00
    0.00000E+00         0.00000E+00         0.00000E+00
 
    0.93302E+03         0.11402E+04         0.00000E+00
    0.11402E+04         0.13111E+04         0.00000E+00
    0.00000E+00         0.00000E+00         0.00000E+00
 
    0.82885E+03         0.11506E+04         0.00000E+00
    0.11506E+04         0.13667E+04         0.00000E+00
    0.00000E+00         0.00000E+00         0.00000E+00
 
    0.72300E+03         0.11597E+04         0.00000E+00
    0.11597E+04         0.14228E+04         0.00000E+00
    0.00000E+00         0.00000E+00         0.00000E+00
 
    0.61554E+03         0.11676E+04         0.00000E+00
    0.11676E+04         0.14793E+04         0.00000E+00
    0.00000E+00         0.00000E+00         0.00000E+00
 
    0.50657E+03         0.11743E+04         0.00000E+00
    0.11743E+04         0.15361E+04         0.00000E+00
    0.00000E+00         0.00000E+00         0.00000E+00
 
    0.39617E+03         0.11798E+04         0.00000E+00
    0.11798E+04         0.15932E+04         0.00000E+00
    0.00000E+00         0.00000E+00         0.00000E+00
 
    0.28443E+03         0.11839E+04         0.00000E+00
    0.11839E+04         0.16506E+04         0.00000E+00
    0.00000E+00         0.00000E+00         0.00000E+00
 
    0.17146E+03         0.11868E+04         0.00000E+00
    0.11868E+04         0.17081E+04         0.00000E+00
    0.00000E+00         0.00000E+00         0.00000E+00
 
    0.57336E+02         0.11883E+04         0.00000E+00
    0.11883E+04         0.17657E+04         0.00000E+00
    0.00000E+00         0.00000E+00         0.00000E+00
 
    0.31393E+04         0.21209E+02         0.00000E+00
    0.21209E+02        -0.51966E+01         0.00000E+00
    0.00000E+00         0.00000E+00         0.00000E+00
 
    0.31543E+04         0.64257E+02         0.00000E+00
    0.64257E+02        -0.34229E+01         0.00000E+00
    0.00000E+00         0.00000E+00         0.00000E+00
 
    0.31658E+04         0.10747E+03         0.00000E+00
    0.10747E+03         0.13973E+00         0.00000E+00
    0.00000E+00         0.00000E+00         0.00000E+00
 
    0.31738E+04         0.15081E+03         0.00000E+00
    0.15081E+03         0.54967E+01         0.00000E+00
    0.00000E+00         0.00000E+00         0.00000E+00
 
    0.31781E+04         0.19421E+03         0.00000E+00
    0.19421E+03         0.12651E+02         0.00000E+00
    0.00000E+00         0.00000E+00         0.00000E+00
 
    0.31788E+04         0.23764E+03         0.00000E+00
    0.23764E+03         0.21605E+02         0.00000E+00
    0.00000E+00         0.00000E+00         0.00000E+00
 
    0.31760E+04         0.28104E+03         0.00000E+00
    0.28104E+03         0.32356E+02         0.00000E+00
    0.00000E+00         0.00000E+00         0.00000E+00
 
    0.31695E+04         0.32436E+03         0.00000E+00
    0.32436E+03         0.44903E+02         0.00000E+00
    0.00000E+00         0.00000E+00         0.00000E+00
 
    0.31595E+04         0.36756E+03         0.00000E+00
    0.36756E+03         0.59241E+02         0.00000E+00
    0.00000E+00         0.00000E+00         0.00000E+00
 
    0.31458E+04         0.41059E+03         0.00000E+00
    0.41059E+03         0.75364E+02         0.00000E+00
    0.00000E+00         0.00000E+00         0.00000E+00
 
    0.31286E+04         0.45340E+03         0.00000E+00
    0.45340E+03         0.93261E+02         0.00000E+00
    0.00000E+00         0.00000E+00         0.00000E+00
 
    0.31078E+04         0.49594E+03         0.00000E+00
    0.49594E+03         0.11292E+03         0.00000E+00
    0.00000E+00         0.00000E+00         0.00000E+00
 
    0.30834E+04         0.53817E+03         0.00000E+00
    0.53817E+03         0.13434E+03         0.00000E+00
    0.00000E+00         0.00000E+00         0.00000E+00
 
    0.30555E+04         0.58003E+03         0.00000E+00
    0.58003E+03         0.15749E+03         0.00000E+00
    0.00000E+00         0.00000E+00         0.00000E+00
 
    0.30241E+04         0.62148E+03         0.00000E+00
    0.62148E+03         0.18237E+03         0.00000E+00
    0.00000E+00         0.00000E+00         0.00000E+00
 
    0.29891E+04         0.66247E+03         0.00000E+00
    0.66247E+03         0.20895E+03         0.00000E+00
    0.00000E+00         0.00000E+00         0.00000E+00
 
    0.29507E+04         0.70295E+03         0.00000E+00
    0.70295E+03         0.23721E+03         0.00000E+00
    0.00000E+00         0.00000E+00         0.00000E+00
 
    0.29089E+04         0.74288E+03         0.00000E+00
    0.74288E+03         0.26713E+03         0.00000E+00
    0.00000E+00         0.00000E+00         0.00000E+00
 
    0.28636E+04         0.78222E+03         0.00000E+00
    0.78222E+03         0.29869E+03         0.00000E+00
    0.00000E+00         0.00000E+00         0.00000E+00
 
    0.28150E+04         0.82091E+03         0.00000E+00
    0.82091E+03         0.33186E+03         0.00000E+00
    0.00000E+00         0.00000E+00         0.00000E+00
 
    0.27630E+04         0.85891E+03         0.00000E+00
    0.85891E+03         0.36662E+03         0.00000E+00
    0.00000E+00         0.00000E+00         0.00000E+00
 
    0.27078E+04         0.89618E+03         0.00000E+00
    0.89618E+03         0.40292E+03         0.00000E+00
    0.00000E+00         0.00000E+00         0.00000E+00
 
    0.26492E+04         0.93268E+03         0.00000E+00
    0.93268E+03         0.44075E+03         0.00000E+00
    0.00000E+00         0.00000E+00         0.00000E+00
 
    0.25875E+04         0.96835E+03         0.00000E+00
    0.96835E+03         0.48008E+03         0.00000E+00
    0.00000E+00         0.00000E+00         0.00000E+00
 
    0.25225E+04         0.10032E+04         0.00000E+00
    0.10032E+04         0.52085E+03         0.00000E+00
    0.00000E+00         0.00000E+00         0.00000E+00
 
    0.24545E+04         0.10371E+04         0.00000E+00
    0.10371E+04         0.56304E+03         0.00000E+00
    0.00000E+00         0.00000E+00         0.00000E+00
 
    0.23834E+04         0.10700E+04         0.00000E+00
    0.10700E+04         0.60662E+03         0.00000E+00
    0.00000E+00         0.00000E+00         0.00000E+00
 
    0.23093E+04         0.11020E+04         0.00000E+00
    0.11020E+04         0.65153E+03         0.00000E+00
    0.00000E+00         0.00000E+00         0.00000E+00
 
    0.22322E+04         0.11329E+04         0.00000E+00
    0.11329E+04         0.69774E+03         0.00000E+00
    0.00000E+00         0.00000E+00         0.00000E+00
 
    0.21523E+04         0.11628E+04         0.00000E+00
    0.11628E+04         0.74520E+03         0.00000E+00
    0.00000E+00         0.00000E+00         0.00000E+00
 
    0.20695E+04         0.11916E+04         0.00000E+00
    0.11916E+04         0.79388E+03         0.00000E+00
    0.00000E+00         0.00000E+00         0.00000E+00
 
    0.19840E+04         0.12193E+04         0.00000E+00
    0.12193E+04         0.84372E+03         0.00000E+00
    0.00000E+00         0.00000E+00         0.00000E+00
 
    0.18958E+04         0.12457E+04         0.00000E+00
    0.12457E+04         0.89467E+03         0.00000E+00
    0.00000E+00         0.00000E+00         0.00000E+00
 
    0.18050E+04         0.12710E+04         0.00000E+00
    0.12710E+04         0.94669E+03         0.00000E+00
    0.00000E+00         0.00000E+00         0.00000E+00
 
    0.17116E+04         0.12950E+04         0.00000E+00
    0.12950E+04         0.99973E+03         0.00000E+00
    0.00000E+00         0.00000E+00         0.00000E+00
 
    0.16157E+04         0.13177E+04         0.00000E+00
    0.13177E+04         0.10537E+04         0.00000E+00
    0.00000E+00         0.00000E+00         0.00000E+00
 
    0.15175E+04         0.13391E+04         0.00000E+00
    0.13391E+04         0.11086E+04         0.00000E+00
    0.00000E+00         0.00000E+00         0.00000E+00
 
    0.14169E+04         0.13592E+04         0.00000E+00
    0.13592E+04         0.11644E+04         0.00000E+00
    0.00000E+00         0.00000E+00         0.00000E+00
 
    0.13141E+04         0.13779E+04         0.00000E+00
    0.13779E+04         0.12210E+04         0.00000E+00
    0.00000E+00         0.00000E+00         0.00000E+00
 
    0.12092E+04         0.13952E+04         0.00000E+00
    0.13952E+04         0.12783E+04         0.00000E+00
    0.00000E+00         0.00000E+00         0.00000E+00
 
    0.11022E+04         0.14111E+04         0.00000E+00
    0.14111E+04         0.13363E+04         0.00000E+00
    0.00000E+00         0.00000E+00         0.00000E+00
 
    0.99318E+03         0.14255E+04         0.00000E+00
    0.14255E+04         0.13949E+04         0.00000E+00
    0.00000E+00         0.00000E+00         0.00000E+00
 
    0.88230E+03         0.14384E+04         0.00000E+00
    0.14384E+04         0.14540E+04         0.00000E+00
    0.00000E+00         0.00000E+00         0.00000E+00
 
    0.76962E+03         0.14498E+04         0.00000E+00
    0.14498E+04         0.15137E+04         0.00000E+00
    0.00000E+00         0.00000E+00         0.00000E+00
 
    0.65523E+03         0.14597E+04         0.00000E+00
    0.14597E+04         0.15738E+04         0.00000E+00
    0.00000E+00         0.00000E+00         0.00000E+00
 
    0.53923E+03         0.14681E+04         0.00000E+00
    0.14681E+04         0.16343E+04         0.00000E+00
    0.00000E+00         0.00000E+00         0.00000E+00
 
    0.42171E+03         0.14748E+04         0.00000E+00
    0.14748E+04         0.16951E+04         0.00000E+00
    0.00000E+00         0.00000E+00         0.00000E+00
 
    0.30277E+03         0.14800E+04         0.00000E+00
    0.14800E+04         0.17561E+04         0.00000E+00
    0.00000E+00         0.00000E+00         0.00000E+00
 
    0.18251E+03         0.14836E+04         0.00000E+00
    0.14836E+04         0.18173E+04         0.00000E+00
    0.00000E+00         0.00000E+00         0.00000E+00
 
    0.61033E+02         0.14855E+04         0.00000E+00
    0.14855E+04         0.18787E+04         0.00000E+00
    0.00000E+00         0.00000E+00         0.00000E+00
 
    0.33753E+04         0.25772E+02         0.00000E+00
    0.25772E+02        -0.66676E+01         0.00000E+00
    0.00000E+00         0.00000E+00         0.00000E+00
 
    0.33914E+04         0.78073E+02         0.00000E+00
    0.78073E+02        -0.47611E+01         0.00000E+00
    0.00000E+00         0.00000E+00         0.00000E+00
 
    0.34037E+04         0.13057E+03         0.00000E+00
    0.13057E+03        -0.93149E+00         0.00000E+00
    0.00000E+00         0.00000E+00         0.00000E+00
 
    0.34121E+04         0.18322E+03         0.00000E+00
    0.18322E+03         0.48268E+01         0.00000E+00
    0.00000E+00         0.00000E+00         0.00000E+00
 
    0.34167E+04         0.23594E+03         0.00000E+00
    0.23594E+03         0.12517E+02         0.00000E+00
    0.00000E+00         0.00000E+00         0.00000E+00
 
    0.34174E+04         0.28869E+03         0.00000E+00
    0.28869E+03         0.22141E+02         0.00000E+00
    0.00000E+00         0.00000E+00         0.00000E+00
 
    0.34143E+04         0.34140E+03         0.00000E+00
    0.34140E+03         0.33698E+02         0.00000E+00
    0.00000E+00         0.00000E+00         0.00000E+00
 
    0.34073E+04         0.39402E+03         0.00000E+00
    0.39402E+03         0.47185E+02         0.00000E+00
    0.00000E+00         0.00000E+00         0.00000E+00
 
    0.33964E+04         0.44648E+03         0.00000E+00
    0.44648E+03         0.62596E+02         0.00000E+00
    0.00000E+00         0.00000E+00         0.00000E+00
 
    0.33817E+04         0.49873E+03         0.00000E+00
    0.49873E+03         0.79926E+02         0.00000E+00
    0.00000E+00         0.00000E+00         0.00000E+00
 
    0.33631E+04         0.55072E+03         0.00000E+00
    0.55072E+03         0.99163E+02         0.00000E+00
    0.00000E+00         0.00000E+00         0.00000E+00
 
    0.33406E+04         0.60237E+03         0.00000E+00
    0.60237E+03         0.12030E+03         0.00000E+00
    0.00000E+00         0.00000E+00         0.00000E+00
 
    0.33144E+04         0.65364E+03         0.00000E+00
    0.65364E+03         0.14332E+03         0.00000E+00
    0.00000E+00         0.00000E+00         0.00000E+00
 
    0.32843E+04         0.70447E+03         0.00000E+00
    0.70447E+03         0.16820E+03         0.00000E+00
    0.00000E+00         0.00000E+00         0.00000E+00
 
    0.32505E+04         0.75479E+03         0.00000E+00
    0.75479E+03         0.19494E+03         0.00000E+00
    0.00000E+00         0.00000E+00         0.00000E+00
 
    0.32129E+04         0.80455E+03         0.00000E+00
    0.80455E+03         0.22350E+03         0.00000E+00
    0.00000E+00         0.00000E+00         0.00000E+00
 
    0.31716E+04         0.85370E+03         0.00000E+00
    0.85370E+03         0.25388E+03         0.00000E+00
    0.00000E+00         0.00000E+00         0.00000E+00
 
    0.31265E+04         0.90218E+03         0.00000E+00
    0.90218E+03         0.28604E+03         0.00000E+00
    0.00000E+00         0.00000E+00         0.00000E+00
 
    0.30779E+04         0.94993E+03         0.00000E+00
    0.94993E+03         0.31996E+03         0.00000E+00
    0.00000E+00         0.00000E+00         0.00000E+00
 
    0.30255E+04         0.99690E+03         0.00000E+00
    0.99690E+03         0.35561E+03         0.00000E+00
    0.00000E+00         0.00000E+00         0.00000E+00
 
    0.29696E+04         0.10430E+04         0.00000E+00
    0.10430E+04         0.39296E+03         0.00000E+00
    0.00000E+00         0.00000E+00         0.00000E+00
 
    0.29102E+04         0.10883E+04         0.00000E+00
    0.10883E+04         0.43198E+03         0.00000E+00
    0.00000E+00         0.00000E+00         0.00000E+00
 
    0.28472E+04         0.11326E+04         0.00000E+00
    0.11326E+04         0.47263E+03         0.00000E+00
    0.00000E+00         0.00000E+00         0.00000E+00
 
    0.27808E+04         0.11759E+04         0.00000E+00
    0.11759E+04         0.51488E+03         0.00000E+00
    0.00000E+00         0.00000E+00         0.00000E+00
 
    0.27110E+04         0.12181E+04         0.00000E+00
    0.12181E+04         0.55870E+03         0.00000E+00
    0.00000E+00         0.00000E+00         0.00000E+00
 
    0.26378E+04         0.12593E+04         0.00000E+00
    0.12593E+04         0.60404E+03         0.00000E+00
    0.00000E+00         0.00000E+00         0.00000E+00
 
    0.25614E+04         0.12993E+04         0.00000E+00
    0.12993E+04         0.65086E+03         0.00000E+00
    0.00000E+00         0.00000E+00         0.00000E+00
 
    0.24817E+04         0.13381E+04         0.00000E+00
    0.13381E+04         0.69912E+03         0.00000E+00
    0.00000E+00         0.00000E+00         0.00000E+00
 
    0.23989E+04         0.13756E+04         0.00000E+00
    0.13756E+04         0.74878E+03         0.00000E+00
    0.00000E+00         0.00000E+00         0.00000E+00
 
    0.23129E+04         0.14119E+04         0.00000E+00
    0.14119E+04         0.79978E+03         0.00000E+00
    0.00000E+00         0.00000E+00         0.00000E+00
 
    0.22240E+04         0.14468E+04         0.00000E+00
    0.14468E+04         0.85208E+03         0.00000E+00
    0.00000E+00         0.00000E+00         0.00000E+00
 
    0.21320E+04         0.14804E+04         0.00000E+00
    0.14804E+04         0.90563E+03         0.00000E+00
    0.00000E+00         0.00000E+00         0.00000E+00
 
    0.20372E+04         0.15125E+04         0.00000E+00
    0.15125E+04         0.96038E+03         0.00000E+00
    0.00000E+00         0.00000E+00         0.00000E+00
 
    0.19396E+04         0.15431E+04         0.00000E+00
    0.15431E+04         0.10163E+04         0.00000E+00
    0.00000E+00         0.00000E+00         0.00000E+00
 
    0.18392E+04         0.15723E+04         0.00000E+00
    0.15723E+04         0.10733E+04         0.00000E+00
    0.00000E+00         0.00000E+00         0.00000E+00
 
    0.17362E+04         0.15998E+04         0.00000E+00
    0.15998E+04         0.11313E+04         0.00000E+00
    0.00000E+00         0.00000E+00         0.00000E+00
 
    0.16306E+04         0.16258E+04         0.00000E+00
    0.16258E+04         0.11903E+04         0.00000E+00
    0.00000E+00         0.00000E+00         0.00000E+00
 
    0.15226E+04         0.16502E+04         0.00000E+00
    0.16502E+04         0.12502E+04         0.00000E+00
    0.00000E+00         0.00000E+00         0.00000E+00
 
    0.14121E+04         0.16729E+04         0.00000E+00
    0.16729E+04         0.13110E+04         0.00000E+00
    0.00000E+00         0.00000E+00         0.00000E+00
 
    0.12993E+04         0.16939E+04         0.00000E+00
    0.16939E+04         0.13725E+04         0.00000E+00
    0.00000E+00         0.00000E+00         0.00000E+00
 
    0.11843E+04         0.17131E+04         0.00000E+00
    0.17131E+04         0.14348E+04         0.00000E+00
    0.00000E+00         0.00000E+00         0.00000E+00
 
    0.10672E+04         0.17306E+04         0.00000E+00
    0.17306E+04         0.14978E+04         0.00000E+00
    0.00000E+00         0.00000E+00         0.00000E+00
 
    0.94805E+03         0.17463E+04         0.00000E+00
    0.17463E+04         0.15614E+04         0.00000E+00
    0.00000E+00         0.00000E+00         0.00000E+00
 
    0.82697E+03         0.17602E+04         0.00000E+00
    0.17602E+04         0.16255E+04         0.00000E+00
    0.00000E+00         0.00000E+00         0.00000E+00
 
    0.70405E+03         0.17722E+04         0.00000E+00
    0.17722E+04         0.16901E+04         0.00000E+00
    0.00000E+00         0.00000E+00         0.00000E+00
 
    0.57941E+03         0.17823E+04         0.00000E+00
    0.17823E+04         0.17551E+04         0.00000E+00
    0.00000E+00         0.00000E+00         0.00000E+00
 
    0.45313E+03         0.17905E+04         0.00000E+00
    0.17905E+04         0.18204E+04         0.00000E+00
    0.00000E+00         0.00000E+00         0.00000E+00
 
    0.32533E+03         0.17967E+04         0.00000E+00
    0.17967E+04         0.18860E+04         0.00000E+00
    0.00000E+00         0.00000E+00         0.00000E+00
 
    0.19611E+03         0.18011E+04         0.00000E+00
    0.18011E+04         0.19517E+04         0.00000E+00
    0.00000E+00         0.00000E+00         0.00000E+00
 
    0.65581E+02         0.18034E+04         0.00000E+00
    0.18034E+04         0.20176E+04         0.00000E+00
    0.00000E+00         0.00000E+00         0.00000E+00
 
    0.36590E+04         0.30698E+02         0.00000E+00
    0.30698E+02        -0.84017E+01         0.00000E+00
    0.00000E+00         0.00000E+00         0.00000E+00
 
    0.36764E+04         0.92988E+02         0.00000E+00
    0.92988E+02        -0.63353E+01         0.00000E+00
    0.00000E+00         0.00000E+00         0.00000E+00
 
    0.36896E+04         0.15551E+03         0.00000E+00
    0.15551E+03        -0.21850E+01         0.00000E+00
    0.00000E+00         0.00000E+00         0.00000E+00
 
    0.36986E+04         0.21820E+03         0.00000E+00
    0.21820E+03         0.40554E+01         0.00000E+00
    0.00000E+00         0.00000E+00         0.00000E+00
 
    0.37035E+04         0.28098E+03         0.00000E+00
    0.28098E+03         0.12390E+02         0.00000E+00
    0.00000E+00         0.00000E+00         0.00000E+00
 
    0.37042E+04         0.34379E+03         0.00000E+00
    0.34379E+03         0.22819E+02         0.00000E+00
    0.00000E+00         0.00000E+00         0.00000E+00
 
    0.37007E+04         0.40655E+03         0.00000E+00
    0.40655E+03         0.35343E+02         0.00000E+00
    0.00000E+00         0.00000E+00         0.00000E+00
 
    0.36930E+04         0.46920E+03         0.00000E+00
    0.46920E+03         0.49958E+02         0.00000E+00
    0.00000E+00         0.00000E+00         0.00000E+00
 
    0.36811E+04         0.53166E+03         0.00000E+00
    0.53166E+03         0.66658E+02         0.00000E+00
    0.00000E+00         0.00000E+00         0.00000E+00
 
    0.36650E+04         0.59387E+03         0.00000E+00
    0.59387E+03         0.85436E+02         0.00000E+00
    0.00000E+00         0.00000E+00         0.00000E+00
 
    0.36448E+04         0.65576E+03         0.00000E+00
    0.65576E+03         0.10628E+03         0.00000E+00
    0.00000E+00         0.00000E+00         0.00000E+00
 
    0.36204E+04         0.71725E+03         0.00000E+00
    0.71725E+03         0.12918E+03         0.00000E+00
    0.00000E+00         0.00000E+00         0.00000E+00
 
    0.35919E+04         0.77828E+03         0.00000E+00
    0.77828E+03         0.15412E+03         0.00000E+00
    0.00000E+00         0.00000E+00         0.00000E+00
 
    0.35592E+04         0.83877E+03         0.00000E+00
    0.83877E+03         0.18109E+03         0.00000E+00
    0.00000E+00         0.00000E+00         0.00000E+00
 
    0.35225E+04         0.89867E+03         0.00000E+00
    0.89867E+03         0.21005E+03         0.00000E+00
    0.00000E+00         0.00000E+00         0.00000E+00
 
    0.34817E+04         0.95790E+03         0.00000E+00
    0.95790E+03         0.24101E+03         0.00000E+00
    0.00000E+00         0.00000E+00         0.00000E+00
 
    0.34368E+04         0.10164E+04         0.00000E+00
    0.10164E+04         0.27392E+03         0.00000E+00
    0.00000E+00         0.00000E+00         0.00000E+00
 
    0.33879E+04         0.10741E+04         0.00000E+00
    0.10741E+04         0.30876E+03         0.00000E+00
    0.00000E+00         0.00000E+00         0.00000E+00
 
    0.33351E+04         0.11309E+04         0.00000E+00
    0.11309E+04         0.34551E+03         0.00000E+00
    0.00000E+00         0.00000E+00         0.00000E+00
 
    0.32784E+04         0.11868E+04         0.00000E+00
    0.11868E+04         0.38413E+03         0.00000E+00
    0.00000E+00         0.00000E+00         0.00000E+00
 
    0.32177E+04         0.12417E+04         0.00000E+00
    0.12417E+04         0.42459E+03         0.00000E+00
    0.00000E+00         0.00000E+00         0.00000E+00
 
    0.31532E+04         0.12956E+04         0.00000E+00
    0.12956E+04         0.46686E+03         0.00000E+00
    0.00000E+00         0.00000E+00         0.00000E+00
 
    0.30850E+04         0.13483E+04         0.00000E+00
    0.13483E+04         0.51091E+03         0.00000E+00
    0.00000E+00         0.00000E+00         0.00000E+00
 
    0.30130E+04         0.13998E+04         0.00000E+00
    0.13998E+04         0.55668E+03         0.00000E+00
    0.00000E+00         0.00000E+00         0.00000E+00
 
    0.29373E+04         0.14501E+04         0.00000E+00
    0.14501E+04         0.60415E+03         0.00000E+00
    0.00000E+00         0.00000E+00         0.00000E+00
 
    0.28580E+04         0.14990E+04         0.00000E+00
    0.14990E+04         0.65326E+03         0.00000E+00
    0.00000E+00         0.00000E+00         0.00000E+00
 
    0.27751E+04         0.15466E+04         0.00000E+00
    0.15466E+04         0.70398E+03         0.00000E+00
    0.00000E+00         0.00000E+00         0.00000E+00
 
    0.26888E+04         0.15928E+04         0.00000E+00
    0.15928E+04         0.75626E+03         0.00000E+00
    0.00000E+00         0.00000E+00         0.00000E+00
 
    0.25990E+04         0.16375E+04         0.00000E+00
    0.16375E+04         0.81005E+03         0.00000E+00
    0.00000E+00         0.00000E+00         0.00000E+00
 
    0.25058E+04         0.16807E+04         0.00000E+00
    0.16807E+04         0.86529E+03         0.00000E+00
    0.00000E+00         0.00000E+00         0.00000E+00
 
    0.24094E+04         0.17222E+04         0.00000E+00
    0.17222E+04         0.92194E+03         0.00000E+00
    0.00000E+00         0.00000E+00         0.00000E+00
 
    0.23098E+04         0.17621E+04         0.00000E+00
    0.17621E+04         0.97995E+03         0.00000E+00
    0.00000E+00         0.00000E+00         0.00000E+00
 
    0.22070E+04         0.18003E+04         0.00000E+00
    0.18003E+04         0.10393E+04         0.00000E+00
    0.00000E+00         0.00000E+00         0.00000E+00
 
    0.21013E+04         0.18368E+04         0.00000E+00
    0.18368E+04         0.10998E+04         0.00000E+00
    0.00000E+00         0.00000E+00         0.00000E+00
 
    0.19925E+04         0.18714E+04         0.00000E+00
    0.18714E+04         0.11615E+04         0.00000E+00
    0.00000E+00         0.00000E+00         0.00000E+00
 
    0.18809E+04         0.19043E+04         0.00000E+00
    0.19043E+04         0.12244E+04         0.00000E+00
    0.00000E+00         0.00000E+00         0.00000E+00
 
    0.17665E+04         0.19352E+04         0.00000E+00
    0.19352E+04         0.12883E+04         0.00000E+00
    0.00000E+00         0.00000E+00         0.00000E+00
 
    0.16494E+04         0.19642E+04         0.00000E+00
    0.19642E+04         0.13531E+04         0.00000E+00
    0.00000E+00         0.00000E+00         0.00000E+00
 
    0.15297E+04         0.19912E+04         0.00000E+00
    0.19912E+04         0.14190E+04         0.00000E+00
    0.00000E+00         0.00000E+00         0.00000E+00
 
    0.14075E+04         0.20161E+04         0.00000E+00
    0.20161E+04         0.14857E+04         0.00000E+00
    0.00000E+00         0.00000E+00         0.00000E+00
 
    0.12829E+04         0.20390E+04         0.00000E+00
    0.20390E+04         0.15531E+04         0.00000E+00
    0.00000E+00         0.00000E+00         0.00000E+00
 
    0.11561E+04         0.20598E+04         0.00000E+00
    0.20598E+04         0.16213E+04         0.00000E+00
    0.00000E+00         0.00000E+00         0.00000E+00
 
    0.10270E+04         0.20785E+04         0.00000E+00
    0.20785E+04         0.16902E+04         0.00000E+00
    0.00000E+00         0.00000E+00         0.00000E+00
 
    0.89582E+03         0.20950E+04         0.00000E+00
    0.20950E+04         0.17596E+04         0.00000E+00
    0.00000E+00         0.00000E+00         0.00000E+00
 
    0.76267E+03         0.21092E+04         0.00000E+00
    0.21092E+04         0.18296E+04         0.00000E+00
    0.00000E+00         0.00000E+00         0.00000E+00
 
    0.62764E+03         0.21213E+04         0.00000E+00
    0.21213E+04         0.19000E+04         0.00000E+00
    0.00000E+00         0.00000E+00         0.00000E+00
 
    0.49086E+03         0.21310E+04         0.00000E+00
    0.21310E+04         0.19707E+04         0.00000E+00
    0.00000E+00         0.00000E+00         0.00000E+00
 
    0.35242E+03         0.21385E+04         0.00000E+00
    0.21385E+04         0.20418E+04         0.00000E+00
    0.00000E+00         0.00000E+00         0.00000E+00
 
    0.21244E+03         0.21436E+04         0.00000E+00
    0.21436E+04         0.21130E+04         0.00000E+00
    0.00000E+00         0.00000E+00         0.00000E+00
 
    0.71040E+02         0.21464E+04         0.00000E+00
    0.21464E+04         0.21844E+04         0.00000E+00
    0.00000E+00         0.00000E+00         0.00000E+00
 
    0.39944E+04         0.36057E+02         0.00000E+00
    0.36057E+02        -0.10464E+02         0.00000E+00
    0.00000E+00         0.00000E+00         0.00000E+00
 
    0.40132E+04         0.10921E+03         0.00000E+00
    0.10921E+03        -0.82092E+01         0.00000E+00
    0.00000E+00         0.00000E+00         0.00000E+00
 
    0.40275E+04         0.18264E+03         0.00000E+00
    0.18264E+03        -0.36797E+01         0.00000E+00
    0.00000E+00         0.00000E+00         0.00000E+00
 
    0.40372E+04         0.25625E+03         0.00000E+00
    0.25625E+03         0.31305E+01         0.00000E+00
    0.00000E+00         0.00000E+00         0.00000E+00
 
    0.40424E+04         0.32997E+03         0.00000E+00
    0.32997E+03         0.12225E+02         0.00000E+00
    0.00000E+00         0.00000E+00         0.00000E+00
 
    0.40430E+04         0.40372E+03         0.00000E+00
    0.40372E+03         0.23606E+02         0.00000E+00
    0.00000E+00         0.00000E+00         0.00000E+00
 
    0.40390E+04         0.47741E+03         0.00000E+00
    0.47741E+03         0.37272E+02         0.00000E+00
    0.00000E+00         0.00000E+00         0.00000E+00
 
    0.40305E+04         0.55097E+03         0.00000E+00
    0.55097E+03         0.53219E+02         0.00000E+00
    0.00000E+00         0.00000E+00         0.00000E+00
 
    0.40174E+04         0.62430E+03         0.00000E+00
    0.62430E+03         0.71442E+02         0.00000E+00
    0.00000E+00         0.00000E+00         0.00000E+00
 
    0.39998E+04         0.69733E+03         0.00000E+00
    0.69733E+03         0.91930E+02         0.00000E+00
    0.00000E+00         0.00000E+00         0.00000E+00
 
    0.39776E+04         0.76998E+03         0.00000E+00
    0.76998E+03         0.11467E+03         0.00000E+00
    0.00000E+00         0.00000E+00         0.00000E+00
 
    0.39509E+04         0.84217E+03         0.00000E+00
    0.84217E+03         0.13966E+03         0.00000E+00
    0.00000E+00         0.00000E+00         0.00000E+00
 
    0.39197E+04         0.91381E+03         0.00000E+00
    0.91381E+03         0.16687E+03         0.00000E+00
    0.00000E+00         0.00000E+00         0.00000E+00
 
    0.38839E+04         0.98482E+03         0.00000E+00
    0.98482E+03         0.19629E+03         0.00000E+00
    0.00000E+00         0.00000E+00         0.00000E+00
 
    0.38437E+04         0.10551E+04         0.00000E+00
    0.10551E+04         0.22789E+03         0.00000E+00
    0.00000E+00         0.00000E+00         0.00000E+00
 
    0.37991E+04         0.11246E+04         0.00000E+00
    0.11246E+04         0.26166E+03         0.00000E+00
    0.00000E+00         0.00000E+00         0.00000E+00
 
    0.37501E+04         0.11933E+04         0.00000E+00
    0.11933E+04         0.29756E+03         0.00000E+00
    0.00000E+00         0.00000E+00         0.00000E+00
 
    0.36967E+04         0.12610E+04         0.00000E+00
    0.12610E+04         0.33557E+03         0.00000E+00
    0.00000E+00         0.00000E+00         0.00000E+00
 
    0.36390E+04         0.13277E+04         0.00000E+00
    0.13277E+04         0.37566E+03         0.00000E+00
    0.00000E+00         0.00000E+00         0.00000E+00
 
    0.35770E+04         0.13933E+04         0.00000E+00
    0.13933E+04         0.41779E+03         0.00000E+00
    0.00000E+00         0.00000E+00         0.00000E+00
 
    0.35107E+04         0.14577E+04         0.00000E+00
    0.14577E+04         0.46192E+03         0.00000E+00
    0.00000E+00         0.00000E+00         0.00000E+00
 
    0.34403E+04         0.15209E+04         0.00000E+00
    0.15209E+04         0.50803E+03         0.00000E+00
    0.00000E+00         0.00000E+00         0.00000E+00
 
    0.33658E+04         0.15828E+04         0.00000E+00
    0.15828E+04         0.55608E+03         0.00000E+00
    0.00000E+00         0.00000E+00         0.00000E+00
 
    0.32871E+04         0.16432E+04         0.00000E+00
    0.16432E+04         0.60600E+03         0.00000E+00
    0.00000E+00         0.00000E+00         0.00000E+00
 
    0.32045E+04         0.17022E+04         0.00000E+00
    0.17022E+04         0.65778E+03         0.00000E+00
    0.00000E+00         0.00000E+00         0.00000E+00
 
    0.31179E+04         0.17597E+04         0.00000E+00
    0.17597E+04         0.71135E+03         0.00000E+00
    0.00000E+00         0.00000E+00         0.00000E+00
 
    0.30275E+04         0.18155E+04         0.00000E+00
    0.18155E+04         0.76667E+03         0.00000E+00
    0.00000E+00         0.00000E+00         0.00000E+00
 
    0.29332E+04         0.18697E+04         0.00000E+00
    0.18697E+04         0.82369E+03         0.00000E+00
    0.00000E+00         0.00000E+00         0.00000E+00
 
    0.28352E+04         0.19222E+04         0.00000E+00
    0.19222E+04         0.88235E+03         0.00000E+00
    0.00000E+00         0.00000E+00         0.00000E+00
 
    0.27336E+04         0.19728E+04         0.00000E+00
    0.19728E+04         0.94260E+03         0.00000E+00
    0.00000E+00         0.00000E+00         0.00000E+00
 
    0.26284E+04         0.20216E+04         0.00000E+00
    0.20216E+04         0.10044E+04         0.00000E+00
    0.00000E+00         0.00000E+00         0.00000E+00
 
    0.25197E+04         0.20684E+04         0.00000E+00
    0.20684E+04         0.10677E+04         0.00000E+00
    0.00000E+00         0.00000E+00         0.00000E+00
 
    0.24075E+04         0.21132E+04         0.00000E+00
    0.21132E+04         0.11323E+04         0.00000E+00
    0.00000E+00         0.00000E+00         0.00000E+00
 
    0.22921E+04         0.21560E+04         0.00000E+00
    0.21560E+04         0.11984E+04         0.00000E+00
    0.00000E+00         0.00000E+00         0.00000E+00
 
    0.21735E+04         0.21967E+04         0.00000E+00
    0.21967E+04         0.12657E+04         0.00000E+00
    0.00000E+00         0.00000E+00         0.00000E+00
 
    0.20517E+04         0.22352E+04         0.00000E+00
    0.22352E+04         0.13342E+04         0.00000E+00
    0.00000E+00         0.00000E+00         0.00000E+00
 
    0.19269E+04         0.22714E+04         0.00000E+00
    0.22714E+04         0.14039E+04         0.00000E+00
    0.00000E+00         0.00000E+00         0.00000E+00
 
    0.17991E+04         0.23054E+04         0.00000E+00
    0.23054E+04         0.14747E+04         0.00000E+00
    0.00000E+00         0.00000E+00         0.00000E+00
 
    0.16686E+04         0.23371E+04         0.00000E+00
    0.23371E+04         0.15464E+04         0.00000E+00
    0.00000E+00         0.00000E+00         0.00000E+00
 
    0.15353E+04         0.23664E+04         0.00000E+00
    0.23664E+04         0.16192E+04         0.00000E+00
    0.00000E+00         0.00000E+00         0.00000E+00
 
    0.13994E+04         0.23933E+04         0.00000E+00
    0.23933E+04         0.16928E+04         0.00000E+00
    0.00000E+00         0.00000E+00         0.00000E+00
 
    0.12610E+04         0.24177E+04         0.00000E+00
    0.24177E+04         0.17671E+04         0.00000E+00
    0.00000E+00         0.00000E+00         0.00000E+00
 
    0.11202E+04         0.24396E+04         0.00000E+00
    0.24396E+04         0.18422E+04         0.00000E+00
    0.00000E+00         0.00000E+00         0.00000E+00
 
    0.97710E+03         0.24589E+04         0.00000E+00
    0.24589E+04         0.19180E+04         0.00000E+00
    0.00000E+00         0.00000E+00         0.00000E+00
 
    0.83187E+03         0.24757E+04         0.00000E+00
    0.24757E+04         0.19943E+04         0.00000E+00
    0.00000E+00         0.00000E+00         0.00000E+00
 
    0.68459E+03         0.24898E+04         0.00000E+00
    0.24898E+04         0.20710E+04         0.00000E+00
    0.00000E+00         0.00000E+00         0.00000E+00
 
    0.53539E+03         0.25012E+04         0.00000E+00
    0.25012E+04         0.21482E+04         0.00000E+00
    0.00000E+00         0.00000E+00         0.00000E+00
 
    0.38439E+03         0.25100E+04         0.00000E+00
    0.25100E+04         0.22257E+04         0.00000E+00
    0.00000E+00         0.00000E+00         0.00000E+00
 
    0.23171E+03         0.25160E+04         0.00000E+00
    0.25160E+04         0.23034E+04         0.00000E+00
    0.00000E+00         0.00000E+00         0.00000E+00
 
    0.77484E+02         0.25193E+04         0.00000E+00
    0.25193E+04         0.23812E+04         0.00000E+00
    0.00000E+00         0.00000E+00         0.00000E+00
 
    0.43860E+04         0.41924E+02         0.00000E+00
    0.41924E+02        -0.12934E+02         0.00000E+00
    0.00000E+00         0.00000E+00         0.00000E+00
 
    0.44065E+04         0.12697E+03         0.00000E+00
    0.12697E+03        -0.10458E+02         0.00000E+00
    0.00000E+00         0.00000E+00         0.00000E+00
 
    0.44220E+04         0.21233E+03         0.00000E+00
    0.21233E+03        -0.54857E+01         0.00000E+00
    0.00000E+00         0.00000E+00         0.00000E+00
 
    0.44326E+04         0.29790E+03         0.00000E+00
    0.29790E+03         0.19899E+01         0.00000E+00
    0.00000E+00         0.00000E+00         0.00000E+00
 
    0.44381E+04         0.38360E+03         0.00000E+00
    0.38360E+03         0.11973E+02         0.00000E+00
    0.00000E+00         0.00000E+00         0.00000E+00
 
    0.44386E+04         0.46932E+03         0.00000E+00
    0.46932E+03         0.24465E+02         0.00000E+00
    0.00000E+00         0.00000E+00         0.00000E+00
 
    0.44341E+04         0.55497E+03         0.00000E+00
    0.55497E+03         0.39464E+02         0.00000E+00
    0.00000E+00         0.00000E+00         0.00000E+00
 
    0.44246E+04         0.64046E+03         0.00000E+00
    0.64046E+03         0.56966E+02         0.00000E+00
    0.00000E+00         0.00000E+00         0.00000E+00
 
    0.44101E+04         0.72569E+03         0.00000E+00
    0.72569E+03         0.76965E+02         0.00000E+00
    0.00000E+00         0.00000E+00         0.00000E+00
 
    0.43906E+04         0.81056E+03         0.00000E+00
    0.81056E+03         0.99451E+02         0.00000E+00
    0.00000E+00         0.00000E+00         0.00000E+00
 
    0.43661E+04         0.89499E+03         0.00000E+00
    0.89499E+03         0.12441E+03         0.00000E+00
    0.00000E+00         0.00000E+00         0.00000E+00
 
    0.43367E+04         0.97887E+03         0.00000E+00
    0.97887E+03         0.15183E+03         0.00000E+00
    0.00000E+00         0.00000E+00         0.00000E+00
 
    0.43023E+04         0.10621E+04         0.00000E+00
    0.10621E+04         0.18169E+03         0.00000E+00
    0.00000E+00         0.00000E+00         0.00000E+00
 
    0.42629E+04         0.11446E+04         0.00000E+00
    0.11446E+04         0.21397E+03         0.00000E+00
    0.00000E+00         0.00000E+00         0.00000E+00
 
    0.42187E+04         0.12263E+04         0.00000E+00
    0.12263E+04         0.24865E+03         0.00000E+00
    0.00000E+00         0.00000E+00         0.00000E+00
 
    0.41696E+04         0.13071E+04         0.00000E+00
    0.13071E+04         0.28570E+03         0.00000E+00
    0.00000E+00         0.00000E+00         0.00000E+00
 
    0.41157E+04         0.13869E+04         0.00000E+00
    0.13869E+04         0.32509E+03         0.00000E+00
    0.00000E+00         0.00000E+00         0.00000E+00
 
    0.40570E+04         0.14655E+04         0.00000E+00
    0.14655E+04         0.36679E+03         0.00000E+00
    0.00000E+00         0.00000E+00         0.00000E+00
 
    0.39936E+04         0.15430E+04         0.00000E+00
    0.15430E+04         0.41077E+03         0.00000E+00
    0.00000E+00         0.00000E+00         0.00000E+00
 
    0.39254E+04         0.16192E+04         0.00000E+00
    0.16192E+04         0.45700E+03         0.00000E+00
    0.00000E+00         0.00000E+00         0.00000E+00
 
    0.38527E+04         0.16941E+04         0.00000E+00
    0.16941E+04         0.50542E+03         0.00000E+00
    0.00000E+00         0.00000E+00         0.00000E+00
 
    0.37753E+04         0.17675E+04         0.00000E+00
    0.17675E+04         0.55601E+03         0.00000E+00
    0.00000E+00         0.00000E+00         0.00000E+00
 
    0.36934E+04         0.18393E+04         0.00000E+00
    0.18393E+04         0.60871E+03         0.00000E+00
    0.00000E+00         0.00000E+00         0.00000E+00
 
    0.36071E+04         0.19096E+04         0.00000E+00
    0.19096E+04         0.66349E+03         0.00000E+00
    0.00000E+00         0.00000E+00         0.00000E+00
 
    0.35163E+04         0.19781E+04         0.00000E+00
    0.19781E+04         0.72028E+03         0.00000E+00
    0.00000E+00         0.00000E+00         0.00000E+00
 
    0.34213E+04         0.20449E+04         0.00000E+00
    0.20449E+04         0.77905E+03         0.00000E+00
    0.00000E+00         0.00000E+00         0.00000E+00
 
    0.33219E+04         0.21097E+04         0.00000E+00
    0.21097E+04         0.83973E+03         0.00000E+00
    0.00000E+00         0.00000E+00         0.00000E+00
 
    0.32185E+04         0.21727E+04         0.00000E+00
    0.21727E+04         0.90228E+03         0.00000E+00
    0.00000E+00         0.00000E+00         0.00000E+00
 
    0.31109E+04         0.22336E+04         0.00000E+00
    0.22336E+04         0.96663E+03         0.00000E+00
    0.00000E+00         0.00000E+00         0.00000E+00
 
    0.29993E+04         0.22924E+04         0.00000E+00
    0.22924E+04         0.10327E+04         0.00000E+00
    0.00000E+00         0.00000E+00         0.00000E+00
 
    0.28838E+04         0.23490E+04         0.00000E+00
    0.23490E+04         0.11005E+04         0.00000E+00
    0.00000E+00         0.00000E+00         0.00000E+00
 
    0.27645E+04         0.24034E+04         0.00000E+00
    0.24034E+04         0.11699E+04         0.00000E+00
    0.00000E+00         0.00000E+00         0.00000E+00
 
    0.26415E+04         0.24555E+04         0.00000E+00
    0.24555E+04         0.12408E+04         0.00000E+00
    0.00000E+00         0.00000E+00         0.00000E+00
 
    0.25148E+04         0.25052E+04         0.00000E+00
    0.25052E+04         0.13133E+04         0.00000E+00
    0.00000E+00         0.00000E+00         0.00000E+00
 
    0.23846E+04         0.25524E+04         0.00000E+00
    0.25524E+04         0.13871E+04         0.00000E+00
    0.00000E+00         0.00000E+00         0.00000E+00
 
    0.22509E+04         0.25971E+04         0.00000E+00
    0.25971E+04         0.14623E+04         0.00000E+00
    0.00000E+00         0.00000E+00         0.00000E+00
 
    0.21140E+04         0.26392E+04         0.00000E+00
    0.26392E+04         0.15387E+04         0.00000E+00
    0.00000E+00         0.00000E+00         0.00000E+00
 
    0.19738E+04         0.26787E+04         0.00000E+00
    0.26787E+04         0.16163E+04         0.00000E+00
    0.00000E+00         0.00000E+00         0.00000E+00
 
    0.18306E+04         0.27155E+04         0.00000E+00
    0.27155E+04         0.16951E+04         0.00000E+00
    0.00000E+00         0.00000E+00         0.00000E+00
 
    0.16843E+04         0.27495E+04         0.00000E+00
    0.27495E+04         0.17748E+04         0.00000E+00
    0.00000E+00         0.00000E+00         0.00000E+00
 
    0.15352E+04         0.27808E+04         0.00000E+00
    0.27808E+04         0.18555E+04         0.00000E+00
    0.00000E+00         0.00000E+00         0.00000E+00
 
    0.13833E+04         0.28091E+04         0.00000E+00
    0.28091E+04         0.19371E+04         0.00000E+00
    0.00000E+00         0.00000E+00         0.00000E+00
 
    0.12289E+04         0.28345E+04         0.00000E+00
    0.28345E+04         0.20195E+04         0.00000E+00
    0.00000E+00         0.00000E+00         0.00000E+00
 
    0.10719E+04         0.28570E+04         0.00000E+00
    0.28570E+04         0.21026E+04         0.00000E+00
    0.00000E+00         0.00000E+00         0.00000E+00
 
    0.91258E+03         0.28765E+04         0.00000E+00
    0.28765E+04         0.21862E+04         0.00000E+00
    0.00000E+00         0.00000E+00         0.00000E+00
 
    0.75100E+03         0.28929E+04         0.00000E+00
    0.28929E+04         0.22704E+04         0.00000E+00
    0.00000E+00         0.00000E+00         0.00000E+00
 
    0.58732E+03         0.29062E+04         0.00000E+00
    0.29062E+04         0.23551E+04         0.00000E+00
    0.00000E+00         0.00000E+00         0.00000E+00
 
    0.42167E+03         0.29164E+04         0.00000E+00
    0.29164E+04         0.24401E+04         0.00000E+00
    0.00000E+00         0.00000E+00         0.00000E+00
 
    0.25419E+03         0.29234E+04         0.00000E+00
    0.29234E+04         0.25253E+04         0.00000E+00
    0.00000E+00         0.00000E+00         0.00000E+00
 
    0.85000E+02         0.29272E+04         0.00000E+00
    0.29272E+04         0.26107E+04         0.00000E+00
    0.00000E+00         0.00000E+00         0.00000E+00
 
    0.48394E+04         0.48383E+02         0.00000E+00
    0.48383E+02        -0.15903E+02         0.00000E+00
    0.00000E+00         0.00000E+00         0.00000E+00
 
    0.48618E+04         0.14652E+03         0.00000E+00
    0.14652E+03        -0.13171E+02         0.00000E+00
    0.00000E+00         0.00000E+00         0.00000E+00
 
    0.48787E+04         0.24501E+03         0.00000E+00
    0.24501E+03        -0.76864E+01         0.00000E+00
    0.00000E+00         0.00000E+00         0.00000E+00
 
    0.48902E+04         0.34374E+03         0.00000E+00
    0.34374E+03         0.55927E+00         0.00000E+00
    0.00000E+00         0.00000E+00         0.00000E+00
 
    0.48961E+04         0.44261E+03         0.00000E+00
    0.44261E+03         0.11570E+02         0.00000E+00
    0.00000E+00         0.00000E+00         0.00000E+00
 
    0.48965E+04         0.54150E+03         0.00000E+00
    0.54150E+03         0.25348E+02         0.00000E+00
    0.00000E+00         0.00000E+00         0.00000E+00
 
    0.48914E+04         0.64031E+03         0.00000E+00
    0.64031E+03         0.41890E+02         0.00000E+00
    0.00000E+00         0.00000E+00         0.00000E+00
 
    0.48807E+04         0.73893E+03         0.00000E+00
    0.73893E+03         0.61192E+02         0.00000E+00
    0.00000E+00         0.00000E+00         0.00000E+00
 
    0.48645E+04         0.83724E+03         0.00000E+00
    0.83724E+03         0.83246E+02         0.00000E+00
    0.00000E+00         0.00000E+00         0.00000E+00
 
    0.48429E+04         0.93514E+03         0.00000E+00
    0.93514E+03         0.10804E+03         0.00000E+00
    0.00000E+00         0.00000E+00         0.00000E+00
 
    0.48157E+04         0.10325E+04         0.00000E+00
    0.10325E+04         0.13556E+03         0.00000E+00
    0.00000E+00         0.00000E+00         0.00000E+00
 
    0.47831E+04         0.11293E+04         0.00000E+00
    0.11293E+04         0.16580E+03         0.00000E+00
    0.00000E+00         0.00000E+00         0.00000E+00
 
    0.47450E+04         0.12253E+04         0.00000E+00
    0.12253E+04         0.19872E+03         0.00000E+00
    0.00000E+00         0.00000E+00         0.00000E+00
 
    0.47015E+04         0.13204E+04         0.00000E+00
    0.13204E+04         0.23431E+03         0.00000E+00
    0.00000E+00         0.00000E+00         0.00000E+00
 
    0.46525E+04         0.14147E+04         0.00000E+00
    0.14147E+04         0.27255E+03         0.00000E+00
    0.00000E+00         0.00000E+00         0.00000E+00
 
    0.45983E+04         0.15078E+04         0.00000E+00
    0.15078E+04         0.31340E+03         0.00000E+00
    0.00000E+00         0.00000E+00         0.00000E+00
 
    0.45387E+04         0.15998E+04         0.00000E+00
    0.15998E+04         0.35682E+03         0.00000E+00
    0.00000E+00         0.00000E+00         0.00000E+00
 
    0.44738E+04         0.16905E+04         0.00000E+00
    0.16905E+04         0.40280E+03         0.00000E+00
    0.00000E+00         0.00000E+00         0.00000E+00
 
    0.44038E+04         0.17799E+04         0.00000E+00
    0.17799E+04         0.45129E+03         0.00000E+00
    0.00000E+00         0.00000E+00         0.00000E+00
 
    0.43285E+04         0.18677E+04         0.00000E+00
    0.18677E+04         0.50224E+03         0.00000E+00
    0.00000E+00         0.00000E+00         0.00000E+00
 
    0.42482E+04         0.19540E+04         0.00000E+00
    0.19540E+04         0.55562E+03         0.00000E+00
    0.00000E+00         0.00000E+00         0.00000E+00
 
    0.41628E+04         0.20387E+04         0.00000E+00
    0.20387E+04         0.61139E+03         0.00000E+00
    0.00000E+00         0.00000E+00         0.00000E+00
 
    0.40724E+04         0.21215E+04         0.00000E+00
    0.21215E+04         0.66948E+03         0.00000E+00
    0.00000E+00         0.00000E+00         0.00000E+00
 
    0.39771E+04         0.22025E+04         0.00000E+00
    0.22025E+04         0.72986E+03         0.00000E+00
    0.00000E+00         0.00000E+00         0.00000E+00
 
    0.38770E+04         0.22815E+04         0.00000E+00
    0.22815E+04         0.79246E+03         0.00000E+00
    0.00000E+00         0.00000E+00         0.00000E+00
 
    0.37721E+04         0.23585E+04         0.00000E+00
    0.23585E+04         0.85723E+03         0.00000E+00
    0.00000E+00         0.00000E+00         0.00000E+00
 
    0.36625E+04         0.24332E+04         0.00000E+00
    0.24332E+04         0.92412E+03         0.00000E+00
    0.00000E+00         0.00000E+00         0.00000E+00
 
    0.35483E+04         0.25058E+04         0.00000E+00
    0.25058E+04         0.99306E+03         0.00000E+00
    0.00000E+00         0.00000E+00         0.00000E+00
 
    0.34297E+04         0.25760E+04         0.00000E+00
    0.25760E+04         0.10640E+04         0.00000E+00
    0.00000E+00         0.00000E+00         0.00000E+00
 
    0.33066E+04         0.26438E+04         0.00000E+00
    0.26438E+04         0.11368E+04         0.00000E+00
    0.00000E+00         0.00000E+00         0.00000E+00
 
    0.31792E+04         0.27091E+04         0.00000E+00
    0.27091E+04         0.12115E+04         0.00000E+00
    0.00000E+00         0.00000E+00         0.00000E+00
 
    0.30476E+04         0.27718E+04         0.00000E+00
    0.27718E+04         0.12880E+04         0.00000E+00
    0.00000E+00         0.00000E+00         0.00000E+00
 
    0.29119E+04         0.28318E+04         0.00000E+00
    0.28318E+04         0.13662E+04         0.00000E+00
    0.00000E+00         0.00000E+00         0.00000E+00
 
    0.27722E+04         0.28891E+04         0.00000E+00
    0.28891E+04         0.14460E+04         0.00000E+00
    0.00000E+00         0.00000E+00         0.00000E+00
 
    0.26287E+04         0.29436E+04         0.00000E+00
    0.29436E+04         0.15274E+04         0.00000E+00
    0.00000E+00         0.00000E+00         0.00000E+00
 
    0.24813E+04         0.29951E+04         0.00000E+00
    0.29951E+04         0.16102E+04         0.00000E+00
    0.00000E+00         0.00000E+00         0.00000E+00
 
    0.23303E+04         0.30437E+04         0.00000E+00
    0.30437E+04         0.16945E+04         0.00000E+00
    0.00000E+00         0.00000E+00         0.00000E+00
 
    0.21758E+04         0.30892E+04         0.00000E+00
    0.30892E+04         0.17800E+04         0.00000E+00
    0.00000E+00         0.00000E+00         0.00000E+00
 
    0.20178E+04         0.31316E+04         0.00000E+00
    0.31316E+04         0.18668E+04         0.00000E+00
    0.00000E+00         0.00000E+00         0.00000E+00
 
    0.18566E+04         0.31709E+04         0.00000E+00
    0.31709E+04         0.19547E+04         0.00000E+00
    0.00000E+00         0.00000E+00         0.00000E+00
 
    0.16922E+04         0.32068E+04         0.00000E+00
    0.32068E+04         0.20436E+04         0.00000E+00
    0.00000E+00         0.00000E+00         0.00000E+00
 
    0.15248E+04         0.32395E+04         0.00000E+00
    0.32395E+04         0.21335E+04         0.00000E+00
    0.00000E+00         0.00000E+00         0.00000E+00
 
    0.13545E+04         0.32689E+04         0.00000E+00
    0.32689E+04         0.22243E+04         0.00000E+00
    0.00000E+00         0.00000E+00         0.00000E+00
 
    0.11815E+04         0.32948E+04         0.00000E+00
    0.32948E+04         0.23159E+04         0.00000E+00
    0.00000E+00         0.00000E+00         0.00000E+00
 
    0.10059E+04         0.33172E+04         0.00000E+00
    0.33172E+04         0.24081E+04         0.00000E+00
    0.00000E+00         0.00000E+00         0.00000E+00
 
    0.82778E+03         0.33361E+04         0.00000E+00
    0.33361E+04         0.25009E+04         0.00000E+00
    0.00000E+00         0.00000E+00         0.00000E+00
 
    0.64737E+03         0.33515E+04         0.00000E+00
    0.33515E+04         0.25942E+04         0.00000E+00
    0.00000E+00         0.00000E+00         0.00000E+00
 
    0.46478E+03         0.33632E+04         0.00000E+00
    0.33632E+04         0.26878E+04         0.00000E+00
    0.00000E+00         0.00000E+00         0.00000E+00
 
    0.28017E+03         0.33714E+04         0.00000E+00
    0.33714E+04         0.27818E+04         0.00000E+00
    0.00000E+00         0.00000E+00         0.00000E+00
 
    0.93689E+02         0.33758E+04         0.00000E+00
    0.33758E+04         0.28759E+04         0.00000E+00
    0.00000E+00         0.00000E+00         0.00000E+00
 
    0.53609E+04         0.55524E+02         0.00000E+00
    0.55524E+02        -0.19482E+02         0.00000E+00
    0.00000E+00         0.00000E+00         0.00000E+00
 
    0.53854E+04         0.16812E+03         0.00000E+00
    0.16812E+03        -0.16457E+02         0.00000E+00
    0.00000E+00         0.00000E+00         0.00000E+00
 
    0.54039E+04         0.28113E+03         0.00000E+00
    0.28113E+03        -0.10383E+02         0.00000E+00
    0.00000E+00         0.00000E+00         0.00000E+00
 
    0.54164E+04         0.39440E+03         0.00000E+00
    0.39440E+03        -0.12512E+01         0.00000E+00
    0.00000E+00         0.00000E+00         0.00000E+00
 
    0.54227E+04         0.50783E+03         0.00000E+00
    0.50783E+03         0.10942E+02         0.00000E+00
    0.00000E+00         0.00000E+00         0.00000E+00
 
    0.54229E+04         0.62128E+03         0.00000E+00
    0.62128E+03         0.26197E+02         0.00000E+00
    0.00000E+00         0.00000E+00         0.00000E+00
 
    0.54171E+04         0.73462E+03         0.00000E+00
    0.73462E+03         0.44513E+02         0.00000E+00
    0.00000E+00         0.00000E+00         0.00000E+00
 
    0.54051E+04         0.84774E+03         0.00000E+00
    0.84774E+03         0.65884E+02         0.00000E+00
    0.00000E+00         0.00000E+00         0.00000E+00
 
    0.53870E+04         0.96051E+03         0.00000E+00
    0.96051E+03         0.90302E+02         0.00000E+00
    0.00000E+00         0.00000E+00         0.00000E+00
 
    0.53628E+04         0.10728E+04         0.00000E+00
    0.10728E+04         0.11775E+03         0.00000E+00
    0.00000E+00         0.00000E+00         0.00000E+00
 
    0.53325E+04         0.11845E+04         0.00000E+00
    0.11845E+04         0.14822E+03         0.00000E+00
    0.00000E+00         0.00000E+00         0.00000E+00
 
    0.52962E+04         0.12954E+04         0.00000E+00
    0.12954E+04         0.18169E+03         0.00000E+00
    0.00000E+00         0.00000E+00         0.00000E+00
 
    0.52538E+04         0.14055E+04         0.00000E+00
    0.14055E+04         0.21814E+03         0.00000E+00
    0.00000E+00         0.00000E+00         0.00000E+00
 
    0.52055E+04         0.15147E+04         0.00000E+00
    0.15147E+04         0.25753E+03         0.00000E+00
    0.00000E+00         0.00000E+00         0.00000E+00
 
    0.51512E+04         0.16227E+04         0.00000E+00
    0.16227E+04         0.29985E+03         0.00000E+00
    0.00000E+00         0.00000E+00         0.00000E+00
 
    0.50909E+04         0.17295E+04         0.00000E+00
    0.17295E+04         0.34506E+03         0.00000E+00
    0.00000E+00         0.00000E+00         0.00000E+00
 
    0.50248E+04         0.18350E+04         0.00000E+00
    0.18350E+04         0.39313E+03         0.00000E+00
    0.00000E+00         0.00000E+00         0.00000E+00
 
    0.49529E+04         0.19390E+04         0.00000E+00
    0.19390E+04         0.44401E+03         0.00000E+00
    0.00000E+00         0.00000E+00         0.00000E+00
 
    0.48752E+04         0.20415E+04         0.00000E+00
    0.20415E+04         0.49767E+03         0.00000E+00
    0.00000E+00         0.00000E+00         0.00000E+00
 
    0.47917E+04         0.21422E+04         0.00000E+00
    0.21422E+04         0.55407E+03         0.00000E+00
    0.00000E+00         0.00000E+00         0.00000E+00
 
    0.47027E+04         0.22412E+04         0.00000E+00
    0.22412E+04         0.61314E+03         0.00000E+00
    0.00000E+00         0.00000E+00         0.00000E+00
 
    0.46080E+04         0.23382E+04         0.00000E+00
    0.23382E+04         0.67485E+03         0.00000E+00
    0.00000E+00         0.00000E+00         0.00000E+00
 
    0.45078E+04         0.24332E+04         0.00000E+00
    0.24332E+04         0.73914E+03         0.00000E+00
    0.00000E+00         0.00000E+00         0.00000E+00
 
    0.44023E+04         0.25260E+04         0.00000E+00
    0.25260E+04         0.80595E+03         0.00000E+00
    0.00000E+00         0.00000E+00         0.00000E+00
 
    0.42913E+04         0.26166E+04         0.00000E+00
    0.26166E+04         0.87522E+03         0.00000E+00
    0.00000E+00         0.00000E+00         0.00000E+00
 
    0.41751E+04         0.27048E+04         0.00000E+00
    0.27048E+04         0.94689E+03         0.00000E+00
    0.00000E+00         0.00000E+00         0.00000E+00
 
    0.40538E+04         0.27906E+04         0.00000E+00
    0.27906E+04         0.10209E+04         0.00000E+00
    0.00000E+00         0.00000E+00         0.00000E+00
 
    0.39273E+04         0.28737E+04         0.00000E+00
    0.28737E+04         0.10972E+04         0.00000E+00
    0.00000E+00         0.00000E+00         0.00000E+00
 
    0.37959E+04         0.29542E+04         0.00000E+00
    0.29542E+04         0.11757E+04         0.00000E+00
    0.00000E+00         0.00000E+00         0.00000E+00
 
    0.36596E+04         0.30319E+04         0.00000E+00
    0.30319E+04         0.12563E+04         0.00000E+00
    0.00000E+00         0.00000E+00         0.00000E+00
 
    0.35186E+04         0.31068E+04         0.00000E+00
    0.31068E+04         0.13389E+04         0.00000E+00
    0.00000E+00         0.00000E+00         0.00000E+00
 
    0.33729E+04         0.31786E+04         0.00000E+00
    0.31786E+04         0.14235E+04         0.00000E+00
    0.00000E+00         0.00000E+00         0.00000E+00
 
    0.32226E+04         0.32475E+04         0.00000E+00
    0.32475E+04         0.15100E+04         0.00000E+00
    0.00000E+00         0.00000E+00         0.00000E+00
 
    0.30680E+04         0.33131E+04         0.00000E+00
    0.33131E+04         0.15983E+04         0.00000E+00
    0.00000E+00         0.00000E+00         0.00000E+00
 
    0.29091E+04         0.33755E+04         0.00000E+00
    0.33755E+04         0.16883E+04         0.00000E+00
    0.00000E+00         0.00000E+00         0.00000E+00
 
    0.27459E+04         0.34346E+04         0.00000E+00
    0.34346E+04         0.17800E+04         0.00000E+00
    0.00000E+00         0.00000E+00         0.00000E+00
 
    0.25788E+04         0.34903E+04         0.00000E+00
    0.34903E+04         0.18732E+04         0.00000E+00
    0.00000E+00         0.00000E+00         0.00000E+00
 
    0.24078E+04         0.35425E+04         0.00000E+00
    0.35425E+04         0.19678E+04         0.00000E+00
    0.00000E+00         0.00000E+00         0.00000E+00
 
    0.22329E+04         0.35911E+04         0.00000E+00
    0.35911E+04         0.20638E+04         0.00000E+00
    0.00000E+00         0.00000E+00         0.00000E+00
 
    0.20545E+04         0.36361E+04         0.00000E+00
    0.36361E+04         0.21611E+04         0.00000E+00
    0.00000E+00         0.00000E+00         0.00000E+00
 
    0.18726E+04         0.36774E+04         0.00000E+00
    0.36774E+04         0.22595E+04         0.00000E+00
    0.00000E+00         0.00000E+00         0.00000E+00
 
    0.16873E+04         0.37148E+04         0.00000E+00
    0.37148E+04         0.23590E+04         0.00000E+00
    0.00000E+00         0.00000E+00         0.00000E+00
 
    0.14989E+04         0.37485E+04         0.00000E+00
    0.37485E+04         0.24594E+04         0.00000E+00
    0.00000E+00         0.00000E+00         0.00000E+00
 
    0.13074E+04         0.37782E+04         0.00000E+00
    0.37782E+04         0.25607E+04         0.00000E+00
    0.00000E+00         0.00000E+00         0.00000E+00
 
    0.11130E+04         0.38039E+04         0.00000E+00
    0.38039E+04         0.26627E+04         0.00000E+00
    0.00000E+00         0.00000E+00         0.00000E+00
 
    0.91596E+03         0.38257E+04         0.00000E+00
    0.38257E+04         0.27654E+04         0.00000E+00
    0.00000E+00         0.00000E+00         0.00000E+00
 
    0.71632E+03         0.38433E+04         0.00000E+00
    0.38433E+04         0.28686E+04         0.00000E+00
    0.00000E+00         0.00000E+00         0.00000E+00
 
    0.51428E+03         0.38568E+04         0.00000E+00
    0.38568E+04         0.29723E+04         0.00000E+00
    0.00000E+00         0.00000E+00         0.00000E+00
 
    0.31001E+03         0.38661E+04         0.00000E+00
    0.38661E+04         0.30762E+04         0.00000E+00
    0.00000E+00         0.00000E+00         0.00000E+00
 
    0.10367E+03         0.38712E+04         0.00000E+00
    0.38712E+04         0.31803E+04         0.00000E+00
    0.00000E+00         0.00000E+00         0.00000E+00
 
    0.59576E+04         0.63448E+02         0.00000E+00
    0.63448E+02        -0.23806E+02         0.00000E+00
    0.00000E+00         0.00000E+00         0.00000E+00
 
    0.59846E+04         0.19210E+03         0.00000E+00
    0.19210E+03        -0.20444E+02         0.00000E+00
    0.00000E+00         0.00000E+00         0.00000E+00
 
    0.60049E+04         0.32119E+03         0.00000E+00
    0.32119E+03        -0.13695E+02         0.00000E+00
    0.00000E+00         0.00000E+00         0.00000E+00
 
    0.60185E+04         0.45060E+03         0.00000E+00
    0.45060E+03        -0.35506E+01         0.00000E+00
    0.00000E+00         0.00000E+00         0.00000E+00
 
    0.60253E+04         0.58017E+03         0.00000E+00
    0.58017E+03         0.99946E+01         0.00000E+00
    0.00000E+00         0.00000E+00         0.00000E+00
 
    0.60253E+04         0.70976E+03         0.00000E+00
    0.70976E+03         0.26941E+02         0.00000E+00
    0.00000E+00         0.00000E+00         0.00000E+00
 
    0.60185E+04         0.83922E+03         0.00000E+00
    0.83922E+03         0.47286E+02         0.00000E+00
    0.00000E+00         0.00000E+00         0.00000E+00
 
    0.60049E+04         0.96842E+03         0.00000E+00
    0.96842E+03         0.71024E+02         0.00000E+00
    0.00000E+00         0.00000E+00         0.00000E+00
 
    0.59846E+04         0.10972E+04         0.00000E+00
    0.10972E+04         0.98143E+02         0.00000E+00
    0.00000E+00         0.00000E+00         0.00000E+00
 
    0.59575E+04         0.12254E+04         0.00000E+00
    0.12254E+04         0.12863E+03         0.00000E+00
    0.00000E+00         0.00000E+00         0.00000E+00
 
    0.59236E+04         0.13530E+04         0.00000E+00
    0.13530E+04         0.16247E+03         0.00000E+00
    0.00000E+00         0.00000E+00         0.00000E+00
 
    0.58831E+04         0.14797E+04         0.00000E+00
    0.14797E+04         0.19964E+03         0.00000E+00
    0.00000E+00         0.00000E+00         0.00000E+00
 
    0.58358E+04         0.16054E+04         0.00000E+00
    0.16054E+04         0.24011E+03         0.00000E+00
    0.00000E+00         0.00000E+00         0.00000E+00
 
    0.57819E+04         0.17300E+04         0.00000E+00
    0.17300E+04         0.28386E+03         0.00000E+00
    0.00000E+00         0.00000E+00         0.00000E+00
 
    0.57214E+04         0.18534E+04         0.00000E+00
    0.18534E+04         0.33085E+03         0.00000E+00
    0.00000E+00         0.00000E+00         0.00000E+00
 
    0.56543E+04         0.19753E+04         0.00000E+00
    0.19753E+04         0.38105E+03         0.00000E+00
    0.00000E+00         0.00000E+00         0.00000E+00
 
    0.55807E+04         0.20958E+04         0.00000E+00
    0.20958E+04         0.43442E+03         0.00000E+00
    0.00000E+00         0.00000E+00         0.00000E+00
 
    0.55006E+04         0.22145E+04         0.00000E+00
    0.22145E+04         0.49091E+03         0.00000E+00
    0.00000E+00         0.00000E+00         0.00000E+00
 
    0.54142E+04         0.23315E+04         0.00000E+00
    0.23315E+04         0.55049E+03         0.00000E+00
    0.00000E+00         0.00000E+00         0.00000E+00
 
    0.53214E+04         0.24465E+04         0.00000E+00
    0.24465E+04         0.61309E+03         0.00000E+00
    0.00000E+00         0.00000E+00         0.00000E+00
 
    0.52223E+04         0.25595E+04         0.00000E+00
    0.25595E+04         0.67867E+03         0.00000E+00
    0.00000E+00         0.00000E+00         0.00000E+00
 
    0.51170E+04         0.26702E+04         0.00000E+00
    0.26702E+04         0.74718E+03         0.00000E+00
    0.00000E+00         0.00000E+00         0.00000E+00
 
    0.50057E+04         0.27786E+04         0.00000E+00
    0.27786E+04         0.81854E+03         0.00000E+00
    0.00000E+00         0.00000E+00         0.00000E+00
 
    0.48883E+04         0.28846E+04         0.00000E+00
    0.28846E+04         0.89271E+03         0.00000E+00
    0.00000E+00         0.00000E+00         0.00000E+00
 
    0.47650E+04         0.29880E+04         0.00000E+00
    0.29880E+04         0.96960E+03         0.00000E+00
    0.00000E+00         0.00000E+00         0.00000E+00
 
    0.46359E+04         0.30887E+04         0.00000E+00
    0.30887E+04         0.10492E+04         0.00000E+00
    0.00000E+00         0.00000E+00         0.00000E+00
 
    0.45010E+04         0.31866E+04         0.00000E+00
    0.31866E+04         0.11313E+04         0.00000E+00
    0.00000E+00         0.00000E+00         0.00000E+00
 
    0.43605E+04         0.32815E+04         0.00000E+00
    0.32815E+04         0.12160E+04         0.00000E+00
    0.00000E+00         0.00000E+00         0.00000E+00
 
    0.42145E+04         0.33734E+04         0.00000E+00
    0.33734E+04         0.13031E+04         0.00000E+00
    0.00000E+00         0.00000E+00         0.00000E+00
 
    0.40631E+04         0.34621E+04         0.00000E+00
    0.34621E+04         0.13925E+04         0.00000E+00
    0.00000E+00         0.00000E+00         0.00000E+00
 
    0.39064E+04         0.35475E+04         0.00000E+00
    0.35475E+04         0.14843E+04         0.00000E+00
    0.00000E+00         0.00000E+00         0.00000E+00
 
    0.37446E+04         0.36295E+04         0.00000E+00
    0.36295E+04         0.15782E+04         0.00000E+00
    0.00000E+00         0.00000E+00         0.00000E+00
 
    0.35778E+04         0.37081E+04         0.00000E+00
    0.37081E+04         0.16742E+04         0.00000E+00
    0.00000E+00         0.00000E+00         0.00000E+00
 
    0.34060E+04         0.37830E+04         0.00000E+00
    0.37830E+04         0.17722E+04         0.00000E+00
    0.00000E+00         0.00000E+00         0.00000E+00
 
    0.32295E+04         0.38542E+04         0.00000E+00
    0.38542E+04         0.18721E+04         0.00000E+00
    0.00000E+00         0.00000E+00         0.00000E+00
 
    0.30484E+04         0.39217E+04         0.00000E+00
    0.39217E+04         0.19738E+04         0.00000E+00
    0.00000E+00         0.00000E+00         0.00000E+00
 
    0.28628E+04         0.39852E+04         0.00000E+00
    0.39852E+04         0.20772E+04         0.00000E+00
    0.00000E+00         0.00000E+00         0.00000E+00
 
    0.26729E+04         0.40448E+04         0.00000E+00
    0.40448E+04         0.21823E+04         0.00000E+00
    0.00000E+00         0.00000E+00         0.00000E+00
 
    0.24788E+04         0.41003E+04         0.00000E+00
    0.41003E+04         0.22888E+04         0.00000E+00
    0.00000E+00         0.00000E+00         0.00000E+00
 
    0.22806E+04         0.41517E+04         0.00000E+00
    0.41517E+04         0.23968E+04         0.00000E+00
    0.00000E+00         0.00000E+00         0.00000E+00
 
    0.20787E+04         0.41988E+04         0.00000E+00
    0.41988E+04         0.25060E+04         0.00000E+00
    0.00000E+00         0.00000E+00         0.00000E+00
 
    0.18730E+04         0.42416E+04         0.00000E+00
    0.42416E+04         0.26164E+04         0.00000E+00
    0.00000E+00         0.00000E+00         0.00000E+00
 
    0.16638E+04         0.42800E+04         0.00000E+00
    0.42800E+04         0.27278E+04         0.00000E+00
    0.00000E+00         0.00000E+00         0.00000E+00
 
    0.14512E+04         0.43139E+04         0.00000E+00
    0.43139E+04         0.28403E+04         0.00000E+00
    0.00000E+00         0.00000E+00         0.00000E+00
 
    0.12355E+04         0.43433E+04         0.00000E+00
    0.43433E+04         0.29535E+04         0.00000E+00
    0.00000E+00         0.00000E+00         0.00000E+00
 
    0.10167E+04         0.43682E+04         0.00000E+00
    0.43682E+04         0.30674E+04         0.00000E+00
    0.00000E+00         0.00000E+00         0.00000E+00
 
    0.79511E+03         0.43883E+04         0.00000E+00
    0.43883E+04         0.31820E+04         0.00000E+00
    0.00000E+00         0.00000E+00         0.00000E+00
 
    0.57085E+03         0.44038E+04         0.00000E+00
    0.44038E+04         0.32970E+04         0.00000E+00
    0.00000E+00         0.00000E+00         0.00000E+00
 
    0.34410E+03         0.44144E+04         0.00000E+00
    0.44144E+04         0.34124E+04         0.00000E+00
    0.00000E+00         0.00000E+00         0.00000E+00
 
    0.11507E+03         0.44203E+04         0.00000E+00
    0.44203E+04         0.35280E+04         0.00000E+00
    0.00000E+00         0.00000E+00         0.00000E+00
 
    0.66379E+04         0.72266E+02         0.00000E+00
    0.72266E+02        -0.29034E+02         0.00000E+00
    0.00000E+00         0.00000E+00         0.00000E+00
 
    0.66677E+04         0.21877E+03         0.00000E+00
    0.21877E+03        -0.25289E+02         0.00000E+00
    0.00000E+00         0.00000E+00         0.00000E+00
 
    0.66900E+04         0.36577E+03         0.00000E+00
    0.36577E+03        -0.17771E+02         0.00000E+00
    0.00000E+00         0.00000E+00         0.00000E+00
 
    0.67048E+04         0.51312E+03         0.00000E+00
    0.51312E+03        -0.64714E+01         0.00000E+00
    0.00000E+00         0.00000E+00         0.00000E+00
 
    0.67120E+04         0.66064E+03         0.00000E+00
    0.66064E+03         0.86149E+01         0.00000E+00
    0.00000E+00         0.00000E+00         0.00000E+00
 
    0.67117E+04         0.80817E+03         0.00000E+00
    0.80817E+03         0.27488E+02         0.00000E+00
    0.00000E+00         0.00000E+00         0.00000E+00
 
    0.67039E+04         0.95556E+03         0.00000E+00
    0.95556E+03         0.50146E+02         0.00000E+00
    0.00000E+00         0.00000E+00         0.00000E+00
 
    0.66885E+04         0.11026E+04         0.00000E+00
    0.11026E+04         0.76580E+02         0.00000E+00
    0.00000E+00         0.00000E+00         0.00000E+00
 
    0.66656E+04         0.12492E+04         0.00000E+00
    0.12492E+04         0.10678E+03         0.00000E+00
    0.00000E+00         0.00000E+00         0.00000E+00
 
    0.66351E+04         0.13952E+04         0.00000E+00
    0.13952E+04         0.14072E+03         0.00000E+00
    0.00000E+00         0.00000E+00         0.00000E+00
 
    0.65972E+04         0.15404E+04         0.00000E+00
    0.15404E+04         0.17840E+03         0.00000E+00
    0.00000E+00         0.00000E+00         0.00000E+00
 
    0.65518E+04         0.16846E+04         0.00000E+00
    0.16846E+04         0.21978E+03         0.00000E+00
    0.00000E+00         0.00000E+00         0.00000E+00
 
    0.64989E+04         0.18277E+04         0.00000E+00
    0.18277E+04         0.26484E+03         0.00000E+00
    0.00000E+00         0.00000E+00         0.00000E+00
 
    0.64386E+04         0.19695E+04         0.00000E+00
    0.19695E+04         0.31354E+03         0.00000E+00
    0.00000E+00         0.00000E+00         0.00000E+00
 
    0.63710E+04         0.21099E+04         0.00000E+00
    0.21099E+04         0.36585E+03         0.00000E+00
    0.00000E+00         0.00000E+00         0.00000E+00
 
    0.62961E+04         0.22487E+04         0.00000E+00
    0.22487E+04         0.42174E+03         0.00000E+00
    0.00000E+00         0.00000E+00         0.00000E+00
 
    0.62139E+04         0.23857E+04         0.00000E+00
    0.23857E+04         0.48114E+03         0.00000E+00
    0.00000E+00         0.00000E+00         0.00000E+00
 
    0.61246E+04         0.25208E+04         0.00000E+00
    0.25208E+04         0.54403E+03         0.00000E+00
    0.00000E+00         0.00000E+00         0.00000E+00
 
    0.60281E+04         0.26539E+04         0.00000E+00
    0.26539E+04         0.61034E+03         0.00000E+00
    0.00000E+00         0.00000E+00         0.00000E+00
 
    0.59246E+04         0.27848E+04         0.00000E+00
    0.27848E+04         0.68002E+03         0.00000E+00
    0.00000E+00         0.00000E+00         0.00000E+00
 
    0.58141E+04         0.29133E+04         0.00000E+00
    0.29133E+04         0.75301E+03         0.00000E+00
    0.00000E+00         0.00000E+00         0.00000E+00
 
    0.56968E+04         0.30393E+04         0.00000E+00
    0.30393E+04         0.82925E+03         0.00000E+00
    0.00000E+00         0.00000E+00         0.00000E+00
 
    0.55727E+04         0.31626E+04         0.00000E+00
    0.31626E+04         0.90867E+03         0.00000E+00
    0.00000E+00         0.00000E+00         0.00000E+00
 
    0.54418E+04         0.32832E+04         0.00000E+00
    0.32832E+04         0.99120E+03         0.00000E+00
    0.00000E+00         0.00000E+00         0.00000E+00
 
    0.53044E+04         0.34008E+04         0.00000E+00
    0.34008E+04         0.10768E+04         0.00000E+00
    0.00000E+00         0.00000E+00         0.00000E+00
 
    0.51605E+04         0.35154E+04         0.00000E+00
    0.35154E+04         0.11653E+04         0.00000E+00
    0.00000E+00         0.00000E+00         0.00000E+00
 
    0.50103E+04         0.36267E+04         0.00000E+00
    0.36267E+04         0.12567E+04         0.00000E+00
    0.00000E+00         0.00000E+00         0.00000E+00
 
    0.48538E+04         0.37347E+04         0.00000E+00
    0.37347E+04         0.13509E+04         0.00000E+00
    0.00000E+00         0.00000E+00         0.00000E+00
 
    0.46912E+04         0.38392E+04         0.00000E+00
    0.38392E+04         0.14478E+04         0.00000E+00
    0.00000E+00         0.00000E+00         0.00000E+00
 
    0.45225E+04         0.39401E+04         0.00000E+00
    0.39401E+04         0.15474E+04         0.00000E+00
    0.00000E+00         0.00000E+00         0.00000E+00
 
    0.43481E+04         0.40373E+04         0.00000E+00
    0.40373E+04         0.16495E+04         0.00000E+00
    0.00000E+00         0.00000E+00         0.00000E+00
 
    0.41678E+04         0.41306E+04         0.00000E+00
    0.41306E+04         0.17539E+04         0.00000E+00
    0.00000E+00         0.00000E+00         0.00000E+00
 
    0.39821E+04         0.42199E+04         0.00000E+00
    0.42199E+04         0.18608E+04         0.00000E+00
    0.00000E+00         0.00000E+00         0.00000E+00
 
    0.37908E+04         0.43052E+04         0.00000E+00
    0.43052E+04         0.19698E+04         0.00000E+00
    0.00000E+00         0.00000E+00         0.00000E+00
 
    0.35943E+04         0.43862E+04         0.00000E+00
    0.43862E+04         0.20810E+04         0.00000E+00
    0.00000E+00         0.00000E+00         0.00000E+00
 
    0.33927E+04         0.44630E+04         0.00000E+00
    0.44630E+04         0.21942E+04         0.00000E+00
    0.00000E+00         0.00000E+00         0.00000E+00
 
    0.31861E+04         0.45353E+04         0.00000E+00
    0.45353E+04         0.23092E+04         0.00000E+00
    0.00000E+00         0.00000E+00         0.00000E+00
 
    0.29746E+04         0.46030E+04         0.00000E+00
    0.46030E+04         0.24261E+04         0.00000E+00
    0.00000E+00         0.00000E+00         0.00000E+00
 
    0.27586E+04         0.46662E+04         0.00000E+00
    0.46662E+04         0.25446E+04         0.00000E+00
    0.00000E+00         0.00000E+00         0.00000E+00
 
    0.25381E+04         0.47246E+04         0.00000E+00
    0.47246E+04         0.26647E+04         0.00000E+00
    0.00000E+00         0.00000E+00         0.00000E+00
 
    0.23133E+04         0.47782E+04         0.00000E+00
    0.47782E+04         0.27862E+04         0.00000E+00
    0.00000E+00         0.00000E+00         0.00000E+00
 
    0.20844E+04         0.48269E+04         0.00000E+00
    0.48269E+04         0.29091E+04         0.00000E+00
    0.00000E+00         0.00000E+00         0.00000E+00
 
    0.18515E+04         0.48707E+04         0.00000E+00
    0.48707E+04         0.30331E+04         0.00000E+00
    0.00000E+00         0.00000E+00         0.00000E+00
 
    0.16150E+04         0.49093E+04         0.00000E+00
    0.49093E+04         0.31582E+04         0.00000E+00
    0.00000E+00         0.00000E+00         0.00000E+00
 
    0.13749E+04         0.49428E+04         0.00000E+00
    0.49428E+04         0.32842E+04         0.00000E+00
    0.00000E+00         0.00000E+00         0.00000E+00
 
    0.11314E+04         0.49711E+04         0.00000E+00
    0.49711E+04         0.34109E+04         0.00000E+00
    0.00000E+00         0.00000E+00         0.00000E+00
 
    0.88479E+03         0.49940E+04         0.00000E+00
    0.49940E+04         0.35384E+04         0.00000E+00
    0.00000E+00         0.00000E+00         0.00000E+00
 
    0.63523E+03         0.50117E+04         0.00000E+00
    0.50117E+04         0.36664E+04         0.00000E+00
    0.00000E+00         0.00000E+00         0.00000E+00
 
    0.38291E+03         0.50239E+04         0.00000E+00
    0.50239E+04         0.37948E+04         0.00000E+00
    0.00000E+00         0.00000E+00         0.00000E+00
 
    0.12804E+03         0.50306E+04         0.00000E+00
    0.50306E+04         0.39234E+04         0.00000E+00
    0.00000E+00         0.00000E+00         0.00000E+00
 
    0.74112E+04         0.82102E+02         0.00000E+00
    0.82102E+02        -0.35359E+02         0.00000E+00
    0.00000E+00         0.00000E+00         0.00000E+00
 
    0.74441E+04         0.24851E+03         0.00000E+00
    0.24851E+03        -0.31179E+02         0.00000E+00
    0.00000E+00         0.00000E+00         0.00000E+00
 
    0.74686E+04         0.41548E+03         0.00000E+00
    0.41548E+03        -0.22787E+02         0.00000E+00
    0.00000E+00         0.00000E+00         0.00000E+00
 
    0.74848E+04         0.58282E+03         0.00000E+00
    0.58282E+03        -0.10175E+02         0.00000E+00
    0.00000E+00         0.00000E+00         0.00000E+00
 
    0.74925E+04         0.75036E+03         0.00000E+00
    0.75036E+03         0.66621E+01         0.00000E+00
    0.00000E+00         0.00000E+00         0.00000E+00
 
    0.74918E+04         0.91790E+03         0.00000E+00
    0.91790E+03         0.27725E+02         0.00000E+00
    0.00000E+00         0.00000E+00         0.00000E+00
 
    0.74827E+04         0.10853E+04         0.00000E+00
    0.10853E+04         0.53009E+02         0.00000E+00
    0.00000E+00         0.00000E+00         0.00000E+00
 
    0.74652E+04         0.12523E+04         0.00000E+00
    0.12523E+04         0.82506E+02         0.00000E+00
    0.00000E+00         0.00000E+00         0.00000E+00
 
    0.74393E+04         0.14187E+04         0.00000E+00
    0.14187E+04         0.11620E+03         0.00000E+00
    0.00000E+00         0.00000E+00         0.00000E+00
 
    0.74050E+04         0.15844E+04         0.00000E+00
    0.15844E+04         0.15408E+03         0.00000E+00
    0.00000E+00         0.00000E+00         0.00000E+00
 
    0.73624E+04         0.17492E+04         0.00000E+00
    0.17492E+04         0.19611E+03         0.00000E+00
    0.00000E+00         0.00000E+00         0.00000E+00
 
    0.73114E+04         0.19129E+04         0.00000E+00
    0.19129E+04         0.24228E+03         0.00000E+00
    0.00000E+00         0.00000E+00         0.00000E+00
 
    0.72521E+04         0.20754E+04         0.00000E+00
    0.20754E+04         0.29254E+03         0.00000E+00
    0.00000E+00         0.00000E+00         0.00000E+00
 
    0.71846E+04         0.22364E+04         0.00000E+00
    0.22364E+04         0.34687E+03         0.00000E+00
    0.00000E+00         0.00000E+00         0.00000E+00
 
    0.71089E+04         0.23957E+04         0.00000E+00
    0.23957E+04         0.40523E+03         0.00000E+00
    0.00000E+00         0.00000E+00         0.00000E+00
 
    0.70250E+04         0.25532E+04         0.00000E+00
    0.25532E+04         0.46756E+03         0.00000E+00
    0.00000E+00         0.00000E+00         0.00000E+00
 
    0.69331E+04         0.27087E+04         0.00000E+00
    0.27087E+04         0.53382E+03         0.00000E+00
    0.00000E+00         0.00000E+00         0.00000E+00
 
    0.68332E+04         0.28621E+04         0.00000E+00
    0.28621E+04         0.60396E+03         0.00000E+00
    0.00000E+00         0.00000E+00         0.00000E+00
 
    0.67253E+04         0.30131E+04         0.00000E+00
    0.30131E+04         0.67791E+03         0.00000E+00
    0.00000E+00         0.00000E+00         0.00000E+00
 
    0.66096E+04         0.31616E+04         0.00000E+00
    0.31616E+04         0.75562E+03         0.00000E+00
    0.00000E+00         0.00000E+00         0.00000E+00
 
    0.64862E+04         0.33075E+04         0.00000E+00
    0.33075E+04         0.83702E+03         0.00000E+00
    0.00000E+00         0.00000E+00         0.00000E+00
 
    0.63551E+04         0.34504E+04         0.00000E+00
    0.34504E+04         0.92204E+03         0.00000E+00
    0.00000E+00         0.00000E+00         0.00000E+00
 
    0.62164E+04         0.35904E+04         0.00000E+00
    0.35904E+04         0.10106E+04         0.00000E+00
    0.00000E+00         0.00000E+00         0.00000E+00
 
    0.60703E+04         0.37272E+04         0.00000E+00
    0.37272E+04         0.11026E+04         0.00000E+00
    0.00000E+00         0.00000E+00         0.00000E+00
 
    0.59169E+04         0.38607E+04         0.00000E+00
    0.38607E+04         0.11981E+04         0.00000E+00
    0.00000E+00         0.00000E+00         0.00000E+00
 
    0.57562E+04         0.39907E+04         0.00000E+00
    0.39907E+04         0.12968E+04         0.00000E+00
    0.00000E+00         0.00000E+00         0.00000E+00
 
    0.55885E+04         0.41170E+04         0.00000E+00
    0.41170E+04         0.13987E+04         0.00000E+00
    0.00000E+00         0.00000E+00         0.00000E+00
 
    0.54138E+04         0.42395E+04         0.00000E+00
    0.42395E+04         0.15037E+04         0.00000E+00
    0.00000E+00         0.00000E+00         0.00000E+00
 
    0.52323E+04         0.43581E+04         0.00000E+00
    0.43581E+04         0.16118E+04         0.00000E+00
    0.00000E+00         0.00000E+00         0.00000E+00
 
    0.50441E+04         0.44726E+04         0.00000E+00
    0.44726E+04         0.17228E+04         0.00000E+00
    0.00000E+00         0.00000E+00         0.00000E+00
 
    0.48493E+04         0.45828E+04         0.00000E+00
    0.45828E+04         0.18366E+04         0.00000E+00
    0.00000E+00         0.00000E+00         0.00000E+00
 
    0.46483E+04         0.46887E+04         0.00000E+00
    0.46887E+04         0.19531E+04         0.00000E+00
    0.00000E+00         0.00000E+00         0.00000E+00
 
    0.44410E+04         0.47901E+04         0.00000E+00
    0.47901E+04         0.20722E+04         0.00000E+00
    0.00000E+00         0.00000E+00         0.00000E+00
 
    0.42276E+04         0.48868E+04         0.00000E+00
    0.48868E+04         0.21937E+04         0.00000E+00
    0.00000E+00         0.00000E+00         0.00000E+00
 
    0.40084E+04         0.49788E+04         0.00000E+00
    0.49788E+04         0.23177E+04         0.00000E+00
    0.00000E+00         0.00000E+00         0.00000E+00
 
    0.37834E+04         0.50658E+04         0.00000E+00
    0.50658E+04         0.24438E+04         0.00000E+00
    0.00000E+00         0.00000E+00         0.00000E+00
 
    0.35529E+04         0.51479E+04         0.00000E+00
    0.51479E+04         0.25721E+04         0.00000E+00
    0.00000E+00         0.00000E+00         0.00000E+00
 
    0.33171E+04         0.52248E+04         0.00000E+00
    0.52248E+04         0.27024E+04         0.00000E+00
    0.00000E+00         0.00000E+00         0.00000E+00
 
    0.30762E+04         0.52964E+04         0.00000E+00
    0.52964E+04         0.28346E+04         0.00000E+00
    0.00000E+00         0.00000E+00         0.00000E+00
 
    0.28302E+04         0.53628E+04         0.00000E+00
    0.53628E+04         0.29684E+04         0.00000E+00
    0.00000E+00         0.00000E+00         0.00000E+00
 
    0.25795E+04         0.54236E+04         0.00000E+00
    0.54236E+04         0.31039E+04         0.00000E+00
    0.00000E+00         0.00000E+00         0.00000E+00
 
    0.23242E+04         0.54789E+04         0.00000E+00
    0.54789E+04         0.32408E+04         0.00000E+00
    0.00000E+00         0.00000E+00         0.00000E+00
 
    0.20646E+04         0.55285E+04         0.00000E+00
    0.55285E+04         0.33791E+04         0.00000E+00
    0.00000E+00         0.00000E+00         0.00000E+00
 
    0.18008E+04         0.55724E+04         0.00000E+00
    0.55724E+04         0.35185E+04         0.00000E+00
    0.00000E+00         0.00000E+00         0.00000E+00
 
    0.15330E+04         0.56105E+04         0.00000E+00
    0.56105E+04         0.36590E+04         0.00000E+00
    0.00000E+00         0.00000E+00         0.00000E+00
 
    0.12615E+04         0.56426E+04         0.00000E+00
    0.56426E+04         0.38004E+04         0.00000E+00
    0.00000E+00         0.00000E+00         0.00000E+00
 
    0.98656E+03         0.56687E+04         0.00000E+00
    0.56687E+04         0.39424E+04         0.00000E+00
    0.00000E+00         0.00000E+00         0.00000E+00
 
    0.70828E+03         0.56888E+04         0.00000E+00
    0.56888E+04         0.40851E+04         0.00000E+00
    0.00000E+00         0.00000E+00         0.00000E+00
 
    0.42694E+03         0.57027E+04         0.00000E+00
    0.57027E+04         0.42283E+04         0.00000E+00
    0.00000E+00         0.00000E+00         0.00000E+00
 
    0.14277E+03         0.57104E+04         0.00000E+00
    0.57104E+04         0.43717E+04         0.00000E+00
    0.00000E+00         0.00000E+00         0.00000E+00
 
    0.82883E+04         0.93094E+02         0.00000E+00
    0.93094E+02        -0.43016E+02         0.00000E+00
    0.00000E+00         0.00000E+00         0.00000E+00
 
    0.83246E+04         0.28174E+03         0.00000E+00
    0.28174E+03        -0.38341E+02         0.00000E+00
    0.00000E+00         0.00000E+00         0.00000E+00
 
    0.83516E+04         0.47101E+03         0.00000E+00
    0.47101E+03        -0.28959E+02         0.00000E+00
    0.00000E+00         0.00000E+00         0.00000E+00
 
    0.83692E+04         0.66069E+03         0.00000E+00
    0.66069E+03        -0.14859E+02         0.00000E+00
    0.00000E+00         0.00000E+00         0.00000E+00
 
    0.83774E+04         0.85058E+03         0.00000E+00
    0.85058E+03         0.39635E+01         0.00000E+00
    0.00000E+00         0.00000E+00         0.00000E+00
 
    0.83762E+04         0.10405E+04         0.00000E+00
    0.10405E+04         0.27508E+02         0.00000E+00
    0.00000E+00         0.00000E+00         0.00000E+00
 
    0.83657E+04         0.12301E+04         0.00000E+00
    0.12301E+04         0.55769E+02         0.00000E+00
    0.00000E+00         0.00000E+00         0.00000E+00
 
    0.83457E+04         0.14194E+04         0.00000E+00
    0.14194E+04         0.88737E+02         0.00000E+00
    0.00000E+00         0.00000E+00         0.00000E+00
 
    0.83164E+04         0.16080E+04         0.00000E+00
    0.16080E+04         0.12640E+03         0.00000E+00
    0.00000E+00         0.00000E+00         0.00000E+00
 
    0.82777E+04         0.17957E+04         0.00000E+00
    0.17957E+04         0.16872E+03         0.00000E+00
    0.00000E+00         0.00000E+00         0.00000E+00
 
    0.82296E+04         0.19825E+04         0.00000E+00
    0.19825E+04         0.21570E+03         0.00000E+00
    0.00000E+00         0.00000E+00         0.00000E+00
 
    0.81723E+04         0.21679E+04         0.00000E+00
    0.21679E+04         0.26728E+03         0.00000E+00
    0.00000E+00         0.00000E+00         0.00000E+00
 
    0.81057E+04         0.23519E+04         0.00000E+00
    0.23519E+04         0.32345E+03         0.00000E+00
    0.00000E+00         0.00000E+00         0.00000E+00
 
    0.80299E+04         0.25343E+04         0.00000E+00
    0.25343E+04         0.38415E+03         0.00000E+00
    0.00000E+00         0.00000E+00         0.00000E+00
 
    0.79450E+04         0.27148E+04         0.00000E+00
    0.27148E+04         0.44935E+03         0.00000E+00
    0.00000E+00         0.00000E+00         0.00000E+00
 
    0.78510E+04         0.28932E+04         0.00000E+00
    0.28932E+04         0.51899E+03         0.00000E+00
    0.00000E+00         0.00000E+00         0.00000E+00
 
    0.77480E+04         0.30694E+04         0.00000E+00
    0.30694E+04         0.59301E+03         0.00000E+00
    0.00000E+00         0.00000E+00         0.00000E+00
 
    0.76360E+04         0.32431E+04         0.00000E+00
    0.32431E+04         0.67136E+03         0.00000E+00
    0.00000E+00         0.00000E+00         0.00000E+00
 
    0.75152E+04         0.34141E+04         0.00000E+00
    0.34141E+04         0.75397E+03         0.00000E+00
    0.00000E+00         0.00000E+00         0.00000E+00
 
    0.73857E+04         0.35823E+04         0.00000E+00
    0.35823E+04         0.84078E+03         0.00000E+00
    0.00000E+00         0.00000E+00         0.00000E+00
 
    0.72475E+04         0.37474E+04         0.00000E+00
    0.37474E+04         0.93170E+03         0.00000E+00
    0.00000E+00         0.00000E+00         0.00000E+00
 
    0.71008E+04         0.39094E+04         0.00000E+00
    0.39094E+04         0.10267E+04         0.00000E+00
    0.00000E+00         0.00000E+00         0.00000E+00
 
    0.69456E+04         0.40679E+04         0.00000E+00
    0.40679E+04         0.11256E+04         0.00000E+00
    0.00000E+00         0.00000E+00         0.00000E+00
 
    0.67822E+04         0.42228E+04         0.00000E+00
    0.42228E+04         0.12284E+04         0.00000E+00
    0.00000E+00         0.00000E+00         0.00000E+00
 
    0.66105E+04         0.43739E+04         0.00000E+00
    0.43739E+04         0.13349E+04         0.00000E+00
    0.00000E+00         0.00000E+00         0.00000E+00
 
    0.64308E+04         0.45211E+04         0.00000E+00
    0.45211E+04         0.14452E+04         0.00000E+00
    0.00000E+00         0.00000E+00         0.00000E+00
 
    0.62433E+04         0.46641E+04         0.00000E+00
    0.46641E+04         0.15590E+04         0.00000E+00
    0.00000E+00         0.00000E+00         0.00000E+00
 
    0.60479E+04         0.48028E+04         0.00000E+00
    0.48028E+04         0.16763E+04         0.00000E+00
    0.00000E+00         0.00000E+00         0.00000E+00
 
    0.58450E+04         0.49371E+04         0.00000E+00
    0.49371E+04         0.17970E+04         0.00000E+00
    0.00000E+00         0.00000E+00         0.00000E+00
 
    0.56346E+04         0.50667E+04         0.00000E+00
    0.50667E+04         0.19209E+04         0.00000E+00
    0.00000E+00         0.00000E+00         0.00000E+00
 
    0.54170E+04         0.51916E+04         0.00000E+00
    0.51916E+04         0.20480E+04         0.00000E+00
    0.00000E+00         0.00000E+00         0.00000E+00
 
    0.51922E+04         0.53114E+04         0.00000E+00
    0.53114E+04         0.21781E+04         0.00000E+00
    0.00000E+00         0.00000E+00         0.00000E+00
 
    0.49606E+04         0.54262E+04         0.00000E+00
    0.54262E+04         0.23110E+04         0.00000E+00
    0.00000E+00         0.00000E+00         0.00000E+00
 
    0.47221E+04         0.55357E+04         0.00000E+00
    0.55357E+04         0.24468E+04         0.00000E+00
    0.00000E+00         0.00000E+00         0.00000E+00
 
    0.44772E+04         0.56399E+04         0.00000E+00
    0.56399E+04         0.25852E+04         0.00000E+00
    0.00000E+00         0.00000E+00         0.00000E+00
 
    0.42258E+04         0.57385E+04         0.00000E+00
    0.57385E+04         0.27260E+04         0.00000E+00
    0.00000E+00         0.00000E+00         0.00000E+00
 
    0.39683E+04         0.58314E+04         0.00000E+00
    0.58314E+04         0.28693E+04         0.00000E+00
    0.00000E+00         0.00000E+00         0.00000E+00
 
    0.37049E+04         0.59185E+04         0.00000E+00
    0.59185E+04         0.30148E+04         0.00000E+00
    0.00000E+00         0.00000E+00         0.00000E+00
 
    0.34357E+04         0.59996E+04         0.00000E+00
    0.59996E+04         0.31623E+04         0.00000E+00
    0.00000E+00         0.00000E+00         0.00000E+00
 
    0.31609E+04         0.60747E+04         0.00000E+00
    0.60747E+04         0.33118E+04         0.00000E+00
    0.00000E+00         0.00000E+00         0.00000E+00
 
    0.28809E+04         0.61437E+04         0.00000E+00
    0.61437E+04         0.34631E+04         0.00000E+00
    0.00000E+00         0.00000E+00         0.00000E+00
 
    0.25957E+04         0.62063E+04         0.00000E+00
    0.62063E+04         0.36160E+04         0.00000E+00
    0.00000E+00         0.00000E+00         0.00000E+00
 
    0.23057E+04         0.62625E+04         0.00000E+00
    0.62625E+04         0.37703E+04         0.00000E+00
    0.00000E+00         0.00000E+00         0.00000E+00
 
    0.20111E+04         0.63123E+04         0.00000E+00
    0.63123E+04         0.39260E+04         0.00000E+00
    0.00000E+00         0.00000E+00         0.00000E+00
 
    0.17121E+04         0.63554E+04         0.00000E+00
    0.63554E+04         0.40828E+04         0.00000E+00
    0.00000E+00         0.00000E+00         0.00000E+00
 
    0.14089E+04         0.63919E+04         0.00000E+00
    0.63919E+04         0.42407E+04         0.00000E+00
    0.00000E+00         0.00000E+00         0.00000E+00
 
    0.11017E+04         0.64215E+04         0.00000E+00
    0.64215E+04         0.43993E+04         0.00000E+00
    0.00000E+00         0.00000E+00         0.00000E+00
 
    0.79097E+03         0.64443E+04         0.00000E+00
    0.64443E+04         0.45587E+04         0.00000E+00
    0.00000E+00         0.00000E+00         0.00000E+00
 
    0.47678E+03         0.64602E+04         0.00000E+00
    0.64602E+04         0.47185E+04         0.00000E+00
    0.00000E+00         0.00000E+00         0.00000E+00
 
    0.15943E+03         0.64690E+04         0.00000E+00
    0.64690E+04         0.48787E+04         0.00000E+00
    0.00000E+00         0.00000E+00         0.00000E+00
 
    0.92812E+04         0.10540E+03         0.00000E+00
    0.10540E+03        -0.52283E+02         0.00000E+00
    0.00000E+00         0.00000E+00         0.00000E+00
 
    0.93213E+04         0.31893E+03         0.00000E+00
    0.31893E+03        -0.47049E+02         0.00000E+00
    0.00000E+00         0.00000E+00         0.00000E+00
 
    0.93510E+04         0.53314E+03         0.00000E+00
    0.53314E+03        -0.36545E+02         0.00000E+00
    0.00000E+00         0.00000E+00         0.00000E+00
 
    0.93702E+04         0.74781E+03         0.00000E+00
    0.74781E+03        -0.20762E+02         0.00000E+00
    0.00000E+00         0.00000E+00         0.00000E+00
 
    0.93789E+04         0.96268E+03         0.00000E+00
    0.96268E+03         0.30605E+00         0.00000E+00
    0.00000E+00         0.00000E+00         0.00000E+00
 
    0.93771E+04         0.11775E+04         0.00000E+00
    0.11775E+04         0.26658E+02         0.00000E+00
    0.00000E+00         0.00000E+00         0.00000E+00
 
    0.93648E+04         0.13921E+04         0.00000E+00
    0.13921E+04         0.58287E+02         0.00000E+00
    0.00000E+00         0.00000E+00         0.00000E+00
 
    0.93420E+04         0.16062E+04         0.00000E+00
    0.16062E+04         0.95181E+02         0.00000E+00
    0.00000E+00         0.00000E+00         0.00000E+00
 
    0.93087E+04         0.18196E+04         0.00000E+00
    0.18196E+04         0.13732E+03         0.00000E+00
    0.00000E+00         0.00000E+00         0.00000E+00
 
    0.92649E+04         0.20320E+04         0.00000E+00
    0.20320E+04         0.18469E+03         0.00000E+00
    0.00000E+00         0.00000E+00         0.00000E+00
 
    0.92108E+04         0.22432E+04         0.00000E+00
    0.22432E+04         0.23724E+03         0.00000E+00
    0.00000E+00         0.00000E+00         0.00000E+00
 
    0.91462E+04         0.24530E+04         0.00000E+00
    0.24530E+04         0.29496E+03         0.00000E+00
    0.00000E+00         0.00000E+00         0.00000E+00
 
    0.90713E+04         0.26612E+04         0.00000E+00
    0.26612E+04         0.35780E+03         0.00000E+00
    0.00000E+00         0.00000E+00         0.00000E+00
 
    0.89861E+04         0.28674E+04         0.00000E+00
    0.28674E+04         0.42571E+03         0.00000E+00
    0.00000E+00         0.00000E+00         0.00000E+00
 
    0.88907E+04         0.30715E+04         0.00000E+00
    0.30715E+04         0.49864E+03         0.00000E+00
    0.00000E+00         0.00000E+00         0.00000E+00
 
    0.87851E+04         0.32733E+04         0.00000E+00
    0.32733E+04         0.57653E+03         0.00000E+00
    0.00000E+00         0.00000E+00         0.00000E+00
 
    0.86695E+04         0.34725E+04         0.00000E+00
    0.34725E+04         0.65933E+03         0.00000E+00
    0.00000E+00         0.00000E+00         0.00000E+00
 
    0.85439E+04         0.36689E+04         0.00000E+00
    0.36689E+04         0.74696E+03         0.00000E+00
    0.00000E+00         0.00000E+00         0.00000E+00
 
    0.84084E+04         0.38623E+04         0.00000E+00
    0.38623E+04         0.83936E+03         0.00000E+00
    0.00000E+00         0.00000E+00         0.00000E+00
 
    0.82632E+04         0.40525E+04         0.00000E+00
    0.40525E+04         0.93644E+03         0.00000E+00
    0.00000E+00         0.00000E+00         0.00000E+00
 
    0.81083E+04         0.42392E+04         0.00000E+00
    0.42392E+04         0.10381E+04         0.00000E+00
    0.00000E+00         0.00000E+00         0.00000E+00
 
    0.79439E+04         0.44222E+04         0.00000E+00
    0.44222E+04         0.11443E+04         0.00000E+00
    0.00000E+00         0.00000E+00         0.00000E+00
 
    0.77700E+04         0.46014E+04         0.00000E+00
    0.46014E+04         0.12549E+04         0.00000E+00
    0.00000E+00         0.00000E+00         0.00000E+00
 
    0.75869E+04         0.47766E+04         0.00000E+00
    0.47766E+04         0.13699E+04         0.00000E+00
    0.00000E+00         0.00000E+00         0.00000E+00
 
    0.73947E+04         0.49474E+04         0.00000E+00
    0.49474E+04         0.14890E+04         0.00000E+00
    0.00000E+00         0.00000E+00         0.00000E+00
 
    0.71935E+04         0.51138E+04         0.00000E+00
    0.51138E+04         0.16123E+04         0.00000E+00
    0.00000E+00         0.00000E+00         0.00000E+00
 
    0.69835E+04         0.52755E+04         0.00000E+00
    0.52755E+04         0.17396E+04         0.00000E+00
    0.00000E+00         0.00000E+00         0.00000E+00
 
    0.67648E+04         0.54323E+04         0.00000E+00
    0.54323E+04         0.18707E+04         0.00000E+00
    0.00000E+00         0.00000E+00         0.00000E+00
 
    0.65376E+04         0.55841E+04         0.00000E+00
    0.55841E+04         0.20057E+04         0.00000E+00
    0.00000E+00         0.00000E+00         0.00000E+00
 
    0.63021E+04         0.57306E+04         0.00000E+00
    0.57306E+04         0.21442E+04         0.00000E+00
    0.00000E+00         0.00000E+00         0.00000E+00
 
    0.60586E+04         0.58717E+04         0.00000E+00
    0.58717E+04         0.22863E+04         0.00000E+00
    0.00000E+00         0.00000E+00         0.00000E+00
 
    0.58070E+04         0.60073E+04         0.00000E+00
    0.60073E+04         0.24317E+04         0.00000E+00
    0.00000E+00         0.00000E+00         0.00000E+00
 
    0.55478E+04         0.61370E+04         0.00000E+00
    0.61370E+04         0.25804E+04         0.00000E+00
    0.00000E+00         0.00000E+00         0.00000E+00
 
    0.52810E+04         0.62608E+04         0.00000E+00
    0.62608E+04         0.27321E+04         0.00000E+00
    0.00000E+00         0.00000E+00         0.00000E+00
 
    0.50070E+04         0.63785E+04         0.00000E+00
    0.63785E+04         0.28868E+04         0.00000E+00
    0.00000E+00         0.00000E+00         0.00000E+00
 
    0.47258E+04         0.64900E+04         0.00000E+00
    0.64900E+04         0.30443E+04         0.00000E+00
    0.00000E+00         0.00000E+00         0.00000E+00
 
    0.44377E+04         0.65950E+04         0.00000E+00
    0.65950E+04         0.32045E+04         0.00000E+00
    0.00000E+00         0.00000E+00         0.00000E+00
 
    0.41430E+04         0.66935E+04         0.00000E+00
    0.66935E+04         0.33671E+04         0.00000E+00
    0.00000E+00         0.00000E+00         0.00000E+00
 
    0.38419E+04         0.67853E+04         0.00000E+00
    0.67853E+04         0.35320E+04         0.00000E+00
    0.00000E+00         0.00000E+00         0.00000E+00
 
    0.35346E+04         0.68702E+04         0.00000E+00
    0.68702E+04         0.36991E+04         0.00000E+00
    0.00000E+00         0.00000E+00         0.00000E+00
 
    0.32214E+04         0.69482E+04         0.00000E+00
    0.69482E+04         0.38682E+04         0.00000E+00
    0.00000E+00         0.00000E+00         0.00000E+00
 
    0.29025E+04         0.70190E+04         0.00000E+00
    0.70190E+04         0.40392E+04         0.00000E+00
    0.00000E+00         0.00000E+00         0.00000E+00
 
    0.25782E+04         0.70826E+04         0.00000E+00
    0.70826E+04         0.42117E+04         0.00000E+00
    0.00000E+00         0.00000E+00         0.00000E+00
 
    0.22487E+04         0.71389E+04         0.00000E+00
    0.71389E+04         0.43858E+04         0.00000E+00
    0.00000E+00         0.00000E+00         0.00000E+00
 
    0.19143E+04         0.71878E+04         0.00000E+00
    0.71878E+04         0.45611E+04         0.00000E+00
    0.00000E+00         0.00000E+00         0.00000E+00
 
    0.15753E+04         0.72290E+04         0.00000E+00
    0.72290E+04         0.47376E+04         0.00000E+00
    0.00000E+00         0.00000E+00         0.00000E+00
 
    0.12319E+04         0.72627E+04         0.00000E+00
    0.72627E+04         0.49150E+04         0.00000E+00
    0.00000E+00         0.00000E+00         0.00000E+00
 
    0.88440E+03         0.72885E+04         0.00000E+00
    0.72885E+04         0.50931E+04         0.00000E+00
    0.00000E+00         0.00000E+00         0.00000E+00
 
    0.53309E+03         0.73066E+04         0.00000E+00
    0.73066E+04         0.52718E+04         0.00000E+00
    0.00000E+00         0.00000E+00         0.00000E+00
 
    0.17826E+03         0.73167E+04         0.00000E+00
    0.73167E+04         0.54508E+04         0.00000E+00
    0.00000E+00         0.00000E+00         0.00000E+00
 
    0.10404E+05         0.11918E+03         0.00000E+00
    0.11918E+03        -0.63499E+02         0.00000E+00
    0.00000E+00         0.00000E+00         0.00000E+00
 
    0.10448E+05         0.36058E+03         0.00000E+00
    0.36058E+03        -0.57633E+02         0.00000E+00
    0.00000E+00         0.00000E+00         0.00000E+00
 
    0.10481E+05         0.60273E+03         0.00000E+00
    0.60273E+03        -0.45863E+02         0.00000E+00
    0.00000E+00         0.00000E+00         0.00000E+00
 
    0.10502E+05         0.84537E+03         0.00000E+00
    0.84537E+03        -0.28177E+02         0.00000E+00
    0.00000E+00         0.00000E+00         0.00000E+00
 
    0.10511E+05         0.10882E+04         0.00000E+00
    0.10882E+04        -0.45718E+01         0.00000E+00
    0.00000E+00         0.00000E+00         0.00000E+00
 
    0.10508E+05         0.13310E+04         0.00000E+00
    0.13310E+04         0.24951E+02         0.00000E+00
    0.00000E+00         0.00000E+00         0.00000E+00
 
    0.10494E+05         0.15736E+04         0.00000E+00
    0.15736E+04         0.60384E+02         0.00000E+00
    0.00000E+00         0.00000E+00         0.00000E+00
 
    0.10468E+05         0.18155E+04         0.00000E+00
    0.18155E+04         0.10171E+03         0.00000E+00
    0.00000E+00         0.00000E+00         0.00000E+00
 
    0.10430E+05         0.20566E+04         0.00000E+00
    0.20566E+04         0.14891E+03         0.00000E+00
    0.00000E+00         0.00000E+00         0.00000E+00
 
    0.10380E+05         0.22966E+04         0.00000E+00
    0.22966E+04         0.20196E+03         0.00000E+00
    0.00000E+00         0.00000E+00         0.00000E+00
 
    0.10319E+05         0.25352E+04         0.00000E+00
    0.25352E+04         0.26083E+03         0.00000E+00
    0.00000E+00         0.00000E+00         0.00000E+00
 
    0.10246E+05         0.27722E+04         0.00000E+00
    0.27722E+04         0.32547E+03         0.00000E+00
    0.00000E+00         0.00000E+00         0.00000E+00
 
    0.10162E+05         0.30073E+04         0.00000E+00
    0.30073E+04         0.39583E+03         0.00000E+00
    0.00000E+00         0.00000E+00         0.00000E+00
 
    0.10066E+05         0.32402E+04         0.00000E+00
    0.32402E+04         0.47188E+03         0.00000E+00
    0.00000E+00         0.00000E+00         0.00000E+00
 
    0.99586E+04         0.34708E+04         0.00000E+00
    0.34708E+04         0.55354E+03         0.00000E+00
    0.00000E+00         0.00000E+00         0.00000E+00
 
    0.98400E+04         0.36986E+04         0.00000E+00
    0.36986E+04         0.64076E+03         0.00000E+00
    0.00000E+00         0.00000E+00         0.00000E+00
 
    0.97101E+04         0.39236E+04         0.00000E+00
    0.39236E+04         0.73346E+03         0.00000E+00
    0.00000E+00         0.00000E+00         0.00000E+00
 
    0.95690E+04         0.41454E+04         0.00000E+00
    0.41454E+04         0.83157E+03         0.00000E+00
    0.00000E+00         0.00000E+00         0.00000E+00
 
    0.94169E+04         0.43638E+04         0.00000E+00
    0.43638E+04         0.93501E+03         0.00000E+00
    0.00000E+00         0.00000E+00         0.00000E+00
 
    0.92539E+04         0.45785E+04         0.00000E+00
    0.45785E+04         0.10437E+04         0.00000E+00
    0.00000E+00         0.00000E+00         0.00000E+00
 
    0.90801E+04         0.47894E+04         0.00000E+00
    0.47894E+04         0.11575E+04         0.00000E+00
    0.00000E+00         0.00000E+00         0.00000E+00
 
    0.88956E+04         0.49961E+04         0.00000E+00
    0.49961E+04         0.12764E+04         0.00000E+00
    0.00000E+00         0.00000E+00         0.00000E+00
 
    0.87007E+04         0.51984E+04         0.00000E+00
    0.51984E+04         0.14002E+04         0.00000E+00
    0.00000E+00         0.00000E+00         0.00000E+00
 
    0.84953E+04         0.53961E+04         0.00000E+00
    0.53961E+04         0.15288E+04         0.00000E+00
    0.00000E+00         0.00000E+00         0.00000E+00
 
    0.82798E+04         0.55890E+04         0.00000E+00
    0.55890E+04         0.16622E+04         0.00000E+00
    0.00000E+00         0.00000E+00         0.00000E+00
 
    0.80543E+04         0.57769E+04         0.00000E+00
    0.57769E+04         0.18002E+04         0.00000E+00
    0.00000E+00         0.00000E+00         0.00000E+00
 
    0.78189E+04         0.59594E+04         0.00000E+00
    0.59594E+04         0.19426E+04         0.00000E+00
    0.00000E+00         0.00000E+00         0.00000E+00
 
    0.75738E+04         0.61365E+04         0.00000E+00
    0.61365E+04         0.20894E+04         0.00000E+00
    0.00000E+00         0.00000E+00         0.00000E+00
 
    0.73193E+04         0.63078E+04         0.00000E+00
    0.63078E+04         0.22404E+04         0.00000E+00
    0.00000E+00         0.00000E+00         0.00000E+00
 
    0.70554E+04         0.64733E+04         0.00000E+00
    0.64733E+04         0.23954E+04         0.00000E+00
    0.00000E+00         0.00000E+00         0.00000E+00
 
    0.67826E+04         0.66326E+04         0.00000E+00
    0.66326E+04         0.25544E+04         0.00000E+00
    0.00000E+00         0.00000E+00         0.00000E+00
 
    0.65008E+04         0.67856E+04         0.00000E+00
    0.67856E+04         0.27172E+04         0.00000E+00
    0.00000E+00         0.00000E+00         0.00000E+00
 
    0.62104E+04         0.69320E+04         0.00000E+00
    0.69320E+04         0.28835E+04         0.00000E+00
    0.00000E+00         0.00000E+00         0.00000E+00
 
    0.59117E+04         0.70718E+04         0.00000E+00
    0.70718E+04         0.30533E+04         0.00000E+00
    0.00000E+00         0.00000E+00         0.00000E+00
 
    0.56047E+04         0.72047E+04         0.00000E+00
    0.72047E+04         0.32264E+04         0.00000E+00
    0.00000E+00         0.00000E+00         0.00000E+00
 
    0.52899E+04         0.73306E+04         0.00000E+00
    0.73306E+04         0.34027E+04         0.00000E+00
    0.00000E+00         0.00000E+00         0.00000E+00
 
    0.49673E+04         0.74492E+04         0.00000E+00
    0.74492E+04         0.35818E+04         0.00000E+00
    0.00000E+00         0.00000E+00         0.00000E+00
 
    0.46374E+04         0.75604E+04         0.00000E+00
    0.75604E+04         0.37638E+04         0.00000E+00
    0.00000E+00         0.00000E+00         0.00000E+00
 
    0.43003E+04         0.76640E+04         0.00000E+00
    0.76640E+04         0.39484E+04         0.00000E+00
    0.00000E+00         0.00000E+00         0.00000E+00
 
    0.39562E+04         0.77599E+04         0.00000E+00
    0.77599E+04         0.41354E+04         0.00000E+00
    0.00000E+00         0.00000E+00         0.00000E+00
 
    0.36056E+04         0.78480E+04         0.00000E+00
    0.78480E+04         0.43246E+04         0.00000E+00
    0.00000E+00         0.00000E+00         0.00000E+00
 
    0.32486E+04         0.79280E+04         0.00000E+00
    0.79280E+04         0.45158E+04         0.00000E+00
    0.00000E+00         0.00000E+00         0.00000E+00
 
    0.28856E+04         0.79999E+04         0.00000E+00
    0.79999E+04         0.47089E+04         0.00000E+00
    0.00000E+00         0.00000E+00         0.00000E+00
 
    0.25168E+04         0.80635E+04         0.00000E+00
    0.80635E+04         0.49037E+04         0.00000E+00
    0.00000E+00         0.00000E+00         0.00000E+00
 
    0.21425E+04         0.81187E+04         0.00000E+00
    0.81187E+04         0.50999E+04         0.00000E+00
    0.00000E+00         0.00000E+00         0.00000E+00
 
    0.17630E+04         0.81654E+04         0.00000E+00
    0.81654E+04         0.52973E+04         0.00000E+00
    0.00000E+00         0.00000E+00         0.00000E+00
 
    0.13787E+04         0.82035E+04         0.00000E+00
    0.82035E+04         0.54958E+04         0.00000E+00
    0.00000E+00         0.00000E+00         0.00000E+00
 
    0.98978E+03         0.82328E+04         0.00000E+00
    0.82328E+04         0.56951E+04         0.00000E+00
    0.00000E+00         0.00000E+00         0.00000E+00
 
    0.59661E+03         0.82533E+04         0.00000E+00
    0.82533E+04         0.58951E+04         0.00000E+00
    0.00000E+00         0.00000E+00         0.00000E+00
 
    0.19950E+03         0.82649E+04         0.00000E+00
    0.82649E+04         0.60955E+04         0.00000E+00
    0.00000E+00         0.00000E+00         0.00000E+00
 
    0.11671E+05         0.13464E+03         0.00000E+00
    0.13464E+03        -0.77072E+02         0.00000E+00
    0.00000E+00         0.00000E+00         0.00000E+00
 
    0.11720E+05         0.40728E+03         0.00000E+00
    0.40728E+03        -0.70492E+02         0.00000E+00
    0.00000E+00         0.00000E+00         0.00000E+00
 
    0.11756E+05         0.68074E+03         0.00000E+00
    0.68074E+03        -0.57291E+02         0.00000E+00
    0.00000E+00         0.00000E+00         0.00000E+00
 
    0.11779E+05         0.95473E+03         0.00000E+00
    0.95473E+03        -0.37459E+02         0.00000E+00
    0.00000E+00         0.00000E+00         0.00000E+00
 
    0.11788E+05         0.12289E+04         0.00000E+00
    0.12289E+04        -0.10991E+02         0.00000E+00
    0.00000E+00         0.00000E+00         0.00000E+00
 
    0.11785E+05         0.15031E+04         0.00000E+00
    0.15031E+04         0.22110E+02         0.00000E+00
    0.00000E+00         0.00000E+00         0.00000E+00
 
    0.11768E+05         0.17769E+04         0.00000E+00
    0.17769E+04         0.61834E+02         0.00000E+00
    0.00000E+00         0.00000E+00         0.00000E+00
 
    0.11738E+05         0.20500E+04         0.00000E+00
    0.20500E+04         0.10816E+03         0.00000E+00
    0.00000E+00         0.00000E+00         0.00000E+00
 
    0.11695E+05         0.23221E+04         0.00000E+00
    0.23221E+04         0.16107E+03         0.00000E+00
    0.00000E+00         0.00000E+00         0.00000E+00
 
    0.11639E+05         0.25929E+04         0.00000E+00
    0.25929E+04         0.22054E+03         0.00000E+00
    0.00000E+00         0.00000E+00         0.00000E+00
 
    0.11570E+05         0.28623E+04         0.00000E+00
    0.28623E+04         0.28651E+03         0.00000E+00
    0.00000E+00         0.00000E+00         0.00000E+00
 
    0.11487E+05         0.31297E+04         0.00000E+00
    0.31297E+04         0.35895E+03         0.00000E+00
    0.00000E+00         0.00000E+00         0.00000E+00
 
    0.11392E+05         0.33950E+04         0.00000E+00
    0.33950E+04         0.43781E+03         0.00000E+00
    0.00000E+00         0.00000E+00         0.00000E+00
 
    0.11284E+05         0.36578E+04         0.00000E+00
    0.36578E+04         0.52302E+03         0.00000E+00
    0.00000E+00         0.00000E+00         0.00000E+00
 
    0.11163E+05         0.39180E+04         0.00000E+00
    0.39180E+04         0.61453E+03         0.00000E+00
    0.00000E+00         0.00000E+00         0.00000E+00
 
    0.11030E+05         0.41751E+04         0.00000E+00
    0.41751E+04         0.71225E+03         0.00000E+00
    0.00000E+00         0.00000E+00         0.00000E+00
 
    0.10884E+05         0.44289E+04         0.00000E+00
    0.44289E+04         0.81612E+03         0.00000E+00
    0.00000E+00         0.00000E+00         0.00000E+00
 
    0.10725E+05         0.46791E+04         0.00000E+00
    0.46791E+04         0.92604E+03         0.00000E+00
    0.00000E+00         0.00000E+00         0.00000E+00
 
    0.10554E+05         0.49255E+04         0.00000E+00
    0.49255E+04         0.10419E+04         0.00000E+00
    0.00000E+00         0.00000E+00         0.00000E+00
 
    0.10371E+05         0.51677E+04         0.00000E+00
    0.51677E+04         0.11637E+04         0.00000E+00
    0.00000E+00         0.00000E+00         0.00000E+00
 
    0.10176E+05         0.54055E+04         0.00000E+00
    0.54055E+04         0.12912E+04         0.00000E+00
    0.00000E+00         0.00000E+00         0.00000E+00
 
    0.99688E+04         0.56387E+04         0.00000E+00
    0.56387E+04         0.14243E+04         0.00000E+00
    0.00000E+00         0.00000E+00         0.00000E+00
 
    0.97499E+04         0.58669E+04         0.00000E+00
    0.58669E+04         0.15630E+04         0.00000E+00
    0.00000E+00         0.00000E+00         0.00000E+00
 
    0.95195E+04         0.60899E+04         0.00000E+00
    0.60899E+04         0.17071E+04         0.00000E+00
    0.00000E+00         0.00000E+00         0.00000E+00
 
    0.92777E+04         0.63074E+04         0.00000E+00
    0.63074E+04         0.18565E+04         0.00000E+00
    0.00000E+00         0.00000E+00         0.00000E+00
 
    0.90246E+04         0.65193E+04         0.00000E+00
    0.65193E+04         0.20110E+04         0.00000E+00
    0.00000E+00         0.00000E+00         0.00000E+00
 
    0.87606E+04         0.67251E+04         0.00000E+00
    0.67251E+04         0.21705E+04         0.00000E+00
    0.00000E+00         0.00000E+00         0.00000E+00
 
    0.84857E+04         0.69248E+04         0.00000E+00
    0.69248E+04         0.23349E+04         0.00000E+00
    0.00000E+00         0.00000E+00         0.00000E+00
 
    0.82003E+04         0.71180E+04         0.00000E+00
    0.71180E+04         0.25040E+04         0.00000E+00
    0.00000E+00         0.00000E+00         0.00000E+00
 
    0.79045E+04         0.73046E+04         0.00000E+00
    0.73046E+04         0.26776E+04         0.00000E+00
    0.00000E+00         0.00000E+00         0.00000E+00
 
    0.75985E+04         0.74843E+04         0.00000E+00
    0.74843E+04         0.28557E+04         0.00000E+00
    0.00000E+00         0.00000E+00         0.00000E+00
 
    0.72827E+04         0.76568E+04         0.00000E+00
    0.76568E+04         0.30379E+04         0.00000E+00
    0.00000E+00         0.00000E+00         0.00000E+00
 
    0.69572E+04         0.78220E+04         0.00000E+00
    0.78220E+04         0.32242E+04         0.00000E+00
    0.00000E+00         0.00000E+00         0.00000E+00
 
    0.66223E+04         0.79796E+04         0.00000E+00
    0.79796E+04         0.34143E+04         0.00000E+00
    0.00000E+00         0.00000E+00         0.00000E+00
 
    0.62784E+04         0.81295E+04         0.00000E+00
    0.81295E+04         0.36082E+04         0.00000E+00
    0.00000E+00         0.00000E+00         0.00000E+00
 
    0.59255E+04         0.82714E+04         0.00000E+00
    0.82714E+04         0.38055E+04         0.00000E+00
    0.00000E+00         0.00000E+00         0.00000E+00
 
    0.55641E+04         0.84052E+04         0.00000E+00
    0.84052E+04         0.40061E+04         0.00000E+00
    0.00000E+00         0.00000E+00         0.00000E+00
 
    0.51944E+04         0.85307E+04         0.00000E+00
    0.85307E+04         0.42099E+04         0.00000E+00
    0.00000E+00         0.00000E+00         0.00000E+00
 
    0.48167E+04         0.86476E+04         0.00000E+00
    0.86476E+04         0.44165E+04         0.00000E+00
    0.00000E+00         0.00000E+00         0.00000E+00
 
    0.44313E+04         0.87558E+04         0.00000E+00
    0.87558E+04         0.46259E+04         0.00000E+00
    0.00000E+00         0.00000E+00         0.00000E+00
 
    0.40385E+04         0.88552E+04         0.00000E+00
    0.88552E+04         0.48377E+04         0.00000E+00
    0.00000E+00         0.00000E+00         0.00000E+00
 
    0.36386E+04         0.89455E+04         0.00000E+00
    0.89455E+04         0.50519E+04         0.00000E+00
    0.00000E+00         0.00000E+00         0.00000E+00
 
    0.32319E+04         0.90267E+04         0.00000E+00
    0.90267E+04         0.52681E+04         0.00000E+00
    0.00000E+00         0.00000E+00         0.00000E+00
 
    0.28188E+04         0.90985E+04         0.00000E+00
    0.90985E+04         0.54862E+04         0.00000E+00
    0.00000E+00         0.00000E+00         0.00000E+00
 
    0.23996E+04         0.91609E+04         0.00000E+00
    0.91609E+04         0.57059E+04         0.00000E+00
    0.00000E+00         0.00000E+00         0.00000E+00
 
    0.19745E+04         0.92137E+04         0.00000E+00
    0.92137E+04         0.59270E+04         0.00000E+00
    0.00000E+00         0.00000E+00         0.00000E+00
 
    0.15441E+04         0.92567E+04         0.00000E+00
    0.92567E+04         0.61492E+04         0.00000E+00
    0.00000E+00         0.00000E+00         0.00000E+00
 
    0.11085E+04         0.92899E+04         0.00000E+00
    0.92899E+04         0.63724E+04         0.00000E+00
    0.00000E+00         0.00000E+00         0.00000E+00
 
    0.66816E+03         0.93132E+04         0.00000E+00
    0.93132E+04         0.65964E+04         0.00000E+00
    0.00000E+00         0.00000E+00         0.00000E+00
 
    0.22343E+03         0.93265E+04         0.00000E+00
    0.93265E+04         0.68208E+04         0.00000E+00
    0.00000E+00         0.00000E+00         0.00000E+00
 
    0.13101E+05         0.15199E+03         0.00000E+00
    0.15199E+03        -0.93491E+02         0.00000E+00
    0.00000E+00         0.00000E+00         0.00000E+00
 
    0.13155E+05         0.45967E+03         0.00000E+00
    0.45967E+03        -0.86106E+02         0.00000E+00
    0.00000E+00         0.00000E+00         0.00000E+00
 
    0.13194E+05         0.76825E+03         0.00000E+00
    0.76825E+03        -0.71293E+02         0.00000E+00
    0.00000E+00         0.00000E+00         0.00000E+00
 
    0.13219E+05         0.10774E+04         0.00000E+00
    0.10774E+04        -0.49041E+02         0.00000E+00
    0.00000E+00         0.00000E+00         0.00000E+00
 
    0.13229E+05         0.13868E+04         0.00000E+00
    0.13868E+04        -0.19346E+02         0.00000E+00
    0.00000E+00         0.00000E+00         0.00000E+00
 
    0.13224E+05         0.16960E+04         0.00000E+00
    0.16960E+04         0.17787E+02         0.00000E+00
    0.00000E+00         0.00000E+00         0.00000E+00
 
    0.13205E+05         0.20048E+04         0.00000E+00
    0.20048E+04         0.62347E+02         0.00000E+00
    0.00000E+00         0.00000E+00         0.00000E+00
 
    0.13170E+05         0.23129E+04         0.00000E+00
    0.23129E+04         0.11431E+03         0.00000E+00
    0.00000E+00         0.00000E+00         0.00000E+00
 
    0.13121E+05         0.26198E+04         0.00000E+00
    0.26198E+04         0.17366E+03         0.00000E+00
    0.00000E+00         0.00000E+00         0.00000E+00
 
    0.13057E+05         0.29253E+04         0.00000E+00
    0.29253E+04         0.24034E+03         0.00000E+00
    0.00000E+00         0.00000E+00         0.00000E+00
 
    0.12979E+05         0.32289E+04         0.00000E+00
    0.32289E+04         0.31433E+03         0.00000E+00
    0.00000E+00         0.00000E+00         0.00000E+00
 
    0.12886E+05         0.35305E+04         0.00000E+00
    0.35305E+04         0.39556E+03         0.00000E+00
    0.00000E+00         0.00000E+00         0.00000E+00
 
    0.12779E+05         0.38296E+04         0.00000E+00
    0.38296E+04         0.48398E+03         0.00000E+00
    0.00000E+00         0.00000E+00         0.00000E+00
 
    0.12657E+05         0.41260E+04         0.00000E+00
    0.41260E+04         0.57952E+03         0.00000E+00
    0.00000E+00         0.00000E+00         0.00000E+00
 
    0.12521E+05         0.44192E+04         0.00000E+00
    0.44192E+04         0.68211E+03         0.00000E+00
    0.00000E+00         0.00000E+00         0.00000E+00
 
    0.12370E+05         0.47090E+04         0.00000E+00
    0.47090E+04         0.79167E+03         0.00000E+00
    0.00000E+00         0.00000E+00         0.00000E+00
 
    0.12206E+05         0.49951E+04         0.00000E+00
    0.49951E+04         0.90810E+03         0.00000E+00
    0.00000E+00         0.00000E+00         0.00000E+00
 
    0.12028E+05         0.52772E+04         0.00000E+00
    0.52772E+04         0.10313E+04         0.00000E+00
    0.00000E+00         0.00000E+00         0.00000E+00
 
    0.11835E+05         0.55549E+04         0.00000E+00
    0.55549E+04         0.11612E+04         0.00000E+00
    0.00000E+00         0.00000E+00         0.00000E+00
 
    0.11630E+05         0.58279E+04         0.00000E+00
    0.58279E+04         0.12977E+04         0.00000E+00
    0.00000E+00         0.00000E+00         0.00000E+00
 
    0.11410E+05         0.60959E+04         0.00000E+00
    0.60959E+04         0.14406E+04         0.00000E+00
    0.00000E+00         0.00000E+00         0.00000E+00
 
    0.11178E+05         0.63586E+04         0.00000E+00
    0.63586E+04         0.15898E+04         0.00000E+00
    0.00000E+00         0.00000E+00         0.00000E+00
 
    0.10932E+05         0.66158E+04         0.00000E+00
    0.66158E+04         0.17452E+04         0.00000E+00
    0.00000E+00         0.00000E+00         0.00000E+00
 
    0.10673E+05         0.68671E+04         0.00000E+00
    0.68671E+04         0.19067E+04         0.00000E+00
    0.00000E+00         0.00000E+00         0.00000E+00
 
    0.10401E+05         0.71122E+04         0.00000E+00
    0.71122E+04         0.20741E+04         0.00000E+00
    0.00000E+00         0.00000E+00         0.00000E+00
 
    0.10117E+05         0.73509E+04         0.00000E+00
    0.73509E+04         0.22472E+04         0.00000E+00
    0.00000E+00         0.00000E+00         0.00000E+00
 
    0.98210E+04         0.75829E+04         0.00000E+00
    0.75829E+04         0.24260E+04         0.00000E+00
    0.00000E+00         0.00000E+00         0.00000E+00
 
    0.95125E+04         0.78079E+04         0.00000E+00
    0.78079E+04         0.26102E+04         0.00000E+00
    0.00000E+00         0.00000E+00         0.00000E+00
 
    0.91922E+04         0.80256E+04         0.00000E+00
    0.80256E+04         0.27996E+04         0.00000E+00
    0.00000E+00         0.00000E+00         0.00000E+00
 
    0.88604E+04         0.82358E+04         0.00000E+00
    0.82358E+04         0.29942E+04         0.00000E+00
    0.00000E+00         0.00000E+00         0.00000E+00
 
    0.85172E+04         0.84383E+04         0.00000E+00
    0.84383E+04         0.31936E+04         0.00000E+00
    0.00000E+00         0.00000E+00         0.00000E+00
 
    0.81629E+04         0.86327E+04         0.00000E+00
    0.86327E+04         0.33978E+04         0.00000E+00
    0.00000E+00         0.00000E+00         0.00000E+00
 
    0.77979E+04         0.88188E+04         0.00000E+00
    0.88188E+04         0.36065E+04         0.00000E+00
    0.00000E+00         0.00000E+00         0.00000E+00
 
    0.74224E+04         0.89964E+04         0.00000E+00
    0.89964E+04         0.38195E+04         0.00000E+00
    0.00000E+00         0.00000E+00         0.00000E+00
 
    0.70366E+04         0.91653E+04         0.00000E+00
    0.91653E+04         0.40367E+04         0.00000E+00
    0.00000E+00         0.00000E+00         0.00000E+00
 
    0.66410E+04         0.93253E+04         0.00000E+00
    0.93253E+04         0.42577E+04         0.00000E+00
    0.00000E+00         0.00000E+00         0.00000E+00
 
    0.62358E+04         0.94760E+04         0.00000E+00
    0.94760E+04         0.44825E+04         0.00000E+00
    0.00000E+00         0.00000E+00         0.00000E+00
 
    0.58213E+04         0.96174E+04         0.00000E+00
    0.96174E+04         0.47108E+04         0.00000E+00
    0.00000E+00         0.00000E+00         0.00000E+00
 
    0.53979E+04         0.97492E+04         0.00000E+00
    0.97492E+04         0.49423E+04         0.00000E+00
    0.00000E+00         0.00000E+00         0.00000E+00
 
    0.49659E+04         0.98712E+04         0.00000E+00
    0.98712E+04         0.51768E+04         0.00000E+00
    0.00000E+00         0.00000E+00         0.00000E+00
 
    0.45256E+04         0.99832E+04         0.00000E+00
    0.99832E+04         0.54141E+04         0.00000E+00
    0.00000E+00         0.00000E+00         0.00000E+00
 
    0.40774E+04         0.10085E+05         0.00000E+00
    0.10085E+05         0.56540E+04         0.00000E+00
    0.00000E+00         0.00000E+00         0.00000E+00
 
    0.36216E+04         0.10177E+05         0.00000E+00
    0.10177E+05         0.58963E+04         0.00000E+00
    0.00000E+00         0.00000E+00         0.00000E+00
 
    0.31587E+04         0.10258E+05         0.00000E+00
    0.10258E+05         0.61406E+04         0.00000E+00
    0.00000E+00         0.00000E+00         0.00000E+00
 
    0.26888E+04         0.10328E+05         0.00000E+00
    0.10328E+05         0.63867E+04         0.00000E+00
    0.00000E+00         0.00000E+00         0.00000E+00
 
    0.22126E+04         0.10388E+05         0.00000E+00
    0.10388E+05         0.66344E+04         0.00000E+00
    0.00000E+00         0.00000E+00         0.00000E+00
 
    0.17302E+04         0.10436E+05         0.00000E+00
    0.10436E+05         0.68834E+04         0.00000E+00
    0.00000E+00         0.00000E+00         0.00000E+00
 
    0.12421E+04         0.10474E+05         0.00000E+00
    0.10474E+05         0.71335E+04         0.00000E+00
    0.00000E+00         0.00000E+00         0.00000E+00
 
    0.74868E+03         0.10500E+05         0.00000E+00
    0.10500E+05         0.73844E+04         0.00000E+00
    0.00000E+00         0.00000E+00         0.00000E+00
 
    0.25035E+03         0.10516E+05         0.00000E+00
    0.10516E+05         0.76358E+04         0.00000E+00
    0.00000E+00         0.00000E+00         0.00000E+00
 
    0.14713E+05         0.17147E+03         0.00000E+00
    0.17147E+03        -0.11335E+03         0.00000E+00
    0.00000E+00         0.00000E+00         0.00000E+00
 
    0.14772E+05         0.51848E+03         0.00000E+00
    0.51848E+03        -0.10505E+03         0.00000E+00
    0.00000E+00         0.00000E+00         0.00000E+00
 
    0.14816E+05         0.86646E+03         0.00000E+00
    0.86646E+03        -0.88426E+02         0.00000E+00
    0.00000E+00         0.00000E+00         0.00000E+00
 
    0.14842E+05         0.12151E+04         0.00000E+00
    0.12151E+04        -0.63448E+02         0.00000E+00
    0.00000E+00         0.00000E+00         0.00000E+00
 
    0.14852E+05         0.15639E+04         0.00000E+00
    0.15639E+04        -0.30119E+02         0.00000E+00
    0.00000E+00         0.00000E+00         0.00000E+00
 
    0.14846E+05         0.19125E+04         0.00000E+00
    0.19125E+04         0.11556E+02         0.00000E+00
    0.00000E+00         0.00000E+00         0.00000E+00
 
    0.14823E+05         0.22606E+04         0.00000E+00
    0.22606E+04         0.61561E+02         0.00000E+00
    0.00000E+00         0.00000E+00         0.00000E+00
 
    0.14784E+05         0.26078E+04         0.00000E+00
    0.26078E+04         0.11987E+03         0.00000E+00
    0.00000E+00         0.00000E+00         0.00000E+00
 
    0.14728E+05         0.29538E+04         0.00000E+00
    0.29538E+04         0.18646E+03         0.00000E+00
    0.00000E+00         0.00000E+00         0.00000E+00
 
    0.14655E+05         0.32980E+04         0.00000E+00
    0.32980E+04         0.26128E+03         0.00000E+00
    0.00000E+00         0.00000E+00         0.00000E+00
 
    0.14566E+05         0.36402E+04         0.00000E+00
    0.36402E+04         0.34428E+03         0.00000E+00
    0.00000E+00         0.00000E+00         0.00000E+00
 
    0.14461E+05         0.39800E+04         0.00000E+00
    0.39800E+04         0.43540E+03         0.00000E+00
    0.00000E+00         0.00000E+00         0.00000E+00
 
    0.14340E+05         0.43170E+04         0.00000E+00
    0.43170E+04         0.53458E+03         0.00000E+00
    0.00000E+00         0.00000E+00         0.00000E+00
 
    0.14203E+05         0.46509E+04         0.00000E+00
    0.46509E+04         0.64175E+03         0.00000E+00
    0.00000E+00         0.00000E+00         0.00000E+00
 
    0.14049E+05         0.49813E+04         0.00000E+00
    0.49813E+04         0.75681E+03         0.00000E+00
    0.00000E+00         0.00000E+00         0.00000E+00
 
    0.13880E+05         0.53078E+04         0.00000E+00
    0.53078E+04         0.87967E+03         0.00000E+00
    0.00000E+00         0.00000E+00         0.00000E+00
 
    0.13695E+05         0.56300E+04         0.00000E+00
    0.56300E+04         0.10102E+04         0.00000E+00
    0.00000E+00         0.00000E+00         0.00000E+00
 
    0.13494E+05         0.59477E+04         0.00000E+00
    0.59477E+04         0.11484E+04         0.00000E+00
    0.00000E+00         0.00000E+00         0.00000E+00
 
    0.13278E+05         0.62605E+04         0.00000E+00
    0.62605E+04         0.12941E+04         0.00000E+00
    0.00000E+00         0.00000E+00         0.00000E+00
 
    0.13046E+05         0.65679E+04         0.00000E+00
    0.65679E+04         0.14471E+04         0.00000E+00
    0.00000E+00         0.00000E+00         0.00000E+00
 
    0.12799E+05         0.68698E+04         0.00000E+00
    0.68698E+04         0.16073E+04         0.00000E+00
    0.00000E+00         0.00000E+00         0.00000E+00
 
    0.12538E+05         0.71656E+04         0.00000E+00
    0.71656E+04         0.17746E+04         0.00000E+00
    0.00000E+00         0.00000E+00         0.00000E+00
 
    0.12262E+05         0.74552E+04         0.00000E+00
    0.74552E+04         0.19488E+04         0.00000E+00
    0.00000E+00         0.00000E+00         0.00000E+00
 
    0.11971E+05         0.77382E+04         0.00000E+00
    0.77382E+04         0.21299E+04         0.00000E+00
    0.00000E+00         0.00000E+00         0.00000E+00
 
    0.11666E+05         0.80142E+04         0.00000E+00
    0.80142E+04         0.23175E+04         0.00000E+00
    0.00000E+00         0.00000E+00         0.00000E+00
 
    0.11347E+05         0.82830E+04         0.00000E+00
    0.82830E+04         0.25116E+04         0.00000E+00
    0.00000E+00         0.00000E+00         0.00000E+00
 
    0.11014E+05         0.85442E+04         0.00000E+00
    0.85442E+04         0.27120E+04         0.00000E+00
    0.00000E+00         0.00000E+00         0.00000E+00
 
    0.10668E+05         0.87975E+04         0.00000E+00
    0.87975E+04         0.29184E+04         0.00000E+00
    0.00000E+00         0.00000E+00         0.00000E+00
 
    0.10308E+05         0.90427E+04         0.00000E+00
    0.90427E+04         0.31307E+04         0.00000E+00
    0.00000E+00         0.00000E+00         0.00000E+00
 
    0.99357E+04         0.92794E+04         0.00000E+00
    0.92794E+04         0.33488E+04         0.00000E+00
    0.00000E+00         0.00000E+00         0.00000E+00
 
    0.95505E+04         0.95073E+04         0.00000E+00
    0.95073E+04         0.35723E+04         0.00000E+00
    0.00000E+00         0.00000E+00         0.00000E+00
 
    0.91530E+04         0.97262E+04         0.00000E+00
    0.97262E+04         0.38012E+04         0.00000E+00
    0.00000E+00         0.00000E+00         0.00000E+00
 
    0.87434E+04         0.99358E+04         0.00000E+00
    0.99358E+04         0.40351E+04         0.00000E+00
    0.00000E+00         0.00000E+00         0.00000E+00
 
    0.83221E+04         0.10136E+05         0.00000E+00
    0.10136E+05         0.42738E+04         0.00000E+00
    0.00000E+00         0.00000E+00         0.00000E+00
 
    0.78894E+04         0.10326E+05         0.00000E+00
    0.10326E+05         0.45172E+04         0.00000E+00
    0.00000E+00         0.00000E+00         0.00000E+00
 
    0.74457E+04         0.10506E+05         0.00000E+00
    0.10506E+05         0.47649E+04         0.00000E+00
    0.00000E+00         0.00000E+00         0.00000E+00
 
    0.69912E+04         0.10676E+05         0.00000E+00
    0.10676E+05         0.50168E+04         0.00000E+00
    0.00000E+00         0.00000E+00         0.00000E+00
 
    0.65264E+04         0.10835E+05         0.00000E+00
    0.10835E+05         0.52726E+04         0.00000E+00
    0.00000E+00         0.00000E+00         0.00000E+00
 
    0.60515E+04         0.10984E+05         0.00000E+00
    0.10984E+05         0.55320E+04         0.00000E+00
    0.00000E+00         0.00000E+00         0.00000E+00
 
    0.55671E+04         0.11121E+05         0.00000E+00
    0.11121E+05         0.57948E+04         0.00000E+00
    0.00000E+00         0.00000E+00         0.00000E+00
 
    0.50734E+04         0.11247E+05         0.00000E+00
    0.11247E+05         0.60608E+04         0.00000E+00
    0.00000E+00         0.00000E+00         0.00000E+00
 
    0.45708E+04         0.11362E+05         0.00000E+00
    0.11362E+05         0.63297E+04         0.00000E+00
    0.00000E+00         0.00000E+00         0.00000E+00
 
    0.40598E+04         0.11465E+05         0.00000E+00
    0.11465E+05         0.66011E+04         0.00000E+00
    0.00000E+00         0.00000E+00         0.00000E+00
 
    0.35408E+04         0.11557E+05         0.00000E+00
    0.11557E+05         0.68749E+04         0.00000E+00
    0.00000E+00         0.00000E+00         0.00000E+00
 
    0.30141E+04         0.11636E+05         0.00000E+00
    0.11636E+05         0.71507E+04         0.00000E+00
    0.00000E+00         0.00000E+00         0.00000E+00
 
    0.24802E+04         0.11703E+05         0.00000E+00
    0.11703E+05         0.74283E+04         0.00000E+00
    0.00000E+00         0.00000E+00         0.00000E+00
 
    0.19394E+04         0.11758E+05         0.00000E+00
    0.11758E+05         0.77074E+04         0.00000E+00
    0.00000E+00         0.00000E+00         0.00000E+00
 
    0.13923E+04         0.11801E+05         0.00000E+00
    0.11801E+05         0.79877E+04         0.00000E+00
    0.00000E+00         0.00000E+00         0.00000E+00
 
    0.83920E+03         0.11831E+05         0.00000E+00
    0.11831E+05         0.82689E+04         0.00000E+00
    0.00000E+00         0.00000E+00         0.00000E+00
 
    0.28062E+03         0.11848E+05         0.00000E+00
    0.11848E+05         0.85507E+04         0.00000E+00
    0.00000E+00         0.00000E+00         0.00000E+00
 
    0.16528E+05         0.19335E+03         0.00000E+00
    0.19335E+03        -0.13735E+03         0.00000E+00
    0.00000E+00         0.00000E+00         0.00000E+00
 
    0.16594E+05         0.58451E+03         0.00000E+00
    0.58451E+03        -0.12804E+03         0.00000E+00
    0.00000E+00         0.00000E+00         0.00000E+00
 
    0.16642E+05         0.97674E+03         0.00000E+00
    0.97674E+03        -0.10936E+03         0.00000E+00
    0.00000E+00         0.00000E+00         0.00000E+00
 
    0.16670E+05         0.13696E+04         0.00000E+00
    0.13696E+04        -0.81318E+02         0.00000E+00
    0.00000E+00         0.00000E+00         0.00000E+00
 
    0.16681E+05         0.17627E+04         0.00000E+00
    0.17627E+04        -0.43898E+02         0.00000E+00
    0.00000E+00         0.00000E+00         0.00000E+00
 
    0.16672E+05         0.21555E+04         0.00000E+00
    0.21555E+04         0.28866E+01         0.00000E+00
    0.00000E+00         0.00000E+00         0.00000E+00
 
    0.16645E+05         0.25477E+04         0.00000E+00
    0.25477E+04         0.59018E+02         0.00000E+00
    0.00000E+00         0.00000E+00         0.00000E+00
 
    0.16600E+05         0.29389E+04         0.00000E+00
    0.29389E+04         0.12447E+03         0.00000E+00
    0.00000E+00         0.00000E+00         0.00000E+00
 
    0.16536E+05         0.33285E+04         0.00000E+00
    0.33285E+04         0.19920E+03         0.00000E+00
    0.00000E+00         0.00000E+00         0.00000E+00
 
    0.16454E+05         0.37162E+04         0.00000E+00
    0.37162E+04         0.28316E+03         0.00000E+00
    0.00000E+00         0.00000E+00         0.00000E+00
 
    0.16353E+05         0.41017E+04         0.00000E+00
    0.41017E+04         0.37630E+03         0.00000E+00
    0.00000E+00         0.00000E+00         0.00000E+00
 
    0.16234E+05         0.44843E+04         0.00000E+00
    0.44843E+04         0.47855E+03         0.00000E+00
    0.00000E+00         0.00000E+00         0.00000E+00
 
    0.16097E+05         0.48638E+04         0.00000E+00
    0.48638E+04         0.58983E+03         0.00000E+00
    0.00000E+00         0.00000E+00         0.00000E+00
 
    0.15942E+05         0.52398E+04         0.00000E+00
    0.52398E+04         0.71006E+03         0.00000E+00
    0.00000E+00         0.00000E+00         0.00000E+00
 
    0.15769E+05         0.56117E+04         0.00000E+00
    0.56117E+04         0.83914E+03         0.00000E+00
    0.00000E+00         0.00000E+00         0.00000E+00
 
    0.15578E+05         0.59793E+04         0.00000E+00
    0.59793E+04         0.97697E+03         0.00000E+00
    0.00000E+00         0.00000E+00         0.00000E+00
 
    0.15369E+05         0.63421E+04         0.00000E+00
    0.63421E+04         0.11234E+04         0.00000E+00
    0.00000E+00         0.00000E+00         0.00000E+00
 
    0.15143E+05         0.66997E+04         0.00000E+00
    0.66997E+04         0.12784E+04         0.00000E+00
    0.00000E+00         0.00000E+00         0.00000E+00
 
    0.14900E+05         0.70517E+04         0.00000E+00
    0.70517E+04         0.14418E+04         0.00000E+00
    0.00000E+00         0.00000E+00         0.00000E+00
 
    0.14639E+05         0.73978E+04         0.00000E+00
    0.73978E+04         0.16134E+04         0.00000E+00
    0.00000E+00         0.00000E+00         0.00000E+00
 
    0.14362E+05         0.77375E+04         0.00000E+00
    0.77375E+04         0.17930E+04         0.00000E+00
    0.00000E+00         0.00000E+00         0.00000E+00
 
    0.14067E+05         0.80705E+04         0.00000E+00
    0.80705E+04         0.19807E+04         0.00000E+00
    0.00000E+00         0.00000E+00         0.00000E+00
 
    0.13757E+05         0.83964E+04         0.00000E+00
    0.83964E+04         0.21761E+04         0.00000E+00
    0.00000E+00         0.00000E+00         0.00000E+00
 
    0.13430E+05         0.87149E+04         0.00000E+00
    0.87149E+04         0.23790E+04         0.00000E+00
    0.00000E+00         0.00000E+00         0.00000E+00
 
    0.13087E+05         0.90255E+04         0.00000E+00
    0.90255E+04         0.25894E+04         0.00000E+00
    0.00000E+00         0.00000E+00         0.00000E+00
 
    0.12729E+05         0.93280E+04         0.00000E+00
    0.93280E+04         0.28070E+04         0.00000E+00
    0.00000E+00         0.00000E+00         0.00000E+00
 
    0.12355E+05         0.96219E+04         0.00000E+00
    0.96219E+04         0.30317E+04         0.00000E+00
    0.00000E+00         0.00000E+00         0.00000E+00
 
    0.11966E+05         0.99069E+04         0.00000E+00
    0.99069E+04         0.32631E+04         0.00000E+00
    0.00000E+00         0.00000E+00         0.00000E+00
 
    0.11563E+05         0.10183E+05         0.00000E+00
    0.10183E+05         0.35012E+04         0.00000E+00
    0.00000E+00         0.00000E+00         0.00000E+00
 
    0.11144E+05         0.10449E+05         0.00000E+00
    0.10449E+05         0.37456E+04         0.00000E+00
    0.00000E+00         0.00000E+00         0.00000E+00
 
    0.10712E+05         0.10706E+05         0.00000E+00
    0.10706E+05         0.39962E+04         0.00000E+00
    0.00000E+00         0.00000E+00         0.00000E+00
 
    0.10266E+05         0.10952E+05         0.00000E+00
    0.10952E+05         0.42527E+04         0.00000E+00
    0.00000E+00         0.00000E+00         0.00000E+00
 
    0.98061E+04         0.11188E+05         0.00000E+00
    0.11188E+05         0.45149E+04         0.00000E+00
    0.00000E+00         0.00000E+00         0.00000E+00
 
    0.93333E+04         0.11413E+05         0.00000E+00
    0.11413E+05         0.47825E+04         0.00000E+00
    0.00000E+00         0.00000E+00         0.00000E+00
 
    0.88478E+04         0.11627E+05         0.00000E+00
    0.11627E+05         0.50553E+04         0.00000E+00
    0.00000E+00         0.00000E+00         0.00000E+00
 
    0.83499E+04         0.11829E+05         0.00000E+00
    0.11829E+05         0.53330E+04         0.00000E+00
    0.00000E+00         0.00000E+00         0.00000E+00
 
    0.78400E+04         0.12021E+05         0.00000E+00
    0.12021E+05         0.56154E+04         0.00000E+00
    0.00000E+00         0.00000E+00         0.00000E+00
 
    0.73186E+04         0.12200E+05         0.00000E+00
    0.12200E+05         0.59021E+04         0.00000E+00
    0.00000E+00         0.00000E+00         0.00000E+00
 
    0.67859E+04         0.12367E+05         0.00000E+00
    0.12367E+05         0.61929E+04         0.00000E+00
    0.00000E+00         0.00000E+00         0.00000E+00
 
    0.62426E+04         0.12522E+05         0.00000E+00
    0.12522E+05         0.64875E+04         0.00000E+00
    0.00000E+00         0.00000E+00         0.00000E+00
 
    0.56888E+04         0.12664E+05         0.00000E+00
    0.12664E+05         0.67856E+04         0.00000E+00
    0.00000E+00         0.00000E+00         0.00000E+00
 
    0.51252E+04         0.12793E+05         0.00000E+00
    0.12793E+05         0.70870E+04         0.00000E+00
    0.00000E+00         0.00000E+00         0.00000E+00
 
    0.45522E+04         0.12909E+05         0.00000E+00
    0.12909E+05         0.73912E+04         0.00000E+00
    0.00000E+00         0.00000E+00         0.00000E+00
 
    0.39701E+04         0.13012E+05         0.00000E+00
    0.13012E+05         0.76981E+04         0.00000E+00
    0.00000E+00         0.00000E+00         0.00000E+00
 
    0.33795E+04         0.13102E+05         0.00000E+00
    0.13102E+05         0.80073E+04         0.00000E+00
    0.00000E+00         0.00000E+00         0.00000E+00
 
    0.27808E+04         0.13178E+05         0.00000E+00
    0.13178E+05         0.83185E+04         0.00000E+00
    0.00000E+00         0.00000E+00         0.00000E+00
 
    0.21745E+04         0.13240E+05         0.00000E+00
    0.13240E+05         0.86313E+04         0.00000E+00
    0.00000E+00         0.00000E+00         0.00000E+00
 
    0.15610E+04         0.13288E+05         0.00000E+00
    0.13288E+05         0.89455E+04         0.00000E+00
    0.00000E+00         0.00000E+00         0.00000E+00
 
    0.94089E+03         0.13322E+05         0.00000E+00
    0.13322E+05         0.92608E+04         0.00000E+00
    0.00000E+00         0.00000E+00         0.00000E+00
 
    0.31462E+03         0.13342E+05         0.00000E+00
    0.13342E+05         0.95767E+04         0.00000E+00
    0.00000E+00         0.00000E+00         0.00000E+00
 
    0.18573E+05         0.21794E+03         0.00000E+00
    0.21794E+03        -0.16636E+03         0.00000E+00
    0.00000E+00         0.00000E+00         0.00000E+00
 
    0.18646E+05         0.65868E+03         0.00000E+00
    0.65868E+03        -0.15589E+03         0.00000E+00
    0.00000E+00         0.00000E+00         0.00000E+00
 
    0.18697E+05         0.11006E+04         0.00000E+00
    0.11006E+04        -0.13492E+03         0.00000E+00
    0.00000E+00         0.00000E+00         0.00000E+00
 
    0.18728E+05         0.15431E+04         0.00000E+00
    0.15431E+04        -0.10342E+03         0.00000E+00
    0.00000E+00         0.00000E+00         0.00000E+00
 
    0.18738E+05         0.19859E+04         0.00000E+00
    0.19859E+04        -0.61403E+02         0.00000E+00
    0.00000E+00         0.00000E+00         0.00000E+00
 
    0.18728E+05         0.24283E+04         0.00000E+00
    0.24283E+04        -0.88721E+01         0.00000E+00
    0.00000E+00         0.00000E+00         0.00000E+00
 
    0.18696E+05         0.28700E+04         0.00000E+00
    0.28700E+04         0.54148E+02         0.00000E+00
    0.00000E+00         0.00000E+00         0.00000E+00
 
    0.18644E+05         0.33104E+04         0.00000E+00
    0.33104E+04         0.12762E+03         0.00000E+00
    0.00000E+00         0.00000E+00         0.00000E+00
 
    0.18571E+05         0.37491E+04         0.00000E+00
    0.37491E+04         0.21151E+03         0.00000E+00
    0.00000E+00         0.00000E+00         0.00000E+00
 
    0.18477E+05         0.41856E+04         0.00000E+00
    0.41856E+04         0.30576E+03         0.00000E+00
    0.00000E+00         0.00000E+00         0.00000E+00
 
    0.18363E+05         0.46195E+04         0.00000E+00
    0.46195E+04         0.41029E+03         0.00000E+00
    0.00000E+00         0.00000E+00         0.00000E+00
 
    0.18228E+05         0.50502E+04         0.00000E+00
    0.50502E+04         0.52504E+03         0.00000E+00
    0.00000E+00         0.00000E+00         0.00000E+00
 
    0.18073E+05         0.54774E+04         0.00000E+00
    0.54774E+04         0.64992E+03         0.00000E+00
    0.00000E+00         0.00000E+00         0.00000E+00
 
    0.17898E+05         0.59005E+04         0.00000E+00
    0.59005E+04         0.78483E+03         0.00000E+00
    0.00000E+00         0.00000E+00         0.00000E+00
 
    0.17702E+05         0.63190E+04         0.00000E+00
    0.63190E+04         0.92966E+03         0.00000E+00
    0.00000E+00         0.00000E+00         0.00000E+00
 
    0.17487E+05         0.67327E+04         0.00000E+00
    0.67327E+04         0.10843E+04         0.00000E+00
    0.00000E+00         0.00000E+00         0.00000E+00
 
    0.17252E+05         0.71409E+04         0.00000E+00
    0.71409E+04         0.12486E+04         0.00000E+00
    0.00000E+00         0.00000E+00         0.00000E+00
 
    0.16997E+05         0.75432E+04         0.00000E+00
    0.75432E+04         0.14225E+04         0.00000E+00
    0.00000E+00         0.00000E+00         0.00000E+00
 
    0.16723E+05         0.79393E+04         0.00000E+00
    0.79393E+04         0.16057E+04         0.00000E+00
    0.00000E+00         0.00000E+00         0.00000E+00
 
    0.16430E+05         0.83286E+04         0.00000E+00
    0.83286E+04         0.17982E+04         0.00000E+00
    0.00000E+00         0.00000E+00         0.00000E+00
 
    0.16117E+05         0.87107E+04         0.00000E+00
    0.87107E+04         0.19997E+04         0.00000E+00
    0.00000E+00         0.00000E+00         0.00000E+00
 
    0.15787E+05         0.90853E+04         0.00000E+00
    0.90853E+04         0.22101E+04         0.00000E+00
    0.00000E+00         0.00000E+00         0.00000E+00
 
    0.15437E+05         0.94519E+04         0.00000E+00
    0.94519E+04         0.24293E+04         0.00000E+00
    0.00000E+00         0.00000E+00         0.00000E+00
 
    0.15070E+05         0.98101E+04         0.00000E+00
    0.98101E+04         0.26569E+04         0.00000E+00
    0.00000E+00         0.00000E+00         0.00000E+00
 
    0.14685E+05         0.10159E+05         0.00000E+00
    0.10159E+05         0.28928E+04         0.00000E+00
    0.00000E+00         0.00000E+00         0.00000E+00
 
    0.14282E+05         0.10500E+05         0.00000E+00
    0.10500E+05         0.31369E+04         0.00000E+00
    0.00000E+00         0.00000E+00         0.00000E+00
 
    0.13862E+05         0.10830E+05         0.00000E+00
    0.10830E+05         0.33887E+04         0.00000E+00
    0.00000E+00         0.00000E+00         0.00000E+00
 
    0.13425E+05         0.11151E+05         0.00000E+00
    0.11151E+05         0.36483E+04         0.00000E+00
    0.00000E+00         0.00000E+00         0.00000E+00
 
    0.12972E+05         0.11461E+05         0.00000E+00
    0.11461E+05         0.39152E+04         0.00000E+00
    0.00000E+00         0.00000E+00         0.00000E+00
 
    0.12502E+05         0.11760E+05         0.00000E+00
    0.11760E+05         0.41892E+04         0.00000E+00
    0.00000E+00         0.00000E+00         0.00000E+00
 
    0.12017E+05         0.12049E+05         0.00000E+00
    0.12049E+05         0.44702E+04         0.00000E+00
    0.00000E+00         0.00000E+00         0.00000E+00
 
    0.11516E+05         0.12326E+05         0.00000E+00
    0.12326E+05         0.47578E+04         0.00000E+00
    0.00000E+00         0.00000E+00         0.00000E+00
 
    0.11000E+05         0.12591E+05         0.00000E+00
    0.12591E+05         0.50517E+04         0.00000E+00
    0.00000E+00         0.00000E+00         0.00000E+00
 
    0.10469E+05         0.12844E+05         0.00000E+00
    0.12844E+05         0.53517E+04         0.00000E+00
    0.00000E+00         0.00000E+00         0.00000E+00
 
    0.99240E+04         0.13085E+05         0.00000E+00
    0.13085E+05         0.56575E+04         0.00000E+00
    0.00000E+00         0.00000E+00         0.00000E+00
 
    0.93653E+04         0.13313E+05         0.00000E+00
    0.13313E+05         0.59688E+04         0.00000E+00
    0.00000E+00         0.00000E+00         0.00000E+00
 
    0.87932E+04         0.13528E+05         0.00000E+00
    0.13528E+05         0.62854E+04         0.00000E+00
    0.00000E+00         0.00000E+00         0.00000E+00
 
    0.82081E+04         0.13730E+05         0.00000E+00
    0.13730E+05         0.66068E+04         0.00000E+00
    0.00000E+00         0.00000E+00         0.00000E+00
 
    0.76105E+04         0.13918E+05         0.00000E+00
    0.13918E+05         0.69328E+04         0.00000E+00
    0.00000E+00         0.00000E+00         0.00000E+00
 
    0.70009E+04         0.14092E+05         0.00000E+00
    0.14092E+05         0.72630E+04         0.00000E+00
    0.00000E+00         0.00000E+00         0.00000E+00
 
    0.63798E+04         0.14252E+05         0.00000E+00
    0.14252E+05         0.75972E+04         0.00000E+00
    0.00000E+00         0.00000E+00         0.00000E+00
 
    0.57476E+04         0.14397E+05         0.00000E+00
    0.14397E+05         0.79350E+04         0.00000E+00
    0.00000E+00         0.00000E+00         0.00000E+00
 
    0.51049E+04         0.14528E+05         0.00000E+00
    0.14528E+05         0.82761E+04         0.00000E+00
    0.00000E+00         0.00000E+00         0.00000E+00
 
    0.44520E+04         0.14644E+05         0.00000E+00
    0.14644E+05         0.86201E+04         0.00000E+00
    0.00000E+00         0.00000E+00         0.00000E+00
 
    0.37897E+04         0.14745E+05         0.00000E+00
    0.14745E+05         0.89668E+04         0.00000E+00
    0.00000E+00         0.00000E+00         0.00000E+00
 
    0.31182E+04         0.14831E+05         0.00000E+00
    0.14831E+05         0.93156E+04         0.00000E+00
    0.00000E+00         0.00000E+00         0.00000E+00
 
    0.24383E+04         0.14901E+05         0.00000E+00
    0.14901E+05         0.96664E+04         0.00000E+00
    0.00000E+00         0.00000E+00         0.00000E+00
 
    0.17504E+04         0.14956E+05         0.00000E+00
    0.14956E+05         0.10019E+05         0.00000E+00
    0.00000E+00         0.00000E+00         0.00000E+00
 
    0.10550E+04         0.14995E+05         0.00000E+00
    0.14995E+05         0.10372E+05         0.00000E+00
    0.00000E+00         0.00000E+00         0.00000E+00
 
    0.35278E+03         0.15017E+05         0.00000E+00
    0.15017E+05         0.10726E+05         0.00000E+00
    0.00000E+00         0.00000E+00         0.00000E+00
 
    0.20874E+05         0.24557E+03         0.00000E+00
    0.24557E+03        -0.20139E+03         0.00000E+00
    0.00000E+00         0.00000E+00         0.00000E+00
 
    0.20954E+05         0.74201E+03         0.00000E+00
    0.74201E+03        -0.18964E+03         0.00000E+00
    0.00000E+00         0.00000E+00         0.00000E+00
 
    0.21010E+05         0.12397E+04         0.00000E+00
    0.12397E+04        -0.16608E+03         0.00000E+00
    0.00000E+00         0.00000E+00         0.00000E+00
 
    0.21043E+05         0.17380E+04         0.00000E+00
    0.17380E+04        -0.13070E+03         0.00000E+00
    0.00000E+00         0.00000E+00         0.00000E+00
 
    0.21053E+05         0.22365E+04         0.00000E+00
    0.22365E+04        -0.83510E+02         0.00000E+00
    0.00000E+00         0.00000E+00         0.00000E+00
 
    0.21039E+05         0.27346E+04         0.00000E+00
    0.27346E+04        -0.24520E+02         0.00000E+00
    0.00000E+00         0.00000E+00         0.00000E+00
 
    0.21002E+05         0.32318E+04         0.00000E+00
    0.32318E+04         0.46241E+02         0.00000E+00
    0.00000E+00         0.00000E+00         0.00000E+00
 
    0.20942E+05         0.37275E+04         0.00000E+00
    0.37275E+04         0.12874E+03         0.00000E+00
    0.00000E+00         0.00000E+00         0.00000E+00
 
    0.20858E+05         0.42213E+04         0.00000E+00
    0.42213E+04         0.22291E+03         0.00000E+00
    0.00000E+00         0.00000E+00         0.00000E+00
 
    0.20752E+05         0.47125E+04         0.00000E+00
    0.47125E+04         0.32870E+03         0.00000E+00
    0.00000E+00         0.00000E+00         0.00000E+00
 
    0.20622E+05         0.52007E+04         0.00000E+00
    0.52007E+04         0.44604E+03         0.00000E+00
    0.00000E+00         0.00000E+00         0.00000E+00
 
    0.20469E+05         0.56853E+04         0.00000E+00
    0.56853E+04         0.57483E+03         0.00000E+00
    0.00000E+00         0.00000E+00         0.00000E+00
 
    0.20294E+05         0.61659E+04         0.00000E+00
    0.61659E+04         0.71498E+03         0.00000E+00
    0.00000E+00         0.00000E+00         0.00000E+00
 
    0.20096E+05         0.66418E+04         0.00000E+00
    0.66418E+04         0.86637E+03         0.00000E+00
    0.00000E+00         0.00000E+00         0.00000E+00
 
    0.19875E+05         0.71127E+04         0.00000E+00
    0.71127E+04         0.10289E+04         0.00000E+00
    0.00000E+00         0.00000E+00         0.00000E+00
 
    0.19632E+05         0.75779E+04         0.00000E+00
    0.75779E+04         0.12024E+04         0.00000E+00
    0.00000E+00         0.00000E+00         0.00000E+00
 
    0.19367E+05         0.80370E+04         0.00000E+00
    0.80370E+04         0.13867E+04         0.00000E+00
    0.00000E+00         0.00000E+00         0.00000E+00
 
    0.19080E+05         0.84895E+04         0.00000E+00
    0.84895E+04         0.15818E+04         0.00000E+00
    0.00000E+00         0.00000E+00         0.00000E+00
 
    0.18771E+05         0.89348E+04         0.00000E+00
    0.89348E+04         0.17873E+04         0.00000E+00
    0.00000E+00         0.00000E+00         0.00000E+00
 
    0.18441E+05         0.93726E+04         0.00000E+00
    0.93726E+04         0.20032E+04         0.00000E+00
    0.00000E+00         0.00000E+00         0.00000E+00
 
    0.18090E+05         0.98023E+04         0.00000E+00
    0.98023E+04         0.22293E+04         0.00000E+00
    0.00000E+00         0.00000E+00         0.00000E+00
 
    0.17717E+05         0.10223E+05         0.00000E+00
    0.10223E+05         0.24653E+04         0.00000E+00
    0.00000E+00         0.00000E+00         0.00000E+00
 
    0.17325E+05         0.10636E+05         0.00000E+00
    0.10636E+05         0.27111E+04         0.00000E+00
    0.00000E+00         0.00000E+00         0.00000E+00
 
    0.16911E+05         0.11038E+05         0.00000E+00
    0.11038E+05         0.29664E+04         0.00000E+00
    0.00000E+00         0.00000E+00         0.00000E+00
 
    0.16478E+05         0.11431E+05         0.00000E+00
    0.11431E+05         0.32309E+04         0.00000E+00
    0.00000E+00         0.00000E+00         0.00000E+00
 
    0.16026E+05         0.11813E+05         0.00000E+00
    0.11813E+05         0.35046E+04         0.00000E+00
    0.00000E+00         0.00000E+00         0.00000E+00
 
    0.15554E+05         0.12185E+05         0.00000E+00
    0.12185E+05         0.37870E+04         0.00000E+00
    0.00000E+00         0.00000E+00         0.00000E+00
 
    0.15063E+05         0.12545E+05         0.00000E+00
    0.12545E+05         0.40780E+04         0.00000E+00
    0.00000E+00         0.00000E+00         0.00000E+00
 
    0.14554E+05         0.12894E+05         0.00000E+00
    0.12894E+05         0.43773E+04         0.00000E+00
    0.00000E+00         0.00000E+00         0.00000E+00
 
    0.14026E+05         0.13231E+05         0.00000E+00
    0.13231E+05         0.46846E+04         0.00000E+00
    0.00000E+00         0.00000E+00         0.00000E+00
 
    0.13481E+05         0.13555E+05         0.00000E+00
    0.13555E+05         0.49996E+04         0.00000E+00
    0.00000E+00         0.00000E+00         0.00000E+00
 
    0.12918E+05         0.13866E+05         0.00000E+00
    0.13866E+05         0.53220E+04         0.00000E+00
    0.00000E+00         0.00000E+00         0.00000E+00
 
    0.12339E+05         0.14165E+05         0.00000E+00
    0.14165E+05         0.56515E+04         0.00000E+00
    0.00000E+00         0.00000E+00         0.00000E+00
 
    0.11743E+05         0.14449E+05         0.00000E+00
    0.14449E+05         0.59879E+04         0.00000E+00
    0.00000E+00         0.00000E+00         0.00000E+00
 
    0.11132E+05         0.14720E+05         0.00000E+00
    0.14720E+05         0.63307E+04         0.00000E+00
    0.00000E+00         0.00000E+00         0.00000E+00
 
    0.10505E+05         0.14976E+05         0.00000E+00
    0.14976E+05         0.66797E+04         0.00000E+00
    0.00000E+00         0.00000E+00         0.00000E+00
 
    0.98628E+04         0.15218E+05         0.00000E+00
    0.15218E+05         0.70346E+04         0.00000E+00
    0.00000E+00         0.00000E+00         0.00000E+00
 
    0.92063E+04         0.15445E+05         0.00000E+00
    0.15445E+05         0.73949E+04         0.00000E+00
    0.00000E+00         0.00000E+00         0.00000E+00
 
    0.85358E+04         0.15656E+05         0.00000E+00
    0.15656E+05         0.77603E+04         0.00000E+00
    0.00000E+00         0.00000E+00         0.00000E+00
 
    0.78519E+04         0.15852E+05         0.00000E+00
    0.15852E+05         0.81306E+04         0.00000E+00
    0.00000E+00         0.00000E+00         0.00000E+00
 
    0.71551E+04         0.16032E+05         0.00000E+00
    0.16032E+05         0.85052E+04         0.00000E+00
    0.00000E+00         0.00000E+00         0.00000E+00
 
    0.64460E+04         0.16196E+05         0.00000E+00
    0.16196E+05         0.88839E+04         0.00000E+00
    0.00000E+00         0.00000E+00         0.00000E+00
 
    0.57250E+04         0.16343E+05         0.00000E+00
    0.16343E+05         0.92663E+04         0.00000E+00
    0.00000E+00         0.00000E+00         0.00000E+00
 
    0.49928E+04         0.16474E+05         0.00000E+00
    0.16474E+05         0.96520E+04         0.00000E+00
    0.00000E+00         0.00000E+00         0.00000E+00
 
    0.42499E+04         0.16588E+05         0.00000E+00
    0.16588E+05         0.10041E+05         0.00000E+00
    0.00000E+00         0.00000E+00         0.00000E+00
 
    0.34968E+04         0.16684E+05         0.00000E+00
    0.16684E+05         0.10432E+05         0.00000E+00
    0.00000E+00         0.00000E+00         0.00000E+00
 
    0.27343E+04         0.16764E+05         0.00000E+00
    0.16764E+05         0.10825E+05         0.00000E+00
    0.00000E+00         0.00000E+00         0.00000E+00
 
    0.19629E+04         0.16825E+05         0.00000E+00
    0.16825E+05         0.11220E+05         0.00000E+00
    0.00000E+00         0.00000E+00         0.00000E+00
 
    0.11831E+04         0.16869E+05         0.00000E+00
    0.16869E+05         0.11616E+05         0.00000E+00
    0.00000E+00         0.00000E+00         0.00000E+00
 
    0.39559E+03         0.16895E+05         0.00000E+00
    0.16895E+05         0.12013E+05         0.00000E+00
    0.00000E+00         0.00000E+00         0.00000E+00
 
    0.23463E+05         0.27662E+03         0.00000E+00
    0.27662E+03        -0.24370E+03         0.00000E+00
    0.00000E+00         0.00000E+00         0.00000E+00
 
    0.23551E+05         0.83562E+03         0.00000E+00
    0.83562E+03        -0.23049E+03         0.00000E+00
    0.00000E+00         0.00000E+00         0.00000E+00
 
    0.23612E+05         0.13959E+04         0.00000E+00
    0.13959E+04        -0.20402E+03         0.00000E+00
    0.00000E+00         0.00000E+00         0.00000E+00
 
    0.23647E+05         0.19569E+04         0.00000E+00
    0.19569E+04        -0.16429E+03         0.00000E+00
    0.00000E+00         0.00000E+00         0.00000E+00
 
    0.23656E+05         0.25180E+04         0.00000E+00
    0.25180E+04        -0.11128E+03         0.00000E+00
    0.00000E+00         0.00000E+00         0.00000E+00
 
    0.23638E+05         0.30786E+04         0.00000E+00
    0.30786E+04        -0.45040E+02         0.00000E+00
    0.00000E+00         0.00000E+00         0.00000E+00
 
    0.23595E+05         0.36381E+04         0.00000E+00
    0.36381E+04         0.34416E+02         0.00000E+00
    0.00000E+00         0.00000E+00         0.00000E+00
 
    0.23525E+05         0.41959E+04         0.00000E+00
    0.41959E+04         0.12704E+03         0.00000E+00
    0.00000E+00         0.00000E+00         0.00000E+00
 
    0.23430E+05         0.47514E+04         0.00000E+00
    0.47514E+04         0.23276E+03         0.00000E+00
    0.00000E+00         0.00000E+00         0.00000E+00
 
    0.23308E+05         0.53040E+04         0.00000E+00
    0.53040E+04         0.35152E+03         0.00000E+00
    0.00000E+00         0.00000E+00         0.00000E+00
 
    0.23161E+05         0.58531E+04         0.00000E+00
    0.58531E+04         0.48323E+03         0.00000E+00
    0.00000E+00         0.00000E+00         0.00000E+00
 
    0.22988E+05         0.63981E+04         0.00000E+00
    0.63981E+04         0.62778E+03         0.00000E+00
    0.00000E+00         0.00000E+00         0.00000E+00
 
    0.22789E+05         0.69386E+04         0.00000E+00
    0.69386E+04         0.78506E+03         0.00000E+00
    0.00000E+00         0.00000E+00         0.00000E+00
 
    0.22565E+05         0.74738E+04         0.00000E+00
    0.74738E+04         0.95495E+03         0.00000E+00
    0.00000E+00         0.00000E+00         0.00000E+00
 
    0.22316E+05         0.80032E+04         0.00000E+00
    0.80032E+04         0.11373E+04         0.00000E+00
    0.00000E+00         0.00000E+00         0.00000E+00
 
    0.22041E+05         0.85262E+04         0.00000E+00
    0.85262E+04         0.13320E+04         0.00000E+00
    0.00000E+00         0.00000E+00         0.00000E+00
 
    0.21742E+05         0.90423E+04         0.00000E+00
    0.90423E+04         0.15388E+04         0.00000E+00
    0.00000E+00         0.00000E+00         0.00000E+00
 
    0.21419E+05         0.95510E+04         0.00000E+00
    0.95510E+04         0.17576E+04         0.00000E+00
    0.00000E+00         0.00000E+00         0.00000E+00
 
    0.21071E+05         0.10052E+05         0.00000E+00
    0.10052E+05         0.19882E+04         0.00000E+00
    0.00000E+00         0.00000E+00         0.00000E+00
 
    0.20699E+05         0.10544E+05         0.00000E+00
    0.10544E+05         0.22304E+04         0.00000E+00
    0.00000E+00         0.00000E+00         0.00000E+00
 
    0.20304E+05         0.11027E+05         0.00000E+00
    0.11027E+05         0.24839E+04         0.00000E+00
    0.00000E+00         0.00000E+00         0.00000E+00
 
    0.19885E+05         0.11500E+05         0.00000E+00
    0.11500E+05         0.27486E+04         0.00000E+00
    0.00000E+00         0.00000E+00         0.00000E+00
 
    0.19443E+05         0.11963E+05         0.00000E+00
    0.11963E+05         0.30243E+04         0.00000E+00
    0.00000E+00         0.00000E+00         0.00000E+00
 
    0.18978E+05         0.12416E+05         0.00000E+00
    0.12416E+05         0.33106E+04         0.00000E+00
    0.00000E+00         0.00000E+00         0.00000E+00
 
    0.18491E+05         0.12857E+05         0.00000E+00
    0.12857E+05         0.36073E+04         0.00000E+00
    0.00000E+00         0.00000E+00         0.00000E+00
 
    0.17983E+05         0.13287E+05         0.00000E+00
    0.13287E+05         0.39141E+04         0.00000E+00
    0.00000E+00         0.00000E+00         0.00000E+00
 
    0.17452E+05         0.13704E+05         0.00000E+00
    0.13704E+05         0.42308E+04         0.00000E+00
    0.00000E+00         0.00000E+00         0.00000E+00
 
    0.16901E+05         0.14109E+05         0.00000E+00
    0.14109E+05         0.45571E+04         0.00000E+00
    0.00000E+00         0.00000E+00         0.00000E+00
 
    0.16328E+05         0.14501E+05         0.00000E+00
    0.14501E+05         0.48926E+04         0.00000E+00
    0.00000E+00         0.00000E+00         0.00000E+00
 
    0.15736E+05         0.14879E+05         0.00000E+00
    0.14879E+05         0.52372E+04         0.00000E+00
    0.00000E+00         0.00000E+00         0.00000E+00
 
    0.15124E+05         0.15244E+05         0.00000E+00
    0.15244E+05         0.55903E+04         0.00000E+00
    0.00000E+00         0.00000E+00         0.00000E+00
 
    0.14492E+05         0.15594E+05         0.00000E+00
    0.15594E+05         0.59518E+04         0.00000E+00
    0.00000E+00         0.00000E+00         0.00000E+00
 
    0.13842E+05         0.15929E+05         0.00000E+00
    0.15929E+05         0.63212E+04         0.00000E+00
    0.00000E+00         0.00000E+00         0.00000E+00
 
    0.13173E+05         0.16248E+05         0.00000E+00
    0.16248E+05         0.66983E+04         0.00000E+00
    0.00000E+00         0.00000E+00         0.00000E+00
 
    0.12487E+05         0.16553E+05         0.00000E+00
    0.16553E+05         0.70826E+04         0.00000E+00
    0.00000E+00         0.00000E+00         0.00000E+00
 
    0.11783E+05         0.16841E+05         0.00000E+00
    0.16841E+05         0.74738E+04         0.00000E+00
    0.00000E+00         0.00000E+00         0.00000E+00
 
    0.11062E+05         0.17112E+05         0.00000E+00
    0.17112E+05         0.78716E+04         0.00000E+00
    0.00000E+00         0.00000E+00         0.00000E+00
 
    0.10326E+05         0.17367E+05         0.00000E+00
    0.17367E+05         0.82755E+04         0.00000E+00
    0.00000E+00         0.00000E+00         0.00000E+00
 
    0.95734E+04         0.17605E+05         0.00000E+00
    0.17605E+05         0.86852E+04         0.00000E+00
    0.00000E+00         0.00000E+00         0.00000E+00
 
    0.88062E+04         0.17825E+05         0.00000E+00
    0.17825E+05         0.91002E+04         0.00000E+00
    0.00000E+00         0.00000E+00         0.00000E+00
 
    0.80245E+04         0.18028E+05         0.00000E+00
    0.18028E+05         0.95202E+04         0.00000E+00
    0.00000E+00         0.00000E+00         0.00000E+00
 
    0.72290E+04         0.18212E+05         0.00000E+00
    0.18212E+05         0.99447E+04         0.00000E+00
    0.00000E+00         0.00000E+00         0.00000E+00
 
    0.64203E+04         0.18378E+05         0.00000E+00
    0.18378E+05         0.10373E+05         0.00000E+00
    0.00000E+00         0.00000E+00         0.00000E+00
 
    0.55990E+04         0.18525E+05         0.00000E+00
    0.18525E+05         0.10806E+05         0.00000E+00
    0.00000E+00         0.00000E+00         0.00000E+00
 
    0.47658E+04         0.18653E+05         0.00000E+00
    0.18653E+05         0.11241E+05         0.00000E+00
    0.00000E+00         0.00000E+00         0.00000E+00
 
    0.39213E+04         0.18762E+05         0.00000E+00
    0.18762E+05         0.11680E+05         0.00000E+00
    0.00000E+00         0.00000E+00         0.00000E+00
 
    0.30662E+04         0.18852E+05         0.00000E+00
    0.18852E+05         0.12121E+05         0.00000E+00
    0.00000E+00         0.00000E+00         0.00000E+00
 
    0.22011E+04         0.18922E+05         0.00000E+00
    0.18922E+05         0.12564E+05         0.00000E+00
    0.00000E+00         0.00000E+00         0.00000E+00
 
    0.13266E+04         0.18972E+05         0.00000E+00
    0.18972E+05         0.13008E+05         0.00000E+00
    0.00000E+00         0.00000E+00         0.00000E+00
 
    0.44359E+03         0.19001E+05         0.00000E+00
    0.19001E+05         0.13453E+05         0.00000E+00
    0.00000E+00         0.00000E+00         0.00000E+00
 
    0.26375E+05         0.31152E+03         0.00000E+00
    0.31152E+03        -0.29475E+03         0.00000E+00
    0.00000E+00         0.00000E+00         0.00000E+00
 
    0.26470E+05         0.94079E+03         0.00000E+00
    0.94079E+03        -0.27991E+03         0.00000E+00
    0.00000E+00         0.00000E+00         0.00000E+00
 
    0.26537E+05         0.15714E+04         0.00000E+00
    0.15714E+04        -0.25018E+03         0.00000E+00
    0.00000E+00         0.00000E+00         0.00000E+00
 
    0.26574E+05         0.22028E+04         0.00000E+00
    0.22028E+04        -0.20555E+03         0.00000E+00
    0.00000E+00         0.00000E+00         0.00000E+00
 
    0.26581E+05         0.28341E+04         0.00000E+00
    0.28341E+04        -0.14602E+03         0.00000E+00
    0.00000E+00         0.00000E+00         0.00000E+00
 
    0.26559E+05         0.34648E+04         0.00000E+00
    0.34648E+04        -0.71632E+02         0.00000E+00
    0.00000E+00         0.00000E+00         0.00000E+00
 
    0.26508E+05         0.40942E+04         0.00000E+00
    0.40942E+04         0.17585E+02         0.00000E+00
    0.00000E+00         0.00000E+00         0.00000E+00
 
    0.26428E+05         0.47216E+04         0.00000E+00
    0.47216E+04         0.12157E+03         0.00000E+00
    0.00000E+00         0.00000E+00         0.00000E+00
 
    0.26318E+05         0.53464E+04         0.00000E+00
    0.53464E+04         0.24026E+03         0.00000E+00
    0.00000E+00         0.00000E+00         0.00000E+00
 
    0.26180E+05         0.59678E+04         0.00000E+00
    0.59678E+04         0.37357E+03         0.00000E+00
    0.00000E+00         0.00000E+00         0.00000E+00
 
    0.26012E+05         0.65853E+04         0.00000E+00
    0.65853E+04         0.52140E+03         0.00000E+00
    0.00000E+00         0.00000E+00         0.00000E+00
 
    0.25816E+05         0.71981E+04         0.00000E+00
    0.71981E+04         0.68362E+03         0.00000E+00
    0.00000E+00         0.00000E+00         0.00000E+00
 
    0.25591E+05         0.78057E+04         0.00000E+00
    0.78057E+04         0.86012E+03         0.00000E+00
    0.00000E+00         0.00000E+00         0.00000E+00
 
    0.25337E+05         0.84073E+04         0.00000E+00
    0.84073E+04         0.10508E+04         0.00000E+00
    0.00000E+00         0.00000E+00         0.00000E+00
 
    0.25056E+05         0.90023E+04         0.00000E+00
    0.90023E+04         0.12554E+04         0.00000E+00
    0.00000E+00         0.00000E+00         0.00000E+00
 
    0.24746E+05         0.95902E+04         0.00000E+00
    0.95902E+04         0.14738E+04         0.00000E+00
    0.00000E+00         0.00000E+00         0.00000E+00
 
    0.24409E+05         0.10170E+05         0.00000E+00
    0.10170E+05         0.17058E+04         0.00000E+00
    0.00000E+00         0.00000E+00         0.00000E+00
 
    0.24044E+05         0.10742E+05         0.00000E+00
    0.10742E+05         0.19512E+04         0.00000E+00
    0.00000E+00         0.00000E+00         0.00000E+00
 
    0.23652E+05         0.11304E+05         0.00000E+00
    0.11304E+05         0.22099E+04         0.00000E+00
    0.00000E+00         0.00000E+00         0.00000E+00
 
    0.23233E+05         0.11857E+05         0.00000E+00
    0.11857E+05         0.24815E+04         0.00000E+00
    0.00000E+00         0.00000E+00         0.00000E+00
 
    0.22788E+05         0.12400E+05         0.00000E+00
    0.12400E+05         0.27659E+04         0.00000E+00
    0.00000E+00         0.00000E+00         0.00000E+00
 
    0.22317E+05         0.12932E+05         0.00000E+00
    0.12932E+05         0.30628E+04         0.00000E+00
    0.00000E+00         0.00000E+00         0.00000E+00
 
    0.21820E+05         0.13452E+05         0.00000E+00
    0.13452E+05         0.33719E+04         0.00000E+00
    0.00000E+00         0.00000E+00         0.00000E+00
 
    0.21297E+05         0.13960E+05         0.00000E+00
    0.13960E+05         0.36929E+04         0.00000E+00
    0.00000E+00         0.00000E+00         0.00000E+00
 
    0.20750E+05         0.14456E+05         0.00000E+00
    0.14456E+05         0.40256E+04         0.00000E+00
    0.00000E+00         0.00000E+00         0.00000E+00
 
    0.20178E+05         0.14939E+05         0.00000E+00
    0.14939E+05         0.43696E+04         0.00000E+00
    0.00000E+00         0.00000E+00         0.00000E+00
 
    0.19581E+05         0.15408E+05         0.00000E+00
    0.15408E+05         0.47247E+04         0.00000E+00
    0.00000E+00         0.00000E+00         0.00000E+00
 
    0.18962E+05         0.15862E+05         0.00000E+00
    0.15862E+05         0.50905E+04         0.00000E+00
    0.00000E+00         0.00000E+00         0.00000E+00
 
    0.18319E+05         0.16303E+05         0.00000E+00
    0.16303E+05         0.54667E+04         0.00000E+00
    0.00000E+00         0.00000E+00         0.00000E+00
 
    0.17653E+05         0.16727E+05         0.00000E+00
    0.16727E+05         0.58529E+04         0.00000E+00
    0.00000E+00         0.00000E+00         0.00000E+00
 
    0.16966E+05         0.17137E+05         0.00000E+00
    0.17137E+05         0.62488E+04         0.00000E+00
    0.00000E+00         0.00000E+00         0.00000E+00
 
    0.16257E+05         0.17530E+05         0.00000E+00
    0.17530E+05         0.66540E+04         0.00000E+00
    0.00000E+00         0.00000E+00         0.00000E+00
 
    0.15526E+05         0.17906E+05         0.00000E+00
    0.17906E+05         0.70681E+04         0.00000E+00
    0.00000E+00         0.00000E+00         0.00000E+00
 
    0.14776E+05         0.18265E+05         0.00000E+00
    0.18265E+05         0.74908E+04         0.00000E+00
    0.00000E+00         0.00000E+00         0.00000E+00
 
    0.14005E+05         0.18607E+05         0.00000E+00
    0.18607E+05         0.79216E+04         0.00000E+00
    0.00000E+00         0.00000E+00         0.00000E+00
 
    0.13215E+05         0.18931E+05         0.00000E+00
    0.18931E+05         0.83601E+04         0.00000E+00
    0.00000E+00         0.00000E+00         0.00000E+00
 
    0.12407E+05         0.19236E+05         0.00000E+00
    0.19236E+05         0.88060E+04         0.00000E+00
    0.00000E+00         0.00000E+00         0.00000E+00
 
    0.11580E+05         0.19522E+05         0.00000E+00
    0.19522E+05         0.92587E+04         0.00000E+00
    0.00000E+00         0.00000E+00         0.00000E+00
 
    0.10736E+05         0.19789E+05         0.00000E+00
    0.19789E+05         0.97179E+04         0.00000E+00
    0.00000E+00         0.00000E+00         0.00000E+00
 
    0.98757E+04         0.20037E+05         0.00000E+00
    0.20037E+05         0.10183E+05         0.00000E+00
    0.00000E+00         0.00000E+00         0.00000E+00
 
    0.89988E+04         0.20265E+05         0.00000E+00
    0.20265E+05         0.10654E+05         0.00000E+00
    0.00000E+00         0.00000E+00         0.00000E+00
 
    0.81065E+04         0.20472E+05         0.00000E+00
    0.20472E+05         0.11130E+05         0.00000E+00
    0.00000E+00         0.00000E+00         0.00000E+00
 
    0.71995E+04         0.20659E+05         0.00000E+00
    0.20659E+05         0.11610E+05         0.00000E+00
    0.00000E+00         0.00000E+00         0.00000E+00
 
    0.62784E+04         0.20824E+05         0.00000E+00
    0.20824E+05         0.12095E+05         0.00000E+00
    0.00000E+00         0.00000E+00         0.00000E+00
 
    0.53440E+04         0.20969E+05         0.00000E+00
    0.20969E+05         0.12583E+05         0.00000E+00
    0.00000E+00         0.00000E+00         0.00000E+00
 
    0.43970E+04         0.21092E+05         0.00000E+00
    0.21092E+05         0.13075E+05         0.00000E+00
    0.00000E+00         0.00000E+00         0.00000E+00
 
    0.34380E+04         0.21193E+05         0.00000E+00
    0.21193E+05         0.13569E+05         0.00000E+00
    0.00000E+00         0.00000E+00         0.00000E+00
 
    0.24680E+04         0.21272E+05         0.00000E+00
    0.21272E+05         0.14065E+05         0.00000E+00
    0.00000E+00         0.00000E+00         0.00000E+00
 
    0.14875E+04         0.21329E+05         0.00000E+00
    0.21329E+05         0.14563E+05         0.00000E+00
    0.00000E+00         0.00000E+00         0.00000E+00
 
    0.49737E+03         0.21363E+05         0.00000E+00
    0.21363E+05         0.15063E+05         0.00000E+00
    0.00000E+00         0.00000E+00         0.00000E+00
 
    0.29648E+05         0.35075E+03         0.00000E+00
    0.35075E+03        -0.35635E+03         0.00000E+00
    0.00000E+00         0.00000E+00         0.00000E+00
 
    0.29752E+05         0.10589E+04         0.00000E+00
    0.10589E+04        -0.33967E+03         0.00000E+00
    0.00000E+00         0.00000E+00         0.00000E+00
 
    0.29824E+05         0.17686E+04         0.00000E+00
    0.17686E+04        -0.30627E+03         0.00000E+00
    0.00000E+00         0.00000E+00         0.00000E+00
 
    0.29862E+05         0.24789E+04         0.00000E+00
    0.24789E+04        -0.25614E+03         0.00000E+00
    0.00000E+00         0.00000E+00         0.00000E+00
 
    0.29868E+05         0.31891E+04         0.00000E+00
    0.31891E+04        -0.18929E+03         0.00000E+00
    0.00000E+00         0.00000E+00         0.00000E+00
 
    0.29841E+05         0.38986E+04         0.00000E+00
    0.38986E+04        -0.10576E+03         0.00000E+00
    0.00000E+00         0.00000E+00         0.00000E+00
 
    0.29781E+05         0.46064E+04         0.00000E+00
    0.46064E+04        -0.55931E+01         0.00000E+00
    0.00000E+00         0.00000E+00         0.00000E+00
 
    0.29688E+05         0.53119E+04         0.00000E+00
    0.53119E+04         0.11115E+03         0.00000E+00
    0.00000E+00         0.00000E+00         0.00000E+00
 
    0.29562E+05         0.60143E+04         0.00000E+00
    0.60143E+04         0.24438E+03         0.00000E+00
    0.00000E+00         0.00000E+00         0.00000E+00
 
    0.29404E+05         0.67130E+04         0.00000E+00
    0.67130E+04         0.39400E+03         0.00000E+00
    0.00000E+00         0.00000E+00         0.00000E+00
 
    0.29213E+05         0.74070E+04         0.00000E+00
    0.74070E+04         0.55990E+03         0.00000E+00
    0.00000E+00         0.00000E+00         0.00000E+00
 
    0.28991E+05         0.80958E+04         0.00000E+00
    0.80958E+04         0.74195E+03         0.00000E+00
    0.00000E+00         0.00000E+00         0.00000E+00
 
    0.28736E+05         0.87786E+04         0.00000E+00
    0.87786E+04         0.94000E+03         0.00000E+00
    0.00000E+00         0.00000E+00         0.00000E+00
 
    0.28449E+05         0.94547E+04         0.00000E+00
    0.94547E+04         0.11539E+04         0.00000E+00
    0.00000E+00         0.00000E+00         0.00000E+00
 
    0.28131E+05         0.10123E+05         0.00000E+00
    0.10123E+05         0.13834E+04         0.00000E+00
    0.00000E+00         0.00000E+00         0.00000E+00
 
    0.27781E+05         0.10784E+05         0.00000E+00
    0.10784E+05         0.16284E+04         0.00000E+00
    0.00000E+00         0.00000E+00         0.00000E+00
 
    0.27401E+05         0.11435E+05         0.00000E+00
    0.11435E+05         0.18887E+04         0.00000E+00
    0.00000E+00         0.00000E+00         0.00000E+00
 
    0.26989E+05         0.12077E+05         0.00000E+00
    0.12077E+05         0.21640E+04         0.00000E+00
    0.00000E+00         0.00000E+00         0.00000E+00
 
    0.26548E+05         0.12709E+05         0.00000E+00
    0.12709E+05         0.24541E+04         0.00000E+00
    0.00000E+00         0.00000E+00         0.00000E+00
 
    0.26076E+05         0.13330E+05         0.00000E+00
    0.13330E+05         0.27587E+04         0.00000E+00
    0.00000E+00         0.00000E+00         0.00000E+00
 
    0.25575E+05         0.13940E+05         0.00000E+00
    0.13940E+05         0.30776E+04         0.00000E+00
    0.00000E+00         0.00000E+00         0.00000E+00
 
    0.25044E+05         0.14537E+05         0.00000E+00
    0.14537E+05         0.34105E+04         0.00000E+00
    0.00000E+00         0.00000E+00         0.00000E+00
 
    0.24485E+05         0.15121E+05         0.00000E+00
    0.15121E+05         0.37571E+04         0.00000E+00
    0.00000E+00         0.00000E+00         0.00000E+00
 
    0.23897E+05         0.15692E+05         0.00000E+00
    0.15692E+05         0.41170E+04         0.00000E+00
    0.00000E+00         0.00000E+00         0.00000E+00
 
    0.23281E+05         0.16249E+05         0.00000E+00
    0.16249E+05         0.44900E+04         0.00000E+00
    0.00000E+00         0.00000E+00         0.00000E+00
 
    0.22638E+05         0.16791E+05         0.00000E+00
    0.16791E+05         0.48757E+04         0.00000E+00
    0.00000E+00         0.00000E+00         0.00000E+00
 
    0.21968E+05         0.17317E+05         0.00000E+00
    0.17317E+05         0.52737E+04         0.00000E+00
    0.00000E+00         0.00000E+00         0.00000E+00
 
    0.21272E+05         0.17828E+05         0.00000E+00
    0.17828E+05         0.56838E+04         0.00000E+00
    0.00000E+00         0.00000E+00         0.00000E+00
 
    0.20550E+05         0.18322E+05         0.00000E+00
    0.18322E+05         0.61054E+04         0.00000E+00
    0.00000E+00         0.00000E+00         0.00000E+00
 
    0.19802E+05         0.18799E+05         0.00000E+00
    0.18799E+05         0.65383E+04         0.00000E+00
    0.00000E+00         0.00000E+00         0.00000E+00
 
    0.19030E+05         0.19259E+05         0.00000E+00
    0.19259E+05         0.69821E+04         0.00000E+00
    0.00000E+00         0.00000E+00         0.00000E+00
 
    0.18234E+05         0.19700E+05         0.00000E+00
    0.19700E+05         0.74362E+04         0.00000E+00
    0.00000E+00         0.00000E+00         0.00000E+00
 
    0.17414E+05         0.20122E+05         0.00000E+00
    0.20122E+05         0.79004E+04         0.00000E+00
    0.00000E+00         0.00000E+00         0.00000E+00
 
    0.16572E+05         0.20526E+05         0.00000E+00
    0.20526E+05         0.83741E+04         0.00000E+00
    0.00000E+00         0.00000E+00         0.00000E+00
 
    0.15707E+05         0.20909E+05         0.00000E+00
    0.20909E+05         0.88569E+04         0.00000E+00
    0.00000E+00         0.00000E+00         0.00000E+00
 
    0.14821E+05         0.21273E+05         0.00000E+00
    0.21273E+05         0.93483E+04         0.00000E+00
    0.00000E+00         0.00000E+00         0.00000E+00
 
    0.13913E+05         0.21616E+05         0.00000E+00
    0.21616E+05         0.98480E+04         0.00000E+00
    0.00000E+00         0.00000E+00         0.00000E+00
 
    0.12986E+05         0.21937E+05         0.00000E+00
    0.21937E+05         0.10355E+05         0.00000E+00
    0.00000E+00         0.00000E+00         0.00000E+00
 
    0.12039E+05         0.22238E+05         0.00000E+00
    0.22238E+05         0.10870E+05         0.00000E+00
    0.00000E+00         0.00000E+00         0.00000E+00
 
    0.11074E+05         0.22516E+05         0.00000E+00
    0.22516E+05         0.11391E+05         0.00000E+00
    0.00000E+00         0.00000E+00         0.00000E+00
 
    0.10090E+05         0.22772E+05         0.00000E+00
    0.22772E+05         0.11919E+05         0.00000E+00
    0.00000E+00         0.00000E+00         0.00000E+00
 
    0.90894E+04         0.23005E+05         0.00000E+00
    0.23005E+05         0.12452E+05         0.00000E+00
    0.00000E+00         0.00000E+00         0.00000E+00
 
    0.80722E+04         0.23215E+05         0.00000E+00
    0.23215E+05         0.12991E+05         0.00000E+00
    0.00000E+00         0.00000E+00         0.00000E+00
 
    0.70393E+04         0.23401E+05         0.00000E+00
    0.23401E+05         0.13534E+05         0.00000E+00
    0.00000E+00         0.00000E+00         0.00000E+00
 
    0.59915E+04         0.23564E+05         0.00000E+00
    0.23564E+05         0.14081E+05         0.00000E+00
    0.00000E+00         0.00000E+00         0.00000E+00
 
    0.49296E+04         0.23703E+05         0.00000E+00
    0.23703E+05         0.14632E+05         0.00000E+00
    0.00000E+00         0.00000E+00         0.00000E+00
 
    0.38545E+04         0.23817E+05         0.00000E+00
    0.23817E+05         0.15186E+05         0.00000E+00
    0.00000E+00         0.00000E+00         0.00000E+00
 
    0.27668E+04         0.23906E+05         0.00000E+00
    0.23906E+05         0.15742E+05         0.00000E+00
    0.00000E+00         0.00000E+00         0.00000E+00
 
    0.16676E+04         0.23971E+05         0.00000E+00
    0.23971E+05         0.16301E+05         0.00000E+00
    0.00000E+00         0.00000E+00         0.00000E+00
 
    0.55759E+03         0.24010E+05         0.00000E+00
    0.24010E+05         0.16860E+05         0.00000E+00
    0.00000E+00         0.00000E+00         0.00000E+00
 
    0.33326E+05         0.39484E+03         0.00000E+00
    0.39484E+03        -0.43061E+03         0.00000E+00
    0.00000E+00         0.00000E+00         0.00000E+00
 
    0.33440E+05         0.11917E+04         0.00000E+00
    0.11917E+04        -0.41188E+03         0.00000E+00
    0.00000E+00         0.00000E+00         0.00000E+00
 
    0.33517E+05         0.19900E+04         0.00000E+00
    0.19900E+04        -0.37436E+03         0.00000E+00
    0.00000E+00         0.00000E+00         0.00000E+00
 
    0.33557E+05         0.27890E+04         0.00000E+00
    0.27890E+04        -0.31806E+03         0.00000E+00
    0.00000E+00         0.00000E+00         0.00000E+00
 
    0.33560E+05         0.35878E+04         0.00000E+00
    0.35878E+04        -0.24300E+03         0.00000E+00
    0.00000E+00         0.00000E+00         0.00000E+00
 
    0.33526E+05         0.43855E+04         0.00000E+00
    0.43855E+04        -0.14922E+03         0.00000E+00
    0.00000E+00         0.00000E+00         0.00000E+00
 
    0.33455E+05         0.51813E+04         0.00000E+00
    0.51813E+04        -0.36766E+02         0.00000E+00
    0.00000E+00         0.00000E+00         0.00000E+00
 
    0.33348E+05         0.59745E+04         0.00000E+00
    0.59745E+04         0.94273E+02         0.00000E+00
    0.00000E+00         0.00000E+00         0.00000E+00
 
    0.33204E+05         0.67640E+04         0.00000E+00
    0.67640E+04         0.24381E+03         0.00000E+00
    0.00000E+00         0.00000E+00         0.00000E+00
 
    0.33023E+05         0.75492E+04         0.00000E+00
    0.75492E+04         0.41172E+03         0.00000E+00
    0.00000E+00         0.00000E+00         0.00000E+00
 
    0.32806E+05         0.83292E+04         0.00000E+00
    0.83292E+04         0.59788E+03         0.00000E+00
    0.00000E+00         0.00000E+00         0.00000E+00
 
    0.32553E+05         0.91031E+04         0.00000E+00
    0.91031E+04         0.80214E+03         0.00000E+00
    0.00000E+00         0.00000E+00         0.00000E+00
 
    0.32264E+05         0.98702E+04         0.00000E+00
    0.98702E+04         0.10243E+04         0.00000E+00
    0.00000E+00         0.00000E+00         0.00000E+00
 
    0.31940E+05         0.10630E+05         0.00000E+00
    0.10630E+05         0.12643E+04         0.00000E+00
    0.00000E+00         0.00000E+00         0.00000E+00
 
    0.31580E+05         0.11381E+05         0.00000E+00
    0.11381E+05         0.15218E+04         0.00000E+00
    0.00000E+00         0.00000E+00         0.00000E+00
 
    0.31185E+05         0.12123E+05         0.00000E+00
    0.12123E+05         0.17966E+04         0.00000E+00
    0.00000E+00         0.00000E+00         0.00000E+00
 
    0.30756E+05         0.12854E+05         0.00000E+00
    0.12854E+05         0.20885E+04         0.00000E+00
    0.00000E+00         0.00000E+00         0.00000E+00
 
    0.30292E+05         0.13575E+05         0.00000E+00
    0.13575E+05         0.23972E+04         0.00000E+00
    0.00000E+00         0.00000E+00         0.00000E+00
 
    0.29794E+05         0.14285E+05         0.00000E+00
    0.14285E+05         0.27225E+04         0.00000E+00
    0.00000E+00         0.00000E+00         0.00000E+00
 
    0.29263E+05         0.14982E+05         0.00000E+00
    0.14982E+05         0.30640E+04         0.00000E+00
    0.00000E+00         0.00000E+00         0.00000E+00
 
    0.28698E+05         0.15666E+05         0.00000E+00
    0.15666E+05         0.34216E+04         0.00000E+00
    0.00000E+00         0.00000E+00         0.00000E+00
 
    0.28101E+05         0.16337E+05         0.00000E+00
    0.16337E+05         0.37948E+04         0.00000E+00
    0.00000E+00         0.00000E+00         0.00000E+00
 
    0.27472E+05         0.16993E+05         0.00000E+00
    0.16993E+05         0.41833E+04         0.00000E+00
    0.00000E+00         0.00000E+00         0.00000E+00
 
    0.26811E+05         0.17633E+05         0.00000E+00
    0.17633E+05         0.45867E+04         0.00000E+00
    0.00000E+00         0.00000E+00         0.00000E+00
 
    0.26118E+05         0.18258E+05         0.00000E+00
    0.18258E+05         0.50048E+04         0.00000E+00
    0.00000E+00         0.00000E+00         0.00000E+00
 
    0.25396E+05         0.18867E+05         0.00000E+00
    0.18867E+05         0.54371E+04         0.00000E+00
    0.00000E+00         0.00000E+00         0.00000E+00
 
    0.24643E+05         0.19458E+05         0.00000E+00
    0.19458E+05         0.58833E+04         0.00000E+00
    0.00000E+00         0.00000E+00         0.00000E+00
 
    0.23860E+05         0.20031E+05         0.00000E+00
    0.20031E+05         0.63428E+04         0.00000E+00
    0.00000E+00         0.00000E+00         0.00000E+00
 
    0.23049E+05         0.20585E+05         0.00000E+00
    0.20585E+05         0.68154E+04         0.00000E+00
    0.00000E+00         0.00000E+00         0.00000E+00
 
    0.22210E+05         0.21121E+05         0.00000E+00
    0.21121E+05         0.73005E+04         0.00000E+00
    0.00000E+00         0.00000E+00         0.00000E+00
 
    0.21343E+05         0.21637E+05         0.00000E+00
    0.21637E+05         0.77977E+04         0.00000E+00
    0.00000E+00         0.00000E+00         0.00000E+00
 
    0.20449E+05         0.22132E+05         0.00000E+00
    0.22132E+05         0.83066E+04         0.00000E+00
    0.00000E+00         0.00000E+00         0.00000E+00
 
    0.19529E+05         0.22606E+05         0.00000E+00
    0.22606E+05         0.88267E+04         0.00000E+00
    0.00000E+00         0.00000E+00         0.00000E+00
 
    0.18583E+05         0.23059E+05         0.00000E+00
    0.23059E+05         0.93575E+04         0.00000E+00
    0.00000E+00         0.00000E+00         0.00000E+00
 
    0.17612E+05         0.23490E+05         0.00000E+00
    0.23490E+05         0.98985E+04         0.00000E+00
    0.00000E+00         0.00000E+00         0.00000E+00
 
    0.16618E+05         0.23898E+05         0.00000E+00
    0.23898E+05         0.10449E+05         0.00000E+00
    0.00000E+00         0.00000E+00         0.00000E+00
 
    0.15600E+05         0.24283E+05         0.00000E+00
    0.24283E+05         0.11009E+05         0.00000E+00
    0.00000E+00         0.00000E+00         0.00000E+00
 
    0.14560E+05         0.24644E+05         0.00000E+00
    0.24644E+05         0.11577E+05         0.00000E+00
    0.00000E+00         0.00000E+00         0.00000E+00
 
    0.13498E+05         0.24981E+05         0.00000E+00
    0.24981E+05         0.12154E+05         0.00000E+00
    0.00000E+00         0.00000E+00         0.00000E+00
 
    0.12415E+05         0.25294E+05         0.00000E+00
    0.25294E+05         0.12738E+05         0.00000E+00
    0.00000E+00         0.00000E+00         0.00000E+00
 
    0.11312E+05         0.25581E+05         0.00000E+00
    0.25581E+05         0.13329E+05         0.00000E+00
    0.00000E+00         0.00000E+00         0.00000E+00
 
    0.10190E+05         0.25843E+05         0.00000E+00
    0.25843E+05         0.13927E+05         0.00000E+00
    0.00000E+00         0.00000E+00         0.00000E+00
 
    0.90491E+04         0.26080E+05         0.00000E+00
    0.26080E+05         0.14530E+05         0.00000E+00
    0.00000E+00         0.00000E+00         0.00000E+00
 
    0.78910E+04         0.26289E+05         0.00000E+00
    0.26289E+05         0.15139E+05         0.00000E+00
    0.00000E+00         0.00000E+00         0.00000E+00
 
    0.67163E+04         0.26473E+05         0.00000E+00
    0.26473E+05         0.15752E+05         0.00000E+00
    0.00000E+00         0.00000E+00         0.00000E+00
 
    0.55258E+04         0.26629E+05         0.00000E+00
    0.26629E+05         0.16369E+05         0.00000E+00
    0.00000E+00         0.00000E+00         0.00000E+00
 
    0.43206E+04         0.26758E+05         0.00000E+00
    0.26758E+05         0.16990E+05         0.00000E+00
    0.00000E+00         0.00000E+00         0.00000E+00
 
    0.31014E+04         0.26859E+05         0.00000E+00
    0.26859E+05         0.17614E+05         0.00000E+00
    0.00000E+00         0.00000E+00         0.00000E+00
 
    0.18692E+04         0.26932E+05         0.00000E+00
    0.26932E+05         0.18240E+05         0.00000E+00
    0.00000E+00         0.00000E+00         0.00000E+00
 
    0.62499E+03         0.26977E+05         0.00000E+00
    0.26977E+05         0.18867E+05         0.00000E+00
    0.00000E+00         0.00000E+00         0.00000E+00
 
    0.37460E+05         0.44439E+03         0.00000E+00
    0.44439E+03        -0.52012E+03         0.00000E+00
    0.00000E+00         0.00000E+00         0.00000E+00
 
    0.37583E+05         0.13408E+04         0.00000E+00
    0.13408E+04        -0.49907E+03         0.00000E+00
    0.00000E+00         0.00000E+00         0.00000E+00
 
    0.37665E+05         0.22387E+04         0.00000E+00
    0.22387E+04        -0.45694E+03         0.00000E+00
    0.00000E+00         0.00000E+00         0.00000E+00
 
    0.37706E+05         0.31372E+04         0.00000E+00
    0.31372E+04        -0.39372E+03         0.00000E+00
    0.00000E+00         0.00000E+00         0.00000E+00
 
    0.37705E+05         0.40353E+04         0.00000E+00
    0.40353E+04        -0.30945E+03         0.00000E+00
    0.00000E+00         0.00000E+00         0.00000E+00
 
    0.37663E+05         0.49321E+04         0.00000E+00
    0.49321E+04        -0.20417E+03         0.00000E+00
    0.00000E+00         0.00000E+00         0.00000E+00
 
    0.37580E+05         0.58267E+04         0.00000E+00
    0.58267E+04        -0.77953E+02         0.00000E+00
    0.00000E+00         0.00000E+00         0.00000E+00
 
    0.37456E+05         0.67181E+04         0.00000E+00
    0.67181E+04         0.69112E+02         0.00000E+00
    0.00000E+00         0.00000E+00         0.00000E+00
 
    0.37290E+05         0.76053E+04         0.00000E+00
    0.76053E+04         0.23691E+03         0.00000E+00
    0.00000E+00         0.00000E+00         0.00000E+00
 
    0.37084E+05         0.84875E+04         0.00000E+00
    0.84875E+04         0.42532E+03         0.00000E+00
    0.00000E+00         0.00000E+00         0.00000E+00
 
    0.36837E+05         0.93638E+04         0.00000E+00
    0.93638E+04         0.63418E+03         0.00000E+00
    0.00000E+00         0.00000E+00         0.00000E+00
 
    0.36550E+05         0.10233E+05         0.00000E+00
    0.10233E+05         0.86332E+03         0.00000E+00
    0.00000E+00         0.00000E+00         0.00000E+00
 
    0.36222E+05         0.11095E+05         0.00000E+00
    0.11095E+05         0.11125E+04         0.00000E+00
    0.00000E+00         0.00000E+00         0.00000E+00
 
    0.35855E+05         0.11948E+05         0.00000E+00
    0.11948E+05         0.13817E+04         0.00000E+00
    0.00000E+00         0.00000E+00         0.00000E+00
 
    0.35448E+05         0.12791E+05         0.00000E+00
    0.12791E+05         0.16704E+04         0.00000E+00
    0.00000E+00         0.00000E+00         0.00000E+00
 
    0.35002E+05         0.13624E+05         0.00000E+00
    0.13624E+05         0.19786E+04         0.00000E+00
    0.00000E+00         0.00000E+00         0.00000E+00
 
    0.34517E+05         0.14446E+05         0.00000E+00
    0.14446E+05         0.23059E+04         0.00000E+00
    0.00000E+00         0.00000E+00         0.00000E+00
 
    0.33994E+05         0.15255E+05         0.00000E+00
    0.15255E+05         0.26520E+04         0.00000E+00
    0.00000E+00         0.00000E+00         0.00000E+00
 
    0.33433E+05         0.16051E+05         0.00000E+00
    0.16051E+05         0.30167E+04         0.00000E+00
    0.00000E+00         0.00000E+00         0.00000E+00
 
    0.32834E+05         0.16834E+05         0.00000E+00
    0.16834E+05         0.33996E+04         0.00000E+00
    0.00000E+00         0.00000E+00         0.00000E+00
 
    0.32198E+05         0.17602E+05         0.00000E+00
    0.17602E+05         0.38003E+04         0.00000E+00
    0.00000E+00         0.00000E+00         0.00000E+00
 
    0.31526E+05         0.18354E+05         0.00000E+00
    0.18354E+05         0.42186E+04         0.00000E+00
    0.00000E+00         0.00000E+00         0.00000E+00
 
    0.30818E+05         0.19090E+05         0.00000E+00
    0.19090E+05         0.46541E+04         0.00000E+00
    0.00000E+00         0.00000E+00         0.00000E+00
 
    0.30075E+05         0.19809E+05         0.00000E+00
    0.19809E+05         0.51062E+04         0.00000E+00
    0.00000E+00         0.00000E+00         0.00000E+00
 
    0.29296E+05         0.20511E+05         0.00000E+00
    0.20511E+05         0.55747E+04         0.00000E+00
    0.00000E+00         0.00000E+00         0.00000E+00
 
    0.28484E+05         0.21193E+05         0.00000E+00
    0.21193E+05         0.60592E+04         0.00000E+00
    0.00000E+00         0.00000E+00         0.00000E+00
 
    0.27638E+05         0.21856E+05         0.00000E+00
    0.21856E+05         0.65591E+04         0.00000E+00
    0.00000E+00         0.00000E+00         0.00000E+00
 
    0.26759E+05         0.22499E+05         0.00000E+00
    0.22499E+05         0.70740E+04         0.00000E+00
    0.00000E+00         0.00000E+00         0.00000E+00
 
    0.25848E+05         0.23122E+05         0.00000E+00
    0.23122E+05         0.76034E+04         0.00000E+00
    0.00000E+00         0.00000E+00         0.00000E+00
 
    0.24905E+05         0.23722E+05         0.00000E+00
    0.23722E+05         0.81470E+04         0.00000E+00
    0.00000E+00         0.00000E+00         0.00000E+00
 
    0.23931E+05         0.24301E+05         0.00000E+00
    0.24301E+05         0.87040E+04         0.00000E+00
    0.00000E+00         0.00000E+00         0.00000E+00
 
    0.22928E+05         0.24857E+05         0.00000E+00
    0.24857E+05         0.92741E+04         0.00000E+00
    0.00000E+00         0.00000E+00         0.00000E+00
 
    0.21895E+05         0.25389E+05         0.00000E+00
    0.25389E+05         0.98568E+04         0.00000E+00
    0.00000E+00         0.00000E+00         0.00000E+00
 
    0.20834E+05         0.25897E+05         0.00000E+00
    0.25897E+05         0.10451E+05         0.00000E+00
    0.00000E+00         0.00000E+00         0.00000E+00
 
    0.19745E+05         0.26380E+05         0.00000E+00
    0.26380E+05         0.11057E+05         0.00000E+00
    0.00000E+00         0.00000E+00         0.00000E+00
 
    0.18629E+05         0.26838E+05         0.00000E+00
    0.26838E+05         0.11674E+05         0.00000E+00
    0.00000E+00         0.00000E+00         0.00000E+00
 
    0.17488E+05         0.27271E+05         0.00000E+00
    0.27271E+05         0.12301E+05         0.00000E+00
    0.00000E+00         0.00000E+00         0.00000E+00
 
    0.16321E+05         0.27676E+05         0.00000E+00
    0.27676E+05         0.12938E+05         0.00000E+00
    0.00000E+00         0.00000E+00         0.00000E+00
 
    0.15130E+05         0.28055E+05         0.00000E+00
    0.28055E+05         0.13584E+05         0.00000E+00
    0.00000E+00         0.00000E+00         0.00000E+00
 
    0.13916E+05         0.28406E+05         0.00000E+00
    0.28406E+05         0.14238E+05         0.00000E+00
    0.00000E+00         0.00000E+00         0.00000E+00
 
    0.12679E+05         0.28729E+05         0.00000E+00
    0.28729E+05         0.14900E+05         0.00000E+00
    0.00000E+00         0.00000E+00         0.00000E+00
 
    0.11421E+05         0.29023E+05         0.00000E+00
    0.29023E+05         0.15570E+05         0.00000E+00
    0.00000E+00         0.00000E+00         0.00000E+00
 
    0.10142E+05         0.29289E+05         0.00000E+00
    0.29289E+05         0.16246E+05         0.00000E+00
    0.00000E+00         0.00000E+00         0.00000E+00
 
    0.88439E+04         0.29525E+05         0.00000E+00
    0.29525E+05         0.16928E+05         0.00000E+00
    0.00000E+00         0.00000E+00         0.00000E+00
 
    0.75271E+04         0.29732E+05         0.00000E+00
    0.29732E+05         0.17615E+05         0.00000E+00
    0.00000E+00         0.00000E+00         0.00000E+00
 
    0.61928E+04         0.29908E+05         0.00000E+00
    0.29908E+05         0.18306E+05         0.00000E+00
    0.00000E+00         0.00000E+00         0.00000E+00
 
    0.48419E+04         0.30053E+05         0.00000E+00
    0.30053E+05         0.19002E+05         0.00000E+00
    0.00000E+00         0.00000E+00         0.00000E+00
 
    0.34756E+04         0.30168E+05         0.00000E+00
    0.30168E+05         0.19700E+05         0.00000E+00
    0.00000E+00         0.00000E+00         0.00000E+00
 
    0.20947E+04         0.30251E+05         0.00000E+00
    0.30251E+05         0.20401E+05         0.00000E+00
    0.00000E+00         0.00000E+00         0.00000E+00
 
    0.70038E+03         0.30303E+05         0.00000E+00
    0.30303E+05         0.21104E+05         0.00000E+00
    0.00000E+00         0.00000E+00         0.00000E+00
 
    0.42102E+05         0.50007E+03         0.00000E+00
    0.50007E+03        -0.62794E+03         0.00000E+00
    0.00000E+00         0.00000E+00         0.00000E+00
 
    0.42236E+05         0.15083E+04         0.00000E+00
    0.15083E+04        -0.60430E+03         0.00000E+00
    0.00000E+00         0.00000E+00         0.00000E+00
 
    0.42323E+05         0.25180E+04         0.00000E+00
    0.25180E+04        -0.55699E+03         0.00000E+00
    0.00000E+00         0.00000E+00         0.00000E+00
 
    0.42364E+05         0.35282E+04         0.00000E+00
    0.35282E+04        -0.48602E+03         0.00000E+00
    0.00000E+00         0.00000E+00         0.00000E+00
 
    0.42358E+05         0.45377E+04         0.00000E+00
    0.45377E+04        -0.39142E+03         0.00000E+00
    0.00000E+00         0.00000E+00         0.00000E+00
 
    0.42306E+05         0.55457E+04         0.00000E+00
    0.55457E+04        -0.27326E+03         0.00000E+00
    0.00000E+00         0.00000E+00         0.00000E+00
 
    0.42208E+05         0.65510E+04         0.00000E+00
    0.65510E+04        -0.13162E+03         0.00000E+00
    0.00000E+00         0.00000E+00         0.00000E+00
 
    0.42064E+05         0.75525E+04         0.00000E+00
    0.75525E+04         0.33393E+02         0.00000E+00
    0.00000E+00         0.00000E+00         0.00000E+00
 
    0.41874E+05         0.85492E+04         0.00000E+00
    0.85492E+04         0.22165E+03         0.00000E+00
    0.00000E+00         0.00000E+00         0.00000E+00
 
    0.41638E+05         0.95402E+04         0.00000E+00
    0.95402E+04         0.43300E+03         0.00000E+00
    0.00000E+00         0.00000E+00         0.00000E+00
 
    0.41357E+05         0.10524E+05         0.00000E+00
    0.10524E+05         0.66727E+03         0.00000E+00
    0.00000E+00         0.00000E+00         0.00000E+00
 
    0.41030E+05         0.11501E+05         0.00000E+00
    0.11501E+05         0.92427E+03         0.00000E+00
    0.00000E+00         0.00000E+00         0.00000E+00
 
    0.40659E+05         0.12468E+05         0.00000E+00
    0.12468E+05         0.12038E+04         0.00000E+00
    0.00000E+00         0.00000E+00         0.00000E+00
 
    0.40243E+05         0.13426E+05         0.00000E+00
    0.13426E+05         0.15055E+04         0.00000E+00
    0.00000E+00         0.00000E+00         0.00000E+00
 
    0.39783E+05         0.14372E+05         0.00000E+00
    0.14372E+05         0.18293E+04         0.00000E+00
    0.00000E+00         0.00000E+00         0.00000E+00
 
    0.39279E+05         0.15307E+05         0.00000E+00
    0.15307E+05         0.21747E+04         0.00000E+00
    0.00000E+00         0.00000E+00         0.00000E+00
 
    0.38732E+05         0.16229E+05         0.00000E+00
    0.16229E+05         0.25416E+04         0.00000E+00
    0.00000E+00         0.00000E+00         0.00000E+00
 
    0.38141E+05         0.17138E+05         0.00000E+00
    0.17138E+05         0.29296E+04         0.00000E+00
    0.00000E+00         0.00000E+00         0.00000E+00
 
    0.37509E+05         0.18031E+05         0.00000E+00
    0.18031E+05         0.33383E+04         0.00000E+00
    0.00000E+00         0.00000E+00         0.00000E+00
 
    0.36834E+05         0.18910E+05         0.00000E+00
    0.18910E+05         0.37675E+04         0.00000E+00
    0.00000E+00         0.00000E+00         0.00000E+00
 
    0.36119E+05         0.19771E+05         0.00000E+00
    0.19771E+05         0.42166E+04         0.00000E+00
    0.00000E+00         0.00000E+00         0.00000E+00
 
    0.35362E+05         0.20615E+05         0.00000E+00
    0.20615E+05         0.46853E+04         0.00000E+00
    0.00000E+00         0.00000E+00         0.00000E+00
 
    0.34565E+05         0.21441E+05         0.00000E+00
    0.21441E+05         0.51731E+04         0.00000E+00
    0.00000E+00         0.00000E+00         0.00000E+00
 
    0.33729E+05         0.22248E+05         0.00000E+00
    0.22248E+05         0.56798E+04         0.00000E+00
    0.00000E+00         0.00000E+00         0.00000E+00
 
    0.32854E+05         0.23034E+05         0.00000E+00
    0.23034E+05         0.62046E+04         0.00000E+00
    0.00000E+00         0.00000E+00         0.00000E+00
 
    0.31941E+05         0.23800E+05         0.00000E+00
    0.23800E+05         0.67473E+04         0.00000E+00
    0.00000E+00         0.00000E+00         0.00000E+00
 
    0.30990E+05         0.24543E+05         0.00000E+00
    0.24543E+05         0.73073E+04         0.00000E+00
    0.00000E+00         0.00000E+00         0.00000E+00
 
    0.30003E+05         0.25265E+05         0.00000E+00
    0.25265E+05         0.78841E+04         0.00000E+00
    0.00000E+00         0.00000E+00         0.00000E+00
 
    0.28980E+05         0.25963E+05         0.00000E+00
    0.25963E+05         0.84771E+04         0.00000E+00
    0.00000E+00         0.00000E+00         0.00000E+00
 
    0.27921E+05         0.26637E+05         0.00000E+00
    0.26637E+05         0.90859E+04         0.00000E+00
    0.00000E+00         0.00000E+00         0.00000E+00
 
    0.26828E+05         0.27286E+05         0.00000E+00
    0.27286E+05         0.97098E+04         0.00000E+00
    0.00000E+00         0.00000E+00         0.00000E+00
 
    0.25702E+05         0.27909E+05         0.00000E+00
    0.27909E+05         0.10348E+05         0.00000E+00
    0.00000E+00         0.00000E+00         0.00000E+00
 
    0.24543E+05         0.28506E+05         0.00000E+00
    0.28506E+05         0.11001E+05         0.00000E+00
    0.00000E+00         0.00000E+00         0.00000E+00
 
    0.23352E+05         0.29076E+05         0.00000E+00
    0.29076E+05         0.11667E+05         0.00000E+00
    0.00000E+00         0.00000E+00         0.00000E+00
 
    0.22131E+05         0.29618E+05         0.00000E+00
    0.29618E+05         0.12345E+05         0.00000E+00
    0.00000E+00         0.00000E+00         0.00000E+00
 
    0.20879E+05         0.30132E+05         0.00000E+00
    0.30132E+05         0.13036E+05         0.00000E+00
    0.00000E+00         0.00000E+00         0.00000E+00
 
    0.19599E+05         0.30617E+05         0.00000E+00
    0.30617E+05         0.13738E+05         0.00000E+00
    0.00000E+00         0.00000E+00         0.00000E+00
 
    0.18291E+05         0.31072E+05         0.00000E+00
    0.31072E+05         0.14452E+05         0.00000E+00
    0.00000E+00         0.00000E+00         0.00000E+00
 
    0.16955E+05         0.31497E+05         0.00000E+00
    0.31497E+05         0.15175E+05         0.00000E+00
    0.00000E+00         0.00000E+00         0.00000E+00
 
    0.15594E+05         0.31891E+05         0.00000E+00
    0.31891E+05         0.15908E+05         0.00000E+00
    0.00000E+00         0.00000E+00         0.00000E+00
 
    0.14208E+05         0.32254E+05         0.00000E+00
    0.32254E+05         0.16649E+05         0.00000E+00
    0.00000E+00         0.00000E+00         0.00000E+00
 
    0.12797E+05         0.32585E+05         0.00000E+00
    0.32585E+05         0.17399E+05         0.00000E+00
    0.00000E+00         0.00000E+00         0.00000E+00
 
    0.11364E+05         0.32884E+05         0.00000E+00
    0.32884E+05         0.18156E+05         0.00000E+00
    0.00000E+00         0.00000E+00         0.00000E+00
 
    0.99093E+04         0.33150E+05         0.00000E+00
    0.33150E+05         0.18919E+05         0.00000E+00
    0.00000E+00         0.00000E+00         0.00000E+00
 
    0.84337E+04         0.33382E+05         0.00000E+00
    0.33382E+05         0.19689E+05         0.00000E+00
    0.00000E+00         0.00000E+00         0.00000E+00
 
    0.69385E+04         0.33580E+05         0.00000E+00
    0.33580E+05         0.20463E+05         0.00000E+00
    0.00000E+00         0.00000E+00         0.00000E+00
 
    0.54249E+04         0.33745E+05         0.00000E+00
    0.33745E+05         0.21242E+05         0.00000E+00
    0.00000E+00         0.00000E+00         0.00000E+00
 
    0.38939E+04         0.33875E+05         0.00000E+00
    0.33875E+05         0.22025E+05         0.00000E+00
    0.00000E+00         0.00000E+00         0.00000E+00
 
    0.23468E+04         0.33969E+05         0.00000E+00
    0.33969E+05         0.22810E+05         0.00000E+00
    0.00000E+00         0.00000E+00         0.00000E+00
 
    0.78466E+03         0.34029E+05         0.00000E+00
    0.34029E+05         0.23598E+05         0.00000E+00
    0.00000E+00         0.00000E+00         0.00000E+00
 
    0.47314E+05         0.56262E+03         0.00000E+00
    0.56262E+03        -0.75776E+03         0.00000E+00
    0.00000E+00         0.00000E+00         0.00000E+00
 
    0.47459E+05         0.16963E+04         0.00000E+00
    0.16963E+04        -0.73122E+03         0.00000E+00
    0.00000E+00         0.00000E+00         0.00000E+00
 
    0.47551E+05         0.28315E+04         0.00000E+00
    0.28315E+04        -0.67810E+03         0.00000E+00
    0.00000E+00         0.00000E+00         0.00000E+00
 
    0.47591E+05         0.39670E+04         0.00000E+00
    0.39670E+04        -0.59844E+03         0.00000E+00
    0.00000E+00         0.00000E+00         0.00000E+00
 
    0.47579E+05         0.51016E+04         0.00000E+00
    0.51016E+04        -0.49228E+03         0.00000E+00
    0.00000E+00         0.00000E+00         0.00000E+00
 
    0.47515E+05         0.62342E+04         0.00000E+00
    0.62342E+04        -0.35970E+03         0.00000E+00
    0.00000E+00         0.00000E+00         0.00000E+00
 
    0.47399E+05         0.73636E+04         0.00000E+00
    0.73636E+04        -0.20078E+03         0.00000E+00
    0.00000E+00         0.00000E+00         0.00000E+00
 
    0.47232E+05         0.84886E+04         0.00000E+00
    0.84886E+04        -0.15672E+02         0.00000E+00
    0.00000E+00         0.00000E+00         0.00000E+00
 
    0.47013E+05         0.96080E+04         0.00000E+00
    0.96080E+04         0.19549E+03         0.00000E+00
    0.00000E+00         0.00000E+00         0.00000E+00
 
    0.46744E+05         0.10721E+05         0.00000E+00
    0.10721E+05         0.43252E+03         0.00000E+00
    0.00000E+00         0.00000E+00         0.00000E+00
 
    0.46423E+05         0.11826E+05         0.00000E+00
    0.11826E+05         0.69522E+03         0.00000E+00
    0.00000E+00         0.00000E+00         0.00000E+00
 
    0.46052E+05         0.12922E+05         0.00000E+00
    0.12922E+05         0.98337E+03         0.00000E+00
    0.00000E+00         0.00000E+00         0.00000E+00
 
    0.45631E+05         0.14008E+05         0.00000E+00
    0.14008E+05         0.12967E+04         0.00000E+00
    0.00000E+00         0.00000E+00         0.00000E+00
 
    0.45160E+05         0.15082E+05         0.00000E+00
    0.15082E+05         0.16350E+04         0.00000E+00
    0.00000E+00         0.00000E+00         0.00000E+00
 
    0.44639E+05         0.16145E+05         0.00000E+00
    0.16145E+05         0.19979E+04         0.00000E+00
    0.00000E+00         0.00000E+00         0.00000E+00
 
    0.44070E+05         0.17194E+05         0.00000E+00
    0.17194E+05         0.23851E+04         0.00000E+00
    0.00000E+00         0.00000E+00         0.00000E+00
 
    0.43452E+05         0.18229E+05         0.00000E+00
    0.18229E+05         0.27962E+04         0.00000E+00
    0.00000E+00         0.00000E+00         0.00000E+00
 
    0.42786E+05         0.19248E+05         0.00000E+00
    0.19248E+05         0.32310E+04         0.00000E+00
    0.00000E+00         0.00000E+00         0.00000E+00
 
    0.42073E+05         0.20250E+05         0.00000E+00
    0.20250E+05         0.36890E+04         0.00000E+00
    0.00000E+00         0.00000E+00         0.00000E+00
 
    0.41313E+05         0.21235E+05         0.00000E+00
    0.21235E+05         0.41697E+04         0.00000E+00
    0.00000E+00         0.00000E+00         0.00000E+00
 
    0.40507E+05         0.22201E+05         0.00000E+00
    0.22201E+05         0.46729E+04         0.00000E+00
    0.00000E+00         0.00000E+00         0.00000E+00
 
    0.39656E+05         0.23148E+05         0.00000E+00
    0.23148E+05         0.51979E+04         0.00000E+00
    0.00000E+00         0.00000E+00         0.00000E+00
 
    0.38759E+05         0.24074E+05         0.00000E+00
    0.24074E+05         0.57444E+04         0.00000E+00
    0.00000E+00         0.00000E+00         0.00000E+00
 
    0.37819E+05         0.24979E+05         0.00000E+00
    0.24979E+05         0.63118E+04         0.00000E+00
    0.00000E+00         0.00000E+00         0.00000E+00
 
    0.36835E+05         0.25861E+05         0.00000E+00
    0.25861E+05         0.68996E+04         0.00000E+00
    0.00000E+00         0.00000E+00         0.00000E+00
 
    0.35809E+05         0.26719E+05         0.00000E+00
    0.26719E+05         0.75074E+04         0.00000E+00
    0.00000E+00         0.00000E+00         0.00000E+00
 
    0.34741E+05         0.27553E+05         0.00000E+00
    0.27553E+05         0.81345E+04         0.00000E+00
    0.00000E+00         0.00000E+00         0.00000E+00
 
    0.33632E+05         0.28362E+05         0.00000E+00
    0.28362E+05         0.87803E+04         0.00000E+00
    0.00000E+00         0.00000E+00         0.00000E+00
 
    0.32483E+05         0.29144E+05         0.00000E+00
    0.29144E+05         0.94444E+04         0.00000E+00
    0.00000E+00         0.00000E+00         0.00000E+00
 
    0.31295E+05         0.29900E+05         0.00000E+00
    0.29900E+05         0.10126E+05         0.00000E+00
    0.00000E+00         0.00000E+00         0.00000E+00
 
    0.30068E+05         0.30628E+05         0.00000E+00
    0.30628E+05         0.10825E+05         0.00000E+00
    0.00000E+00         0.00000E+00         0.00000E+00
 
    0.28804E+05         0.31327E+05         0.00000E+00
    0.31327E+05         0.11539E+05         0.00000E+00
    0.00000E+00         0.00000E+00         0.00000E+00
 
    0.27504E+05         0.31996E+05         0.00000E+00
    0.31996E+05         0.12270E+05         0.00000E+00
    0.00000E+00         0.00000E+00         0.00000E+00
 
    0.26168E+05         0.32635E+05         0.00000E+00
    0.32635E+05         0.13015E+05         0.00000E+00
    0.00000E+00         0.00000E+00         0.00000E+00
 
    0.24798E+05         0.33243E+05         0.00000E+00
    0.33243E+05         0.13775E+05         0.00000E+00
    0.00000E+00         0.00000E+00         0.00000E+00
 
    0.23395E+05         0.33820E+05         0.00000E+00
    0.33820E+05         0.14548E+05         0.00000E+00
    0.00000E+00         0.00000E+00         0.00000E+00
 
    0.21959E+05         0.34364E+05         0.00000E+00
    0.34364E+05         0.15335E+05         0.00000E+00
    0.00000E+00         0.00000E+00         0.00000E+00
 
    0.20493E+05         0.34874E+05         0.00000E+00
    0.34874E+05         0.16133E+05         0.00000E+00
    0.00000E+00         0.00000E+00         0.00000E+00
 
    0.18996E+05         0.35351E+05         0.00000E+00
    0.35351E+05         0.16943E+05         0.00000E+00
    0.00000E+00         0.00000E+00         0.00000E+00
 
    0.17470E+05         0.35794E+05         0.00000E+00
    0.35794E+05         0.17763E+05         0.00000E+00
    0.00000E+00         0.00000E+00         0.00000E+00
 
    0.15916E+05         0.36202E+05         0.00000E+00
    0.36202E+05         0.18593E+05         0.00000E+00
    0.00000E+00         0.00000E+00         0.00000E+00
 
    0.14336E+05         0.36573E+05         0.00000E+00
    0.36573E+05         0.19432E+05         0.00000E+00
    0.00000E+00         0.00000E+00         0.00000E+00
 
    0.12730E+05         0.36909E+05         0.00000E+00
    0.36909E+05         0.20280E+05         0.00000E+00
    0.00000E+00         0.00000E+00         0.00000E+00
 
    0.11100E+05         0.37208E+05         0.00000E+00
    0.37208E+05         0.21134E+05         0.00000E+00
    0.00000E+00         0.00000E+00         0.00000E+00
 
    0.94467E+04         0.37469E+05         0.00000E+00
    0.37469E+05         0.21996E+05         0.00000E+00
    0.00000E+00         0.00000E+00         0.00000E+00
 
    0.77718E+04         0.37693E+05         0.00000E+00
    0.37693E+05         0.22863E+05         0.00000E+00
    0.00000E+00         0.00000E+00         0.00000E+00
 
    0.60762E+04         0.37879E+05         0.00000E+00
    0.37879E+05         0.23735E+05         0.00000E+00
    0.00000E+00         0.00000E+00         0.00000E+00
 
    0.43613E+04         0.38026E+05         0.00000E+00
    0.38026E+05         0.24612E+05         0.00000E+00
    0.00000E+00         0.00000E+00         0.00000E+00
 
    0.26285E+04         0.38134E+05         0.00000E+00
    0.38134E+05         0.25491E+05         0.00000E+00
    0.00000E+00         0.00000E+00         0.00000E+00
 
    0.87883E+03         0.38203E+05         0.00000E+00
    0.38203E+05         0.26373E+05         0.00000E+00
    0.00000E+00         0.00000E+00         0.00000E+00
 
    0.53166E+05         0.63289E+03         0.00000E+00
    0.63289E+03        -0.91399E+03         0.00000E+00
    0.00000E+00         0.00000E+00         0.00000E+00
 
    0.53320E+05         0.19074E+04         0.00000E+00
    0.19074E+04        -0.88419E+03         0.00000E+00
    0.00000E+00         0.00000E+00         0.00000E+00
 
    0.53416E+05         0.31834E+04         0.00000E+00
    0.31834E+04        -0.82458E+03         0.00000E+00
    0.00000E+00         0.00000E+00         0.00000E+00
 
    0.53454E+05         0.44594E+04         0.00000E+00
    0.44594E+04        -0.73519E+03         0.00000E+00
    0.00000E+00         0.00000E+00         0.00000E+00
 
    0.53434E+05         0.57343E+04         0.00000E+00
    0.57343E+04        -0.61608E+03         0.00000E+00
    0.00000E+00         0.00000E+00         0.00000E+00
 
    0.53356E+05         0.70066E+04         0.00000E+00
    0.70066E+04        -0.46734E+03         0.00000E+00
    0.00000E+00         0.00000E+00         0.00000E+00
 
    0.53220E+05         0.82751E+04         0.00000E+00
    0.82751E+04        -0.28910E+03         0.00000E+00
    0.00000E+00         0.00000E+00         0.00000E+00
 
    0.53026E+05         0.95385E+04         0.00000E+00
    0.95385E+04        -0.81505E+02         0.00000E+00
    0.00000E+00         0.00000E+00         0.00000E+00
 
    0.52774E+05         0.10795E+05         0.00000E+00
    0.10795E+05         0.15527E+03         0.00000E+00
    0.00000E+00         0.00000E+00         0.00000E+00
 
    0.52466E+05         0.12045E+05         0.00000E+00
    0.12045E+05         0.42103E+03         0.00000E+00
    0.00000E+00         0.00000E+00         0.00000E+00
 
    0.52100E+05         0.13285E+05         0.00000E+00
    0.13285E+05         0.71553E+03         0.00000E+00
    0.00000E+00         0.00000E+00         0.00000E+00
 
    0.51678E+05         0.14515E+05         0.00000E+00
    0.14515E+05         0.10385E+04         0.00000E+00
    0.00000E+00         0.00000E+00         0.00000E+00
 
    0.51200E+05         0.15734E+05         0.00000E+00
    0.15734E+05         0.13897E+04         0.00000E+00
    0.00000E+00         0.00000E+00         0.00000E+00
 
    0.50666E+05         0.16940E+05         0.00000E+00
    0.16940E+05         0.17688E+04         0.00000E+00
    0.00000E+00         0.00000E+00         0.00000E+00
 
    0.50078E+05         0.18131E+05         0.00000E+00
    0.18131E+05         0.21754E+04         0.00000E+00
    0.00000E+00         0.00000E+00         0.00000E+00
 
    0.49434E+05         0.19308E+05         0.00000E+00
    0.19308E+05         0.26092E+04         0.00000E+00
    0.00000E+00         0.00000E+00         0.00000E+00
 
    0.48736E+05         0.20469E+05         0.00000E+00
    0.20469E+05         0.30699E+04         0.00000E+00
    0.00000E+00         0.00000E+00         0.00000E+00
 
    0.47985E+05         0.21612E+05         0.00000E+00
    0.21612E+05         0.35569E+04         0.00000E+00
    0.00000E+00         0.00000E+00         0.00000E+00
 
    0.47181E+05         0.22736E+05         0.00000E+00
    0.22736E+05         0.40698E+04         0.00000E+00
    0.00000E+00         0.00000E+00         0.00000E+00
 
    0.46325E+05         0.23840E+05         0.00000E+00
    0.23840E+05         0.46083E+04         0.00000E+00
    0.00000E+00         0.00000E+00         0.00000E+00
 
    0.45418E+05         0.24924E+05         0.00000E+00
    0.24924E+05         0.51717E+04         0.00000E+00
    0.00000E+00         0.00000E+00         0.00000E+00
 
    0.44459E+05         0.25985E+05         0.00000E+00
    0.25985E+05         0.57597E+04         0.00000E+00
    0.00000E+00         0.00000E+00         0.00000E+00
 
    0.43451E+05         0.27023E+05         0.00000E+00
    0.27023E+05         0.63716E+04         0.00000E+00
    0.00000E+00         0.00000E+00         0.00000E+00
 
    0.42394E+05         0.28037E+05         0.00000E+00
    0.28037E+05         0.70069E+04         0.00000E+00
    0.00000E+00         0.00000E+00         0.00000E+00
 
    0.41288E+05         0.29026E+05         0.00000E+00
    0.29026E+05         0.76650E+04         0.00000E+00
    0.00000E+00         0.00000E+00         0.00000E+00
 
    0.40135E+05         0.29988E+05         0.00000E+00
    0.29988E+05         0.83454E+04         0.00000E+00
    0.00000E+00         0.00000E+00         0.00000E+00
 
    0.38935E+05         0.30923E+05         0.00000E+00
    0.30923E+05         0.90474E+04         0.00000E+00
    0.00000E+00         0.00000E+00         0.00000E+00
 
    0.37689E+05         0.31829E+05         0.00000E+00
    0.31829E+05         0.97703E+04         0.00000E+00
    0.00000E+00         0.00000E+00         0.00000E+00
 
    0.36399E+05         0.32706E+05         0.00000E+00
    0.32706E+05         0.10514E+05         0.00000E+00
    0.00000E+00         0.00000E+00         0.00000E+00
 
    0.35066E+05         0.33553E+05         0.00000E+00
    0.33553E+05         0.11277E+05         0.00000E+00
    0.00000E+00         0.00000E+00         0.00000E+00
 
    0.33689E+05         0.34369E+05         0.00000E+00
    0.34369E+05         0.12058E+05         0.00000E+00
    0.00000E+00         0.00000E+00         0.00000E+00
 
    0.32271E+05         0.35152E+05         0.00000E+00
    0.35152E+05         0.12858E+05         0.00000E+00
    0.00000E+00         0.00000E+00         0.00000E+00
 
    0.30813E+05         0.35903E+05         0.00000E+00
    0.35903E+05         0.13676E+05         0.00000E+00
    0.00000E+00         0.00000E+00         0.00000E+00
 
    0.29315E+05         0.36619E+05         0.00000E+00
    0.36619E+05         0.14510E+05         0.00000E+00
    0.00000E+00         0.00000E+00         0.00000E+00
 
    0.27779E+05         0.37301E+05         0.00000E+00
    0.37301E+05         0.15361E+05         0.00000E+00
    0.00000E+00         0.00000E+00         0.00000E+00
 
    0.26206E+05         0.37947E+05         0.00000E+00
    0.37947E+05         0.16226E+05         0.00000E+00
    0.00000E+00         0.00000E+00         0.00000E+00
 
    0.24596E+05         0.38557E+05         0.00000E+00
    0.38557E+05         0.17106E+05         0.00000E+00
    0.00000E+00         0.00000E+00         0.00000E+00
 
    0.22952E+05         0.39130E+05         0.00000E+00
    0.39130E+05         0.17999E+05         0.00000E+00
    0.00000E+00         0.00000E+00         0.00000E+00
 
    0.21275E+05         0.39665E+05         0.00000E+00
    0.39665E+05         0.18905E+05         0.00000E+00
    0.00000E+00         0.00000E+00         0.00000E+00
 
    0.19565E+05         0.40162E+05         0.00000E+00
    0.40162E+05         0.19823E+05         0.00000E+00
    0.00000E+00         0.00000E+00         0.00000E+00
 
    0.17825E+05         0.40620E+05         0.00000E+00
    0.40620E+05         0.20752E+05         0.00000E+00
    0.00000E+00         0.00000E+00         0.00000E+00
 
    0.16054E+05         0.41037E+05         0.00000E+00
    0.41037E+05         0.21691E+05         0.00000E+00
    0.00000E+00         0.00000E+00         0.00000E+00
 
    0.14255E+05         0.41414E+05         0.00000E+00
    0.41414E+05         0.22640E+05         0.00000E+00
    0.00000E+00         0.00000E+00         0.00000E+00
 
    0.12430E+05         0.41751E+05         0.00000E+00
    0.41751E+05         0.23596E+05         0.00000E+00
    0.00000E+00         0.00000E+00         0.00000E+00
 
    0.10578E+05         0.42045E+05         0.00000E+00
    0.42045E+05         0.24560E+05         0.00000E+00
    0.00000E+00         0.00000E+00         0.00000E+00
 
    0.87023E+04         0.42298E+05         0.00000E+00
    0.42298E+05         0.25531E+05         0.00000E+00
    0.00000E+00         0.00000E+00         0.00000E+00
 
    0.68035E+04         0.42507E+05         0.00000E+00
    0.42507E+05         0.26507E+05         0.00000E+00
    0.00000E+00         0.00000E+00         0.00000E+00
 
    0.48833E+04         0.42674E+05         0.00000E+00
    0.42674E+05         0.27488E+05         0.00000E+00
    0.00000E+00         0.00000E+00         0.00000E+00
 
    0.29430E+04         0.42797E+05         0.00000E+00
    0.42797E+05         0.28473E+05         0.00000E+00
    0.00000E+00         0.00000E+00         0.00000E+00
 
    0.98398E+03         0.42876E+05         0.00000E+00
    0.42876E+05         0.29460E+05         0.00000E+00
    0.00000E+00         0.00000E+00         0.00000E+00
 
    0.59731E+05         0.71180E+03         0.00000E+00
    0.71180E+03        -0.11019E+04         0.00000E+00
    0.00000E+00         0.00000E+00         0.00000E+00
 
    0.59896E+05         0.21444E+04         0.00000E+00
    0.21444E+04        -0.10685E+04         0.00000E+00
    0.00000E+00         0.00000E+00         0.00000E+00
 
    0.59996E+05         0.35782E+04         0.00000E+00
    0.35782E+04        -0.10016E+04         0.00000E+00
    0.00000E+00         0.00000E+00         0.00000E+00
 
    0.60030E+05         0.50119E+04         0.00000E+00
    0.50119E+04        -0.90129E+03         0.00000E+00
    0.00000E+00         0.00000E+00         0.00000E+00
 
    0.60000E+05         0.64439E+04         0.00000E+00
    0.64439E+04        -0.76770E+03         0.00000E+00
    0.00000E+00         0.00000E+00         0.00000E+00
 
    0.59904E+05         0.78729E+04         0.00000E+00
    0.78729E+04        -0.60089E+03         0.00000E+00
    0.00000E+00         0.00000E+00         0.00000E+00
 
    0.59743E+05         0.92973E+04         0.00000E+00
    0.92973E+04        -0.40103E+03         0.00000E+00
    0.00000E+00         0.00000E+00         0.00000E+00
 
    0.59518E+05         0.10716E+05         0.00000E+00
    0.10716E+05        -0.16829E+03         0.00000E+00
    0.00000E+00         0.00000E+00         0.00000E+00
 
    0.59229E+05         0.12127E+05         0.00000E+00
    0.12127E+05         0.97132E+02         0.00000E+00
    0.00000E+00         0.00000E+00         0.00000E+00
 
    0.58875E+05         0.13529E+05         0.00000E+00
    0.13529E+05         0.39500E+03         0.00000E+00
    0.00000E+00         0.00000E+00         0.00000E+00
 
    0.58458E+05         0.14920E+05         0.00000E+00
    0.14920E+05         0.72504E+03         0.00000E+00
    0.00000E+00         0.00000E+00         0.00000E+00
 
    0.57978E+05         0.16300E+05         0.00000E+00
    0.16300E+05         0.10870E+04         0.00000E+00
    0.00000E+00         0.00000E+00         0.00000E+00
 
    0.57436E+05         0.17668E+05         0.00000E+00
    0.17668E+05         0.14804E+04         0.00000E+00
    0.00000E+00         0.00000E+00         0.00000E+00
 
    0.56831E+05         0.19020E+05         0.00000E+00
    0.19020E+05         0.19051E+04         0.00000E+00
    0.00000E+00         0.00000E+00         0.00000E+00
 
    0.56165E+05         0.20357E+05         0.00000E+00
    0.20357E+05         0.23606E+04         0.00000E+00
    0.00000E+00         0.00000E+00         0.00000E+00
 
    0.55437E+05         0.21677E+05         0.00000E+00
    0.21677E+05         0.28465E+04         0.00000E+00
    0.00000E+00         0.00000E+00         0.00000E+00
 
    0.54650E+05         0.22978E+05         0.00000E+00
    0.22978E+05         0.33623E+04         0.00000E+00
    0.00000E+00         0.00000E+00         0.00000E+00
 
    0.53802E+05         0.24259E+05         0.00000E+00
    0.24259E+05         0.39077E+04         0.00000E+00
    0.00000E+00         0.00000E+00         0.00000E+00
 
    0.52896E+05         0.25519E+05         0.00000E+00
    0.25519E+05         0.44820E+04         0.00000E+00
    0.00000E+00         0.00000E+00         0.00000E+00
 
    0.51931E+05         0.26757E+05         0.00000E+00
    0.26757E+05         0.50849E+04         0.00000E+00
    0.00000E+00         0.00000E+00         0.00000E+00
 
    0.50909E+05         0.27972E+05         0.00000E+00
    0.27972E+05         0.57156E+04         0.00000E+00
    0.00000E+00         0.00000E+00         0.00000E+00
 
    0.49831E+05         0.29161E+05         0.00000E+00
    0.29161E+05         0.63738E+04         0.00000E+00
    0.00000E+00         0.00000E+00         0.00000E+00
 
    0.48697E+05         0.30324E+05         0.00000E+00
    0.30324E+05         0.70587E+04         0.00000E+00
    0.00000E+00         0.00000E+00         0.00000E+00
 
    0.47508E+05         0.31461E+05         0.00000E+00
    0.31461E+05         0.77697E+04         0.00000E+00
    0.00000E+00         0.00000E+00         0.00000E+00
 
    0.46265E+05         0.32568E+05         0.00000E+00
    0.32568E+05         0.85063E+04         0.00000E+00
    0.00000E+00         0.00000E+00         0.00000E+00
 
    0.44969E+05         0.33646E+05         0.00000E+00
    0.33646E+05         0.92676E+04         0.00000E+00
    0.00000E+00         0.00000E+00         0.00000E+00
 
    0.43622E+05         0.34694E+05         0.00000E+00
    0.34694E+05         0.10053E+05         0.00000E+00
    0.00000E+00         0.00000E+00         0.00000E+00
 
    0.42224E+05         0.35709E+05         0.00000E+00
    0.35709E+05         0.10862E+05         0.00000E+00
    0.00000E+00         0.00000E+00         0.00000E+00
 
    0.40776E+05         0.36692E+05         0.00000E+00
    0.36692E+05         0.11694E+05         0.00000E+00
    0.00000E+00         0.00000E+00         0.00000E+00
 
    0.39279E+05         0.37641E+05         0.00000E+00
    0.37641E+05         0.12547E+05         0.00000E+00
    0.00000E+00         0.00000E+00         0.00000E+00
 
    0.37735E+05         0.38555E+05         0.00000E+00
    0.38555E+05         0.13422E+05         0.00000E+00
    0.00000E+00         0.00000E+00         0.00000E+00
 
    0.36144E+05         0.39433E+05         0.00000E+00
    0.39433E+05         0.14317E+05         0.00000E+00
    0.00000E+00         0.00000E+00         0.00000E+00
 
    0.34509E+05         0.40274E+05         0.00000E+00
    0.40274E+05         0.15232E+05         0.00000E+00
    0.00000E+00         0.00000E+00         0.00000E+00
 
    0.32829E+05         0.41077E+05         0.00000E+00
    0.41077E+05         0.16165E+05         0.00000E+00
    0.00000E+00         0.00000E+00         0.00000E+00
 
    0.31107E+05         0.41841E+05         0.00000E+00
    0.41841E+05         0.17116E+05         0.00000E+00
    0.00000E+00         0.00000E+00         0.00000E+00
 
    0.29344E+05         0.42565E+05         0.00000E+00
    0.42565E+05         0.18084E+05         0.00000E+00
    0.00000E+00         0.00000E+00         0.00000E+00
 
    0.27541E+05         0.43249E+05         0.00000E+00
    0.43249E+05         0.19068E+05         0.00000E+00
    0.00000E+00         0.00000E+00         0.00000E+00
 
    0.25699E+05         0.43892E+05         0.00000E+00
    0.43892E+05         0.20068E+05         0.00000E+00
    0.00000E+00         0.00000E+00         0.00000E+00
 
    0.23820E+05         0.44492E+05         0.00000E+00
    0.44492E+05         0.21081E+05         0.00000E+00
    0.00000E+00         0.00000E+00         0.00000E+00
 
    0.21905E+05         0.45049E+05         0.00000E+00
    0.45049E+05         0.22108E+05         0.00000E+00
    0.00000E+00         0.00000E+00         0.00000E+00
 
    0.19955E+05         0.45563E+05         0.00000E+00
    0.45563E+05         0.23147E+05         0.00000E+00
    0.00000E+00         0.00000E+00         0.00000E+00
 
    0.17972E+05         0.46032E+05         0.00000E+00
    0.46032E+05         0.24198E+05         0.00000E+00
    0.00000E+00         0.00000E+00         0.00000E+00
 
    0.15958E+05         0.46456E+05         0.00000E+00
    0.46456E+05         0.25259E+05         0.00000E+00
    0.00000E+00         0.00000E+00         0.00000E+00
 
    0.13914E+05         0.46834E+05         0.00000E+00
    0.46834E+05         0.26329E+05         0.00000E+00
    0.00000E+00         0.00000E+00         0.00000E+00
 
    0.11841E+05         0.47166E+05         0.00000E+00
    0.47166E+05         0.27408E+05         0.00000E+00
    0.00000E+00         0.00000E+00         0.00000E+00
 
    0.97408E+04         0.47450E+05         0.00000E+00
    0.47450E+05         0.28494E+05         0.00000E+00
    0.00000E+00         0.00000E+00         0.00000E+00
 
    0.76153E+04         0.47687E+05         0.00000E+00
    0.47687E+05         0.29586E+05         0.00000E+00
    0.00000E+00         0.00000E+00         0.00000E+00
 
    0.54658E+04         0.47876E+05         0.00000E+00
    0.47876E+05         0.30684E+05         0.00000E+00
    0.00000E+00         0.00000E+00         0.00000E+00
 
    0.32940E+04         0.48016E+05         0.00000E+00
    0.48016E+05         0.31785E+05         0.00000E+00
    0.00000E+00         0.00000E+00         0.00000E+00
 
    0.11013E+04         0.48107E+05         0.00000E+00
    0.48107E+05         0.32890E+05         0.00000E+00
    0.00000E+00         0.00000E+00         0.00000E+00
 
    0.67097E+05         0.80040E+03         0.00000E+00
    0.80040E+03        -0.13278E+04         0.00000E+00
    0.00000E+00         0.00000E+00         0.00000E+00
 
    0.67272E+05         0.24102E+04         0.00000E+00
    0.24102E+04        -0.12903E+04         0.00000E+00
    0.00000E+00         0.00000E+00         0.00000E+00
 
    0.67373E+05         0.40212E+04         0.00000E+00
    0.40212E+04        -0.12153E+04         0.00000E+00
    0.00000E+00         0.00000E+00         0.00000E+00
 
    0.67402E+05         0.56315E+04         0.00000E+00
    0.56315E+04        -0.11028E+04         0.00000E+00
    0.00000E+00         0.00000E+00         0.00000E+00
 
    0.67358E+05         0.72398E+04         0.00000E+00
    0.72398E+04        -0.95300E+03         0.00000E+00
    0.00000E+00         0.00000E+00         0.00000E+00
 
    0.67241E+05         0.88442E+04         0.00000E+00
    0.88442E+04        -0.76600E+03         0.00000E+00
    0.00000E+00         0.00000E+00         0.00000E+00
 
    0.67052E+05         0.10443E+05         0.00000E+00
    0.10443E+05        -0.54198E+03         0.00000E+00
    0.00000E+00         0.00000E+00         0.00000E+00
 
    0.66790E+05         0.12035E+05         0.00000E+00
    0.12035E+05        -0.28113E+03         0.00000E+00
    0.00000E+00         0.00000E+00         0.00000E+00
 
    0.66457E+05         0.13618E+05         0.00000E+00
    0.13618E+05         0.16297E+02         0.00000E+00
    0.00000E+00         0.00000E+00         0.00000E+00
 
    0.66052E+05         0.15191E+05         0.00000E+00
    0.15191E+05         0.35003E+03         0.00000E+00
    0.00000E+00         0.00000E+00         0.00000E+00
 
    0.65576E+05         0.16753E+05         0.00000E+00
    0.16753E+05         0.71976E+03         0.00000E+00
    0.00000E+00         0.00000E+00         0.00000E+00
 
    0.65030E+05         0.18301E+05         0.00000E+00
    0.18301E+05         0.11252E+04         0.00000E+00
    0.00000E+00         0.00000E+00         0.00000E+00
 
    0.64414E+05         0.19834E+05         0.00000E+00
    0.19834E+05         0.15658E+04         0.00000E+00
    0.00000E+00         0.00000E+00         0.00000E+00
 
    0.63729E+05         0.21350E+05         0.00000E+00
    0.21350E+05         0.20414E+04         0.00000E+00
    0.00000E+00         0.00000E+00         0.00000E+00
 
    0.62974E+05         0.22849E+05         0.00000E+00
    0.22849E+05         0.25514E+04         0.00000E+00
    0.00000E+00         0.00000E+00         0.00000E+00
 
    0.62152E+05         0.24328E+05         0.00000E+00
    0.24328E+05         0.30954E+04         0.00000E+00
    0.00000E+00         0.00000E+00         0.00000E+00
 
    0.61263E+05         0.25787E+05         0.00000E+00
    0.25787E+05         0.36729E+04         0.00000E+00
    0.00000E+00         0.00000E+00         0.00000E+00
 
    0.60307E+05         0.27223E+05         0.00000E+00
    0.27223E+05         0.42833E+04         0.00000E+00
    0.00000E+00         0.00000E+00         0.00000E+00
 
    0.59285E+05         0.28635E+05         0.00000E+00
    0.28635E+05         0.49261E+04         0.00000E+00
    0.00000E+00         0.00000E+00         0.00000E+00
 
    0.58199E+05         0.30022E+05         0.00000E+00
    0.30022E+05         0.56008E+04         0.00000E+00
    0.00000E+00         0.00000E+00         0.00000E+00
 
    0.57048E+05         0.31383E+05         0.00000E+00
    0.31383E+05         0.63066E+04         0.00000E+00
    0.00000E+00         0.00000E+00         0.00000E+00
 
    0.55834E+05         0.32715E+05         0.00000E+00
    0.32715E+05         0.70430E+04         0.00000E+00
    0.00000E+00         0.00000E+00         0.00000E+00
 
    0.54559E+05         0.34019E+05         0.00000E+00
    0.34019E+05         0.78093E+04         0.00000E+00
    0.00000E+00         0.00000E+00         0.00000E+00
 
    0.53222E+05         0.35291E+05         0.00000E+00
    0.35291E+05         0.86048E+04         0.00000E+00
    0.00000E+00         0.00000E+00         0.00000E+00
 
    0.51826E+05         0.36532E+05         0.00000E+00
    0.36532E+05         0.94287E+04         0.00000E+00
    0.00000E+00         0.00000E+00         0.00000E+00
 
    0.50370E+05         0.37740E+05         0.00000E+00
    0.37740E+05         0.10280E+05         0.00000E+00
    0.00000E+00         0.00000E+00         0.00000E+00
 
    0.48857E+05         0.38913E+05         0.00000E+00
    0.38913E+05         0.11159E+05         0.00000E+00
    0.00000E+00         0.00000E+00         0.00000E+00
 
    0.47288E+05         0.40050E+05         0.00000E+00
    0.40050E+05         0.12064E+05         0.00000E+00
    0.00000E+00         0.00000E+00         0.00000E+00
 
    0.45663E+05         0.41151E+05         0.00000E+00
    0.41151E+05         0.12994E+05         0.00000E+00
    0.00000E+00         0.00000E+00         0.00000E+00
 
    0.43983E+05         0.42214E+05         0.00000E+00
    0.42214E+05         0.13948E+05         0.00000E+00
    0.00000E+00         0.00000E+00         0.00000E+00
 
    0.42252E+05         0.43237E+05         0.00000E+00
    0.43237E+05         0.14927E+05         0.00000E+00
    0.00000E+00         0.00000E+00         0.00000E+00
 
    0.40468E+05         0.44221E+05         0.00000E+00
    0.44221E+05         0.15927E+05         0.00000E+00
    0.00000E+00         0.00000E+00         0.00000E+00
 
    0.38635E+05         0.45163E+05         0.00000E+00
    0.45163E+05         0.16950E+05         0.00000E+00
    0.00000E+00         0.00000E+00         0.00000E+00
 
    0.36752E+05         0.46062E+05         0.00000E+00
    0.46062E+05         0.17994E+05         0.00000E+00
    0.00000E+00         0.00000E+00         0.00000E+00
 
    0.34822E+05         0.46918E+05         0.00000E+00
    0.46918E+05         0.19057E+05         0.00000E+00
    0.00000E+00         0.00000E+00         0.00000E+00
 
    0.32847E+05         0.47730E+05         0.00000E+00
    0.47730E+05         0.20140E+05         0.00000E+00
    0.00000E+00         0.00000E+00         0.00000E+00
 
    0.30827E+05         0.48497E+05         0.00000E+00
    0.48497E+05         0.21240E+05         0.00000E+00
    0.00000E+00         0.00000E+00         0.00000E+00
 
    0.28764E+05         0.49217E+05         0.00000E+00
    0.49217E+05         0.22358E+05         0.00000E+00
    0.00000E+00         0.00000E+00         0.00000E+00
 
    0.26659E+05         0.49890E+05         0.00000E+00
    0.49890E+05         0.23491E+05         0.00000E+00
    0.00000E+00         0.00000E+00         0.00000E+00
 
    0.24514E+05         0.50515E+05         0.00000E+00
    0.50515E+05         0.24639E+05         0.00000E+00
    0.00000E+00         0.00000E+00         0.00000E+00
 
    0.22332E+05         0.51092E+05         0.00000E+00
    0.51092E+05         0.25801E+05         0.00000E+00
    0.00000E+00         0.00000E+00         0.00000E+00
 
    0.20112E+05         0.51618E+05         0.00000E+00
    0.51618E+05         0.26976E+05         0.00000E+00
    0.00000E+00         0.00000E+00         0.00000E+00
 
    0.17857E+05         0.52094E+05         0.00000E+00
    0.52094E+05         0.28162E+05         0.00000E+00
    0.00000E+00         0.00000E+00         0.00000E+00
 
    0.15569E+05         0.52520E+05         0.00000E+00
    0.52520E+05         0.29359E+05         0.00000E+00
    0.00000E+00         0.00000E+00         0.00000E+00
 
    0.13249E+05         0.52893E+05         0.00000E+00
    0.52893E+05         0.30565E+05         0.00000E+00
    0.00000E+00         0.00000E+00         0.00000E+00
 
    0.10899E+05         0.53214E+05         0.00000E+00
    0.53214E+05         0.31780E+05         0.00000E+00
    0.00000E+00         0.00000E+00         0.00000E+00
 
    0.85206E+04         0.53482E+05         0.00000E+00
    0.53482E+05         0.33001E+05         0.00000E+00
    0.00000E+00         0.00000E+00         0.00000E+00
 
    0.61154E+04         0.53696E+05         0.00000E+00
    0.53696E+05         0.34229E+05         0.00000E+00
    0.00000E+00         0.00000E+00         0.00000E+00
 
    0.36854E+04         0.53856E+05         0.00000E+00
    0.53856E+05         0.35462E+05         0.00000E+00
    0.00000E+00         0.00000E+00         0.00000E+00
 
    0.12322E+04         0.53961E+05         0.00000E+00
    0.53961E+05         0.36698E+05         0.00000E+00
    0.00000E+00         0.00000E+00         0.00000E+00
 
    0.75356E+05         0.89984E+03         0.00000E+00
    0.89984E+03        -0.15993E+04         0.00000E+00
    0.00000E+00         0.00000E+00         0.00000E+00
 
    0.75540E+05         0.27085E+04         0.00000E+00
    0.27085E+04        -0.15572E+04         0.00000E+00
    0.00000E+00         0.00000E+00         0.00000E+00
 
    0.75642E+05         0.45179E+04         0.00000E+00
    0.45179E+04        -0.14730E+04         0.00000E+00
    0.00000E+00         0.00000E+00         0.00000E+00
 
    0.75663E+05         0.63263E+04         0.00000E+00
    0.63263E+04        -0.13470E+04         0.00000E+00
    0.00000E+00         0.00000E+00         0.00000E+00
 
    0.75602E+05         0.81319E+04         0.00000E+00
    0.81319E+04        -0.11791E+04         0.00000E+00
    0.00000E+00         0.00000E+00         0.00000E+00
 
    0.75459E+05         0.99328E+04         0.00000E+00
    0.99328E+04        -0.96949E+03         0.00000E+00
    0.00000E+00         0.00000E+00         0.00000E+00
 
    0.75236E+05         0.11727E+05         0.00000E+00
    0.11727E+05        -0.71847E+03         0.00000E+00
    0.00000E+00         0.00000E+00         0.00000E+00
 
    0.74932E+05         0.13513E+05         0.00000E+00
    0.13513E+05        -0.42623E+03         0.00000E+00
    0.00000E+00         0.00000E+00         0.00000E+00
 
    0.74548E+05         0.15290E+05         0.00000E+00
    0.15290E+05        -0.93072E+02         0.00000E+00
    0.00000E+00         0.00000E+00         0.00000E+00
 
    0.74084E+05         0.17054E+05         0.00000E+00
    0.17054E+05         0.28070E+03         0.00000E+00
    0.00000E+00         0.00000E+00         0.00000E+00
 
    0.73541E+05         0.18805E+05         0.00000E+00
    0.18805E+05         0.69474E+03         0.00000E+00
    0.00000E+00         0.00000E+00         0.00000E+00
 
    0.72920E+05         0.20540E+05         0.00000E+00
    0.20540E+05         0.11486E+04         0.00000E+00
    0.00000E+00         0.00000E+00         0.00000E+00
 
    0.72220E+05         0.22259E+05         0.00000E+00
    0.22259E+05         0.16420E+04         0.00000E+00
    0.00000E+00         0.00000E+00         0.00000E+00
 
    0.71443E+05         0.23959E+05         0.00000E+00
    0.23959E+05         0.21743E+04         0.00000E+00
    0.00000E+00         0.00000E+00         0.00000E+00
 
    0.70589E+05         0.25639E+05         0.00000E+00
    0.25639E+05         0.27451E+04         0.00000E+00
    0.00000E+00         0.00000E+00         0.00000E+00
 
    0.69660E+05         0.27296E+05         0.00000E+00
    0.27296E+05         0.33539E+04         0.00000E+00
    0.00000E+00         0.00000E+00         0.00000E+00
 
    0.68655E+05         0.28931E+05         0.00000E+00
    0.28931E+05         0.40001E+04         0.00000E+00
    0.00000E+00         0.00000E+00         0.00000E+00
 
    0.67577E+05         0.30539E+05         0.00000E+00
    0.30539E+05         0.46831E+04         0.00000E+00
    0.00000E+00         0.00000E+00         0.00000E+00
 
    0.66425E+05         0.32121E+05         0.00000E+00
    0.32121E+05         0.54022E+04         0.00000E+00
    0.00000E+00         0.00000E+00         0.00000E+00
 
    0.65201E+05         0.33675E+05         0.00000E+00
    0.33675E+05         0.61569E+04         0.00000E+00
    0.00000E+00         0.00000E+00         0.00000E+00
 
    0.63906E+05         0.35199E+05         0.00000E+00
    0.35199E+05         0.69464E+04         0.00000E+00
    0.00000E+00         0.00000E+00         0.00000E+00
 
    0.62540E+05         0.36691E+05         0.00000E+00
    0.36691E+05         0.77700E+04         0.00000E+00
    0.00000E+00         0.00000E+00         0.00000E+00
 
    0.61106E+05         0.38151E+05         0.00000E+00
    0.38151E+05         0.86270E+04         0.00000E+00
    0.00000E+00         0.00000E+00         0.00000E+00
 
    0.59603E+05         0.39576E+05         0.00000E+00
    0.39576E+05         0.95165E+04         0.00000E+00
    0.00000E+00         0.00000E+00         0.00000E+00
 
    0.58034E+05         0.40965E+05         0.00000E+00
    0.40965E+05         0.10438E+05         0.00000E+00
    0.00000E+00         0.00000E+00         0.00000E+00
 
    0.56400E+05         0.42317E+05         0.00000E+00
    0.42317E+05         0.11390E+05         0.00000E+00
    0.00000E+00         0.00000E+00         0.00000E+00
 
    0.54701E+05         0.43630E+05         0.00000E+00
    0.43630E+05         0.12372E+05         0.00000E+00
    0.00000E+00         0.00000E+00         0.00000E+00
 
    0.52940E+05         0.44904E+05         0.00000E+00
    0.44904E+05         0.13384E+05         0.00000E+00
    0.00000E+00         0.00000E+00         0.00000E+00
 
    0.51117E+05         0.46136E+05         0.00000E+00
    0.46136E+05         0.14423E+05         0.00000E+00
    0.00000E+00         0.00000E+00         0.00000E+00
 
    0.49233E+05         0.47326E+05         0.00000E+00
    0.47326E+05         0.15490E+05         0.00000E+00
    0.00000E+00         0.00000E+00         0.00000E+00
 
    0.47291E+05         0.48472E+05         0.00000E+00
    0.48472E+05         0.16584E+05         0.00000E+00
    0.00000E+00         0.00000E+00         0.00000E+00
 
    0.45292E+05         0.49573E+05         0.00000E+00
    0.49573E+05         0.17703E+05         0.00000E+00
    0.00000E+00         0.00000E+00         0.00000E+00
 
    0.43237E+05         0.50628E+05         0.00000E+00
    0.50628E+05         0.18846E+05         0.00000E+00
    0.00000E+00         0.00000E+00         0.00000E+00
 
    0.41128E+05         0.51635E+05         0.00000E+00
    0.51635E+05         0.20012E+05         0.00000E+00
    0.00000E+00         0.00000E+00         0.00000E+00
 
    0.38966E+05         0.52594E+05         0.00000E+00
    0.52594E+05         0.21201E+05         0.00000E+00
    0.00000E+00         0.00000E+00         0.00000E+00
 
    0.36753E+05         0.53504E+05         0.00000E+00
    0.53504E+05         0.22410E+05         0.00000E+00
    0.00000E+00         0.00000E+00         0.00000E+00
 
    0.34491E+05         0.54363E+05         0.00000E+00
    0.54363E+05         0.23640E+05         0.00000E+00
    0.00000E+00         0.00000E+00         0.00000E+00
 
    0.32181E+05         0.55170E+05         0.00000E+00
    0.55170E+05         0.24889E+05         0.00000E+00
    0.00000E+00         0.00000E+00         0.00000E+00
 
    0.29825E+05         0.55925E+05         0.00000E+00
    0.55925E+05         0.26156E+05         0.00000E+00
    0.00000E+00         0.00000E+00         0.00000E+00
 
    0.27424E+05         0.56626E+05         0.00000E+00
    0.56626E+05         0.27439E+05         0.00000E+00
    0.00000E+00         0.00000E+00         0.00000E+00
 
    0.24981E+05         0.57272E+05         0.00000E+00
    0.57272E+05         0.28737E+05         0.00000E+00
    0.00000E+00         0.00000E+00         0.00000E+00
 
    0.22497E+05         0.57863E+05         0.00000E+00
    0.57863E+05         0.30050E+05         0.00000E+00
    0.00000E+00         0.00000E+00         0.00000E+00
 
    0.19974E+05         0.58398E+05         0.00000E+00
    0.58398E+05         0.31376E+05         0.00000E+00
    0.00000E+00         0.00000E+00         0.00000E+00
 
    0.17414E+05         0.58876E+05         0.00000E+00
    0.58876E+05         0.32714E+05         0.00000E+00
    0.00000E+00         0.00000E+00         0.00000E+00
 
    0.14819E+05         0.59297E+05         0.00000E+00
    0.59297E+05         0.34063E+05         0.00000E+00
    0.00000E+00         0.00000E+00         0.00000E+00
 
    0.12190E+05         0.59658E+05         0.00000E+00
    0.59658E+05         0.35420E+05         0.00000E+00
    0.00000E+00         0.00000E+00         0.00000E+00
 
    0.95296E+04         0.59961E+05         0.00000E+00
    0.59961E+05         0.36786E+05         0.00000E+00
    0.00000E+00         0.00000E+00         0.00000E+00
 
    0.68395E+04         0.60204E+05         0.00000E+00
    0.60204E+05         0.38159E+05         0.00000E+00
    0.00000E+00         0.00000E+00         0.00000E+00
 
    0.41216E+04         0.60386E+05         0.00000E+00
    0.60386E+05         0.39537E+05         0.00000E+00
    0.00000E+00         0.00000E+00         0.00000E+00
 
    0.13780E+04         0.60508E+05         0.00000E+00
    0.60508E+05         0.40919E+05         0.00000E+00
    0.00000E+00         0.00000E+00         0.00000E+00
 
    0.84614E+05         0.10114E+04         0.00000E+00
    0.10114E+04        -0.19253E+04         0.00000E+00
    0.00000E+00         0.00000E+00         0.00000E+00
 
    0.84806E+05         0.30429E+04         0.00000E+00
    0.30429E+04        -0.18781E+04         0.00000E+00
    0.00000E+00         0.00000E+00         0.00000E+00
 
    0.84906E+05         0.50747E+04         0.00000E+00
    0.50747E+04        -0.17838E+04         0.00000E+00
    0.00000E+00         0.00000E+00         0.00000E+00
 
    0.84915E+05         0.71050E+04         0.00000E+00
    0.71050E+04        -0.16425E+04         0.00000E+00
    0.00000E+00         0.00000E+00         0.00000E+00
 
    0.84833E+05         0.91315E+04         0.00000E+00
    0.91315E+04        -0.14543E+04         0.00000E+00
    0.00000E+00         0.00000E+00         0.00000E+00
 
    0.84661E+05         0.11152E+05         0.00000E+00
    0.11152E+05        -0.12196E+04         0.00000E+00
    0.00000E+00         0.00000E+00         0.00000E+00
 
    0.84397E+05         0.13166E+05         0.00000E+00
    0.13166E+05        -0.93840E+03         0.00000E+00
    0.00000E+00         0.00000E+00         0.00000E+00
 
    0.84044E+05         0.15169E+05         0.00000E+00
    0.15169E+05        -0.61114E+03         0.00000E+00
    0.00000E+00         0.00000E+00         0.00000E+00
 
    0.83601E+05         0.17161E+05         0.00000E+00
    0.17161E+05        -0.23811E+03         0.00000E+00
    0.00000E+00         0.00000E+00         0.00000E+00
 
    0.83070E+05         0.19139E+05         0.00000E+00
    0.19139E+05         0.18034E+03         0.00000E+00
    0.00000E+00         0.00000E+00         0.00000E+00
 
    0.82449E+05         0.21102E+05         0.00000E+00
    0.21102E+05         0.64378E+03         0.00000E+00
    0.00000E+00         0.00000E+00         0.00000E+00
 
    0.81742E+05         0.23048E+05         0.00000E+00
    0.23048E+05         0.11518E+04         0.00000E+00
    0.00000E+00         0.00000E+00         0.00000E+00
 
    0.80947E+05         0.24974E+05         0.00000E+00
    0.24974E+05         0.17038E+04         0.00000E+00
    0.00000E+00         0.00000E+00         0.00000E+00
 
    0.80066E+05         0.26879E+05         0.00000E+00
    0.26879E+05         0.22995E+04         0.00000E+00
    0.00000E+00         0.00000E+00         0.00000E+00
 
    0.79099E+05         0.28760E+05         0.00000E+00
    0.28760E+05         0.29381E+04         0.00000E+00
    0.00000E+00         0.00000E+00         0.00000E+00
 
    0.78049E+05         0.30617E+05         0.00000E+00
    0.30617E+05         0.36190E+04         0.00000E+00
    0.00000E+00         0.00000E+00         0.00000E+00
 
    0.76914E+05         0.32447E+05         0.00000E+00
    0.32447E+05         0.43418E+04         0.00000E+00
    0.00000E+00         0.00000E+00         0.00000E+00
 
    0.75697E+05         0.34249E+05         0.00000E+00
    0.34249E+05         0.51056E+04         0.00000E+00
    0.00000E+00         0.00000E+00         0.00000E+00
 
    0.74399E+05         0.36021E+05         0.00000E+00
    0.36021E+05         0.59097E+04         0.00000E+00
    0.00000E+00         0.00000E+00         0.00000E+00
 
    0.73020E+05         0.37760E+05         0.00000E+00
    0.37760E+05         0.67535E+04         0.00000E+00
    0.00000E+00         0.00000E+00         0.00000E+00
 
    0.71562E+05         0.39466E+05         0.00000E+00
    0.39466E+05         0.76361E+04         0.00000E+00
    0.00000E+00         0.00000E+00         0.00000E+00
 
    0.70026E+05         0.41137E+05         0.00000E+00
    0.41137E+05         0.85568E+04         0.00000E+00
    0.00000E+00         0.00000E+00         0.00000E+00
 
    0.68413E+05         0.42770E+05         0.00000E+00
    0.42770E+05         0.95147E+04         0.00000E+00
    0.00000E+00         0.00000E+00         0.00000E+00
 
    0.66725E+05         0.44365E+05         0.00000E+00
    0.44365E+05         0.10509E+05         0.00000E+00
    0.00000E+00         0.00000E+00         0.00000E+00
 
    0.64963E+05         0.45920E+05         0.00000E+00
    0.45920E+05         0.11539E+05         0.00000E+00
    0.00000E+00         0.00000E+00         0.00000E+00
 
    0.63127E+05         0.47433E+05         0.00000E+00
    0.47433E+05         0.12603E+05         0.00000E+00
    0.00000E+00         0.00000E+00         0.00000E+00
 
    0.61221E+05         0.48903E+05         0.00000E+00
    0.48903E+05         0.13700E+05         0.00000E+00
    0.00000E+00         0.00000E+00         0.00000E+00
 
    0.59244E+05         0.50329E+05         0.00000E+00
    0.50329E+05         0.14830E+05         0.00000E+00
    0.00000E+00         0.00000E+00         0.00000E+00
 
    0.57199E+05         0.51708E+05         0.00000E+00
    0.51708E+05         0.15992E+05         0.00000E+00
    0.00000E+00         0.00000E+00         0.00000E+00
 
    0.55088E+05         0.53039E+05         0.00000E+00
    0.53039E+05         0.17184E+05         0.00000E+00
    0.00000E+00         0.00000E+00         0.00000E+00
 
    0.52911E+05         0.54322E+05         0.00000E+00
    0.54322E+05         0.18406E+05         0.00000E+00
    0.00000E+00         0.00000E+00         0.00000E+00
 
    0.50671E+05         0.55554E+05         0.00000E+00
    0.55554E+05         0.19656E+05         0.00000E+00
    0.00000E+00         0.00000E+00         0.00000E+00
 
    0.48368E+05         0.56735E+05         0.00000E+00
    0.56735E+05         0.20933E+05         0.00000E+00
    0.00000E+00         0.00000E+00         0.00000E+00
 
    0.46006E+05         0.57863E+05         0.00000E+00
    0.57863E+05         0.22236E+05         0.00000E+00
    0.00000E+00         0.00000E+00         0.00000E+00
 
    0.43585E+05         0.58936E+05         0.00000E+00
    0.58936E+05         0.23563E+05         0.00000E+00
    0.00000E+00         0.00000E+00         0.00000E+00
 
    0.41107E+05         0.59955E+05         0.00000E+00
    0.59955E+05         0.24915E+05         0.00000E+00
    0.00000E+00         0.00000E+00         0.00000E+00
 
    0.38575E+05         0.60917E+05         0.00000E+00
    0.60917E+05         0.26288E+05         0.00000E+00
    0.00000E+00         0.00000E+00         0.00000E+00
 
    0.35989E+05         0.61821E+05         0.00000E+00
    0.61821E+05         0.27683E+05         0.00000E+00
    0.00000E+00         0.00000E+00         0.00000E+00
 
    0.33352E+05         0.62667E+05         0.00000E+00
    0.62667E+05         0.29098E+05         0.00000E+00
    0.00000E+00         0.00000E+00         0.00000E+00
 
    0.30666E+05         0.63453E+05         0.00000E+00
    0.63453E+05         0.30532E+05         0.00000E+00
    0.00000E+00         0.00000E+00         0.00000E+00
 
    0.27933E+05         0.64178E+05         0.00000E+00
    0.64178E+05         0.31982E+05         0.00000E+00
    0.00000E+00         0.00000E+00         0.00000E+00
 
    0.25155E+05         0.64842E+05         0.00000E+00
    0.64842E+05         0.33449E+05         0.00000E+00
    0.00000E+00         0.00000E+00         0.00000E+00
 
    0.22333E+05         0.65443E+05         0.00000E+00
    0.65443E+05         0.34930E+05         0.00000E+00
    0.00000E+00         0.00000E+00         0.00000E+00
 
    0.19470E+05         0.65980E+05         0.00000E+00
    0.65980E+05         0.36425E+05         0.00000E+00
    0.00000E+00         0.00000E+00         0.00000E+00
 
    0.16567E+05         0.66453E+05         0.00000E+00
    0.66453E+05         0.37932E+05         0.00000E+00
    0.00000E+00         0.00000E+00         0.00000E+00
 
    0.13628E+05         0.66861E+05         0.00000E+00
    0.66861E+05         0.39449E+05         0.00000E+00
    0.00000E+00         0.00000E+00         0.00000E+00
 
    0.10653E+05         0.67203E+05         0.00000E+00
    0.67203E+05         0.40975E+05         0.00000E+00
    0.00000E+00         0.00000E+00         0.00000E+00
 
    0.76458E+04         0.67479E+05         0.00000E+00
    0.67479E+05         0.42509E+05         0.00000E+00
    0.00000E+00         0.00000E+00         0.00000E+00
 
    0.46074E+04         0.67687E+05         0.00000E+00
    0.67687E+05         0.44049E+05         0.00000E+00
    0.00000E+00         0.00000E+00         0.00000E+00
 
    0.15404E+04         0.67827E+05         0.00000E+00
    0.67827E+05         0.45593E+05         0.00000E+00
    0.00000E+00         0.00000E+00         0.00000E+00
 
    0.94987E+05         0.11366E+04         0.00000E+00
    0.11366E+04        -0.23165E+04         0.00000E+00
    0.00000E+00         0.00000E+00         0.00000E+00
 
    0.95185E+05         0.34177E+04         0.00000E+00
    0.34177E+04        -0.22636E+04         0.00000E+00
    0.00000E+00         0.00000E+00         0.00000E+00
 
    0.95281E+05         0.56987E+04         0.00000E+00
    0.56987E+04        -0.21580E+04         0.00000E+00
    0.00000E+00         0.00000E+00         0.00000E+00
 
    0.95275E+05         0.79773E+04         0.00000E+00
    0.79773E+04        -0.19997E+04         0.00000E+00
    0.00000E+00         0.00000E+00         0.00000E+00
 
    0.95167E+05         0.10251E+05         0.00000E+00
    0.10251E+05        -0.17890E+04         0.00000E+00
    0.00000E+00         0.00000E+00         0.00000E+00
 
    0.94958E+05         0.12518E+05         0.00000E+00
    0.12518E+05        -0.15261E+04         0.00000E+00
    0.00000E+00         0.00000E+00         0.00000E+00
 
    0.94647E+05         0.14776E+05         0.00000E+00
    0.14776E+05        -0.12113E+04         0.00000E+00
    0.00000E+00         0.00000E+00         0.00000E+00
 
    0.94236E+05         0.17023E+05         0.00000E+00
    0.17023E+05        -0.84499E+03         0.00000E+00
    0.00000E+00         0.00000E+00         0.00000E+00
 
    0.93726E+05         0.19256E+05         0.00000E+00
    0.19256E+05        -0.42751E+03         0.00000E+00
    0.00000E+00         0.00000E+00         0.00000E+00
 
    0.93116E+05         0.21473E+05         0.00000E+00
    0.21473E+05         0.40726E+02         0.00000E+00
    0.00000E+00         0.00000E+00         0.00000E+00
 
    0.92407E+05         0.23673E+05         0.00000E+00
    0.23673E+05         0.55923E+03         0.00000E+00
    0.00000E+00         0.00000E+00         0.00000E+00
 
    0.91601E+05         0.25853E+05         0.00000E+00
    0.25853E+05         0.11275E+04         0.00000E+00
    0.00000E+00         0.00000E+00         0.00000E+00
 
    0.90698E+05         0.28010E+05         0.00000E+00
    0.28010E+05         0.17450E+04         0.00000E+00
    0.00000E+00         0.00000E+00         0.00000E+00
 
    0.89699E+05         0.30144E+05         0.00000E+00
    0.30144E+05         0.24111E+04         0.00000E+00
    0.00000E+00         0.00000E+00         0.00000E+00
 
    0.88605E+05         0.32251E+05         0.00000E+00
    0.32251E+05         0.31251E+04         0.00000E+00
    0.00000E+00         0.00000E+00         0.00000E+00
 
    0.87417E+05         0.34331E+05         0.00000E+00
    0.34331E+05         0.38865E+04         0.00000E+00
    0.00000E+00         0.00000E+00         0.00000E+00
 
    0.86136E+05         0.36380E+05         0.00000E+00
    0.36380E+05         0.46944E+04         0.00000E+00
    0.00000E+00         0.00000E+00         0.00000E+00
 
    0.84763E+05         0.38396E+05         0.00000E+00
    0.38396E+05         0.55482E+04         0.00000E+00
    0.00000E+00         0.00000E+00         0.00000E+00
 
    0.83299E+05         0.40379E+05         0.00000E+00
    0.40379E+05         0.64469E+04         0.00000E+00
    0.00000E+00         0.00000E+00         0.00000E+00
 
    0.81746E+05         0.42326E+05         0.00000E+00
    0.42326E+05         0.73899E+04         0.00000E+00
    0.00000E+00         0.00000E+00         0.00000E+00
 
    0.80105E+05         0.44235E+05         0.00000E+00
    0.44235E+05         0.83761E+04         0.00000E+00
    0.00000E+00         0.00000E+00         0.00000E+00
 
    0.78378E+05         0.46104E+05         0.00000E+00
    0.46104E+05         0.94048E+04         0.00000E+00
    0.00000E+00         0.00000E+00         0.00000E+00
 
    0.76565E+05         0.47932E+05         0.00000E+00
    0.47932E+05         0.10475E+05         0.00000E+00
    0.00000E+00         0.00000E+00         0.00000E+00
 
    0.74668E+05         0.49717E+05         0.00000E+00
    0.49717E+05         0.11586E+05         0.00000E+00
    0.00000E+00         0.00000E+00         0.00000E+00
 
    0.72688E+05         0.51456E+05         0.00000E+00
    0.51456E+05         0.12736E+05         0.00000E+00
    0.00000E+00         0.00000E+00         0.00000E+00
 
    0.70628E+05         0.53149E+05         0.00000E+00
    0.53149E+05         0.13924E+05         0.00000E+00
    0.00000E+00         0.00000E+00         0.00000E+00
 
    0.68489E+05         0.54794E+05         0.00000E+00
    0.54794E+05         0.15150E+05         0.00000E+00
    0.00000E+00         0.00000E+00         0.00000E+00
 
    0.66272E+05         0.56388E+05         0.00000E+00
    0.56388E+05         0.16412E+05         0.00000E+00
    0.00000E+00         0.00000E+00         0.00000E+00
 
    0.63979E+05         0.57931E+05         0.00000E+00
    0.57931E+05         0.17709E+05         0.00000E+00
    0.00000E+00         0.00000E+00         0.00000E+00
 
    0.61612E+05         0.59420E+05         0.00000E+00
    0.59420E+05         0.19041E+05         0.00000E+00
    0.00000E+00         0.00000E+00         0.00000E+00
 
    0.59173E+05         0.60855E+05         0.00000E+00
    0.60855E+05         0.20405E+05         0.00000E+00
    0.00000E+00         0.00000E+00         0.00000E+00
 
    0.56663E+05         0.62234E+05         0.00000E+00
    0.62234E+05         0.21800E+05         0.00000E+00
    0.00000E+00         0.00000E+00         0.00000E+00
 
    0.54085E+05         0.63555E+05         0.00000E+00
    0.63555E+05         0.23226E+05         0.00000E+00
    0.00000E+00         0.00000E+00         0.00000E+00
 
    0.51439E+05         0.64817E+05         0.00000E+00
    0.64817E+05         0.24681E+05         0.00000E+00
    0.00000E+00         0.00000E+00         0.00000E+00
 
    0.48729E+05         0.66019E+05         0.00000E+00
    0.66019E+05         0.26163E+05         0.00000E+00
    0.00000E+00         0.00000E+00         0.00000E+00
 
    0.45956E+05         0.67159E+05         0.00000E+00
    0.67159E+05         0.27672E+05         0.00000E+00
    0.00000E+00         0.00000E+00         0.00000E+00
 
    0.43122E+05         0.68236E+05         0.00000E+00
    0.68236E+05         0.29205E+05         0.00000E+00
    0.00000E+00         0.00000E+00         0.00000E+00
 
    0.40229E+05         0.69249E+05         0.00000E+00
    0.69249E+05         0.30763E+05         0.00000E+00
    0.00000E+00         0.00000E+00         0.00000E+00
 
    0.37280E+05         0.70196E+05         0.00000E+00
    0.70196E+05         0.32342E+05         0.00000E+00
    0.00000E+00         0.00000E+00         0.00000E+00
 
    0.34276E+05         0.71077E+05         0.00000E+00
    0.71077E+05         0.33943E+05         0.00000E+00
    0.00000E+00         0.00000E+00         0.00000E+00
 
    0.31220E+05         0.71891E+05         0.00000E+00
    0.71891E+05         0.35563E+05         0.00000E+00
    0.00000E+00         0.00000E+00         0.00000E+00
 
    0.28113E+05         0.72635E+05         0.00000E+00
    0.72635E+05         0.37200E+05         0.00000E+00
    0.00000E+00         0.00000E+00         0.00000E+00
 
    0.24958E+05         0.73310E+05         0.00000E+00
    0.73310E+05         0.38854E+05         0.00000E+00
    0.00000E+00         0.00000E+00         0.00000E+00
 
    0.21758E+05         0.73914E+05         0.00000E+00
    0.73914E+05         0.40523E+05         0.00000E+00
    0.00000E+00         0.00000E+00         0.00000E+00
 
    0.18514E+05         0.74447E+05         0.00000E+00
    0.74447E+05         0.42205E+05         0.00000E+00
    0.00000E+00         0.00000E+00         0.00000E+00
 
    0.15228E+05         0.74907E+05         0.00000E+00
    0.74907E+05         0.43900E+05         0.00000E+00
    0.00000E+00         0.00000E+00         0.00000E+00
 
    0.11904E+05         0.75294E+05         0.00000E+00
    0.75294E+05         0.45604E+05         0.00000E+00
    0.00000E+00         0.00000E+00         0.00000E+00
 
    0.85431E+04         0.75607E+05         0.00000E+00
    0.75607E+05         0.47317E+05         0.00000E+00
    0.00000E+00         0.00000E+00         0.00000E+00
 
    0.51480E+04         0.75845E+05         0.00000E+00
    0.75845E+05         0.49038E+05         0.00000E+00
    0.00000E+00         0.00000E+00         0.00000E+00
 
    0.17211E+04         0.76007E+05         0.00000E+00
    0.76007E+05         0.50763E+05         0.00000E+00
    0.00000E+00         0.00000E+00         0.00000E+00
 
    0.10661E+06         0.12769E+04         0.00000E+00
    0.12769E+04        -0.27859E+04         0.00000E+00
    0.00000E+00         0.00000E+00         0.00000E+00
 
    0.10681E+06         0.38377E+04         0.00000E+00
    0.38377E+04        -0.27266E+04         0.00000E+00
    0.00000E+00         0.00000E+00         0.00000E+00
 
    0.10690E+06         0.63977E+04         0.00000E+00
    0.63977E+04        -0.26082E+04         0.00000E+00
    0.00000E+00         0.00000E+00         0.00000E+00
 
    0.10687E+06         0.89542E+04         0.00000E+00
    0.89542E+04        -0.24310E+04         0.00000E+00
    0.00000E+00         0.00000E+00         0.00000E+00
 
    0.10673E+06         0.11505E+05         0.00000E+00
    0.11505E+05        -0.21951E+04         0.00000E+00
    0.00000E+00         0.00000E+00         0.00000E+00
 
    0.10648E+06         0.14047E+05         0.00000E+00
    0.14047E+05        -0.19009E+04         0.00000E+00
    0.00000E+00         0.00000E+00         0.00000E+00
 
    0.10611E+06         0.16579E+05         0.00000E+00
    0.16579E+05        -0.15487E+04         0.00000E+00
    0.00000E+00         0.00000E+00         0.00000E+00
 
    0.10563E+06         0.19097E+05         0.00000E+00
    0.19097E+05        -0.11388E+04         0.00000E+00
    0.00000E+00         0.00000E+00         0.00000E+00
 
    0.10504E+06         0.21600E+05         0.00000E+00
    0.21600E+05        -0.67183E+03         0.00000E+00
    0.00000E+00         0.00000E+00         0.00000E+00
 
    0.10434E+06         0.24084E+05         0.00000E+00
    0.24084E+05        -0.14815E+03         0.00000E+00
    0.00000E+00         0.00000E+00         0.00000E+00
 
    0.10353E+06         0.26548E+05         0.00000E+00
    0.26548E+05         0.43167E+03         0.00000E+00
    0.00000E+00         0.00000E+00         0.00000E+00
 
    0.10261E+06         0.28990E+05         0.00000E+00
    0.28990E+05         0.10670E+04         0.00000E+00
    0.00000E+00         0.00000E+00         0.00000E+00
 
    0.10159E+06         0.31406E+05         0.00000E+00
    0.31406E+05         0.17573E+04         0.00000E+00
    0.00000E+00         0.00000E+00         0.00000E+00
 
    0.10045E+06         0.33794E+05         0.00000E+00
    0.33794E+05         0.25018E+04         0.00000E+00
    0.00000E+00         0.00000E+00         0.00000E+00
 
    0.99216E+05         0.36154E+05         0.00000E+00
    0.36154E+05         0.32998E+04         0.00000E+00
    0.00000E+00         0.00000E+00         0.00000E+00
 
    0.97872E+05         0.38481E+05         0.00000E+00
    0.38481E+05         0.41506E+04         0.00000E+00
    0.00000E+00         0.00000E+00         0.00000E+00
 
    0.96426E+05         0.40774E+05         0.00000E+00
    0.40774E+05         0.50533E+04         0.00000E+00
    0.00000E+00         0.00000E+00         0.00000E+00
 
    0.94877E+05         0.43031E+05         0.00000E+00
    0.43031E+05         0.60070E+04         0.00000E+00
    0.00000E+00         0.00000E+00         0.00000E+00
 
    0.93227E+05         0.45249E+05         0.00000E+00
    0.45249E+05         0.70110E+04         0.00000E+00
    0.00000E+00         0.00000E+00         0.00000E+00
 
    0.91478E+05         0.47427E+05         0.00000E+00
    0.47427E+05         0.80641E+04         0.00000E+00
    0.00000E+00         0.00000E+00         0.00000E+00
 
    0.89632E+05         0.49562E+05         0.00000E+00
    0.49562E+05         0.91656E+04         0.00000E+00
    0.00000E+00         0.00000E+00         0.00000E+00
 
    0.87689E+05         0.51653E+05         0.00000E+00
    0.51653E+05         0.10314E+05         0.00000E+00
    0.00000E+00         0.00000E+00         0.00000E+00
 
    0.85651E+05         0.53697E+05         0.00000E+00
    0.53697E+05         0.11509E+05         0.00000E+00
    0.00000E+00         0.00000E+00         0.00000E+00
 
    0.83520E+05         0.55693E+05         0.00000E+00
    0.55693E+05         0.12749E+05         0.00000E+00
    0.00000E+00         0.00000E+00         0.00000E+00
 
    0.81298E+05         0.57638E+05         0.00000E+00
    0.57638E+05         0.14033E+05         0.00000E+00
    0.00000E+00         0.00000E+00         0.00000E+00
 
    0.78986E+05         0.59531E+05         0.00000E+00
    0.59531E+05         0.15360E+05         0.00000E+00
    0.00000E+00         0.00000E+00         0.00000E+00
 
    0.76586E+05         0.61370E+05         0.00000E+00
    0.61370E+05         0.16728E+05         0.00000E+00
    0.00000E+00         0.00000E+00         0.00000E+00
 
    0.74100E+05         0.63153E+05         0.00000E+00
    0.63153E+05         0.18137E+05         0.00000E+00
    0.00000E+00         0.00000E+00         0.00000E+00
 
    0.71530E+05         0.64878E+05         0.00000E+00
    0.64878E+05         0.19585E+05         0.00000E+00
    0.00000E+00         0.00000E+00         0.00000E+00
 
    0.68878E+05         0.66544E+05         0.00000E+00
    0.66544E+05         0.21070E+05         0.00000E+00
    0.00000E+00         0.00000E+00         0.00000E+00
 
    0.66146E+05         0.68148E+05         0.00000E+00
    0.68148E+05         0.22592E+05         0.00000E+00
    0.00000E+00         0.00000E+00         0.00000E+00
 
    0.63335E+05         0.69690E+05         0.00000E+00
    0.69690E+05         0.24149E+05         0.00000E+00
    0.00000E+00         0.00000E+00         0.00000E+00
 
    0.60448E+05         0.71168E+05         0.00000E+00
    0.71168E+05         0.25740E+05         0.00000E+00
    0.00000E+00         0.00000E+00         0.00000E+00
 
    0.57487E+05         0.72580E+05         0.00000E+00
    0.72580E+05         0.27364E+05         0.00000E+00
    0.00000E+00         0.00000E+00         0.00000E+00
 
    0.54455E+05         0.73924E+05         0.00000E+00
    0.73924E+05         0.29018E+05         0.00000E+00
    0.00000E+00         0.00000E+00         0.00000E+00
 
    0.51352E+05         0.75200E+05         0.00000E+00
    0.75200E+05         0.30701E+05         0.00000E+00
    0.00000E+00         0.00000E+00         0.00000E+00
 
    0.48183E+05         0.76405E+05         0.00000E+00
    0.76405E+05         0.32413E+05         0.00000E+00
    0.00000E+00         0.00000E+00         0.00000E+00
 
    0.44948E+05         0.77539E+05         0.00000E+00
    0.77539E+05         0.34150E+05         0.00000E+00
    0.00000E+00         0.00000E+00         0.00000E+00
 
    0.41650E+05         0.78601E+05         0.00000E+00
    0.78601E+05         0.35913E+05         0.00000E+00
    0.00000E+00         0.00000E+00         0.00000E+00
 
    0.38292E+05         0.79588E+05         0.00000E+00
    0.79588E+05         0.37699E+05         0.00000E+00
    0.00000E+00         0.00000E+00         0.00000E+00
 
    0.34875E+05         0.80500E+05         0.00000E+00
    0.80500E+05         0.39506E+05         0.00000E+00
    0.00000E+00         0.00000E+00         0.00000E+00
 
    0.31403E+05         0.81335E+05         0.00000E+00
    0.81335E+05         0.41333E+05         0.00000E+00
    0.00000E+00         0.00000E+00         0.00000E+00
 
    0.27878E+05         0.82093E+05         0.00000E+00
    0.82093E+05         0.43179E+05         0.00000E+00
    0.00000E+00         0.00000E+00         0.00000E+00
 
    0.24302E+05         0.82772E+05         0.00000E+00
    0.82772E+05         0.45042E+05         0.00000E+00
    0.00000E+00         0.00000E+00         0.00000E+00
 
    0.20678E+05         0.83372E+05         0.00000E+00
    0.83372E+05         0.46919E+05         0.00000E+00
    0.00000E+00         0.00000E+00         0.00000E+00
 
    0.17008E+05         0.83891E+05         0.00000E+00
    0.83891E+05         0.48810E+05         0.00000E+00
    0.00000E+00         0.00000E+00         0.00000E+00
 
    0.13295E+05         0.84328E+05         0.00000E+00
    0.84328E+05         0.50713E+05         0.00000E+00
    0.00000E+00         0.00000E+00         0.00000E+00
 
    0.95409E+04         0.84683E+05         0.00000E+00
    0.84683E+05         0.52625E+05         0.00000E+00
    0.00000E+00         0.00000E+00         0.00000E+00
 
    0.57491E+04         0.84955E+05         0.00000E+00
    0.84955E+05         0.54546E+05         0.00000E+00
    0.00000E+00         0.00000E+00         0.00000E+00
 
    0.19220E+04         0.85143E+05         0.00000E+00
    0.85143E+05         0.56473E+05         0.00000E+00
    0.00000E+00         0.00000E+00         0.00000E+00
 
    0.11961E+06         0.14342E+04         0.00000E+00
    0.14342E+04        -0.33485E+04         0.00000E+00
    0.00000E+00         0.00000E+00         0.00000E+00
 
    0.11981E+06         0.43081E+04         0.00000E+00
    0.43081E+04        -0.32822E+04         0.00000E+00
    0.00000E+00         0.00000E+00         0.00000E+00
 
    0.11989E+06         0.71802E+04         0.00000E+00
    0.71802E+04        -0.31497E+04         0.00000E+00
    0.00000E+00         0.00000E+00         0.00000E+00
 
    0.11984E+06         0.10048E+05         0.00000E+00
    0.10048E+05        -0.29513E+04         0.00000E+00
    0.00000E+00         0.00000E+00         0.00000E+00
 
    0.11966E+06         0.12908E+05         0.00000E+00
    0.12908E+05        -0.26874E+04         0.00000E+00
    0.00000E+00         0.00000E+00         0.00000E+00
 
    0.11935E+06         0.15758E+05         0.00000E+00
    0.15758E+05        -0.23583E+04         0.00000E+00
    0.00000E+00         0.00000E+00         0.00000E+00
 
    0.11892E+06         0.18595E+05         0.00000E+00
    0.18595E+05        -0.19643E+04         0.00000E+00
    0.00000E+00         0.00000E+00         0.00000E+00
 
    0.11836E+06         0.21417E+05         0.00000E+00
    0.21417E+05        -0.15060E+04         0.00000E+00
    0.00000E+00         0.00000E+00         0.00000E+00
 
    0.11768E+06         0.24221E+05         0.00000E+00
    0.24221E+05        -0.98391E+03         0.00000E+00
    0.00000E+00         0.00000E+00         0.00000E+00
 
    0.11688E+06         0.27003E+05         0.00000E+00
    0.27003E+05        -0.39852E+03         0.00000E+00
    0.00000E+00         0.00000E+00         0.00000E+00
 
    0.11595E+06         0.29762E+05         0.00000E+00
    0.29762E+05         0.24950E+03         0.00000E+00
    0.00000E+00         0.00000E+00         0.00000E+00
 
    0.11491E+06         0.32496E+05         0.00000E+00
    0.32496E+05         0.95949E+03         0.00000E+00
    0.00000E+00         0.00000E+00         0.00000E+00
 
    0.11374E+06         0.35200E+05         0.00000E+00
    0.35200E+05         0.17307E+04         0.00000E+00
    0.00000E+00         0.00000E+00         0.00000E+00
 
    0.11246E+06         0.37873E+05         0.00000E+00
    0.37873E+05         0.25624E+04         0.00000E+00
    0.00000E+00         0.00000E+00         0.00000E+00
 
    0.11105E+06         0.40513E+05         0.00000E+00
    0.40513E+05         0.34537E+04         0.00000E+00
    0.00000E+00         0.00000E+00         0.00000E+00
 
    0.10953E+06         0.43117E+05         0.00000E+00
    0.43117E+05         0.44039E+04         0.00000E+00
    0.00000E+00         0.00000E+00         0.00000E+00
 
    0.10790E+06         0.45682E+05         0.00000E+00
    0.45682E+05         0.54118E+04         0.00000E+00
    0.00000E+00         0.00000E+00         0.00000E+00
 
    0.10615E+06         0.48206E+05         0.00000E+00
    0.48206E+05         0.64767E+04         0.00000E+00
    0.00000E+00         0.00000E+00         0.00000E+00
 
    0.10429E+06         0.50687E+05         0.00000E+00
    0.50687E+05         0.75974E+04         0.00000E+00
    0.00000E+00         0.00000E+00         0.00000E+00
 
    0.10232E+06         0.53122E+05         0.00000E+00
    0.53122E+05         0.87730E+04         0.00000E+00
    0.00000E+00         0.00000E+00         0.00000E+00
 
    0.10025E+06         0.55510E+05         0.00000E+00
    0.55510E+05         0.10002E+05         0.00000E+00
    0.00000E+00         0.00000E+00         0.00000E+00
 
    0.98062E+05         0.57847E+05         0.00000E+00
    0.57847E+05         0.11284E+05         0.00000E+00
    0.00000E+00         0.00000E+00         0.00000E+00
 
    0.95772E+05         0.60132E+05         0.00000E+00
    0.60132E+05         0.12618E+05         0.00000E+00
    0.00000E+00         0.00000E+00         0.00000E+00
 
    0.93379E+05         0.62363E+05         0.00000E+00
    0.62363E+05         0.14001E+05         0.00000E+00
    0.00000E+00         0.00000E+00         0.00000E+00
 
    0.90885E+05         0.64537E+05         0.00000E+00
    0.64537E+05         0.15433E+05         0.00000E+00
    0.00000E+00         0.00000E+00         0.00000E+00
 
    0.88291E+05         0.66653E+05         0.00000E+00
    0.66653E+05         0.16914E+05         0.00000E+00
    0.00000E+00         0.00000E+00         0.00000E+00
 
    0.85600E+05         0.68708E+05         0.00000E+00
    0.68708E+05         0.18440E+05         0.00000E+00
    0.00000E+00         0.00000E+00         0.00000E+00
 
    0.82814E+05         0.70701E+05         0.00000E+00
    0.70701E+05         0.20011E+05         0.00000E+00
    0.00000E+00         0.00000E+00         0.00000E+00
 
    0.79934E+05         0.72629E+05         0.00000E+00
    0.72629E+05         0.21626E+05         0.00000E+00
    0.00000E+00         0.00000E+00         0.00000E+00
 
    0.76963E+05         0.74490E+05         0.00000E+00
    0.74490E+05         0.23283E+05         0.00000E+00
    0.00000E+00         0.00000E+00         0.00000E+00
 
    0.73903E+05         0.76284E+05         0.00000E+00
    0.76284E+05         0.24981E+05         0.00000E+00
    0.00000E+00         0.00000E+00         0.00000E+00
 
    0.70757E+05         0.78008E+05         0.00000E+00
    0.78008E+05         0.26717E+05         0.00000E+00
    0.00000E+00         0.00000E+00         0.00000E+00
 
    0.67527E+05         0.79660E+05         0.00000E+00
    0.79660E+05         0.28491E+05         0.00000E+00
    0.00000E+00         0.00000E+00         0.00000E+00
 
    0.64214E+05         0.81238E+05         0.00000E+00
    0.81238E+05         0.30302E+05         0.00000E+00
    0.00000E+00         0.00000E+00         0.00000E+00
 
    0.60822E+05         0.82742E+05         0.00000E+00
    0.82742E+05         0.32146E+05         0.00000E+00
    0.00000E+00         0.00000E+00         0.00000E+00
 
    0.57353E+05         0.84169E+05         0.00000E+00
    0.84169E+05         0.34023E+05         0.00000E+00
    0.00000E+00         0.00000E+00         0.00000E+00
 
    0.53809E+05         0.85518E+05         0.00000E+00
    0.85518E+05         0.35932E+05         0.00000E+00
    0.00000E+00         0.00000E+00         0.00000E+00
 
    0.50193E+05         0.86787E+05         0.00000E+00
    0.86787E+05         0.37869E+05         0.00000E+00
    0.00000E+00         0.00000E+00         0.00000E+00
 
    0.46508E+05         0.87975E+05         0.00000E+00
    0.87975E+05         0.39835E+05         0.00000E+00
    0.00000E+00         0.00000E+00         0.00000E+00
 
    0.42756E+05         0.89081E+05         0.00000E+00
    0.89081E+05         0.41826E+05         0.00000E+00
    0.00000E+00         0.00000E+00         0.00000E+00
 
    0.38939E+05         0.90103E+05         0.00000E+00
    0.90103E+05         0.43842E+05         0.00000E+00
    0.00000E+00         0.00000E+00         0.00000E+00
 
    0.35061E+05         0.91040E+05         0.00000E+00
    0.91040E+05         0.45880E+05         0.00000E+00
    0.00000E+00         0.00000E+00         0.00000E+00
 
    0.31123E+05         0.91891E+05         0.00000E+00
    0.91891E+05         0.47939E+05         0.00000E+00
    0.00000E+00         0.00000E+00         0.00000E+00
 
    0.27130E+05         0.92655E+05         0.00000E+00
    0.92655E+05         0.50016E+05         0.00000E+00
    0.00000E+00         0.00000E+00         0.00000E+00
 
    0.23083E+05         0.93330E+05         0.00000E+00
    0.93330E+05         0.52110E+05         0.00000E+00
    0.00000E+00         0.00000E+00         0.00000E+00
 
    0.18985E+05         0.93915E+05         0.00000E+00
    0.93915E+05         0.54220E+05         0.00000E+00
    0.00000E+00         0.00000E+00         0.00000E+00
 
    0.14840E+05         0.94410E+05         0.00000E+00
    0.94410E+05         0.56342E+05         0.00000E+00
    0.00000E+00         0.00000E+00         0.00000E+00
 
    0.10649E+05         0.94813E+05         0.00000E+00
    0.94813E+05         0.58476E+05         0.00000E+00
    0.00000E+00         0.00000E+00         0.00000E+00
 
    0.64170E+04         0.95124E+05         0.00000E+00
    0.95124E+05         0.60619E+05         0.00000E+00
    0.00000E+00         0.00000E+00         0.00000E+00
 
    0.21453E+04         0.95342E+05         0.00000E+00
    0.95342E+05         0.62770E+05         0.00000E+00
    0.00000E+00         0.00000E+00         0.00000E+00
 
    0.13417E+06         0.16104E+04         0.00000E+00
    0.16104E+04        -0.40227E+04         0.00000E+00
    0.00000E+00         0.00000E+00         0.00000E+00
 
    0.13436E+06         0.48346E+04         0.00000E+00
    0.48346E+04        -0.39484E+04         0.00000E+00
    0.00000E+00         0.00000E+00         0.00000E+00
 
    0.13442E+06         0.80558E+04         0.00000E+00
    0.80558E+04        -0.38002E+04         0.00000E+00
    0.00000E+00         0.00000E+00         0.00000E+00
 
    0.13433E+06         0.11271E+05         0.00000E+00
    0.11271E+05        -0.35783E+04         0.00000E+00
    0.00000E+00         0.00000E+00         0.00000E+00
 
    0.13411E+06         0.14477E+05         0.00000E+00
    0.14477E+05        -0.32832E+04         0.00000E+00
    0.00000E+00         0.00000E+00         0.00000E+00
 
    0.13374E+06         0.17671E+05         0.00000E+00
    0.17671E+05        -0.29152E+04         0.00000E+00
    0.00000E+00         0.00000E+00         0.00000E+00
 
    0.13323E+06         0.20850E+05         0.00000E+00
    0.20850E+05        -0.24748E+04         0.00000E+00
    0.00000E+00         0.00000E+00         0.00000E+00
 
    0.13258E+06         0.24010E+05         0.00000E+00
    0.24010E+05        -0.19626E+04         0.00000E+00
    0.00000E+00         0.00000E+00         0.00000E+00
 
    0.13180E+06         0.27149E+05         0.00000E+00
    0.27149E+05        -0.13792E+04         0.00000E+00
    0.00000E+00         0.00000E+00         0.00000E+00
 
    0.13087E+06         0.30265E+05         0.00000E+00
    0.30265E+05        -0.72527E+03         0.00000E+00
    0.00000E+00         0.00000E+00         0.00000E+00
 
    0.12982E+06         0.33353E+05         0.00000E+00
    0.33353E+05        -0.14451E+01         0.00000E+00
    0.00000E+00         0.00000E+00         0.00000E+00
 
    0.12862E+06         0.36412E+05         0.00000E+00
    0.36412E+05         0.79145E+03         0.00000E+00
    0.00000E+00         0.00000E+00         0.00000E+00
 
    0.12730E+06         0.39438E+05         0.00000E+00
    0.39438E+05         0.16526E+04         0.00000E+00
    0.00000E+00         0.00000E+00         0.00000E+00
 
    0.12584E+06         0.42428E+05         0.00000E+00
    0.42428E+05         0.25811E+04         0.00000E+00
    0.00000E+00         0.00000E+00         0.00000E+00
 
    0.12425E+06         0.45381E+05         0.00000E+00
    0.45381E+05         0.35761E+04         0.00000E+00
    0.00000E+00         0.00000E+00         0.00000E+00
 
    0.12253E+06         0.48292E+05         0.00000E+00
    0.48292E+05         0.46365E+04         0.00000E+00
    0.00000E+00         0.00000E+00         0.00000E+00
 
    0.12069E+06         0.51160E+05         0.00000E+00
    0.51160E+05         0.57613E+04         0.00000E+00
    0.00000E+00         0.00000E+00         0.00000E+00
 
    0.11872E+06         0.53982E+05         0.00000E+00
    0.53982E+05         0.69495E+04         0.00000E+00
    0.00000E+00         0.00000E+00         0.00000E+00
 
    0.11662E+06         0.56755E+05         0.00000E+00
    0.56755E+05         0.81998E+04         0.00000E+00
    0.00000E+00         0.00000E+00         0.00000E+00
 
    0.11440E+06         0.59477E+05         0.00000E+00
    0.59477E+05         0.95112E+04         0.00000E+00
    0.00000E+00         0.00000E+00         0.00000E+00
 
    0.11207E+06         0.62145E+05         0.00000E+00
    0.62145E+05         0.10882E+05         0.00000E+00
    0.00000E+00         0.00000E+00         0.00000E+00
 
    0.10961E+06         0.64757E+05         0.00000E+00
    0.64757E+05         0.12312E+05         0.00000E+00
    0.00000E+00         0.00000E+00         0.00000E+00
 
    0.10704E+06         0.67310E+05         0.00000E+00
    0.67310E+05         0.13799E+05         0.00000E+00
    0.00000E+00         0.00000E+00         0.00000E+00
 
    0.10435E+06         0.69802E+05         0.00000E+00
    0.69802E+05         0.15342E+05         0.00000E+00
    0.00000E+00         0.00000E+00         0.00000E+00
 
    0.10155E+06         0.72231E+05         0.00000E+00
    0.72231E+05         0.16939E+05         0.00000E+00
    0.00000E+00         0.00000E+00         0.00000E+00
 
    0.98644E+05         0.74595E+05         0.00000E+00
    0.74595E+05         0.18589E+05         0.00000E+00
    0.00000E+00         0.00000E+00         0.00000E+00
 
    0.95627E+05         0.76891E+05         0.00000E+00
    0.76891E+05         0.20290E+05         0.00000E+00
    0.00000E+00         0.00000E+00         0.00000E+00
 
    0.92504E+05         0.79117E+05         0.00000E+00
    0.79117E+05         0.22042E+05         0.00000E+00
    0.00000E+00         0.00000E+00         0.00000E+00
 
    0.89279E+05         0.81271E+05         0.00000E+00
    0.81271E+05         0.23842E+05         0.00000E+00
    0.00000E+00         0.00000E+00         0.00000E+00
 
    0.85953E+05         0.83351E+05         0.00000E+00
    0.83351E+05         0.25689E+05         0.00000E+00
    0.00000E+00         0.00000E+00         0.00000E+00
 
    0.82528E+05         0.85354E+05         0.00000E+00
    0.85354E+05         0.27580E+05         0.00000E+00
    0.00000E+00         0.00000E+00         0.00000E+00
 
    0.79008E+05         0.87280E+05         0.00000E+00
    0.87280E+05         0.29516E+05         0.00000E+00
    0.00000E+00         0.00000E+00         0.00000E+00
 
    0.75394E+05         0.89126E+05         0.00000E+00
    0.89126E+05         0.31493E+05         0.00000E+00
    0.00000E+00         0.00000E+00         0.00000E+00
 
    0.71690E+05         0.90891E+05         0.00000E+00
    0.90891E+05         0.33510E+05         0.00000E+00
    0.00000E+00         0.00000E+00         0.00000E+00
 
    0.67898E+05         0.92571E+05         0.00000E+00
    0.92571E+05         0.35566E+05         0.00000E+00
    0.00000E+00         0.00000E+00         0.00000E+00
 
    0.64020E+05         0.94167E+05         0.00000E+00
    0.94167E+05         0.37658E+05         0.00000E+00
    0.00000E+00         0.00000E+00         0.00000E+00
 
    0.60060E+05         0.95676E+05         0.00000E+00
    0.95676E+05         0.39785E+05         0.00000E+00
    0.00000E+00         0.00000E+00         0.00000E+00
 
    0.56020E+05         0.97096E+05         0.00000E+00
    0.97096E+05         0.41944E+05         0.00000E+00
    0.00000E+00         0.00000E+00         0.00000E+00
 
    0.51904E+05         0.98426E+05         0.00000E+00
    0.98426E+05         0.44134E+05         0.00000E+00
    0.00000E+00         0.00000E+00         0.00000E+00
 
    0.47713E+05         0.99664E+05         0.00000E+00
    0.99664E+05         0.46354E+05         0.00000E+00
    0.00000E+00         0.00000E+00         0.00000E+00
 
    0.43452E+05         0.10081E+06         0.00000E+00
    0.10081E+06         0.48600E+05         0.00000E+00
    0.00000E+00         0.00000E+00         0.00000E+00
 
    0.39122E+05         0.10186E+06         0.00000E+00
    0.10186E+06         0.50871E+05         0.00000E+00
    0.00000E+00         0.00000E+00         0.00000E+00
 
    0.34727E+05         0.10282E+06         0.00000E+00
    0.10282E+06         0.53166E+05         0.00000E+00
    0.00000E+00         0.00000E+00         0.00000E+00
 
    0.30269E+05         0.10367E+06         0.00000E+00
    0.10367E+06         0.55481E+05         0.00000E+00
    0.00000E+00         0.00000E+00         0.00000E+00
 
    0.25753E+05         0.10443E+06         0.00000E+00
    0.10443E+06         0.57816E+05         0.00000E+00
    0.00000E+00         0.00000E+00         0.00000E+00
 
    0.21181E+05         0.10509E+06         0.00000E+00
    0.10509E+06         0.60168E+05         0.00000E+00
    0.00000E+00         0.00000E+00         0.00000E+00
 
    0.16555E+05         0.10565E+06         0.00000E+00
    0.10565E+06         0.62534E+05         0.00000E+00
    0.00000E+00         0.00000E+00         0.00000E+00
 
    0.11880E+05         0.10611E+06         0.00000E+00
    0.10611E+06         0.64913E+05         0.00000E+00
    0.00000E+00         0.00000E+00         0.00000E+00
 
    0.71583E+04         0.10647E+06         0.00000E+00
    0.10647E+06         0.67303E+05         0.00000E+00
    0.00000E+00         0.00000E+00         0.00000E+00
 
    0.23931E+04         0.10672E+06         0.00000E+00
    0.10672E+06         0.69702E+05         0.00000E+00
    0.00000E+00         0.00000E+00         0.00000E+00
 
    0.15044E+06         0.18078E+04         0.00000E+00
    0.18078E+04        -0.48299E+04         0.00000E+00
    0.00000E+00         0.00000E+00         0.00000E+00
 
    0.15063E+06         0.54237E+04         0.00000E+00
    0.54237E+04        -0.47468E+04         0.00000E+00
    0.00000E+00         0.00000E+00         0.00000E+00
 
    0.15066E+06         0.90351E+04         0.00000E+00
    0.90351E+04        -0.45811E+04         0.00000E+00
    0.00000E+00         0.00000E+00         0.00000E+00
 
    0.15053E+06         0.12639E+05         0.00000E+00
    0.12639E+05        -0.43330E+04         0.00000E+00
    0.00000E+00         0.00000E+00         0.00000E+00
 
    0.15024E+06         0.16231E+05         0.00000E+00
    0.16231E+05        -0.40032E+04         0.00000E+00
    0.00000E+00         0.00000E+00         0.00000E+00
 
    0.14980E+06         0.19809E+05         0.00000E+00
    0.19809E+05        -0.35920E+04         0.00000E+00
    0.00000E+00         0.00000E+00         0.00000E+00
 
    0.14920E+06         0.23369E+05         0.00000E+00
    0.23369E+05        -0.31001E+04         0.00000E+00
    0.00000E+00         0.00000E+00         0.00000E+00
 
    0.14845E+06         0.26907E+05         0.00000E+00
    0.26907E+05        -0.25280E+04         0.00000E+00
    0.00000E+00         0.00000E+00         0.00000E+00
 
    0.14754E+06         0.30421E+05         0.00000E+00
    0.30421E+05        -0.18765E+04         0.00000E+00
    0.00000E+00         0.00000E+00         0.00000E+00
 
    0.14648E+06         0.33907E+05         0.00000E+00
    0.33907E+05        -0.11464E+04         0.00000E+00
    0.00000E+00         0.00000E+00         0.00000E+00
 
    0.14527E+06         0.37362E+05         0.00000E+00
    0.37362E+05        -0.33844E+03         0.00000E+00
    0.00000E+00         0.00000E+00         0.00000E+00
 
    0.14391E+06         0.40784E+05         0.00000E+00
    0.40784E+05         0.54648E+03         0.00000E+00
    0.00000E+00         0.00000E+00         0.00000E+00
 
    0.14240E+06         0.44168E+05         0.00000E+00
    0.44168E+05         0.15074E+04         0.00000E+00
    0.00000E+00         0.00000E+00         0.00000E+00
 
    0.14075E+06         0.47511E+05         0.00000E+00
    0.47511E+05         0.25433E+04         0.00000E+00
    0.00000E+00         0.00000E+00         0.00000E+00
 
    0.13895E+06         0.50812E+05         0.00000E+00
    0.50812E+05         0.36532E+04         0.00000E+00
    0.00000E+00         0.00000E+00         0.00000E+00
 
    0.13701E+06         0.54066E+05         0.00000E+00
    0.54066E+05         0.48359E+04         0.00000E+00
    0.00000E+00         0.00000E+00         0.00000E+00
 
    0.13493E+06         0.57271E+05         0.00000E+00
    0.57271E+05         0.60903E+04         0.00000E+00
    0.00000E+00         0.00000E+00         0.00000E+00
 
    0.13270E+06         0.60424E+05         0.00000E+00
    0.60424E+05         0.74152E+04         0.00000E+00
    0.00000E+00         0.00000E+00         0.00000E+00
 
    0.13034E+06         0.63522E+05         0.00000E+00
    0.63522E+05         0.88092E+04         0.00000E+00
    0.00000E+00         0.00000E+00         0.00000E+00
 
    0.12785E+06         0.66563E+05         0.00000E+00
    0.66563E+05         0.10271E+05         0.00000E+00
    0.00000E+00         0.00000E+00         0.00000E+00
 
    0.12522E+06         0.69543E+05         0.00000E+00
    0.69543E+05         0.11799E+05         0.00000E+00
    0.00000E+00         0.00000E+00         0.00000E+00
 
    0.12246E+06         0.72460E+05         0.00000E+00
    0.72460E+05         0.13393E+05         0.00000E+00
    0.00000E+00         0.00000E+00         0.00000E+00
 
    0.11957E+06         0.75311E+05         0.00000E+00
    0.75311E+05         0.15050E+05         0.00000E+00
    0.00000E+00         0.00000E+00         0.00000E+00
 
    0.11655E+06         0.78094E+05         0.00000E+00
    0.78094E+05         0.16768E+05         0.00000E+00
    0.00000E+00         0.00000E+00         0.00000E+00
 
    0.11341E+06         0.80806E+05         0.00000E+00
    0.80806E+05         0.18548E+05         0.00000E+00
    0.00000E+00         0.00000E+00         0.00000E+00
 
    0.11015E+06         0.83446E+05         0.00000E+00
    0.83446E+05         0.20386E+05         0.00000E+00
    0.00000E+00         0.00000E+00         0.00000E+00
 
    0.10677E+06         0.86009E+05         0.00000E+00
    0.86009E+05         0.22282E+05         0.00000E+00
    0.00000E+00         0.00000E+00         0.00000E+00
 
    0.10327E+06         0.88494E+05         0.00000E+00
    0.88494E+05         0.24233E+05         0.00000E+00
    0.00000E+00         0.00000E+00         0.00000E+00
 
    0.99662E+05         0.90899E+05         0.00000E+00
    0.90899E+05         0.26238E+05         0.00000E+00
    0.00000E+00         0.00000E+00         0.00000E+00
 
    0.95939E+05         0.93222E+05         0.00000E+00
    0.93222E+05         0.28295E+05         0.00000E+00
    0.00000E+00         0.00000E+00         0.00000E+00
 
    0.92108E+05         0.95460E+05         0.00000E+00
    0.95460E+05         0.30402E+05         0.00000E+00
    0.00000E+00         0.00000E+00         0.00000E+00
 
    0.88171E+05         0.97611E+05         0.00000E+00
    0.97611E+05         0.32557E+05         0.00000E+00
    0.00000E+00         0.00000E+00         0.00000E+00
 
    0.84130E+05         0.99672E+05         0.00000E+00
    0.99672E+05         0.34759E+05         0.00000E+00
    0.00000E+00         0.00000E+00         0.00000E+00
 
    0.79990E+05         0.10164E+06         0.00000E+00
    0.10164E+06         0.37005E+05         0.00000E+00
    0.00000E+00         0.00000E+00         0.00000E+00
 
    0.75753E+05         0.10352E+06         0.00000E+00
    0.10352E+06         0.39295E+05         0.00000E+00
    0.00000E+00         0.00000E+00         0.00000E+00
 
    0.71421E+05         0.10530E+06         0.00000E+00
    0.10530E+06         0.41624E+05         0.00000E+00
    0.00000E+00         0.00000E+00         0.00000E+00
 
    0.66998E+05         0.10699E+06         0.00000E+00
    0.10699E+06         0.43992E+05         0.00000E+00
    0.00000E+00         0.00000E+00         0.00000E+00
 
    0.62488E+05         0.10858E+06         0.00000E+00
    0.10858E+06         0.46397E+05         0.00000E+00
    0.00000E+00         0.00000E+00         0.00000E+00
 
    0.57892E+05         0.11007E+06         0.00000E+00
    0.11007E+06         0.48837E+05         0.00000E+00
    0.00000E+00         0.00000E+00         0.00000E+00
 
    0.53214E+05         0.11145E+06         0.00000E+00
    0.11145E+06         0.51308E+05         0.00000E+00
    0.00000E+00         0.00000E+00         0.00000E+00
 
    0.48458E+05         0.11274E+06         0.00000E+00
    0.11274E+06         0.53810E+05         0.00000E+00
    0.00000E+00         0.00000E+00         0.00000E+00
 
    0.43627E+05         0.11392E+06         0.00000E+00
    0.11392E+06         0.56340E+05         0.00000E+00
    0.00000E+00         0.00000E+00         0.00000E+00
 
    0.38724E+05         0.11499E+06         0.00000E+00
    0.11499E+06         0.58895E+05         0.00000E+00
    0.00000E+00         0.00000E+00         0.00000E+00
 
    0.33752E+05         0.11595E+06         0.00000E+00
    0.11595E+06         0.61475E+05         0.00000E+00
    0.00000E+00         0.00000E+00         0.00000E+00
 
    0.28715E+05         0.11681E+06         0.00000E+00
    0.11681E+06         0.64075E+05         0.00000E+00
    0.00000E+00         0.00000E+00         0.00000E+00
 
    0.23615E+05         0.11755E+06         0.00000E+00
    0.11755E+06         0.66695E+05         0.00000E+00
    0.00000E+00         0.00000E+00         0.00000E+00
 
    0.18458E+05         0.11819E+06         0.00000E+00
    0.11819E+06         0.69332E+05         0.00000E+00
    0.00000E+00         0.00000E+00         0.00000E+00
 
    0.13245E+05         0.11871E+06         0.00000E+00
    0.11871E+06         0.71983E+05         0.00000E+00
    0.00000E+00         0.00000E+00         0.00000E+00
 
    0.79803E+04         0.11912E+06         0.00000E+00
    0.11912E+06         0.74647E+05         0.00000E+00
    0.00000E+00         0.00000E+00         0.00000E+00
 
    0.26678E+04         0.11941E+06         0.00000E+00
    0.11941E+06         0.77320E+05         0.00000E+00
    0.00000E+00         0.00000E+00         0.00000E+00
 
    0.16864E+06         0.20286E+04         0.00000E+00
    0.20286E+04        -0.57959E+04         0.00000E+00
    0.00000E+00         0.00000E+00         0.00000E+00
 
    0.16881E+06         0.60823E+04         0.00000E+00
    0.60823E+04        -0.57030E+04         0.00000E+00
    0.00000E+00         0.00000E+00         0.00000E+00
 
    0.16880E+06         0.10130E+05         0.00000E+00
    0.10130E+05        -0.55177E+04         0.00000E+00
    0.00000E+00         0.00000E+00         0.00000E+00
 
    0.16862E+06         0.14167E+05         0.00000E+00
    0.14167E+05        -0.52406E+04         0.00000E+00
    0.00000E+00         0.00000E+00         0.00000E+00
 
    0.16826E+06         0.18191E+05         0.00000E+00
    0.18191E+05        -0.48722E+04         0.00000E+00
    0.00000E+00         0.00000E+00         0.00000E+00
 
    0.16773E+06         0.22197E+05         0.00000E+00
    0.22197E+05        -0.44131E+04         0.00000E+00
    0.00000E+00         0.00000E+00         0.00000E+00
 
    0.16702E+06         0.26181E+05         0.00000E+00
    0.26181E+05        -0.38639E+04         0.00000E+00
    0.00000E+00         0.00000E+00         0.00000E+00
 
    0.16615E+06         0.30141E+05         0.00000E+00
    0.30141E+05        -0.32254E+04         0.00000E+00
    0.00000E+00         0.00000E+00         0.00000E+00
 
    0.16510E+06         0.34073E+05         0.00000E+00
    0.34073E+05        -0.24984E+04         0.00000E+00
    0.00000E+00         0.00000E+00         0.00000E+00
 
    0.16388E+06         0.37972E+05         0.00000E+00
    0.37972E+05        -0.16838E+04         0.00000E+00
    0.00000E+00         0.00000E+00         0.00000E+00
 
    0.16250E+06         0.41836E+05         0.00000E+00
    0.41836E+05        -0.78252E+03         0.00000E+00
    0.00000E+00         0.00000E+00         0.00000E+00
 
    0.16095E+06         0.45661E+05         0.00000E+00
    0.45661E+05         0.20442E+03         0.00000E+00
    0.00000E+00         0.00000E+00         0.00000E+00
 
    0.15923E+06         0.49443E+05         0.00000E+00
    0.49443E+05         0.12759E+04         0.00000E+00
    0.00000E+00         0.00000E+00         0.00000E+00
 
    0.15735E+06         0.53180E+05         0.00000E+00
    0.53180E+05         0.24309E+04         0.00000E+00
    0.00000E+00         0.00000E+00         0.00000E+00
 
    0.15532E+06         0.56868E+05         0.00000E+00
    0.56868E+05         0.36681E+04         0.00000E+00
    0.00000E+00         0.00000E+00         0.00000E+00
 
    0.15312E+06         0.60503E+05         0.00000E+00
    0.60503E+05         0.49863E+04         0.00000E+00
    0.00000E+00         0.00000E+00         0.00000E+00
 
    0.15077E+06         0.64083E+05         0.00000E+00
    0.64083E+05         0.63842E+04         0.00000E+00
    0.00000E+00         0.00000E+00         0.00000E+00
 
    0.14826E+06         0.67604E+05         0.00000E+00
    0.67604E+05         0.78603E+04         0.00000E+00
    0.00000E+00         0.00000E+00         0.00000E+00
 
    0.14560E+06         0.71063E+05         0.00000E+00
    0.71063E+05         0.94133E+04         0.00000E+00
    0.00000E+00         0.00000E+00         0.00000E+00
 
    0.14279E+06         0.74458E+05         0.00000E+00
    0.74458E+05         0.11042E+05         0.00000E+00
    0.00000E+00         0.00000E+00         0.00000E+00
 
    0.13984E+06         0.77785E+05         0.00000E+00
    0.77785E+05         0.12744E+05         0.00000E+00
    0.00000E+00         0.00000E+00         0.00000E+00
 
    0.13674E+06         0.81041E+05         0.00000E+00
    0.81041E+05         0.14518E+05         0.00000E+00
    0.00000E+00         0.00000E+00         0.00000E+00
 
    0.13349E+06         0.84224E+05         0.00000E+00
    0.84224E+05         0.16363E+05         0.00000E+00
    0.00000E+00         0.00000E+00         0.00000E+00
 
    0.13011E+06         0.87330E+05         0.00000E+00
    0.87330E+05         0.18277E+05         0.00000E+00
    0.00000E+00         0.00000E+00         0.00000E+00
 
    0.12659E+06         0.90357E+05         0.00000E+00
    0.90357E+05         0.20258E+05         0.00000E+00
    0.00000E+00         0.00000E+00         0.00000E+00
 
    0.12293E+06         0.93302E+05         0.00000E+00
    0.93302E+05         0.22305E+05         0.00000E+00
    0.00000E+00         0.00000E+00         0.00000E+00
 
    0.11915E+06         0.96162E+05         0.00000E+00
    0.96162E+05         0.24415E+05         0.00000E+00
    0.00000E+00         0.00000E+00         0.00000E+00
 
    0.11523E+06         0.98936E+05         0.00000E+00
    0.98936E+05         0.26587E+05         0.00000E+00
    0.00000E+00         0.00000E+00         0.00000E+00
 
    0.11119E+06         0.10162E+06         0.00000E+00
    0.10162E+06         0.28818E+05         0.00000E+00
    0.00000E+00         0.00000E+00         0.00000E+00
 
    0.10702E+06         0.10421E+06         0.00000E+00
    0.10421E+06         0.31107E+05         0.00000E+00
    0.00000E+00         0.00000E+00         0.00000E+00
 
    0.10274E+06         0.10671E+06         0.00000E+00
    0.10671E+06         0.33452E+05         0.00000E+00
    0.00000E+00         0.00000E+00         0.00000E+00
 
    0.98338E+05         0.10911E+06         0.00000E+00
    0.10911E+06         0.35851E+05         0.00000E+00
    0.00000E+00         0.00000E+00         0.00000E+00
 
    0.93823E+05         0.11141E+06         0.00000E+00
    0.11141E+06         0.38301E+05         0.00000E+00
    0.00000E+00         0.00000E+00         0.00000E+00
 
    0.89197E+05         0.11361E+06         0.00000E+00
    0.11361E+06         0.40801E+05         0.00000E+00
    0.00000E+00         0.00000E+00         0.00000E+00
 
    0.84465E+05         0.11571E+06         0.00000E+00
    0.11571E+06         0.43348E+05         0.00000E+00
    0.00000E+00         0.00000E+00         0.00000E+00
 
    0.79629E+05         0.11770E+06         0.00000E+00
    0.11770E+06         0.45941E+05         0.00000E+00
    0.00000E+00         0.00000E+00         0.00000E+00
 
    0.74692E+05         0.11959E+06         0.00000E+00
    0.11959E+06         0.48576E+05         0.00000E+00
    0.00000E+00         0.00000E+00         0.00000E+00
 
    0.69658E+05         0.12136E+06         0.00000E+00
    0.12136E+06         0.51252E+05         0.00000E+00
    0.00000E+00         0.00000E+00         0.00000E+00
 
    0.64530E+05         0.12303E+06         0.00000E+00
    0.12303E+06         0.53966E+05         0.00000E+00
    0.00000E+00         0.00000E+00         0.00000E+00
 
    0.59312E+05         0.12458E+06         0.00000E+00
    0.12458E+06         0.56717E+05         0.00000E+00
    0.00000E+00         0.00000E+00         0.00000E+00
 
    0.54008E+05         0.12602E+06         0.00000E+00
    0.12602E+06         0.59501E+05         0.00000E+00
    0.00000E+00         0.00000E+00         0.00000E+00
 
    0.48621E+05         0.12734E+06         0.00000E+00
    0.12734E+06         0.62317E+05         0.00000E+00
    0.00000E+00         0.00000E+00         0.00000E+00
 
    0.43154E+05         0.12854E+06         0.00000E+00
    0.12854E+06         0.65161E+05         0.00000E+00
    0.00000E+00         0.00000E+00         0.00000E+00
 
    0.37611E+05         0.12963E+06         0.00000E+00
    0.12963E+06         0.68032E+05         0.00000E+00
    0.00000E+00         0.00000E+00         0.00000E+00
 
    0.31996E+05         0.13059E+06         0.00000E+00
    0.13059E+06         0.70928E+05         0.00000E+00
    0.00000E+00         0.00000E+00         0.00000E+00
 
    0.26313E+05         0.13143E+06         0.00000E+00
    0.13143E+06         0.73844E+05         0.00000E+00
    0.00000E+00         0.00000E+00         0.00000E+00
 
    0.20565E+05         0.13215E+06         0.00000E+00
    0.13215E+06         0.76780E+05         0.00000E+00
    0.00000E+00         0.00000E+00         0.00000E+00
 
    0.14757E+05         0.13274E+06         0.00000E+00
    0.13274E+06         0.79732E+05         0.00000E+00
    0.00000E+00         0.00000E+00         0.00000E+00
 
    0.88910E+04         0.13321E+06         0.00000E+00
    0.13321E+06         0.82699E+05         0.00000E+00
    0.00000E+00         0.00000E+00         0.00000E+00
 
    0.29722E+04         0.13355E+06         0.00000E+00
    0.13355E+06         0.85677E+05         0.00000E+00
    0.00000E+00         0.00000E+00         0.00000E+00
 
    0.18896E+06         0.22755E+04         0.00000E+00
    0.22755E+04        -0.69511E+04         0.00000E+00
    0.00000E+00         0.00000E+00         0.00000E+00
 
    0.18911E+06         0.68183E+04         0.00000E+00
    0.68183E+04        -0.68473E+04         0.00000E+00
    0.00000E+00         0.00000E+00         0.00000E+00
 
    0.18905E+06         0.11352E+05         0.00000E+00
    0.11352E+05        -0.66404E+04         0.00000E+00
    0.00000E+00         0.00000E+00         0.00000E+00
 
    0.18880E+06         0.15874E+05         0.00000E+00
    0.15874E+05        -0.63310E+04         0.00000E+00
    0.00000E+00         0.00000E+00         0.00000E+00
 
    0.18836E+06         0.20378E+05         0.00000E+00
    0.20378E+05        -0.59198E+04         0.00000E+00
    0.00000E+00         0.00000E+00         0.00000E+00
 
    0.18772E+06         0.24862E+05         0.00000E+00
    0.24862E+05        -0.54075E+04         0.00000E+00
    0.00000E+00         0.00000E+00         0.00000E+00
 
    0.18689E+06         0.29320E+05         0.00000E+00
    0.29320E+05        -0.47948E+04         0.00000E+00
    0.00000E+00         0.00000E+00         0.00000E+00
 
    0.18587E+06         0.33749E+05         0.00000E+00
    0.33749E+05        -0.40827E+04         0.00000E+00
    0.00000E+00         0.00000E+00         0.00000E+00
 
    0.18466E+06         0.38146E+05         0.00000E+00
    0.38146E+05        -0.32720E+04         0.00000E+00
    0.00000E+00         0.00000E+00         0.00000E+00
 
    0.18326E+06         0.42505E+05         0.00000E+00
    0.42505E+05        -0.23638E+04         0.00000E+00
    0.00000E+00         0.00000E+00         0.00000E+00
 
    0.18167E+06         0.46823E+05         0.00000E+00
    0.46823E+05        -0.13592E+04         0.00000E+00
    0.00000E+00         0.00000E+00         0.00000E+00
 
    0.17991E+06         0.51097E+05         0.00000E+00
    0.51097E+05        -0.25926E+03         0.00000E+00
    0.00000E+00         0.00000E+00         0.00000E+00
 
    0.17796E+06         0.55323E+05         0.00000E+00
    0.55323E+05         0.93468E+03         0.00000E+00
    0.00000E+00         0.00000E+00         0.00000E+00
 
    0.17583E+06         0.59497E+05         0.00000E+00
    0.59497E+05         0.22214E+04         0.00000E+00
    0.00000E+00         0.00000E+00         0.00000E+00
 
    0.17352E+06         0.63615E+05         0.00000E+00
    0.63615E+05         0.35995E+04         0.00000E+00
    0.00000E+00         0.00000E+00         0.00000E+00
 
    0.17104E+06         0.67674E+05         0.00000E+00
    0.67674E+05         0.50675E+04         0.00000E+00
    0.00000E+00         0.00000E+00         0.00000E+00
 
    0.16838E+06         0.71670E+05         0.00000E+00
    0.71670E+05         0.66240E+04         0.00000E+00
    0.00000E+00         0.00000E+00         0.00000E+00
 
    0.16555E+06         0.75600E+05         0.00000E+00
    0.75600E+05         0.82675E+04         0.00000E+00
    0.00000E+00         0.00000E+00         0.00000E+00
 
    0.16256E+06         0.79461E+05         0.00000E+00
    0.79461E+05         0.99963E+04         0.00000E+00
    0.00000E+00         0.00000E+00         0.00000E+00
 
    0.15940E+06         0.83249E+05         0.00000E+00
    0.83249E+05         0.11809E+05         0.00000E+00
    0.00000E+00         0.00000E+00         0.00000E+00
 
    0.15607E+06         0.86961E+05         0.00000E+00
    0.86961E+05         0.13703E+05         0.00000E+00
    0.00000E+00         0.00000E+00         0.00000E+00
 
    0.15259E+06         0.90593E+05         0.00000E+00
    0.90593E+05         0.15678E+05         0.00000E+00
    0.00000E+00         0.00000E+00         0.00000E+00
 
    0.14895E+06         0.94143E+05         0.00000E+00
    0.94143E+05         0.17731E+05         0.00000E+00
    0.00000E+00         0.00000E+00         0.00000E+00
 
    0.14516E+06         0.97608E+05         0.00000E+00
    0.97608E+05         0.19860E+05         0.00000E+00
    0.00000E+00         0.00000E+00         0.00000E+00
 
    0.14121E+06         0.10098E+06         0.00000E+00
    0.10098E+06         0.22064E+05         0.00000E+00
    0.00000E+00         0.00000E+00         0.00000E+00
 
    0.13711E+06         0.10427E+06         0.00000E+00
    0.10427E+06         0.24340E+05         0.00000E+00
    0.00000E+00         0.00000E+00         0.00000E+00
 
    0.13287E+06         0.10746E+06         0.00000E+00
    0.10746E+06         0.26687E+05         0.00000E+00
    0.00000E+00         0.00000E+00         0.00000E+00
 
    0.12849E+06         0.11055E+06         0.00000E+00
    0.11055E+06         0.29102E+05         0.00000E+00
    0.00000E+00         0.00000E+00         0.00000E+00
 
    0.12397E+06         0.11355E+06         0.00000E+00
    0.11355E+06         0.31584E+05         0.00000E+00
    0.00000E+00         0.00000E+00         0.00000E+00
 
    0.11931E+06         0.11644E+06         0.00000E+00
    0.11644E+06         0.34130E+05         0.00000E+00
    0.00000E+00         0.00000E+00         0.00000E+00
 
    0.11453E+06         0.11922E+06         0.00000E+00
    0.11922E+06         0.36737E+05         0.00000E+00
    0.00000E+00         0.00000E+00         0.00000E+00
 
    0.10961E+06         0.12190E+06         0.00000E+00
    0.12190E+06         0.39404E+05         0.00000E+00
    0.00000E+00         0.00000E+00         0.00000E+00
 
    0.10457E+06         0.12447E+06         0.00000E+00
    0.12447E+06         0.42129E+05         0.00000E+00
    0.00000E+00         0.00000E+00         0.00000E+00
 
    0.99401E+05         0.12693E+06         0.00000E+00
    0.12693E+06         0.44909E+05         0.00000E+00
    0.00000E+00         0.00000E+00         0.00000E+00
 
    0.94118E+05         0.12927E+06         0.00000E+00
    0.12927E+06         0.47741E+05         0.00000E+00
    0.00000E+00         0.00000E+00         0.00000E+00
 
    0.88722E+05         0.13149E+06         0.00000E+00
    0.13149E+06         0.50623E+05         0.00000E+00
    0.00000E+00         0.00000E+00         0.00000E+00
 
    0.83214E+05         0.13360E+06         0.00000E+00
    0.13360E+06         0.53553E+05         0.00000E+00
    0.00000E+00         0.00000E+00         0.00000E+00
 
    0.77600E+05         0.13559E+06         0.00000E+00
    0.13559E+06         0.56529E+05         0.00000E+00
    0.00000E+00         0.00000E+00         0.00000E+00
 
    0.71882E+05         0.13745E+06         0.00000E+00
    0.13745E+06         0.59547E+05         0.00000E+00
    0.00000E+00         0.00000E+00         0.00000E+00
 
    0.66065E+05         0.13918E+06         0.00000E+00
    0.13918E+06         0.62606E+05         0.00000E+00
    0.00000E+00         0.00000E+00         0.00000E+00
 
    0.60153E+05         0.14079E+06         0.00000E+00
    0.14079E+06         0.65702E+05         0.00000E+00
    0.00000E+00         0.00000E+00         0.00000E+00
 
    0.54149E+05         0.14227E+06         0.00000E+00
    0.14227E+06         0.68833E+05         0.00000E+00
    0.00000E+00         0.00000E+00         0.00000E+00
 
    0.48058E+05         0.14362E+06         0.00000E+00
    0.14362E+06         0.71997E+05         0.00000E+00
    0.00000E+00         0.00000E+00         0.00000E+00
 
    0.41883E+05         0.14484E+06         0.00000E+00
    0.14484E+06         0.75190E+05         0.00000E+00
    0.00000E+00         0.00000E+00         0.00000E+00
 
    0.35629E+05         0.14593E+06         0.00000E+00
    0.14593E+06         0.78411E+05         0.00000E+00
    0.00000E+00         0.00000E+00         0.00000E+00
 
    0.29299E+05         0.14687E+06         0.00000E+00
    0.14687E+06         0.81656E+05         0.00000E+00
    0.00000E+00         0.00000E+00         0.00000E+00
 
    0.22898E+05         0.14769E+06         0.00000E+00
    0.14769E+06         0.84922E+05         0.00000E+00
    0.00000E+00         0.00000E+00         0.00000E+00
 
    0.16430E+05         0.14836E+06         0.00000E+00
    0.14836E+06         0.88208E+05         0.00000E+00
    0.00000E+00         0.00000E+00         0.00000E+00
 
    0.98989E+04         0.14890E+06         0.00000E+00
    0.14890E+06         0.91509E+05         0.00000E+00
    0.00000E+00         0.00000E+00         0.00000E+00
 
    0.33091E+04         0.14929E+06         0.00000E+00
    0.14929E+06         0.94823E+05         0.00000E+00
    0.00000E+00         0.00000E+00         0.00000E+00
 
    0.21165E+06         0.25516E+04         0.00000E+00
    0.25516E+04        -0.83316E+04         0.00000E+00
    0.00000E+00         0.00000E+00         0.00000E+00
 
    0.21176E+06         0.76401E+04         0.00000E+00
    0.76401E+04        -0.82157E+04         0.00000E+00
    0.00000E+00         0.00000E+00         0.00000E+00
 
    0.21164E+06         0.12717E+05         0.00000E+00
    0.12717E+05        -0.79848E+04         0.00000E+00
    0.00000E+00         0.00000E+00         0.00000E+00
 
    0.21131E+06         0.17778E+05         0.00000E+00
    0.17778E+05        -0.76397E+04         0.00000E+00
    0.00000E+00         0.00000E+00         0.00000E+00
 
    0.21076E+06         0.22819E+05         0.00000E+00
    0.22819E+05        -0.71811E+04         0.00000E+00
    0.00000E+00         0.00000E+00         0.00000E+00
 
    0.21000E+06         0.27834E+05         0.00000E+00
    0.27834E+05        -0.66098E+04         0.00000E+00
    0.00000E+00         0.00000E+00         0.00000E+00
 
    0.20902E+06         0.32820E+05         0.00000E+00
    0.32820E+05        -0.59268E+04         0.00000E+00
    0.00000E+00         0.00000E+00         0.00000E+00
 
    0.20783E+06         0.37772E+05         0.00000E+00
    0.37772E+05        -0.51331E+04         0.00000E+00
    0.00000E+00         0.00000E+00         0.00000E+00
 
    0.20643E+06         0.42685E+05         0.00000E+00
    0.42685E+05        -0.42298E+04         0.00000E+00
    0.00000E+00         0.00000E+00         0.00000E+00
 
    0.20482E+06         0.47556E+05         0.00000E+00
    0.47556E+05        -0.32181E+04         0.00000E+00
    0.00000E+00         0.00000E+00         0.00000E+00
 
    0.20301E+06         0.52380E+05         0.00000E+00
    0.52380E+05        -0.20992E+04         0.00000E+00
    0.00000E+00         0.00000E+00         0.00000E+00
 
    0.20099E+06         0.57153E+05         0.00000E+00
    0.57153E+05        -0.87438E+03         0.00000E+00
    0.00000E+00         0.00000E+00         0.00000E+00
 
    0.19878E+06         0.61872E+05         0.00000E+00
    0.61872E+05         0.45489E+03         0.00000E+00
    0.00000E+00         0.00000E+00         0.00000E+00
 
    0.19636E+06         0.66531E+05         0.00000E+00
    0.66531E+05         0.18872E+04         0.00000E+00
    0.00000E+00         0.00000E+00         0.00000E+00
 
    0.19375E+06         0.71127E+05         0.00000E+00
    0.71127E+05         0.34209E+04         0.00000E+00
    0.00000E+00         0.00000E+00         0.00000E+00
 
    0.19094E+06         0.75656E+05         0.00000E+00
    0.75656E+05         0.50545E+04         0.00000E+00
    0.00000E+00         0.00000E+00         0.00000E+00
 
    0.18794E+06         0.80115E+05         0.00000E+00
    0.80115E+05         0.67863E+04         0.00000E+00
    0.00000E+00         0.00000E+00         0.00000E+00
 
    0.18476E+06         0.84499E+05         0.00000E+00
    0.84499E+05         0.86145E+04         0.00000E+00
    0.00000E+00         0.00000E+00         0.00000E+00
 
    0.18138E+06         0.88805E+05         0.00000E+00
    0.88805E+05         0.10537E+05         0.00000E+00
    0.00000E+00         0.00000E+00         0.00000E+00
 
    0.17783E+06         0.93029E+05         0.00000E+00
    0.93029E+05         0.12553E+05         0.00000E+00
    0.00000E+00         0.00000E+00         0.00000E+00
 
    0.17409E+06         0.97168E+05         0.00000E+00
    0.97168E+05         0.14660E+05         0.00000E+00
    0.00000E+00         0.00000E+00         0.00000E+00
 
    0.17018E+06         0.10122E+06         0.00000E+00
    0.10122E+06         0.16855E+05         0.00000E+00
    0.00000E+00         0.00000E+00         0.00000E+00
 
    0.16610E+06         0.10518E+06         0.00000E+00
    0.10518E+06         0.19137E+05         0.00000E+00
    0.00000E+00         0.00000E+00         0.00000E+00
 
    0.16184E+06         0.10904E+06         0.00000E+00
    0.10904E+06         0.21504E+05         0.00000E+00
    0.00000E+00         0.00000E+00         0.00000E+00
 
    0.15742E+06         0.11280E+06         0.00000E+00
    0.11280E+06         0.23954E+05         0.00000E+00
    0.00000E+00         0.00000E+00         0.00000E+00
 
    0.15283E+06         0.11646E+06         0.00000E+00
    0.11646E+06         0.26484E+05         0.00000E+00
    0.00000E+00         0.00000E+00         0.00000E+00
 
    0.14809E+06         0.12002E+06         0.00000E+00
    0.12002E+06         0.29092E+05         0.00000E+00
    0.00000E+00         0.00000E+00         0.00000E+00
 
    0.14319E+06         0.12347E+06         0.00000E+00
    0.12347E+06         0.31776E+05         0.00000E+00
    0.00000E+00         0.00000E+00         0.00000E+00
 
    0.13813E+06         0.12680E+06         0.00000E+00
    0.12680E+06         0.34533E+05         0.00000E+00
    0.00000E+00         0.00000E+00         0.00000E+00
 
    0.13293E+06         0.13003E+06         0.00000E+00
    0.13003E+06         0.37361E+05         0.00000E+00
    0.00000E+00         0.00000E+00         0.00000E+00
 
    0.12758E+06         0.13313E+06         0.00000E+00
    0.13313E+06         0.40259E+05         0.00000E+00
    0.00000E+00         0.00000E+00         0.00000E+00
 
    0.12209E+06         0.13612E+06         0.00000E+00
    0.13612E+06         0.43222E+05         0.00000E+00
    0.00000E+00         0.00000E+00         0.00000E+00
 
    0.11646E+06         0.13899E+06         0.00000E+00
    0.13899E+06         0.46249E+05         0.00000E+00
    0.00000E+00         0.00000E+00         0.00000E+00
 
    0.11070E+06         0.14173E+06         0.00000E+00
    0.14173E+06         0.49337E+05         0.00000E+00
    0.00000E+00         0.00000E+00         0.00000E+00
 
    0.10480E+06         0.14434E+06         0.00000E+00
    0.14434E+06         0.52483E+05         0.00000E+00
    0.00000E+00         0.00000E+00         0.00000E+00
 
    0.98785E+05         0.14682E+06         0.00000E+00
    0.14682E+06         0.55686E+05         0.00000E+00
    0.00000E+00         0.00000E+00         0.00000E+00
 
    0.92645E+05         0.14917E+06         0.00000E+00
    0.14917E+06         0.58941E+05         0.00000E+00
    0.00000E+00         0.00000E+00         0.00000E+00
 
    0.86387E+05         0.15139E+06         0.00000E+00
    0.15139E+06         0.62247E+05         0.00000E+00
    0.00000E+00         0.00000E+00         0.00000E+00
 
    0.80016E+05         0.15347E+06         0.00000E+00
    0.15347E+06         0.65600E+05         0.00000E+00
    0.00000E+00         0.00000E+00         0.00000E+00
 
    0.73535E+05         0.15541E+06         0.00000E+00
    0.15541E+06         0.68999E+05         0.00000E+00
    0.00000E+00         0.00000E+00         0.00000E+00
 
    0.66950E+05         0.15722E+06         0.00000E+00
    0.15722E+06         0.72439E+05         0.00000E+00
    0.00000E+00         0.00000E+00         0.00000E+00
 
    0.60264E+05         0.15887E+06         0.00000E+00
    0.15887E+06         0.75918E+05         0.00000E+00
    0.00000E+00         0.00000E+00         0.00000E+00
 
    0.53481E+05         0.16039E+06         0.00000E+00
    0.16039E+06         0.79434E+05         0.00000E+00
    0.00000E+00         0.00000E+00         0.00000E+00
 
    0.46607E+05         0.16176E+06         0.00000E+00
    0.16176E+06         0.82983E+05         0.00000E+00
    0.00000E+00         0.00000E+00         0.00000E+00
 
    0.39645E+05         0.16298E+06         0.00000E+00
    0.16298E+06         0.86563E+05         0.00000E+00
    0.00000E+00         0.00000E+00         0.00000E+00
 
    0.32600E+05         0.16405E+06         0.00000E+00
    0.16405E+06         0.90170E+05         0.00000E+00
    0.00000E+00         0.00000E+00         0.00000E+00
 
    0.25477E+05         0.16497E+06         0.00000E+00
    0.16497E+06         0.93801E+05         0.00000E+00
    0.00000E+00         0.00000E+00         0.00000E+00
 
    0.18280E+05         0.16574E+06         0.00000E+00
    0.16574E+06         0.97454E+05         0.00000E+00
    0.00000E+00         0.00000E+00         0.00000E+00
 
    0.11013E+05         0.16635E+06         0.00000E+00
    0.16635E+06         0.10113E+06         0.00000E+00
    0.00000E+00         0.00000E+00         0.00000E+00
 
    0.36814E+04         0.16681E+06         0.00000E+00
    0.16681E+06         0.10481E+06         0.00000E+00
    0.00000E+00         0.00000E+00         0.00000E+00
 
    0.23696E+06         0.28599E+04         0.00000E+00
    0.28599E+04        -0.99803E+04         0.00000E+00
    0.00000E+00         0.00000E+00         0.00000E+00
 
    0.23701E+06         0.85572E+04         0.00000E+00
    0.85572E+04        -0.98510E+04         0.00000E+00
    0.00000E+00         0.00000E+00         0.00000E+00
 
    0.23682E+06         0.14240E+05         0.00000E+00
    0.14240E+05        -0.95935E+04         0.00000E+00
    0.00000E+00         0.00000E+00         0.00000E+00
 
    0.23639E+06         0.19902E+05         0.00000E+00
    0.19902E+05        -0.92088E+04         0.00000E+00
    0.00000E+00         0.00000E+00         0.00000E+00
 
    0.23571E+06         0.25539E+05         0.00000E+00
    0.25539E+05        -0.86977E+04         0.00000E+00
    0.00000E+00         0.00000E+00         0.00000E+00
 
    0.23480E+06         0.31147E+05         0.00000E+00
    0.31147E+05        -0.80613E+04         0.00000E+00
    0.00000E+00         0.00000E+00         0.00000E+00
 
    0.23365E+06         0.36719E+05         0.00000E+00
    0.36719E+05        -0.73005E+04         0.00000E+00
    0.00000E+00         0.00000E+00         0.00000E+00
 
    0.23227E+06         0.42252E+05         0.00000E+00
    0.42252E+05        -0.64167E+04         0.00000E+00
    0.00000E+00         0.00000E+00         0.00000E+00
 
    0.23065E+06         0.47741E+05         0.00000E+00
    0.47741E+05        -0.54111E+04         0.00000E+00
    0.00000E+00         0.00000E+00         0.00000E+00
 
    0.22880E+06         0.53180E+05         0.00000E+00
    0.53180E+05        -0.42850E+04         0.00000E+00
    0.00000E+00         0.00000E+00         0.00000E+00
 
    0.22673E+06         0.58566E+05         0.00000E+00
    0.58566E+05        -0.30398E+04         0.00000E+00
    0.00000E+00         0.00000E+00         0.00000E+00
 
    0.22443E+06         0.63894E+05         0.00000E+00
    0.63894E+05        -0.16771E+04         0.00000E+00
    0.00000E+00         0.00000E+00         0.00000E+00
 
    0.22191E+06         0.69159E+05         0.00000E+00
    0.69159E+05        -0.19843E+03         0.00000E+00
    0.00000E+00         0.00000E+00         0.00000E+00
 
    0.21917E+06         0.74357E+05         0.00000E+00
    0.74357E+05         0.13945E+04         0.00000E+00
    0.00000E+00         0.00000E+00         0.00000E+00
 
    0.21621E+06         0.79483E+05         0.00000E+00
    0.79483E+05         0.31000E+04         0.00000E+00
    0.00000E+00         0.00000E+00         0.00000E+00
 
    0.21303E+06         0.84534E+05         0.00000E+00
    0.84534E+05         0.49162E+04         0.00000E+00
    0.00000E+00         0.00000E+00         0.00000E+00
 
    0.20965E+06         0.89505E+05         0.00000E+00
    0.89505E+05         0.68412E+04         0.00000E+00
    0.00000E+00         0.00000E+00         0.00000E+00
 
    0.20606E+06         0.94393E+05         0.00000E+00
    0.94393E+05         0.88731E+04         0.00000E+00
    0.00000E+00         0.00000E+00         0.00000E+00
 
    0.20226E+06         0.99192E+05         0.00000E+00
    0.99192E+05         0.11010E+05         0.00000E+00
    0.00000E+00         0.00000E+00         0.00000E+00
 
    0.19826E+06         0.10390E+06         0.00000E+00
    0.10390E+06         0.13250E+05         0.00000E+00
    0.00000E+00         0.00000E+00         0.00000E+00
 
    0.19407E+06         0.10851E+06         0.00000E+00
    0.10851E+06         0.15590E+05         0.00000E+00
    0.00000E+00         0.00000E+00         0.00000E+00
 
    0.18968E+06         0.11302E+06         0.00000E+00
    0.11302E+06         0.18028E+05         0.00000E+00
    0.00000E+00         0.00000E+00         0.00000E+00
 
    0.18510E+06         0.11743E+06         0.00000E+00
    0.11743E+06         0.20563E+05         0.00000E+00
    0.00000E+00         0.00000E+00         0.00000E+00
 
    0.18033E+06         0.12174E+06         0.00000E+00
    0.12174E+06         0.23192E+05         0.00000E+00
    0.00000E+00         0.00000E+00         0.00000E+00
 
    0.17537E+06         0.12593E+06         0.00000E+00
    0.12593E+06         0.25912E+05         0.00000E+00
    0.00000E+00         0.00000E+00         0.00000E+00
 
    0.17024E+06         0.13001E+06         0.00000E+00
    0.13001E+06         0.28721E+05         0.00000E+00
    0.00000E+00         0.00000E+00         0.00000E+00
 
    0.16493E+06         0.13397E+06         0.00000E+00
    0.13397E+06         0.31617E+05         0.00000E+00
    0.00000E+00         0.00000E+00         0.00000E+00
 
    0.15945E+06         0.13781E+06         0.00000E+00
    0.13781E+06         0.34597E+05         0.00000E+00
    0.00000E+00         0.00000E+00         0.00000E+00
 
    0.15380E+06         0.14153E+06         0.00000E+00
    0.14153E+06         0.37658E+05         0.00000E+00
    0.00000E+00         0.00000E+00         0.00000E+00
 
    0.14799E+06         0.14512E+06         0.00000E+00
    0.14512E+06         0.40798E+05         0.00000E+00
    0.00000E+00         0.00000E+00         0.00000E+00
 
    0.14202E+06         0.14858E+06         0.00000E+00
    0.14858E+06         0.44014E+05         0.00000E+00
    0.00000E+00         0.00000E+00         0.00000E+00
 
    0.13589E+06         0.15191E+06         0.00000E+00
    0.15191E+06         0.47303E+05         0.00000E+00
    0.00000E+00         0.00000E+00         0.00000E+00
 
    0.12961E+06         0.15510E+06         0.00000E+00
    0.15510E+06         0.50663E+05         0.00000E+00
    0.00000E+00         0.00000E+00         0.00000E+00
 
    0.12319E+06         0.15816E+06         0.00000E+00
    0.15816E+06         0.54090E+05         0.00000E+00
    0.00000E+00         0.00000E+00         0.00000E+00
 
    0.11662E+06         0.16107E+06         0.00000E+00
    0.16107E+06         0.57583E+05         0.00000E+00
    0.00000E+00         0.00000E+00         0.00000E+00
 
    0.10991E+06         0.16384E+06         0.00000E+00
    0.16384E+06         0.61137E+05         0.00000E+00
    0.00000E+00         0.00000E+00         0.00000E+00
 
    0.10307E+06         0.16647E+06         0.00000E+00
    0.16647E+06         0.64750E+05         0.00000E+00
    0.00000E+00         0.00000E+00         0.00000E+00
 
    0.96098E+05         0.16894E+06         0.00000E+00
    0.16894E+06         0.68420E+05         0.00000E+00
    0.00000E+00         0.00000E+00         0.00000E+00
 
    0.89004E+05         0.17127E+06         0.00000E+00
    0.17127E+06         0.72142E+05         0.00000E+00
    0.00000E+00         0.00000E+00         0.00000E+00
 
    0.81789E+05         0.17344E+06         0.00000E+00
    0.17344E+06         0.75915E+05         0.00000E+00
    0.00000E+00         0.00000E+00         0.00000E+00
 
    0.74459E+05         0.17546E+06         0.00000E+00
    0.17546E+06         0.79734E+05         0.00000E+00
    0.00000E+00         0.00000E+00         0.00000E+00
 
    0.67018E+05         0.17732E+06         0.00000E+00
    0.17732E+06         0.83597E+05         0.00000E+00
    0.00000E+00         0.00000E+00         0.00000E+00
 
    0.59472E+05         0.17901E+06         0.00000E+00
    0.17901E+06         0.87501E+05         0.00000E+00
    0.00000E+00         0.00000E+00         0.00000E+00
 
    0.51825E+05         0.18055E+06         0.00000E+00
    0.18055E+06         0.91442E+05         0.00000E+00
    0.00000E+00         0.00000E+00         0.00000E+00
 
    0.44081E+05         0.18193E+06         0.00000E+00
    0.18193E+06         0.95417E+05         0.00000E+00
    0.00000E+00         0.00000E+00         0.00000E+00
 
    0.36246E+05         0.18314E+06         0.00000E+00
    0.18314E+06         0.99424E+05         0.00000E+00
    0.00000E+00         0.00000E+00         0.00000E+00
 
    0.28325E+05         0.18418E+06         0.00000E+00
    0.18418E+06         0.10346E+06         0.00000E+00
    0.00000E+00         0.00000E+00         0.00000E+00
 
    0.20322E+05         0.18505E+06         0.00000E+00
    0.18505E+06         0.10752E+06         0.00000E+00
    0.00000E+00         0.00000E+00         0.00000E+00
 
    0.12243E+05         0.18576E+06         0.00000E+00
    0.18576E+06         0.11160E+06         0.00000E+00
    0.00000E+00         0.00000E+00         0.00000E+00
 
    0.40925E+04         0.18629E+06         0.00000E+00
    0.18629E+06         0.11569E+06         0.00000E+00
    0.00000E+00         0.00000E+00         0.00000E+00
 
    0.26518E+06         0.32039E+04         0.00000E+00
    0.32039E+04        -0.11948E+05         0.00000E+00
    0.00000E+00         0.00000E+00         0.00000E+00
 
    0.26516E+06         0.95796E+04         0.00000E+00
    0.95796E+04        -0.11804E+05         0.00000E+00
    0.00000E+00         0.00000E+00         0.00000E+00
 
    0.26487E+06         0.15936E+05         0.00000E+00
    0.15936E+05        -0.11517E+05         0.00000E+00
    0.00000E+00         0.00000E+00         0.00000E+00
 
    0.26431E+06         0.22268E+05         0.00000E+00
    0.22268E+05        -0.11088E+05         0.00000E+00
    0.00000E+00         0.00000E+00         0.00000E+00
 
    0.26348E+06         0.28569E+05         0.00000E+00
    0.28569E+05        -0.10519E+05         0.00000E+00
    0.00000E+00         0.00000E+00         0.00000E+00
 
    0.26239E+06         0.34835E+05         0.00000E+00
    0.34835E+05        -0.98109E+04         0.00000E+00
    0.00000E+00         0.00000E+00         0.00000E+00
 
    0.26104E+06         0.41060E+05         0.00000E+00
    0.41060E+05        -0.89643E+04         0.00000E+00
    0.00000E+00         0.00000E+00         0.00000E+00
 
    0.25943E+06         0.47239E+05         0.00000E+00
    0.47239E+05        -0.79810E+04         0.00000E+00
    0.00000E+00         0.00000E+00         0.00000E+00
 
    0.25756E+06         0.53366E+05         0.00000E+00
    0.53366E+05        -0.68624E+04         0.00000E+00
    0.00000E+00         0.00000E+00         0.00000E+00
 
    0.25544E+06         0.59437E+05         0.00000E+00
    0.59437E+05        -0.56101E+04         0.00000E+00
    0.00000E+00         0.00000E+00         0.00000E+00
 
    0.25307E+06         0.65446E+05         0.00000E+00
    0.65446E+05        -0.42258E+04         0.00000E+00
    0.00000E+00         0.00000E+00         0.00000E+00
 
    0.25045E+06         0.71389E+05         0.00000E+00
    0.71389E+05        -0.27110E+04         0.00000E+00
    0.00000E+00         0.00000E+00         0.00000E+00
 
    0.24758E+06         0.77260E+05         0.00000E+00
    0.77260E+05        -0.10677E+04         0.00000E+00
    0.00000E+00         0.00000E+00         0.00000E+00
 
    0.24447E+06         0.83055E+05         0.00000E+00
    0.83055E+05         0.70220E+03         0.00000E+00
    0.00000E+00         0.00000E+00         0.00000E+00
 
    0.24112E+06         0.88770E+05         0.00000E+00
    0.88770E+05         0.25968E+04         0.00000E+00
    0.00000E+00         0.00000E+00         0.00000E+00
 
    0.23753E+06         0.94399E+05         0.00000E+00
    0.94399E+05         0.46141E+04         0.00000E+00
    0.00000E+00         0.00000E+00         0.00000E+00
 
    0.23371E+06         0.99938E+05         0.00000E+00
    0.99938E+05         0.67519E+04         0.00000E+00
    0.00000E+00         0.00000E+00         0.00000E+00
 
    0.22967E+06         0.10538E+06         0.00000E+00
    0.10538E+06         0.90081E+04         0.00000E+00
    0.00000E+00         0.00000E+00         0.00000E+00
 
    0.22539E+06         0.11073E+06         0.00000E+00
    0.11073E+06         0.11380E+05         0.00000E+00
    0.00000E+00         0.00000E+00         0.00000E+00
 
    0.22090E+06         0.11597E+06         0.00000E+00
    0.11597E+06         0.13866E+05         0.00000E+00
    0.00000E+00         0.00000E+00         0.00000E+00
 
    0.21619E+06         0.12111E+06         0.00000E+00
    0.12111E+06         0.16464E+05         0.00000E+00
    0.00000E+00         0.00000E+00         0.00000E+00
 
    0.21126E+06         0.12613E+06         0.00000E+00
    0.12613E+06         0.19170E+05         0.00000E+00
    0.00000E+00         0.00000E+00         0.00000E+00
 
    0.20612E+06         0.13104E+06         0.00000E+00
    0.13104E+06         0.21983E+05         0.00000E+00
    0.00000E+00         0.00000E+00         0.00000E+00
 
    0.20078E+06         0.13583E+06         0.00000E+00
    0.13583E+06         0.24899E+05         0.00000E+00
    0.00000E+00         0.00000E+00         0.00000E+00
 
    0.19524E+06         0.14050E+06         0.00000E+00
    0.14050E+06         0.27917E+05         0.00000E+00
    0.00000E+00         0.00000E+00         0.00000E+00
 
    0.18949E+06         0.14504E+06         0.00000E+00
    0.14504E+06         0.31033E+05         0.00000E+00
    0.00000E+00         0.00000E+00         0.00000E+00
 
    0.18356E+06         0.14945E+06         0.00000E+00
    0.14945E+06         0.34245E+05         0.00000E+00
    0.00000E+00         0.00000E+00         0.00000E+00
 
    0.17744E+06         0.15373E+06         0.00000E+00
    0.15373E+06         0.37550E+05         0.00000E+00
    0.00000E+00         0.00000E+00         0.00000E+00
 
    0.17113E+06         0.15787E+06         0.00000E+00
    0.15787E+06         0.40945E+05         0.00000E+00
    0.00000E+00         0.00000E+00         0.00000E+00
 
    0.16464E+06         0.16187E+06         0.00000E+00
    0.16187E+06         0.44427E+05         0.00000E+00
    0.00000E+00         0.00000E+00         0.00000E+00
 
    0.15798E+06         0.16572E+06         0.00000E+00
    0.16572E+06         0.47993E+05         0.00000E+00
    0.00000E+00         0.00000E+00         0.00000E+00
 
    0.15114E+06         0.16943E+06         0.00000E+00
    0.16943E+06         0.51641E+05         0.00000E+00
    0.00000E+00         0.00000E+00         0.00000E+00
 
    0.14414E+06         0.17299E+06         0.00000E+00
    0.17299E+06         0.55367E+05         0.00000E+00
    0.00000E+00         0.00000E+00         0.00000E+00
 
    0.13698E+06         0.17639E+06         0.00000E+00
    0.17639E+06         0.59167E+05         0.00000E+00
    0.00000E+00         0.00000E+00         0.00000E+00
 
    0.12966E+06         0.17964E+06         0.00000E+00
    0.17964E+06         0.63040E+05         0.00000E+00
    0.00000E+00         0.00000E+00         0.00000E+00
 
    0.12219E+06         0.18273E+06         0.00000E+00
    0.18273E+06         0.66981E+05         0.00000E+00
    0.00000E+00         0.00000E+00         0.00000E+00
 
    0.11458E+06         0.18565E+06         0.00000E+00
    0.18565E+06         0.70988E+05         0.00000E+00
    0.00000E+00         0.00000E+00         0.00000E+00
 
    0.10682E+06         0.18842E+06         0.00000E+00
    0.18842E+06         0.75058E+05         0.00000E+00
    0.00000E+00         0.00000E+00         0.00000E+00
 
    0.98923E+05         0.19101E+06         0.00000E+00
    0.19101E+06         0.79186E+05         0.00000E+00
    0.00000E+00         0.00000E+00         0.00000E+00
 
    0.90897E+05         0.19344E+06         0.00000E+00
    0.19344E+06         0.83370E+05         0.00000E+00
    0.00000E+00         0.00000E+00         0.00000E+00
 
    0.82744E+05         0.19570E+06         0.00000E+00
    0.19570E+06         0.87606E+05         0.00000E+00
    0.00000E+00         0.00000E+00         0.00000E+00
 
    0.74471E+05         0.19778E+06         0.00000E+00
    0.19778E+06         0.91891E+05         0.00000E+00
    0.00000E+00         0.00000E+00         0.00000E+00
 
    0.66081E+05         0.19969E+06         0.00000E+00
    0.19969E+06         0.96222E+05         0.00000E+00
    0.00000E+00         0.00000E+00         0.00000E+00
 
    0.57580E+05         0.20141E+06         0.00000E+00
    0.20141E+06         0.10059E+06         0.00000E+00
    0.00000E+00         0.00000E+00         0.00000E+00
 
    0.48973E+05         0.20296E+06         0.00000E+00
    0.20296E+06         0.10501E+06         0.00000E+00
    0.00000E+00         0.00000E+00         0.00000E+00
 
    0.40267E+05         0.20433E+06         0.00000E+00
    0.20433E+06         0.10945E+06         0.00000E+00
    0.00000E+00         0.00000E+00         0.00000E+00
 
    0.31465E+05         0.20551E+06         0.00000E+00
    0.20551E+06         0.11393E+06         0.00000E+00
    0.00000E+00         0.00000E+00         0.00000E+00
 
    0.22574E+05         0.20651E+06         0.00000E+00
    0.20651E+06         0.11843E+06         0.00000E+00
    0.00000E+00         0.00000E+00         0.00000E+00
 
    0.13599E+05         0.20731E+06         0.00000E+00
    0.20731E+06         0.12296E+06         0.00000E+00
    0.00000E+00         0.00000E+00         0.00000E+00
 
    0.45458E+04         0.20793E+06         0.00000E+00
    0.20793E+06         0.12751E+06         0.00000E+00
    0.00000E+00         0.00000E+00         0.00000E+00
 
    0.29661E+06         0.35876E+04         0.00000E+00
    0.35876E+04        -0.14294E+05         0.00000E+00
    0.00000E+00         0.00000E+00         0.00000E+00
 
    0.29650E+06         0.10719E+05         0.00000E+00
    0.10719E+05        -0.14134E+05         0.00000E+00
    0.00000E+00         0.00000E+00         0.00000E+00
 
    0.29608E+06         0.17825E+05         0.00000E+00
    0.17825E+05        -0.13815E+05         0.00000E+00
    0.00000E+00         0.00000E+00         0.00000E+00
 
    0.29537E+06         0.24901E+05         0.00000E+00
    0.24901E+05        -0.13338E+05         0.00000E+00
    0.00000E+00         0.00000E+00         0.00000E+00
 
    0.29436E+06         0.31941E+05         0.00000E+00
    0.31941E+05        -0.12705E+05         0.00000E+00
    0.00000E+00         0.00000E+00         0.00000E+00
 
    0.29307E+06         0.38938E+05         0.00000E+00
    0.38938E+05        -0.11917E+05         0.00000E+00
    0.00000E+00         0.00000E+00         0.00000E+00
 
    0.29148E+06         0.45888E+05         0.00000E+00
    0.45888E+05        -0.10976E+05         0.00000E+00
    0.00000E+00         0.00000E+00         0.00000E+00
 
    0.28960E+06         0.52783E+05         0.00000E+00
    0.52783E+05        -0.98827E+04         0.00000E+00
    0.00000E+00         0.00000E+00         0.00000E+00
 
    0.28745E+06         0.59619E+05         0.00000E+00
    0.59619E+05        -0.86397E+04         0.00000E+00
    0.00000E+00         0.00000E+00         0.00000E+00
 
    0.28501E+06         0.66390E+05         0.00000E+00
    0.66390E+05        -0.72485E+04         0.00000E+00
    0.00000E+00         0.00000E+00         0.00000E+00
 
    0.28229E+06         0.73090E+05         0.00000E+00
    0.73090E+05        -0.57109E+04         0.00000E+00
    0.00000E+00         0.00000E+00         0.00000E+00
 
    0.27930E+06         0.79715E+05         0.00000E+00
    0.79715E+05        -0.40288E+04         0.00000E+00
    0.00000E+00         0.00000E+00         0.00000E+00
 
    0.27604E+06         0.86258E+05         0.00000E+00
    0.86258E+05        -0.22044E+04         0.00000E+00
    0.00000E+00         0.00000E+00         0.00000E+00
 
    0.27251E+06         0.92715E+05         0.00000E+00
    0.92715E+05        -0.23978E+03         0.00000E+00
    0.00000E+00         0.00000E+00         0.00000E+00
 
    0.26872E+06         0.99080E+05         0.00000E+00
    0.99080E+05         0.18629E+04         0.00000E+00
    0.00000E+00         0.00000E+00         0.00000E+00
 
    0.26467E+06         0.10535E+06         0.00000E+00
    0.10535E+06         0.41012E+04         0.00000E+00
    0.00000E+00         0.00000E+00         0.00000E+00
 
    0.26036E+06         0.11152E+06         0.00000E+00
    0.11152E+06         0.64729E+04         0.00000E+00
    0.00000E+00         0.00000E+00         0.00000E+00
 
    0.25580E+06         0.11758E+06         0.00000E+00
    0.11758E+06         0.89755E+04         0.00000E+00
    0.00000E+00         0.00000E+00         0.00000E+00
 
    0.25099E+06         0.12353E+06         0.00000E+00
    0.12353E+06         0.11606E+05         0.00000E+00
    0.00000E+00         0.00000E+00         0.00000E+00
 
    0.24594E+06         0.12936E+06         0.00000E+00
    0.12936E+06         0.14363E+05         0.00000E+00
    0.00000E+00         0.00000E+00         0.00000E+00
 
    0.24065E+06         0.13508E+06         0.00000E+00
    0.13508E+06         0.17243E+05         0.00000E+00
    0.00000E+00         0.00000E+00         0.00000E+00
 
    0.23512E+06         0.14067E+06         0.00000E+00
    0.14067E+06         0.20243E+05         0.00000E+00
    0.00000E+00         0.00000E+00         0.00000E+00
 
    0.22937E+06         0.14613E+06         0.00000E+00
    0.14613E+06         0.23361E+05         0.00000E+00
    0.00000E+00         0.00000E+00         0.00000E+00
 
    0.22339E+06         0.15146E+06         0.00000E+00
    0.15146E+06         0.26594E+05         0.00000E+00
    0.00000E+00         0.00000E+00         0.00000E+00
 
    0.21718E+06         0.15665E+06         0.00000E+00
    0.15665E+06         0.29938E+05         0.00000E+00
    0.00000E+00         0.00000E+00         0.00000E+00
 
    0.21076E+06         0.16171E+06         0.00000E+00
    0.16171E+06         0.33391E+05         0.00000E+00
    0.00000E+00         0.00000E+00         0.00000E+00
 
    0.20413E+06         0.16661E+06         0.00000E+00
    0.16661E+06         0.36950E+05         0.00000E+00
    0.00000E+00         0.00000E+00         0.00000E+00
 
    0.19729E+06         0.17137E+06         0.00000E+00
    0.17137E+06         0.40612E+05         0.00000E+00
    0.00000E+00         0.00000E+00         0.00000E+00
 
    0.19025E+06         0.17598E+06         0.00000E+00
    0.17598E+06         0.44373E+05         0.00000E+00
    0.00000E+00         0.00000E+00         0.00000E+00
 
    0.18302E+06         0.18043E+06         0.00000E+00
    0.18043E+06         0.48231E+05         0.00000E+00
    0.00000E+00         0.00000E+00         0.00000E+00
 
    0.17559E+06         0.18472E+06         0.00000E+00
    0.18472E+06         0.52181E+05         0.00000E+00
    0.00000E+00         0.00000E+00         0.00000E+00
 
    0.16797E+06         0.18884E+06         0.00000E+00
    0.18884E+06         0.56222E+05         0.00000E+00
    0.00000E+00         0.00000E+00         0.00000E+00
 
    0.16017E+06         0.19280E+06         0.00000E+00
    0.19280E+06         0.60349E+05         0.00000E+00
    0.00000E+00         0.00000E+00         0.00000E+00
 
    0.15219E+06         0.19659E+06         0.00000E+00
    0.19659E+06         0.64559E+05         0.00000E+00
    0.00000E+00         0.00000E+00         0.00000E+00
 
    0.14405E+06         0.20021E+06         0.00000E+00
    0.20021E+06         0.68849E+05         0.00000E+00
    0.00000E+00         0.00000E+00         0.00000E+00
 
    0.13574E+06         0.20366E+06         0.00000E+00
    0.20366E+06         0.73216E+05         0.00000E+00
    0.00000E+00         0.00000E+00         0.00000E+00
 
    0.12726E+06         0.20692E+06         0.00000E+00
    0.20692E+06         0.77654E+05         0.00000E+00
    0.00000E+00         0.00000E+00         0.00000E+00
 
    0.11863E+06         0.21000E+06         0.00000E+00
    0.21000E+06         0.82163E+05         0.00000E+00
    0.00000E+00         0.00000E+00         0.00000E+00
 
    0.10986E+06         0.21290E+06         0.00000E+00
    0.21290E+06         0.86736E+05         0.00000E+00
    0.00000E+00         0.00000E+00         0.00000E+00
 
    0.10093E+06         0.21562E+06         0.00000E+00
    0.21562E+06         0.91372E+05         0.00000E+00
    0.00000E+00         0.00000E+00         0.00000E+00
 
    0.91874E+05         0.21814E+06         0.00000E+00
    0.21814E+06         0.96066E+05         0.00000E+00
    0.00000E+00         0.00000E+00         0.00000E+00
 
    0.82682E+05         0.22047E+06         0.00000E+00
    0.22047E+06         0.10081E+06         0.00000E+00
    0.00000E+00         0.00000E+00         0.00000E+00
 
    0.73361E+05         0.22261E+06         0.00000E+00
    0.22261E+06         0.10561E+06         0.00000E+00
    0.00000E+00         0.00000E+00         0.00000E+00
 
    0.63920E+05         0.22455E+06         0.00000E+00
    0.22455E+06         0.11046E+06         0.00000E+00
    0.00000E+00         0.00000E+00         0.00000E+00
 
    0.54363E+05         0.22629E+06         0.00000E+00
    0.22629E+06         0.11535E+06         0.00000E+00
    0.00000E+00         0.00000E+00         0.00000E+00
 
    0.44696E+05         0.22783E+06         0.00000E+00
    0.22783E+06         0.12028E+06         0.00000E+00
    0.00000E+00         0.00000E+00         0.00000E+00
 
    0.34924E+05         0.22917E+06         0.00000E+00
    0.22917E+06         0.12524E+06         0.00000E+00
    0.00000E+00         0.00000E+00         0.00000E+00
 
    0.25055E+05         0.23031E+06         0.00000E+00
    0.23031E+06         0.13024E+06         0.00000E+00
    0.00000E+00         0.00000E+00         0.00000E+00
 
    0.15093E+05         0.23124E+06         0.00000E+00
    0.23124E+06         0.13527E+06         0.00000E+00
    0.00000E+00         0.00000E+00         0.00000E+00
 
    0.50449E+04         0.23196E+06         0.00000E+00
    0.23196E+06         0.14031E+06         0.00000E+00
    0.00000E+00         0.00000E+00         0.00000E+00
 
    0.33159E+06         0.40151E+04         0.00000E+00
    0.40151E+04        -0.17091E+05         0.00000E+00
    0.00000E+00         0.00000E+00         0.00000E+00
 
    0.33135E+06         0.11986E+05         0.00000E+00
    0.11986E+05        -0.16912E+05         0.00000E+00
    0.00000E+00         0.00000E+00         0.00000E+00
 
    0.33079E+06         0.19926E+05         0.00000E+00
    0.19926E+05        -0.16557E+05         0.00000E+00
    0.00000E+00         0.00000E+00         0.00000E+00
 
    0.32989E+06         0.27830E+05         0.00000E+00
    0.27830E+05        -0.16027E+05         0.00000E+00
    0.00000E+00         0.00000E+00         0.00000E+00
 
    0.32867E+06         0.35689E+05         0.00000E+00
    0.35689E+05        -0.15323E+05         0.00000E+00
    0.00000E+00         0.00000E+00         0.00000E+00
 
    0.32713E+06         0.43499E+05         0.00000E+00
    0.43499E+05        -0.14448E+05         0.00000E+00
    0.00000E+00         0.00000E+00         0.00000E+00
 
    0.32526E+06         0.51252E+05         0.00000E+00
    0.51252E+05        -0.13403E+05         0.00000E+00
    0.00000E+00         0.00000E+00         0.00000E+00
 
    0.32308E+06         0.58942E+05         0.00000E+00
    0.58942E+05        -0.12189E+05         0.00000E+00
    0.00000E+00         0.00000E+00         0.00000E+00
 
    0.32059E+06         0.66563E+05         0.00000E+00
    0.66563E+05        -0.10810E+05         0.00000E+00
    0.00000E+00         0.00000E+00         0.00000E+00
 
    0.31779E+06         0.74110E+05         0.00000E+00
    0.74110E+05        -0.92656E+04         0.00000E+00
    0.00000E+00         0.00000E+00         0.00000E+00
 
    0.31468E+06         0.81575E+05         0.00000E+00
    0.81575E+05        -0.75596E+04         0.00000E+00
    0.00000E+00         0.00000E+00         0.00000E+00
 
    0.31127E+06         0.88954E+05         0.00000E+00
    0.88954E+05        -0.56938E+04         0.00000E+00
    0.00000E+00         0.00000E+00         0.00000E+00
 
    0.30756E+06         0.96241E+05         0.00000E+00
    0.96241E+05        -0.36704E+04         0.00000E+00
    0.00000E+00         0.00000E+00         0.00000E+00
 
    0.30356E+06         0.10343E+06         0.00000E+00
    0.10343E+06        -0.14920E+04         0.00000E+00
    0.00000E+00         0.00000E+00         0.00000E+00
 
    0.29927E+06         0.11052E+06         0.00000E+00
    0.11052E+06         0.83892E+03         0.00000E+00
    0.00000E+00         0.00000E+00         0.00000E+00
 
    0.29469E+06         0.11749E+06         0.00000E+00
    0.11749E+06         0.33199E+04         0.00000E+00
    0.00000E+00         0.00000E+00         0.00000E+00
 
    0.28983E+06         0.12435E+06         0.00000E+00
    0.12435E+06         0.59481E+04         0.00000E+00
    0.00000E+00         0.00000E+00         0.00000E+00
 
    0.28469E+06         0.13110E+06         0.00000E+00
    0.13110E+06         0.87210E+04         0.00000E+00
    0.00000E+00         0.00000E+00         0.00000E+00
 
    0.27929E+06         0.13772E+06         0.00000E+00
    0.13772E+06         0.11636E+05         0.00000E+00
    0.00000E+00         0.00000E+00         0.00000E+00
 
    0.27361E+06         0.14420E+06         0.00000E+00
    0.14420E+06         0.14689E+05         0.00000E+00
    0.00000E+00         0.00000E+00         0.00000E+00
 
    0.26768E+06         0.15056E+06         0.00000E+00
    0.15056E+06         0.17879E+05         0.00000E+00
    0.00000E+00         0.00000E+00         0.00000E+00
 
    0.26148E+06         0.15678E+06         0.00000E+00
    0.15678E+06         0.21201E+05         0.00000E+00
    0.00000E+00         0.00000E+00         0.00000E+00
 
    0.25504E+06         0.16285E+06         0.00000E+00
    0.16285E+06         0.24653E+05         0.00000E+00
    0.00000E+00         0.00000E+00         0.00000E+00
 
    0.24834E+06         0.16877E+06         0.00000E+00
    0.16877E+06         0.28232E+05         0.00000E+00
    0.00000E+00         0.00000E+00         0.00000E+00
 
    0.24141E+06         0.17455E+06         0.00000E+00
    0.17455E+06         0.31934E+05         0.00000E+00
    0.00000E+00         0.00000E+00         0.00000E+00
 
    0.23423E+06         0.18016E+06         0.00000E+00
    0.18016E+06         0.35756E+05         0.00000E+00
    0.00000E+00         0.00000E+00         0.00000E+00
 
    0.22683E+06         0.18562E+06         0.00000E+00
    0.18562E+06         0.39695E+05         0.00000E+00
    0.00000E+00         0.00000E+00         0.00000E+00
 
    0.21919E+06         0.19091E+06         0.00000E+00
    0.19091E+06         0.43748E+05         0.00000E+00
    0.00000E+00         0.00000E+00         0.00000E+00
 
    0.21134E+06         0.19603E+06         0.00000E+00
    0.19603E+06         0.47910E+05         0.00000E+00
    0.00000E+00         0.00000E+00         0.00000E+00
 
    0.20327E+06         0.20098E+06         0.00000E+00
    0.20098E+06         0.52179E+05         0.00000E+00
    0.00000E+00         0.00000E+00         0.00000E+00
 
    0.19499E+06         0.20575E+06         0.00000E+00
    0.20575E+06         0.56551E+05         0.00000E+00
    0.00000E+00         0.00000E+00         0.00000E+00
 
    0.18651E+06         0.21034E+06         0.00000E+00
    0.21034E+06         0.61022E+05         0.00000E+00
    0.00000E+00         0.00000E+00         0.00000E+00
 
    0.17783E+06         0.21474E+06         0.00000E+00
    0.21474E+06         0.65589E+05         0.00000E+00
    0.00000E+00         0.00000E+00         0.00000E+00
 
    0.16895E+06         0.21896E+06         0.00000E+00
    0.21896E+06         0.70248E+05         0.00000E+00
    0.00000E+00         0.00000E+00         0.00000E+00
 
    0.15989E+06         0.22299E+06         0.00000E+00
    0.22299E+06         0.74995E+05         0.00000E+00
    0.00000E+00         0.00000E+00         0.00000E+00
 
    0.15065E+06         0.22683E+06         0.00000E+00
    0.22683E+06         0.79826E+05         0.00000E+00
    0.00000E+00         0.00000E+00         0.00000E+00
 
    0.14123E+06         0.23047E+06         0.00000E+00
    0.23047E+06         0.84739E+05         0.00000E+00
    0.00000E+00         0.00000E+00         0.00000E+00
 
    0.13164E+06         0.23391E+06         0.00000E+00
    0.23391E+06         0.89728E+05         0.00000E+00
    0.00000E+00         0.00000E+00         0.00000E+00
 
    0.12189E+06         0.23714E+06         0.00000E+00
    0.23714E+06         0.94789E+05         0.00000E+00
    0.00000E+00         0.00000E+00         0.00000E+00
 
    0.11198E+06         0.24017E+06         0.00000E+00
    0.24017E+06         0.99920E+05         0.00000E+00
    0.00000E+00         0.00000E+00         0.00000E+00
 
    0.10192E+06         0.24299E+06         0.00000E+00
    0.24299E+06         0.10512E+06         0.00000E+00
    0.00000E+00         0.00000E+00         0.00000E+00
 
    0.91716E+05         0.24560E+06         0.00000E+00
    0.24560E+06         0.11037E+06         0.00000E+00
    0.00000E+00         0.00000E+00         0.00000E+00
 
    0.81371E+05         0.24800E+06         0.00000E+00
    0.24800E+06         0.11569E+06         0.00000E+00
    0.00000E+00         0.00000E+00         0.00000E+00
 
    0.70894E+05         0.25018E+06         0.00000E+00
    0.25018E+06         0.12105E+06         0.00000E+00
    0.00000E+00         0.00000E+00         0.00000E+00
 
    0.60290E+05         0.25214E+06         0.00000E+00
    0.25214E+06         0.12647E+06         0.00000E+00
    0.00000E+00         0.00000E+00         0.00000E+00
 
    0.49566E+05         0.25389E+06         0.00000E+00
    0.25389E+06         0.13193E+06         0.00000E+00
    0.00000E+00         0.00000E+00         0.00000E+00
 
    0.38728E+05         0.25541E+06         0.00000E+00
    0.25541E+06         0.13743E+06         0.00000E+00
    0.00000E+00         0.00000E+00         0.00000E+00
 
    0.27783E+05         0.25670E+06         0.00000E+00
    0.25670E+06         0.14296E+06         0.00000E+00
    0.00000E+00         0.00000E+00         0.00000E+00
 
    0.16736E+05         0.25777E+06         0.00000E+00
    0.25777E+06         0.14853E+06         0.00000E+00
    0.00000E+00         0.00000E+00         0.00000E+00
 
    0.55938E+04         0.25861E+06         0.00000E+00
    0.25861E+06         0.15413E+06         0.00000E+00
    0.00000E+00         0.00000E+00         0.00000E+00
 
    0.37048E+06         0.44909E+04         0.00000E+00
    0.44909E+04        -0.20420E+05         0.00000E+00
    0.00000E+00         0.00000E+00         0.00000E+00
 
    0.37009E+06         0.13395E+05         0.00000E+00
    0.13395E+05        -0.20222E+05         0.00000E+00
    0.00000E+00         0.00000E+00         0.00000E+00
 
    0.36934E+06         0.22262E+05         0.00000E+00
    0.22262E+05        -0.19827E+05         0.00000E+00
    0.00000E+00         0.00000E+00         0.00000E+00
 
    0.36822E+06         0.31083E+05         0.00000E+00
    0.31083E+05        -0.19239E+05         0.00000E+00
    0.00000E+00         0.00000E+00         0.00000E+00
 
    0.36674E+06         0.39852E+05         0.00000E+00
    0.39852E+05        -0.18458E+05         0.00000E+00
    0.00000E+00         0.00000E+00         0.00000E+00
 
    0.36491E+06         0.48561E+05         0.00000E+00
    0.48561E+05        -0.17487E+05         0.00000E+00
    0.00000E+00         0.00000E+00         0.00000E+00
 
    0.36272E+06         0.57205E+05         0.00000E+00
    0.57205E+05        -0.16327E+05         0.00000E+00
    0.00000E+00         0.00000E+00         0.00000E+00
 
    0.36019E+06         0.65775E+05         0.00000E+00
    0.65775E+05        -0.14981E+05         0.00000E+00
    0.00000E+00         0.00000E+00         0.00000E+00
 
    0.35731E+06         0.74266E+05         0.00000E+00
    0.74266E+05        -0.13451E+05         0.00000E+00
    0.00000E+00         0.00000E+00         0.00000E+00
 
    0.35409E+06         0.82671E+05         0.00000E+00
    0.82671E+05        -0.11740E+05         0.00000E+00
    0.00000E+00         0.00000E+00         0.00000E+00
 
    0.35053E+06         0.90983E+05         0.00000E+00
    0.90983E+05        -0.98490E+04         0.00000E+00
    0.00000E+00         0.00000E+00         0.00000E+00
 
    0.34664E+06         0.99197E+05         0.00000E+00
    0.99197E+05        -0.77817E+04         0.00000E+00
    0.00000E+00         0.00000E+00         0.00000E+00
 
    0.34243E+06         0.10731E+06         0.00000E+00
    0.10731E+06        -0.55403E+04         0.00000E+00
    0.00000E+00         0.00000E+00         0.00000E+00
 
    0.33789E+06         0.11530E+06         0.00000E+00
    0.11530E+06        -0.31278E+04         0.00000E+00
    0.00000E+00         0.00000E+00         0.00000E+00
 
    0.33303E+06         0.12318E+06         0.00000E+00
    0.12318E+06        -0.54672E+03         0.00000E+00
    0.00000E+00         0.00000E+00         0.00000E+00
 
    0.32786E+06         0.13094E+06         0.00000E+00
    0.13094E+06         0.21999E+04         0.00000E+00
    0.00000E+00         0.00000E+00         0.00000E+00
 
    0.32238E+06         0.13857E+06         0.00000E+00
    0.13857E+06         0.51090E+04         0.00000E+00
    0.00000E+00         0.00000E+00         0.00000E+00
 
    0.31660E+06         0.14607E+06         0.00000E+00
    0.14607E+06         0.81777E+04         0.00000E+00
    0.00000E+00         0.00000E+00         0.00000E+00
 
    0.31052E+06         0.15342E+06         0.00000E+00
    0.15342E+06         0.11403E+05         0.00000E+00
    0.00000E+00         0.00000E+00         0.00000E+00
 
    0.30415E+06         0.16063E+06         0.00000E+00
    0.16063E+06         0.14781E+05         0.00000E+00
    0.00000E+00         0.00000E+00         0.00000E+00
 
    0.29750E+06         0.16769E+06         0.00000E+00
    0.16769E+06         0.18309E+05         0.00000E+00
    0.00000E+00         0.00000E+00         0.00000E+00
 
    0.29055E+06         0.17460E+06         0.00000E+00
    0.17460E+06         0.21984E+05         0.00000E+00
    0.00000E+00         0.00000E+00         0.00000E+00
 
    0.28334E+06         0.18135E+06         0.00000E+00
    0.18135E+06         0.25801E+05         0.00000E+00
    0.00000E+00         0.00000E+00         0.00000E+00
 
    0.27585E+06         0.18793E+06         0.00000E+00
    0.18793E+06         0.29759E+05         0.00000E+00
    0.00000E+00         0.00000E+00         0.00000E+00
 
    0.26810E+06         0.19434E+06         0.00000E+00
    0.19434E+06         0.33852E+05         0.00000E+00
    0.00000E+00         0.00000E+00         0.00000E+00
 
    0.26009E+06         0.20058E+06         0.00000E+00
    0.20058E+06         0.38078E+05         0.00000E+00
    0.00000E+00         0.00000E+00         0.00000E+00
 
    0.25182E+06         0.20664E+06         0.00000E+00
    0.20664E+06         0.42433E+05         0.00000E+00
    0.00000E+00         0.00000E+00         0.00000E+00
 
    0.24331E+06         0.21251E+06         0.00000E+00
    0.21251E+06         0.46912E+05         0.00000E+00
    0.00000E+00         0.00000E+00         0.00000E+00
 
    0.23456E+06         0.21820E+06         0.00000E+00
    0.21820E+06         0.51513E+05         0.00000E+00
    0.00000E+00         0.00000E+00         0.00000E+00
 
    0.22557E+06         0.22370E+06         0.00000E+00
    0.22370E+06         0.56232E+05         0.00000E+00
    0.00000E+00         0.00000E+00         0.00000E+00
 
    0.21635E+06         0.22900E+06         0.00000E+00
    0.22900E+06         0.61064E+05         0.00000E+00
    0.00000E+00         0.00000E+00         0.00000E+00
 
    0.20691E+06         0.23411E+06         0.00000E+00
    0.23411E+06         0.66006E+05         0.00000E+00
    0.00000E+00         0.00000E+00         0.00000E+00
 
    0.19726E+06         0.23901E+06         0.00000E+00
    0.23901E+06         0.71053E+05         0.00000E+00
    0.00000E+00         0.00000E+00         0.00000E+00
 
    0.18739E+06         0.24370E+06         0.00000E+00
    0.24370E+06         0.76203E+05         0.00000E+00
    0.00000E+00         0.00000E+00         0.00000E+00
 
    0.17732E+06         0.24819E+06         0.00000E+00
    0.24819E+06         0.81449E+05         0.00000E+00
    0.00000E+00         0.00000E+00         0.00000E+00
 
    0.16705E+06         0.25246E+06         0.00000E+00
    0.25246E+06         0.86790E+05         0.00000E+00
    0.00000E+00         0.00000E+00         0.00000E+00
 
    0.15659E+06         0.25651E+06         0.00000E+00
    0.25651E+06         0.92220E+05         0.00000E+00
    0.00000E+00         0.00000E+00         0.00000E+00
 
    0.14594E+06         0.26034E+06         0.00000E+00
    0.26034E+06         0.97734E+05         0.00000E+00
    0.00000E+00         0.00000E+00         0.00000E+00
 
    0.13512E+06         0.26395E+06         0.00000E+00
    0.26395E+06         0.10333E+06         0.00000E+00
    0.00000E+00         0.00000E+00         0.00000E+00
 
    0.12412E+06         0.26734E+06         0.00000E+00
    0.26734E+06         0.10900E+06         0.00000E+00
    0.00000E+00         0.00000E+00         0.00000E+00
 
    0.11296E+06         0.27049E+06         0.00000E+00
    0.27049E+06         0.11475E+06         0.00000E+00
    0.00000E+00         0.00000E+00         0.00000E+00
 
    0.10164E+06         0.27341E+06         0.00000E+00
    0.27341E+06         0.12056E+06         0.00000E+00
    0.00000E+00         0.00000E+00         0.00000E+00
 
    0.90171E+05         0.27610E+06         0.00000E+00
    0.27610E+06         0.12644E+06         0.00000E+00
    0.00000E+00         0.00000E+00         0.00000E+00
 
    0.78555E+05         0.27855E+06         0.00000E+00
    0.27855E+06         0.13237E+06         0.00000E+00
    0.00000E+00         0.00000E+00         0.00000E+00
 
    0.66801E+05         0.28076E+06         0.00000E+00
    0.28076E+06         0.13836E+06         0.00000E+00
    0.00000E+00         0.00000E+00         0.00000E+00
 
    0.54916E+05         0.28273E+06         0.00000E+00
    0.28273E+06         0.14440E+06         0.00000E+00
    0.00000E+00         0.00000E+00         0.00000E+00
 
    0.42906E+05         0.28445E+06         0.00000E+00
    0.28445E+06         0.15049E+06         0.00000E+00
    0.00000E+00         0.00000E+00         0.00000E+00
 
    0.30778E+05         0.28593E+06         0.00000E+00
    0.28593E+06         0.15662E+06         0.00000E+00
    0.00000E+00         0.00000E+00         0.00000E+00
 
    0.18539E+05         0.28716E+06         0.00000E+00
    0.28716E+06         0.16278E+06         0.00000E+00
    0.00000E+00         0.00000E+00         0.00000E+00
 
    0.61964E+04         0.28814E+06         0.00000E+00
    0.28814E+06         0.16898E+06         0.00000E+00
    0.00000E+00         0.00000E+00         0.00000E+00
 
    0.41368E+06         0.50199E+04         0.00000E+00
    0.50199E+04        -0.24382E+05         0.00000E+00
    0.00000E+00         0.00000E+00         0.00000E+00
 
    0.41310E+06         0.14960E+05         0.00000E+00
    0.14960E+05        -0.24161E+05         0.00000E+00
    0.00000E+00         0.00000E+00         0.00000E+00
 
    0.41211E+06         0.24854E+05         0.00000E+00
    0.24854E+05        -0.23724E+05         0.00000E+00
    0.00000E+00         0.00000E+00         0.00000E+00
 
    0.41073E+06         0.34692E+05         0.00000E+00
    0.34692E+05        -0.23071E+05         0.00000E+00
    0.00000E+00         0.00000E+00         0.00000E+00
 
    0.40894E+06         0.44469E+05         0.00000E+00
    0.44469E+05        -0.22205E+05         0.00000E+00
    0.00000E+00         0.00000E+00         0.00000E+00
 
    0.40677E+06         0.54175E+05         0.00000E+00
    0.54175E+05        -0.21129E+05         0.00000E+00
    0.00000E+00         0.00000E+00         0.00000E+00
 
    0.40421E+06         0.63804E+05         0.00000E+00
    0.63804E+05        -0.19844E+05         0.00000E+00
    0.00000E+00         0.00000E+00         0.00000E+00
 
    0.40126E+06         0.73348E+05         0.00000E+00
    0.73348E+05        -0.18353E+05         0.00000E+00
    0.00000E+00         0.00000E+00         0.00000E+00
 
    0.39794E+06         0.82801E+05         0.00000E+00
    0.82801E+05        -0.16659E+05         0.00000E+00
    0.00000E+00         0.00000E+00         0.00000E+00
 
    0.39424E+06         0.92154E+05         0.00000E+00
    0.92154E+05        -0.14764E+05         0.00000E+00
    0.00000E+00         0.00000E+00         0.00000E+00
 
    0.39017E+06         0.10140E+06         0.00000E+00
    0.10140E+06        -0.12671E+05         0.00000E+00
    0.00000E+00         0.00000E+00         0.00000E+00
 
    0.38574E+06         0.11054E+06         0.00000E+00
    0.11054E+06        -0.10383E+05         0.00000E+00
    0.00000E+00         0.00000E+00         0.00000E+00
 
    0.38095E+06         0.11955E+06         0.00000E+00
    0.11955E+06        -0.79036E+04         0.00000E+00
    0.00000E+00         0.00000E+00         0.00000E+00
 
    0.37580E+06         0.12844E+06         0.00000E+00
    0.12844E+06        -0.52350E+04         0.00000E+00
    0.00000E+00         0.00000E+00         0.00000E+00
 
    0.37031E+06         0.13720E+06         0.00000E+00
    0.13720E+06        -0.23807E+04         0.00000E+00
    0.00000E+00         0.00000E+00         0.00000E+00
 
    0.36447E+06         0.14582E+06         0.00000E+00
    0.14582E+06         0.65619E+03         0.00000E+00
    0.00000E+00         0.00000E+00         0.00000E+00
 
    0.35830E+06         0.15429E+06         0.00000E+00
    0.15429E+06         0.38722E+04         0.00000E+00
    0.00000E+00         0.00000E+00         0.00000E+00
 
    0.35179E+06         0.16262E+06         0.00000E+00
    0.16262E+06         0.72639E+04         0.00000E+00
    0.00000E+00         0.00000E+00         0.00000E+00
 
    0.34496E+06         0.17079E+06         0.00000E+00
    0.17079E+06         0.10828E+05         0.00000E+00
    0.00000E+00         0.00000E+00         0.00000E+00
 
    0.33781E+06         0.17879E+06         0.00000E+00
    0.17879E+06         0.14561E+05         0.00000E+00
    0.00000E+00         0.00000E+00         0.00000E+00
 
    0.33035E+06         0.18663E+06         0.00000E+00
    0.18663E+06         0.18458E+05         0.00000E+00
    0.00000E+00         0.00000E+00         0.00000E+00
 
    0.32258E+06         0.19430E+06         0.00000E+00
    0.19430E+06         0.22517E+05         0.00000E+00
    0.00000E+00         0.00000E+00         0.00000E+00
 
    0.31450E+06         0.20179E+06         0.00000E+00
    0.20179E+06         0.26734E+05         0.00000E+00
    0.00000E+00         0.00000E+00         0.00000E+00
 
    0.30613E+06         0.20909E+06         0.00000E+00
    0.20909E+06         0.31104E+05         0.00000E+00
    0.00000E+00         0.00000E+00         0.00000E+00
 
    0.29748E+06         0.21621E+06         0.00000E+00
    0.21621E+06         0.35625E+05         0.00000E+00
    0.00000E+00         0.00000E+00         0.00000E+00
 
    0.28854E+06         0.22314E+06         0.00000E+00
    0.22314E+06         0.40291E+05         0.00000E+00
    0.00000E+00         0.00000E+00         0.00000E+00
 
    0.27932E+06         0.22986E+06         0.00000E+00
    0.22986E+06         0.45099E+05         0.00000E+00
    0.00000E+00         0.00000E+00         0.00000E+00
 
    0.26983E+06         0.23638E+06         0.00000E+00
    0.23638E+06         0.50045E+05         0.00000E+00
    0.00000E+00         0.00000E+00         0.00000E+00
 
    0.26008E+06         0.24270E+06         0.00000E+00
    0.24270E+06         0.55124E+05         0.00000E+00
    0.00000E+00         0.00000E+00         0.00000E+00
 
    0.25008E+06         0.24881E+06         0.00000E+00
    0.24881E+06         0.60333E+05         0.00000E+00
    0.00000E+00         0.00000E+00         0.00000E+00
 
    0.23983E+06         0.25470E+06         0.00000E+00
    0.25470E+06         0.65667E+05         0.00000E+00
    0.00000E+00         0.00000E+00         0.00000E+00
 
    0.22933E+06         0.26037E+06         0.00000E+00
    0.26037E+06         0.71122E+05         0.00000E+00
    0.00000E+00         0.00000E+00         0.00000E+00
 
    0.21859E+06         0.26581E+06         0.00000E+00
    0.26581E+06         0.76694E+05         0.00000E+00
    0.00000E+00         0.00000E+00         0.00000E+00
 
    0.20763E+06         0.27103E+06         0.00000E+00
    0.27103E+06         0.82378E+05         0.00000E+00
    0.00000E+00         0.00000E+00         0.00000E+00
 
    0.19645E+06         0.27602E+06         0.00000E+00
    0.27602E+06         0.88170E+05         0.00000E+00
    0.00000E+00         0.00000E+00         0.00000E+00
 
    0.18505E+06         0.28077E+06         0.00000E+00
    0.28077E+06         0.94066E+05         0.00000E+00
    0.00000E+00         0.00000E+00         0.00000E+00
 
    0.17344E+06         0.28528E+06         0.00000E+00
    0.28528E+06         0.10006E+06         0.00000E+00
    0.00000E+00         0.00000E+00         0.00000E+00
 
    0.16163E+06         0.28955E+06         0.00000E+00
    0.28955E+06         0.10615E+06         0.00000E+00
    0.00000E+00         0.00000E+00         0.00000E+00
 
    0.14963E+06         0.29358E+06         0.00000E+00
    0.29358E+06         0.11233E+06         0.00000E+00
    0.00000E+00         0.00000E+00         0.00000E+00
 
    0.13744E+06         0.29735E+06         0.00000E+00
    0.29735E+06         0.11859E+06         0.00000E+00
    0.00000E+00         0.00000E+00         0.00000E+00
 
    0.12507E+06         0.30088E+06         0.00000E+00
    0.30088E+06         0.12494E+06         0.00000E+00
    0.00000E+00         0.00000E+00         0.00000E+00
 
    0.11253E+06         0.30415E+06         0.00000E+00
    0.30415E+06         0.13136E+06         0.00000E+00
    0.00000E+00         0.00000E+00         0.00000E+00
 
    0.99821E+05         0.30716E+06         0.00000E+00
    0.30716E+06         0.13785E+06         0.00000E+00
    0.00000E+00         0.00000E+00         0.00000E+00
 
    0.86956E+05         0.30991E+06         0.00000E+00
    0.30991E+06         0.14441E+06         0.00000E+00
    0.00000E+00         0.00000E+00         0.00000E+00
 
    0.73940E+05         0.31240E+06         0.00000E+00
    0.31240E+06         0.15103E+06         0.00000E+00
    0.00000E+00         0.00000E+00         0.00000E+00
 
    0.60780E+05         0.31463E+06         0.00000E+00
    0.31463E+06         0.15770E+06         0.00000E+00
    0.00000E+00         0.00000E+00         0.00000E+00
 
    0.47485E+05         0.31658E+06         0.00000E+00
    0.31658E+06         0.16443E+06         0.00000E+00
    0.00000E+00         0.00000E+00         0.00000E+00
 
    0.34061E+05         0.31827E+06         0.00000E+00
    0.31827E+06         0.17121E+06         0.00000E+00
    0.00000E+00         0.00000E+00         0.00000E+00
 
    0.20516E+05         0.31968E+06         0.00000E+00
    0.31968E+06         0.17803E+06         0.00000E+00
    0.00000E+00         0.00000E+00         0.00000E+00
 
    0.68570E+04         0.32082E+06         0.00000E+00
    0.32082E+06         0.18488E+06         0.00000E+00
    0.00000E+00         0.00000E+00         0.00000E+00
 
    0.46161E+06         0.56074E+04         0.00000E+00
    0.56074E+04        -0.29092E+05         0.00000E+00
    0.00000E+00         0.00000E+00         0.00000E+00
 
    0.46079E+06         0.16696E+05         0.00000E+00
    0.16696E+05        -0.28847E+05         0.00000E+00
    0.00000E+00         0.00000E+00         0.00000E+00
 
    0.45952E+06         0.27727E+05         0.00000E+00
    0.27727E+05        -0.28362E+05         0.00000E+00
    0.00000E+00         0.00000E+00         0.00000E+00
 
    0.45781E+06         0.38693E+05         0.00000E+00
    0.38693E+05        -0.27639E+05         0.00000E+00
    0.00000E+00         0.00000E+00         0.00000E+00
 
    0.45567E+06         0.49584E+05         0.00000E+00
    0.49584E+05        -0.26680E+05         0.00000E+00
    0.00000E+00         0.00000E+00         0.00000E+00
 
    0.45310E+06         0.60393E+05         0.00000E+00
    0.60393E+05        -0.25489E+05         0.00000E+00
    0.00000E+00         0.00000E+00         0.00000E+00
 
    0.45010E+06         0.71111E+05         0.00000E+00
    0.71111E+05        -0.24067E+05         0.00000E+00
    0.00000E+00         0.00000E+00         0.00000E+00
 
    0.44668E+06         0.81731E+05         0.00000E+00
    0.81731E+05        -0.22417E+05         0.00000E+00
    0.00000E+00         0.00000E+00         0.00000E+00
 
    0.44284E+06         0.92245E+05         0.00000E+00
    0.92245E+05        -0.20544E+05         0.00000E+00
    0.00000E+00         0.00000E+00         0.00000E+00
 
    0.43859E+06         0.10265E+06         0.00000E+00
    0.10265E+06        -0.18449E+05         0.00000E+00
    0.00000E+00         0.00000E+00         0.00000E+00
 
    0.43394E+06         0.11292E+06         0.00000E+00
    0.11292E+06        -0.16135E+05         0.00000E+00
    0.00000E+00         0.00000E+00         0.00000E+00
 
    0.42889E+06         0.12308E+06         0.00000E+00
    0.12308E+06        -0.13607E+05         0.00000E+00
    0.00000E+00         0.00000E+00         0.00000E+00
 
    0.42344E+06         0.13309E+06         0.00000E+00
    0.13309E+06        -0.10867E+05         0.00000E+00
    0.00000E+00         0.00000E+00         0.00000E+00
 
    0.41761E+06         0.14296E+06         0.00000E+00
    0.14296E+06        -0.79195E+04         0.00000E+00
    0.00000E+00         0.00000E+00         0.00000E+00
 
    0.41140E+06         0.15269E+06         0.00000E+00
    0.15269E+06        -0.47671E+04         0.00000E+00
    0.00000E+00         0.00000E+00         0.00000E+00
 
    0.40482E+06         0.16226E+06         0.00000E+00
    0.16226E+06        -0.14139E+04         0.00000E+00
    0.00000E+00         0.00000E+00         0.00000E+00
 
    0.39786E+06         0.17166E+06         0.00000E+00
    0.17166E+06         0.21364E+04         0.00000E+00
    0.00000E+00         0.00000E+00         0.00000E+00
 
    0.39054E+06         0.18090E+06         0.00000E+00
    0.18090E+06         0.58802E+04         0.00000E+00
    0.00000E+00         0.00000E+00         0.00000E+00
 
    0.38287E+06         0.18996E+06         0.00000E+00
    0.18996E+06         0.98134E+04         0.00000E+00
    0.00000E+00         0.00000E+00         0.00000E+00
 
    0.37485E+06         0.19885E+06         0.00000E+00
    0.19885E+06         0.13932E+05         0.00000E+00
    0.00000E+00         0.00000E+00         0.00000E+00
 
    0.36649E+06         0.20754E+06         0.00000E+00
    0.20754E+06         0.18232E+05         0.00000E+00
    0.00000E+00         0.00000E+00         0.00000E+00
 
    0.35779E+06         0.21605E+06         0.00000E+00
    0.21605E+06         0.22710E+05         0.00000E+00
    0.00000E+00         0.00000E+00         0.00000E+00
 
    0.34876E+06         0.22435E+06         0.00000E+00
    0.22435E+06         0.27361E+05         0.00000E+00
    0.00000E+00         0.00000E+00         0.00000E+00
 
    0.33942E+06         0.23245E+06         0.00000E+00
    0.23245E+06         0.32181E+05         0.00000E+00
    0.00000E+00         0.00000E+00         0.00000E+00
 
    0.32975E+06         0.24035E+06         0.00000E+00
    0.24035E+06         0.37166E+05         0.00000E+00
    0.00000E+00         0.00000E+00         0.00000E+00
 
    0.31978E+06         0.24802E+06         0.00000E+00
    0.24802E+06         0.42311E+05         0.00000E+00
    0.00000E+00         0.00000E+00         0.00000E+00
 
    0.30951E+06         0.25548E+06         0.00000E+00
    0.25548E+06         0.47612E+05         0.00000E+00
    0.00000E+00         0.00000E+00         0.00000E+00
 
    0.29895E+06         0.26272E+06         0.00000E+00
    0.26272E+06         0.53065E+05         0.00000E+00
    0.00000E+00         0.00000E+00         0.00000E+00
 
    0.28810E+06         0.26973E+06         0.00000E+00
    0.26973E+06         0.58665E+05         0.00000E+00
    0.00000E+00         0.00000E+00         0.00000E+00
 
    0.27698E+06         0.27650E+06         0.00000E+00
    0.27650E+06         0.64408E+05         0.00000E+00
    0.00000E+00         0.00000E+00         0.00000E+00
 
    0.26558E+06         0.28304E+06         0.00000E+00
    0.28304E+06         0.70288E+05         0.00000E+00
    0.00000E+00         0.00000E+00         0.00000E+00
 
    0.25391E+06         0.28933E+06         0.00000E+00
    0.28933E+06         0.76302E+05         0.00000E+00
    0.00000E+00         0.00000E+00         0.00000E+00
 
    0.24200E+06         0.29538E+06         0.00000E+00
    0.29538E+06         0.82445E+05         0.00000E+00
    0.00000E+00         0.00000E+00         0.00000E+00
 
    0.22983E+06         0.30117E+06         0.00000E+00
    0.30117E+06         0.88711E+05         0.00000E+00
    0.00000E+00         0.00000E+00         0.00000E+00
 
    0.21742E+06         0.30672E+06         0.00000E+00
    0.30672E+06         0.95097E+05         0.00000E+00
    0.00000E+00         0.00000E+00         0.00000E+00
 
    0.20478E+06         0.31200E+06         0.00000E+00
    0.31200E+06         0.10160E+06         0.00000E+00
    0.00000E+00         0.00000E+00         0.00000E+00
 
    0.19191E+06         0.31702E+06         0.00000E+00
    0.31702E+06         0.10821E+06         0.00000E+00
    0.00000E+00         0.00000E+00         0.00000E+00
 
    0.17882E+06         0.32178E+06         0.00000E+00
    0.32178E+06         0.11492E+06         0.00000E+00
    0.00000E+00         0.00000E+00         0.00000E+00
 
    0.16553E+06         0.32626E+06         0.00000E+00
    0.32626E+06         0.12173E+06         0.00000E+00
    0.00000E+00         0.00000E+00         0.00000E+00
 
    0.15203E+06         0.33048E+06         0.00000E+00
    0.33048E+06         0.12864E+06         0.00000E+00
    0.00000E+00         0.00000E+00         0.00000E+00
 
    0.13833E+06         0.33442E+06         0.00000E+00
    0.33442E+06         0.13564E+06         0.00000E+00
    0.00000E+00         0.00000E+00         0.00000E+00
 
    0.12445E+06         0.33808E+06         0.00000E+00
    0.33808E+06         0.14272E+06         0.00000E+00
    0.00000E+00         0.00000E+00         0.00000E+00
 
    0.11039E+06         0.34145E+06         0.00000E+00
    0.34145E+06         0.14989E+06         0.00000E+00
    0.00000E+00         0.00000E+00         0.00000E+00
 
    0.96152E+05         0.34455E+06         0.00000E+00
    0.34455E+06         0.15712E+06         0.00000E+00
    0.00000E+00         0.00000E+00         0.00000E+00
 
    0.81754E+05         0.34735E+06         0.00000E+00
    0.34735E+06         0.16443E+06         0.00000E+00
    0.00000E+00         0.00000E+00         0.00000E+00
 
    0.67200E+05         0.34986E+06         0.00000E+00
    0.34986E+06         0.17180E+06         0.00000E+00
    0.00000E+00         0.00000E+00         0.00000E+00
 
    0.52497E+05         0.35209E+06         0.00000E+00
    0.35209E+06         0.17923E+06         0.00000E+00
    0.00000E+00         0.00000E+00         0.00000E+00
 
    0.37654E+05         0.35401E+06         0.00000E+00
    0.35401E+06         0.18671E+06         0.00000E+00
    0.00000E+00         0.00000E+00         0.00000E+00
 
    0.22679E+05         0.35564E+06         0.00000E+00
    0.35564E+06         0.19424E+06         0.00000E+00
    0.00000E+00         0.00000E+00         0.00000E+00
 
    0.75798E+04         0.35697E+06         0.00000E+00
    0.35697E+06         0.20182E+06         0.00000E+00
    0.00000E+00         0.00000E+00         0.00000E+00
 
    0.51472E+06         0.62590E+04         0.00000E+00
    0.62590E+04        -0.34686E+05         0.00000E+00
    0.00000E+00         0.00000E+00         0.00000E+00
 
    0.51361E+06         0.18619E+05         0.00000E+00
    0.18619E+05        -0.34415E+05         0.00000E+00
    0.00000E+00         0.00000E+00         0.00000E+00
 
    0.51200E+06         0.30909E+05         0.00000E+00
    0.30909E+05        -0.33879E+05         0.00000E+00
    0.00000E+00         0.00000E+00         0.00000E+00
 
    0.50991E+06         0.43120E+05         0.00000E+00
    0.43120E+05        -0.33079E+05         0.00000E+00
    0.00000E+00         0.00000E+00         0.00000E+00
 
    0.50735E+06         0.55243E+05         0.00000E+00
    0.55243E+05        -0.32019E+05         0.00000E+00
    0.00000E+00         0.00000E+00         0.00000E+00
 
    0.50430E+06         0.67269E+05         0.00000E+00
    0.67269E+05        -0.30701E+05         0.00000E+00
    0.00000E+00         0.00000E+00         0.00000E+00
 
    0.50079E+06         0.79190E+05         0.00000E+00
    0.79190E+05        -0.29130E+05         0.00000E+00
    0.00000E+00         0.00000E+00         0.00000E+00
 
    0.49682E+06         0.90997E+05         0.00000E+00
    0.90997E+05        -0.27308E+05         0.00000E+00
    0.00000E+00         0.00000E+00         0.00000E+00
 
    0.49240E+06         0.10268E+06         0.00000E+00
    0.10268E+06        -0.25239E+05         0.00000E+00
    0.00000E+00         0.00000E+00         0.00000E+00
 
    0.48752E+06         0.11424E+06         0.00000E+00
    0.11424E+06        -0.22925E+05         0.00000E+00
    0.00000E+00         0.00000E+00         0.00000E+00
 
    0.48220E+06         0.12565E+06         0.00000E+00
    0.12565E+06        -0.20372E+05         0.00000E+00
    0.00000E+00         0.00000E+00         0.00000E+00
 
    0.47645E+06         0.13692E+06         0.00000E+00
    0.13692E+06        -0.17582E+05         0.00000E+00
    0.00000E+00         0.00000E+00         0.00000E+00
 
    0.47026E+06         0.14804E+06         0.00000E+00
    0.14804E+06        -0.14559E+05         0.00000E+00
    0.00000E+00         0.00000E+00         0.00000E+00
 
    0.46366E+06         0.15899E+06         0.00000E+00
    0.15899E+06        -0.11308E+05         0.00000E+00
    0.00000E+00         0.00000E+00         0.00000E+00
 
    0.45664E+06         0.16978E+06         0.00000E+00
    0.16978E+06        -0.78314E+04         0.00000E+00
    0.00000E+00         0.00000E+00         0.00000E+00
 
    0.44921E+06         0.18039E+06         0.00000E+00
    0.18039E+06        -0.41342E+04         0.00000E+00
    0.00000E+00         0.00000E+00         0.00000E+00
 
    0.44138E+06         0.19082E+06         0.00000E+00
    0.19082E+06        -0.22043E+03         0.00000E+00
    0.00000E+00         0.00000E+00         0.00000E+00
 
    0.43315E+06         0.20107E+06         0.00000E+00
    0.20107E+06         0.39058E+04         0.00000E+00
    0.00000E+00         0.00000E+00         0.00000E+00
 
    0.42454E+06         0.21111E+06         0.00000E+00
    0.21111E+06         0.82401E+04         0.00000E+00
    0.00000E+00         0.00000E+00         0.00000E+00
 
    0.41555E+06         0.22096E+06         0.00000E+00
    0.22096E+06         0.12778E+05         0.00000E+00
    0.00000E+00         0.00000E+00         0.00000E+00
 
    0.40618E+06         0.23059E+06         0.00000E+00
    0.23059E+06         0.17516E+05         0.00000E+00
    0.00000E+00         0.00000E+00         0.00000E+00
 
    0.39646E+06         0.24001E+06         0.00000E+00
    0.24001E+06         0.22448E+05         0.00000E+00
    0.00000E+00         0.00000E+00         0.00000E+00
 
    0.38637E+06         0.24922E+06         0.00000E+00
    0.24922E+06         0.27570E+05         0.00000E+00
    0.00000E+00         0.00000E+00         0.00000E+00
 
    0.37594E+06         0.25819E+06         0.00000E+00
    0.25819E+06         0.32878E+05         0.00000E+00
    0.00000E+00         0.00000E+00         0.00000E+00
 
    0.36516E+06         0.26694E+06         0.00000E+00
    0.26694E+06         0.38367E+05         0.00000E+00
    0.00000E+00         0.00000E+00         0.00000E+00
 
    0.35405E+06         0.27545E+06         0.00000E+00
    0.27545E+06         0.44033E+05         0.00000E+00
    0.00000E+00         0.00000E+00         0.00000E+00
 
    0.34262E+06         0.28371E+06         0.00000E+00
    0.28371E+06         0.49869E+05         0.00000E+00
    0.00000E+00         0.00000E+00         0.00000E+00
 
    0.33087E+06         0.29173E+06         0.00000E+00
    0.29173E+06         0.55872E+05         0.00000E+00
    0.00000E+00         0.00000E+00         0.00000E+00
 
    0.31880E+06         0.29950E+06         0.00000E+00
    0.29950E+06         0.62037E+05         0.00000E+00
    0.00000E+00         0.00000E+00         0.00000E+00
 
    0.30644E+06         0.30701E+06         0.00000E+00
    0.30701E+06         0.68359E+05         0.00000E+00
    0.00000E+00         0.00000E+00         0.00000E+00
 
    0.29378E+06         0.31426E+06         0.00000E+00
    0.31426E+06         0.74833E+05         0.00000E+00
    0.00000E+00         0.00000E+00         0.00000E+00
 
    0.28084E+06         0.32124E+06         0.00000E+00
    0.32124E+06         0.81453E+05         0.00000E+00
    0.00000E+00         0.00000E+00         0.00000E+00
 
    0.26761E+06         0.32795E+06         0.00000E+00
    0.32795E+06         0.88215E+05         0.00000E+00
    0.00000E+00         0.00000E+00         0.00000E+00
 
    0.25412E+06         0.33438E+06         0.00000E+00
    0.33438E+06         0.95114E+05         0.00000E+00
    0.00000E+00         0.00000E+00         0.00000E+00
 
    0.24037E+06         0.34054E+06         0.00000E+00
    0.34054E+06         0.10214E+06         0.00000E+00
    0.00000E+00         0.00000E+00         0.00000E+00
 
    0.22636E+06         0.34641E+06         0.00000E+00
    0.34641E+06         0.10930E+06         0.00000E+00
    0.00000E+00         0.00000E+00         0.00000E+00
 
    0.21211E+06         0.35200E+06         0.00000E+00
    0.35200E+06         0.11658E+06         0.00000E+00
    0.00000E+00         0.00000E+00         0.00000E+00
 
    0.19763E+06         0.35729E+06         0.00000E+00
    0.35729E+06         0.12397E+06         0.00000E+00
    0.00000E+00         0.00000E+00         0.00000E+00
 
    0.18291E+06         0.36229E+06         0.00000E+00
    0.36229E+06         0.13148E+06         0.00000E+00
    0.00000E+00         0.00000E+00         0.00000E+00
 
    0.16798E+06         0.36699E+06         0.00000E+00
    0.36699E+06         0.13908E+06         0.00000E+00
    0.00000E+00         0.00000E+00         0.00000E+00
 
    0.15283E+06         0.37139E+06         0.00000E+00
    0.37139E+06         0.14679E+06         0.00000E+00
    0.00000E+00         0.00000E+00         0.00000E+00
 
    0.13748E+06         0.37548E+06         0.00000E+00
    0.37548E+06         0.15460E+06         0.00000E+00
    0.00000E+00         0.00000E+00         0.00000E+00
 
    0.12193E+06         0.37927E+06         0.00000E+00
    0.37927E+06         0.16249E+06         0.00000E+00
    0.00000E+00         0.00000E+00         0.00000E+00
 
    0.10620E+06         0.38274E+06         0.00000E+00
    0.38274E+06         0.17047E+06         0.00000E+00
    0.00000E+00         0.00000E+00         0.00000E+00
 
    0.90292E+05         0.38590E+06         0.00000E+00
    0.38590E+06         0.17852E+06         0.00000E+00
    0.00000E+00         0.00000E+00         0.00000E+00
 
    0.74213E+05         0.38874E+06         0.00000E+00
    0.38874E+06         0.18665E+06         0.00000E+00
    0.00000E+00         0.00000E+00         0.00000E+00
 
    0.57972E+05         0.39127E+06         0.00000E+00
    0.39127E+06         0.19484E+06         0.00000E+00
    0.00000E+00         0.00000E+00         0.00000E+00
 
    0.41579E+05         0.39347E+06         0.00000E+00
    0.39347E+06         0.20309E+06         0.00000E+00
    0.00000E+00         0.00000E+00         0.00000E+00
 
    0.25042E+05         0.39534E+06         0.00000E+00
    0.39534E+06         0.21141E+06         0.00000E+00
    0.00000E+00         0.00000E+00         0.00000E+00
 
    0.83693E+04         0.39689E+06         0.00000E+00
    0.39689E+06         0.21977E+06         0.00000E+00
    0.00000E+00         0.00000E+00         0.00000E+00
 
    0.57352E+06         0.69807E+04         0.00000E+00
    0.69807E+04        -0.41326E+05         0.00000E+00
    0.00000E+00         0.00000E+00         0.00000E+00
 
    0.57204E+06         0.20746E+05         0.00000E+00
    0.20746E+05        -0.41026E+05         0.00000E+00
    0.00000E+00         0.00000E+00         0.00000E+00
 
    0.57003E+06         0.34427E+05         0.00000E+00
    0.34427E+05        -0.40433E+05         0.00000E+00
    0.00000E+00         0.00000E+00         0.00000E+00
 
    0.56748E+06         0.48013E+05         0.00000E+00
    0.48013E+05        -0.39550E+05         0.00000E+00
    0.00000E+00         0.00000E+00         0.00000E+00
 
    0.56441E+06         0.61495E+05         0.00000E+00
    0.61495E+05        -0.38379E+05         0.00000E+00
    0.00000E+00         0.00000E+00         0.00000E+00
 
    0.56082E+06         0.74864E+05         0.00000E+00
    0.74864E+05        -0.36925E+05         0.00000E+00
    0.00000E+00         0.00000E+00         0.00000E+00
 
    0.55672E+06         0.88109E+05         0.00000E+00
    0.88109E+05        -0.35192E+05         0.00000E+00
    0.00000E+00         0.00000E+00         0.00000E+00
 
    0.55211E+06         0.10122E+06         0.00000E+00
    0.10122E+06        -0.33182E+05         0.00000E+00
    0.00000E+00         0.00000E+00         0.00000E+00
 
    0.54701E+06         0.11420E+06         0.00000E+00
    0.11420E+06        -0.30900E+05         0.00000E+00
    0.00000E+00         0.00000E+00         0.00000E+00
 
    0.54141E+06         0.12702E+06         0.00000E+00
    0.12702E+06        -0.28350E+05         0.00000E+00
    0.00000E+00         0.00000E+00         0.00000E+00
 
    0.53534E+06         0.13969E+06         0.00000E+00
    0.13969E+06        -0.25536E+05         0.00000E+00
    0.00000E+00         0.00000E+00         0.00000E+00
 
    0.52878E+06         0.15219E+06         0.00000E+00
    0.15219E+06        -0.22461E+05         0.00000E+00
    0.00000E+00         0.00000E+00         0.00000E+00
 
    0.52176E+06         0.16451E+06         0.00000E+00
    0.16451E+06        -0.19132E+05         0.00000E+00
    0.00000E+00         0.00000E+00         0.00000E+00
 
    0.51428E+06         0.17666E+06         0.00000E+00
    0.17666E+06        -0.15551E+05         0.00000E+00
    0.00000E+00         0.00000E+00         0.00000E+00
 
    0.50635E+06         0.18861E+06         0.00000E+00
    0.18861E+06        -0.11723E+05         0.00000E+00
    0.00000E+00         0.00000E+00         0.00000E+00
 
    0.49797E+06         0.20037E+06         0.00000E+00
    0.20037E+06        -0.76532E+04         0.00000E+00
    0.00000E+00         0.00000E+00         0.00000E+00
 
    0.48916E+06         0.21193E+06         0.00000E+00
    0.21193E+06        -0.33455E+04         0.00000E+00
    0.00000E+00         0.00000E+00         0.00000E+00
 
    0.47992E+06         0.22327E+06         0.00000E+00
    0.22327E+06         0.11951E+04         0.00000E+00
    0.00000E+00         0.00000E+00         0.00000E+00
 
    0.47026E+06         0.23439E+06         0.00000E+00
    0.23439E+06         0.59639E+04         0.00000E+00
    0.00000E+00         0.00000E+00         0.00000E+00
 
    0.46019E+06         0.24529E+06         0.00000E+00
    0.24529E+06         0.10956E+05         0.00000E+00
    0.00000E+00         0.00000E+00         0.00000E+00
 
    0.44971E+06         0.25596E+06         0.00000E+00
    0.25596E+06         0.16167E+05         0.00000E+00
    0.00000E+00         0.00000E+00         0.00000E+00
 
    0.43884E+06         0.26639E+06         0.00000E+00
    0.26639E+06         0.21591E+05         0.00000E+00
    0.00000E+00         0.00000E+00         0.00000E+00
 
    0.42758E+06         0.27658E+06         0.00000E+00
    0.27658E+06         0.27224E+05         0.00000E+00
    0.00000E+00         0.00000E+00         0.00000E+00
 
    0.41594E+06         0.28652E+06         0.00000E+00
    0.28652E+06         0.33061E+05         0.00000E+00
    0.00000E+00         0.00000E+00         0.00000E+00
 
    0.40393E+06         0.29620E+06         0.00000E+00
    0.29620E+06         0.39095E+05         0.00000E+00
    0.00000E+00         0.00000E+00         0.00000E+00
 
    0.39157E+06         0.30562E+06         0.00000E+00
    0.30562E+06         0.45324E+05         0.00000E+00
    0.00000E+00         0.00000E+00         0.00000E+00
 
    0.37884E+06         0.31477E+06         0.00000E+00
    0.31477E+06         0.51740E+05         0.00000E+00
    0.00000E+00         0.00000E+00         0.00000E+00
 
    0.36578E+06         0.32365E+06         0.00000E+00
    0.32365E+06         0.58339E+05         0.00000E+00
    0.00000E+00         0.00000E+00         0.00000E+00
 
    0.35238E+06         0.33225E+06         0.00000E+00
    0.33225E+06         0.65115E+05         0.00000E+00
    0.00000E+00         0.00000E+00         0.00000E+00
 
    0.33865E+06         0.34057E+06         0.00000E+00
    0.34057E+06         0.72064E+05         0.00000E+00
    0.00000E+00         0.00000E+00         0.00000E+00
 
    0.32461E+06         0.34860E+06         0.00000E+00
    0.34860E+06         0.79180E+05         0.00000E+00
    0.00000E+00         0.00000E+00         0.00000E+00
 
    0.31026E+06         0.35634E+06         0.00000E+00
    0.35634E+06         0.86457E+05         0.00000E+00
    0.00000E+00         0.00000E+00         0.00000E+00
 
    0.29561E+06         0.36378E+06         0.00000E+00
    0.36378E+06         0.93889E+05         0.00000E+00
    0.00000E+00         0.00000E+00         0.00000E+00
 
    0.28066E+06         0.37092E+06         0.00000E+00
    0.37092E+06         0.10147E+06         0.00000E+00
    0.00000E+00         0.00000E+00         0.00000E+00
 
    0.26544E+06         0.37775E+06         0.00000E+00
    0.37775E+06         0.10920E+06         0.00000E+00
    0.00000E+00         0.00000E+00         0.00000E+00
 
    0.24994E+06         0.38427E+06         0.00000E+00
    0.38427E+06         0.11707E+06         0.00000E+00
    0.00000E+00         0.00000E+00         0.00000E+00
 
    0.23417E+06         0.39048E+06         0.00000E+00
    0.39048E+06         0.12507E+06         0.00000E+00
    0.00000E+00         0.00000E+00         0.00000E+00
 
    0.21815E+06         0.39637E+06         0.00000E+00
    0.39637E+06         0.13320E+06         0.00000E+00
    0.00000E+00         0.00000E+00         0.00000E+00
 
    0.20188E+06         0.40194E+06         0.00000E+00
    0.40194E+06         0.14145E+06         0.00000E+00
    0.00000E+00         0.00000E+00         0.00000E+00
 
    0.18538E+06         0.40718E+06         0.00000E+00
    0.40718E+06         0.14982E+06         0.00000E+00
    0.00000E+00         0.00000E+00         0.00000E+00
 
    0.16865E+06         0.41209E+06         0.00000E+00
    0.41209E+06         0.15830E+06         0.00000E+00
    0.00000E+00         0.00000E+00         0.00000E+00
 
    0.15169E+06         0.41667E+06         0.00000E+00
    0.41667E+06         0.16689E+06         0.00000E+00
    0.00000E+00         0.00000E+00         0.00000E+00
 
    0.13453E+06         0.42091E+06         0.00000E+00
    0.42091E+06         0.17557E+06         0.00000E+00
    0.00000E+00         0.00000E+00         0.00000E+00
 
    0.11716E+06         0.42482E+06         0.00000E+00
    0.42482E+06         0.18435E+06         0.00000E+00
    0.00000E+00         0.00000E+00         0.00000E+00
 
    0.99603E+05         0.42837E+06         0.00000E+00
    0.42837E+06         0.19322E+06         0.00000E+00
    0.00000E+00         0.00000E+00         0.00000E+00
 
    0.81860E+05         0.43159E+06         0.00000E+00
    0.43159E+06         0.20216E+06         0.00000E+00
    0.00000E+00         0.00000E+00         0.00000E+00
 
    0.63942E+05         0.43445E+06         0.00000E+00
    0.43445E+06         0.21119E+06         0.00000E+00
    0.00000E+00         0.00000E+00         0.00000E+00
 
    0.45858E+05         0.43697E+06         0.00000E+00
    0.43697E+06         0.22028E+06         0.00000E+00
    0.00000E+00         0.00000E+00         0.00000E+00
 
    0.27618E+05         0.43913E+06         0.00000E+00
    0.43913E+06         0.22944E+06         0.00000E+00
    0.00000E+00         0.00000E+00         0.00000E+00
 
    0.92298E+04         0.44093E+06         0.00000E+00
    0.44093E+06         0.23866E+06         0.00000E+00
    0.00000E+00         0.00000E+00         0.00000E+00
 
    0.63850E+06         0.77790E+04         0.00000E+00
    0.77790E+04        -0.49199E+05         0.00000E+00
    0.00000E+00         0.00000E+00         0.00000E+00
 
    0.63659E+06         0.23096E+05         0.00000E+00
    0.23096E+05        -0.48868E+05         0.00000E+00
    0.00000E+00         0.00000E+00         0.00000E+00
 
    0.63408E+06         0.38310E+05         0.00000E+00
    0.38310E+05        -0.48214E+05         0.00000E+00
    0.00000E+00         0.00000E+00         0.00000E+00
 
    0.63099E+06         0.53412E+05         0.00000E+00
    0.53412E+05        -0.47239E+05         0.00000E+00
    0.00000E+00         0.00000E+00         0.00000E+00
 
    0.62733E+06         0.68392E+05         0.00000E+00
    0.68392E+05        -0.45949E+05         0.00000E+00
    0.00000E+00         0.00000E+00         0.00000E+00
 
    0.62310E+06         0.83238E+05         0.00000E+00
    0.83238E+05        -0.44347E+05         0.00000E+00
    0.00000E+00         0.00000E+00         0.00000E+00
 
    0.61832E+06         0.97941E+05         0.00000E+00
    0.97941E+05        -0.42437E+05         0.00000E+00
    0.00000E+00         0.00000E+00         0.00000E+00
 
    0.61298E+06         0.11249E+06         0.00000E+00
    0.11249E+06        -0.40224E+05         0.00000E+00
    0.00000E+00         0.00000E+00         0.00000E+00
 
    0.60710E+06         0.12688E+06         0.00000E+00
    0.12688E+06        -0.37712E+05         0.00000E+00
    0.00000E+00         0.00000E+00         0.00000E+00
 
    0.60068E+06         0.14110E+06         0.00000E+00
    0.14110E+06        -0.34905E+05         0.00000E+00
    0.00000E+00         0.00000E+00         0.00000E+00
 
    0.59374E+06         0.15514E+06         0.00000E+00
    0.15514E+06        -0.31809E+05         0.00000E+00
    0.00000E+00         0.00000E+00         0.00000E+00
 
    0.58628E+06         0.16899E+06         0.00000E+00
    0.16899E+06        -0.28427E+05         0.00000E+00
    0.00000E+00         0.00000E+00         0.00000E+00
 
    0.57832E+06         0.18264E+06         0.00000E+00
    0.18264E+06        -0.24766E+05         0.00000E+00
    0.00000E+00         0.00000E+00         0.00000E+00
 
    0.56985E+06         0.19609E+06         0.00000E+00
    0.19609E+06        -0.20829E+05         0.00000E+00
    0.00000E+00         0.00000E+00         0.00000E+00
 
    0.56089E+06         0.20933E+06         0.00000E+00
    0.20933E+06        -0.16621E+05         0.00000E+00
    0.00000E+00         0.00000E+00         0.00000E+00
 
    0.55145E+06         0.22234E+06         0.00000E+00
    0.22234E+06        -0.12148E+05         0.00000E+00
    0.00000E+00         0.00000E+00         0.00000E+00
 
    0.54154E+06         0.23513E+06         0.00000E+00
    0.23513E+06        -0.74153E+04         0.00000E+00
    0.00000E+00         0.00000E+00         0.00000E+00
 
    0.53117E+06         0.24768E+06         0.00000E+00
    0.24768E+06        -0.24271E+04         0.00000E+00
    0.00000E+00         0.00000E+00         0.00000E+00
 
    0.52033E+06         0.25999E+06         0.00000E+00
    0.25999E+06         0.28109E+04         0.00000E+00
    0.00000E+00         0.00000E+00         0.00000E+00
 
    0.50906E+06         0.27204E+06         0.00000E+00
    0.27204E+06         0.82934E+04         0.00000E+00
    0.00000E+00         0.00000E+00         0.00000E+00
 
    0.49734E+06         0.28384E+06         0.00000E+00
    0.28384E+06         0.14015E+05         0.00000E+00
    0.00000E+00         0.00000E+00         0.00000E+00
 
    0.48520E+06         0.29538E+06         0.00000E+00
    0.29538E+06         0.19971E+05         0.00000E+00
    0.00000E+00         0.00000E+00         0.00000E+00
 
    0.47264E+06         0.30664E+06         0.00000E+00
    0.30664E+06         0.26155E+05         0.00000E+00
    0.00000E+00         0.00000E+00         0.00000E+00
 
    0.45967E+06         0.31763E+06         0.00000E+00
    0.31763E+06         0.32561E+05         0.00000E+00
    0.00000E+00         0.00000E+00         0.00000E+00
 
    0.44631E+06         0.32834E+06         0.00000E+00
    0.32834E+06         0.39185E+05         0.00000E+00
    0.00000E+00         0.00000E+00         0.00000E+00
 
    0.43255E+06         0.33876E+06         0.00000E+00
    0.33876E+06         0.46021E+05         0.00000E+00
    0.00000E+00         0.00000E+00         0.00000E+00
 
    0.41841E+06         0.34888E+06         0.00000E+00
    0.34888E+06         0.53062E+05         0.00000E+00
    0.00000E+00         0.00000E+00         0.00000E+00
 
    0.40390E+06         0.35870E+06         0.00000E+00
    0.35870E+06         0.60304E+05         0.00000E+00
    0.00000E+00         0.00000E+00         0.00000E+00
 
    0.38903E+06         0.36822E+06         0.00000E+00
    0.36822E+06         0.67740E+05         0.00000E+00
    0.00000E+00         0.00000E+00         0.00000E+00
 
    0.37381E+06         0.37743E+06         0.00000E+00
    0.37743E+06         0.75366E+05         0.00000E+00
    0.00000E+00         0.00000E+00         0.00000E+00
 
    0.35825E+06         0.38632E+06         0.00000E+00
    0.38632E+06         0.83174E+05         0.00000E+00
    0.00000E+00         0.00000E+00         0.00000E+00
 
    0.34235E+06         0.39489E+06         0.00000E+00
    0.39489E+06         0.91160E+05         0.00000E+00
    0.00000E+00         0.00000E+00         0.00000E+00
 
    0.32613E+06         0.40313E+06         0.00000E+00
    0.40313E+06         0.99317E+05         0.00000E+00
    0.00000E+00         0.00000E+00         0.00000E+00
 
    0.30959E+06         0.41105E+06         0.00000E+00
    0.41105E+06         0.10764E+06         0.00000E+00
    0.00000E+00         0.00000E+00         0.00000E+00
 
    0.29276E+06         0.41863E+06         0.00000E+00
    0.41863E+06         0.11612E+06         0.00000E+00
    0.00000E+00         0.00000E+00         0.00000E+00
 
    0.27562E+06         0.42587E+06         0.00000E+00
    0.42587E+06         0.12476E+06         0.00000E+00
    0.00000E+00         0.00000E+00         0.00000E+00
 
    0.25820E+06         0.43276E+06         0.00000E+00
    0.43276E+06         0.13354E+06         0.00000E+00
    0.00000E+00         0.00000E+00         0.00000E+00
 
    0.24051E+06         0.43931E+06         0.00000E+00
    0.43931E+06         0.14247E+06         0.00000E+00
    0.00000E+00         0.00000E+00         0.00000E+00
 
    0.22255E+06         0.44551E+06         0.00000E+00
    0.44551E+06         0.15153E+06         0.00000E+00
    0.00000E+00         0.00000E+00         0.00000E+00
 
    0.20433E+06         0.45135E+06         0.00000E+00
    0.45135E+06         0.16072E+06         0.00000E+00
    0.00000E+00         0.00000E+00         0.00000E+00
 
    0.18587E+06         0.45684E+06         0.00000E+00
    0.45684E+06         0.17003E+06         0.00000E+00
    0.00000E+00         0.00000E+00         0.00000E+00
 
    0.16717E+06         0.46196E+06         0.00000E+00
    0.46196E+06         0.17946E+06         0.00000E+00
    0.00000E+00         0.00000E+00         0.00000E+00
 
    0.14824E+06         0.46671E+06         0.00000E+00
    0.46671E+06         0.18901E+06         0.00000E+00
    0.00000E+00         0.00000E+00         0.00000E+00
 
    0.12909E+06         0.47109E+06         0.00000E+00
    0.47109E+06         0.19866E+06         0.00000E+00
    0.00000E+00         0.00000E+00         0.00000E+00
 
    0.10973E+06         0.47510E+06         0.00000E+00
    0.47510E+06         0.20840E+06         0.00000E+00
    0.00000E+00         0.00000E+00         0.00000E+00
 
    0.90181E+05         0.47874E+06         0.00000E+00
    0.47874E+06         0.21824E+06         0.00000E+00
    0.00000E+00         0.00000E+00         0.00000E+00
 
    0.70437E+05         0.48200E+06         0.00000E+00
    0.48200E+06         0.22817E+06         0.00000E+00
    0.00000E+00         0.00000E+00         0.00000E+00
 
    0.50514E+05         0.48487E+06         0.00000E+00
    0.48487E+06         0.23817E+06         0.00000E+00
    0.00000E+00         0.00000E+00         0.00000E+00
 
    0.30420E+05         0.48736E+06         0.00000E+00
    0.48736E+06         0.24826E+06         0.00000E+00
    0.00000E+00         0.00000E+00         0.00000E+00
 
    0.10166E+05         0.48946E+06         0.00000E+00
    0.48946E+06         0.25840E+06         0.00000E+00
    0.00000E+00         0.00000E+00         0.00000E+00
 
    0.71023E+06         0.86604E+04         0.00000E+00
    0.86604E+04        -0.58525E+05         0.00000E+00
    0.00000E+00         0.00000E+00         0.00000E+00
 
    0.70778E+06         0.25686E+05         0.00000E+00
    0.25686E+05        -0.58161E+05         0.00000E+00
    0.00000E+00         0.00000E+00         0.00000E+00
 
    0.70469E+06         0.42590E+05         0.00000E+00
    0.42590E+05        -0.57440E+05         0.00000E+00
    0.00000E+00         0.00000E+00         0.00000E+00
 
    0.70096E+06         0.59360E+05         0.00000E+00
    0.59360E+05        -0.56368E+05         0.00000E+00
    0.00000E+00         0.00000E+00         0.00000E+00
 
    0.69660E+06         0.75986E+05         0.00000E+00
    0.75986E+05        -0.54948E+05         0.00000E+00
    0.00000E+00         0.00000E+00         0.00000E+00
 
    0.69163E+06         0.92456E+05         0.00000E+00
    0.92456E+05        -0.53186E+05         0.00000E+00
    0.00000E+00         0.00000E+00         0.00000E+00
 
    0.68605E+06         0.10876E+06         0.00000E+00
    0.10876E+06        -0.51085E+05         0.00000E+00
    0.00000E+00         0.00000E+00         0.00000E+00
 
    0.67987E+06         0.12489E+06         0.00000E+00
    0.12489E+06        -0.48653E+05         0.00000E+00
    0.00000E+00         0.00000E+00         0.00000E+00
 
    0.67310E+06         0.14083E+06         0.00000E+00
    0.14083E+06        -0.45892E+05         0.00000E+00
    0.00000E+00         0.00000E+00         0.00000E+00
 
    0.66574E+06         0.15658E+06         0.00000E+00
    0.15658E+06        -0.42809E+05         0.00000E+00
    0.00000E+00         0.00000E+00         0.00000E+00
 
    0.65782E+06         0.17213E+06         0.00000E+00
    0.17213E+06        -0.39408E+05         0.00000E+00
    0.00000E+00         0.00000E+00         0.00000E+00
 
    0.64934E+06         0.18746E+06         0.00000E+00
    0.18746E+06        -0.35695E+05         0.00000E+00
    0.00000E+00         0.00000E+00         0.00000E+00
 
    0.64030E+06         0.20256E+06         0.00000E+00
    0.20256E+06        -0.31676E+05         0.00000E+00
    0.00000E+00         0.00000E+00         0.00000E+00
 
    0.63073E+06         0.21744E+06         0.00000E+00
    0.21744E+06        -0.27355E+05         0.00000E+00
    0.00000E+00         0.00000E+00         0.00000E+00
 
    0.62062E+06         0.23208E+06         0.00000E+00
    0.23208E+06        -0.22738E+05         0.00000E+00
    0.00000E+00         0.00000E+00         0.00000E+00
 
    0.60999E+06         0.24647E+06         0.00000E+00
    0.24647E+06        -0.17832E+05         0.00000E+00
    0.00000E+00         0.00000E+00         0.00000E+00
 
    0.59885E+06         0.26060E+06         0.00000E+00
    0.26060E+06        -0.12641E+05         0.00000E+00
    0.00000E+00         0.00000E+00         0.00000E+00
 
    0.58721E+06         0.27447E+06         0.00000E+00
    0.27447E+06        -0.71709E+04         0.00000E+00
    0.00000E+00         0.00000E+00         0.00000E+00
 
    0.57507E+06         0.28807E+06         0.00000E+00
    0.28807E+06        -0.14280E+04         0.00000E+00
    0.00000E+00         0.00000E+00         0.00000E+00
 
    0.56246E+06         0.30139E+06         0.00000E+00
    0.30139E+06         0.45821E+04         0.00000E+00
    0.00000E+00         0.00000E+00         0.00000E+00
 
    0.54937E+06         0.31443E+06         0.00000E+00
    0.31443E+06         0.10854E+05         0.00000E+00
    0.00000E+00         0.00000E+00         0.00000E+00
 
    0.53583E+06         0.32717E+06         0.00000E+00
    0.32717E+06         0.17380E+05         0.00000E+00
    0.00000E+00         0.00000E+00         0.00000E+00
 
    0.52183E+06         0.33962E+06         0.00000E+00
    0.33962E+06         0.24157E+05         0.00000E+00
    0.00000E+00         0.00000E+00         0.00000E+00
 
    0.50739E+06         0.35176E+06         0.00000E+00
    0.35176E+06         0.31177E+05         0.00000E+00
    0.00000E+00         0.00000E+00         0.00000E+00
 
    0.49252E+06         0.36358E+06         0.00000E+00
    0.36358E+06         0.38434E+05         0.00000E+00
    0.00000E+00         0.00000E+00         0.00000E+00
 
    0.47724E+06         0.37509E+06         0.00000E+00
    0.37509E+06         0.45923E+05         0.00000E+00
    0.00000E+00         0.00000E+00         0.00000E+00
 
    0.46154E+06         0.38628E+06         0.00000E+00
    0.38628E+06         0.53637E+05         0.00000E+00
    0.00000E+00         0.00000E+00         0.00000E+00
 
    0.44544E+06         0.39714E+06         0.00000E+00
    0.39714E+06         0.61570E+05         0.00000E+00
    0.00000E+00         0.00000E+00         0.00000E+00
 
    0.42896E+06         0.40766E+06         0.00000E+00
    0.40766E+06         0.69716E+05         0.00000E+00
    0.00000E+00         0.00000E+00         0.00000E+00
 
    0.41210E+06         0.41784E+06         0.00000E+00
    0.41784E+06         0.78069E+05         0.00000E+00
    0.00000E+00         0.00000E+00         0.00000E+00
 
    0.39487E+06         0.42767E+06         0.00000E+00
    0.42767E+06         0.86623E+05         0.00000E+00
    0.00000E+00         0.00000E+00         0.00000E+00
 
    0.37728E+06         0.43716E+06         0.00000E+00
    0.43716E+06         0.95372E+05         0.00000E+00
    0.00000E+00         0.00000E+00         0.00000E+00
 
    0.35934E+06         0.44629E+06         0.00000E+00
    0.44629E+06         0.10431E+06         0.00000E+00
    0.00000E+00         0.00000E+00         0.00000E+00
 
    0.34107E+06         0.45505E+06         0.00000E+00
    0.45505E+06         0.11343E+06         0.00000E+00
    0.00000E+00         0.00000E+00         0.00000E+00
 
    0.32247E+06         0.46345E+06         0.00000E+00
    0.46345E+06         0.12272E+06         0.00000E+00
    0.00000E+00         0.00000E+00         0.00000E+00
 
    0.30355E+06         0.47149E+06         0.00000E+00
    0.47149E+06         0.13218E+06         0.00000E+00
    0.00000E+00         0.00000E+00         0.00000E+00
 
    0.28433E+06         0.47914E+06         0.00000E+00
    0.47914E+06         0.14181E+06         0.00000E+00
    0.00000E+00         0.00000E+00         0.00000E+00
 
    0.26481E+06         0.48642E+06         0.00000E+00
    0.48642E+06         0.15159E+06         0.00000E+00
    0.00000E+00         0.00000E+00         0.00000E+00
 
    0.24500E+06         0.49332E+06         0.00000E+00
    0.49332E+06         0.16153E+06         0.00000E+00
    0.00000E+00         0.00000E+00         0.00000E+00
 
    0.22492E+06         0.49983E+06         0.00000E+00
    0.49983E+06         0.17160E+06         0.00000E+00
    0.00000E+00         0.00000E+00         0.00000E+00
 
    0.20457E+06         0.50595E+06         0.00000E+00
    0.50595E+06         0.18182E+06         0.00000E+00
    0.00000E+00         0.00000E+00         0.00000E+00
 
    0.18397E+06         0.51167E+06         0.00000E+00
    0.51167E+06         0.19216E+06         0.00000E+00
    0.00000E+00         0.00000E+00         0.00000E+00
 
    0.16312E+06         0.51700E+06         0.00000E+00
    0.51700E+06         0.20263E+06         0.00000E+00
    0.00000E+00         0.00000E+00         0.00000E+00
 
    0.14204E+06         0.52192E+06         0.00000E+00
    0.52192E+06         0.21322E+06         0.00000E+00
    0.00000E+00         0.00000E+00         0.00000E+00
 
    0.12074E+06         0.52644E+06         0.00000E+00
    0.52644E+06         0.22392E+06         0.00000E+00
    0.00000E+00         0.00000E+00         0.00000E+00
 
    0.99214E+05         0.53056E+06         0.00000E+00
    0.53056E+06         0.23472E+06         0.00000E+00
    0.00000E+00         0.00000E+00         0.00000E+00
 
    0.77487E+05         0.53426E+06         0.00000E+00
    0.53426E+06         0.24562E+06         0.00000E+00
    0.00000E+00         0.00000E+00         0.00000E+00
 
    0.55566E+05         0.53754E+06         0.00000E+00
    0.53754E+06         0.25662E+06         0.00000E+00
    0.00000E+00         0.00000E+00         0.00000E+00
 
    0.33461E+05         0.54041E+06         0.00000E+00
    0.54041E+06         0.26770E+06         0.00000E+00
    0.00000E+00         0.00000E+00         0.00000E+00
 
    0.11182E+05         0.54286E+06         0.00000E+00
    0.54286E+06         0.27885E+06         0.00000E+00
    0.00000E+00         0.00000E+00         0.00000E+00
 
    0.78927E+06         0.96319E+04         0.00000E+00
    0.96319E+04        -0.69563E+05         0.00000E+00
    0.00000E+00         0.00000E+00         0.00000E+00
 
    0.78618E+06         0.28538E+05         0.00000E+00
    0.28538E+05        -0.69162E+05         0.00000E+00
    0.00000E+00         0.00000E+00         0.00000E+00
 
    0.78239E+06         0.47298E+05         0.00000E+00
    0.47298E+05        -0.68370E+05         0.00000E+00
    0.00000E+00         0.00000E+00         0.00000E+00
 
    0.77790E+06         0.65900E+05         0.00000E+00
    0.65900E+05        -0.67192E+05         0.00000E+00
    0.00000E+00         0.00000E+00         0.00000E+00
 
    0.77273E+06         0.84333E+05         0.00000E+00
    0.84333E+05        -0.65632E+05         0.00000E+00
    0.00000E+00         0.00000E+00         0.00000E+00
 
    0.76690E+06         0.10258E+06         0.00000E+00
    0.10258E+06        -0.63697E+05         0.00000E+00
    0.00000E+00         0.00000E+00         0.00000E+00
 
    0.76040E+06         0.12064E+06         0.00000E+00
    0.12064E+06        -0.61393E+05         0.00000E+00
    0.00000E+00         0.00000E+00         0.00000E+00
 
    0.75325E+06         0.13850E+06         0.00000E+00
    0.13850E+06        -0.58723E+05         0.00000E+00
    0.00000E+00         0.00000E+00         0.00000E+00
 
    0.74546E+06         0.15615E+06         0.00000E+00
    0.15615E+06        -0.55696E+05         0.00000E+00
    0.00000E+00         0.00000E+00         0.00000E+00
 
    0.73704E+06         0.17357E+06         0.00000E+00
    0.17357E+06        -0.52315E+05         0.00000E+00
    0.00000E+00         0.00000E+00         0.00000E+00
 
    0.72800E+06         0.19076E+06         0.00000E+00
    0.19076E+06        -0.48587E+05         0.00000E+00
    0.00000E+00         0.00000E+00         0.00000E+00
 
    0.71836E+06         0.20771E+06         0.00000E+00
    0.20771E+06        -0.44519E+05         0.00000E+00
    0.00000E+00         0.00000E+00         0.00000E+00
 
    0.70812E+06         0.22440E+06         0.00000E+00
    0.22440E+06        -0.40115E+05         0.00000E+00
    0.00000E+00         0.00000E+00         0.00000E+00
 
    0.69729E+06         0.24084E+06         0.00000E+00
    0.24084E+06        -0.35383E+05         0.00000E+00
    0.00000E+00         0.00000E+00         0.00000E+00
 
    0.68589E+06         0.25701E+06         0.00000E+00
    0.25701E+06        -0.30327E+05         0.00000E+00
    0.00000E+00         0.00000E+00         0.00000E+00
 
    0.67393E+06         0.27290E+06         0.00000E+00
    0.27290E+06        -0.24956E+05         0.00000E+00
    0.00000E+00         0.00000E+00         0.00000E+00
 
    0.66142E+06         0.28851E+06         0.00000E+00
    0.28851E+06        -0.19273E+05         0.00000E+00
    0.00000E+00         0.00000E+00         0.00000E+00
 
    0.64837E+06         0.30382E+06         0.00000E+00
    0.30382E+06        -0.13287E+05         0.00000E+00
    0.00000E+00         0.00000E+00         0.00000E+00
 
    0.63479E+06         0.31883E+06         0.00000E+00
    0.31883E+06        -0.70029E+04         0.00000E+00
    0.00000E+00         0.00000E+00         0.00000E+00
 
    0.62069E+06         0.33353E+06         0.00000E+00
    0.33353E+06        -0.42737E+03         0.00000E+00
    0.00000E+00         0.00000E+00         0.00000E+00
 
    0.60608E+06         0.34792E+06         0.00000E+00
    0.34792E+06         0.64331E+04         0.00000E+00
    0.00000E+00         0.00000E+00         0.00000E+00
 
    0.59098E+06         0.36198E+06         0.00000E+00
    0.36198E+06         0.13572E+05         0.00000E+00
    0.00000E+00         0.00000E+00         0.00000E+00
 
    0.57539E+06         0.37571E+06         0.00000E+00
    0.37571E+06         0.20983E+05         0.00000E+00
    0.00000E+00         0.00000E+00         0.00000E+00
 
    0.55934E+06         0.38911E+06         0.00000E+00
    0.38911E+06         0.28660E+05         0.00000E+00
    0.00000E+00         0.00000E+00         0.00000E+00
 
    0.54282E+06         0.40216E+06         0.00000E+00
    0.40216E+06         0.36596E+05         0.00000E+00
    0.00000E+00         0.00000E+00         0.00000E+00
 
    0.52585E+06         0.41486E+06         0.00000E+00
    0.41486E+06         0.44785E+05         0.00000E+00
    0.00000E+00         0.00000E+00         0.00000E+00
 
    0.50844E+06         0.42721E+06         0.00000E+00
    0.42721E+06         0.53219E+05         0.00000E+00
    0.00000E+00         0.00000E+00         0.00000E+00
 
    0.49060E+06         0.43920E+06         0.00000E+00
    0.43920E+06         0.61893E+05         0.00000E+00
    0.00000E+00         0.00000E+00         0.00000E+00
 
    0.47235E+06         0.45082E+06         0.00000E+00
    0.45082E+06         0.70801E+05         0.00000E+00
    0.00000E+00         0.00000E+00         0.00000E+00
 
    0.45369E+06         0.46207E+06         0.00000E+00
    0.46207E+06         0.79934E+05         0.00000E+00
    0.00000E+00         0.00000E+00         0.00000E+00
 
    0.43464E+06         0.47293E+06         0.00000E+00
    0.47293E+06         0.89287E+05         0.00000E+00
    0.00000E+00         0.00000E+00         0.00000E+00
 
    0.41520E+06         0.48342E+06         0.00000E+00
    0.48342E+06         0.98853E+05         0.00000E+00
    0.00000E+00         0.00000E+00         0.00000E+00
 
    0.39540E+06         0.49352E+06         0.00000E+00
    0.49352E+06         0.10863E+06         0.00000E+00
    0.00000E+00         0.00000E+00         0.00000E+00
 
    0.37523E+06         0.50322E+06         0.00000E+00
    0.50322E+06         0.11860E+06         0.00000E+00
    0.00000E+00         0.00000E+00         0.00000E+00
 
    0.35471E+06         0.51253E+06         0.00000E+00
    0.51253E+06         0.12876E+06         0.00000E+00
    0.00000E+00         0.00000E+00         0.00000E+00
 
    0.33385E+06         0.52143E+06         0.00000E+00
    0.52143E+06         0.13911E+06         0.00000E+00
    0.00000E+00         0.00000E+00         0.00000E+00
 
    0.31266E+06         0.52993E+06         0.00000E+00
    0.52993E+06         0.14965E+06         0.00000E+00
    0.00000E+00         0.00000E+00         0.00000E+00
 
    0.29116E+06         0.53802E+06         0.00000E+00
    0.53802E+06         0.16035E+06         0.00000E+00
    0.00000E+00         0.00000E+00         0.00000E+00
 
    0.26935E+06         0.54569E+06         0.00000E+00
    0.54569E+06         0.17122E+06         0.00000E+00
    0.00000E+00         0.00000E+00         0.00000E+00
 
    0.24724E+06         0.55294E+06         0.00000E+00
    0.55294E+06         0.18225E+06         0.00000E+00
    0.00000E+00         0.00000E+00         0.00000E+00
 
    0.22485E+06         0.55976E+06         0.00000E+00
    0.55976E+06         0.19343E+06         0.00000E+00
    0.00000E+00         0.00000E+00         0.00000E+00
 
    0.20218E+06         0.56616E+06         0.00000E+00
    0.56616E+06         0.20476E+06         0.00000E+00
    0.00000E+00         0.00000E+00         0.00000E+00
 
    0.17925E+06         0.57213E+06         0.00000E+00
    0.57213E+06         0.21623E+06         0.00000E+00
    0.00000E+00         0.00000E+00         0.00000E+00
 
    0.15607E+06         0.57766E+06         0.00000E+00
    0.57766E+06         0.22783E+06         0.00000E+00
    0.00000E+00         0.00000E+00         0.00000E+00
 
    0.13265E+06         0.58276E+06         0.00000E+00
    0.58276E+06         0.23955E+06         0.00000E+00
    0.00000E+00         0.00000E+00         0.00000E+00
 
    0.10900E+06         0.58741E+06         0.00000E+00
    0.58741E+06         0.25140E+06         0.00000E+00
    0.00000E+00         0.00000E+00         0.00000E+00
 
    0.85122E+05         0.59162E+06         0.00000E+00
    0.59162E+06         0.26335E+06         0.00000E+00
    0.00000E+00         0.00000E+00         0.00000E+00
 
    0.61038E+05         0.59538E+06         0.00000E+00
    0.59538E+06         0.27541E+06         0.00000E+00
    0.00000E+00         0.00000E+00         0.00000E+00
 
    0.36754E+05         0.59869E+06         0.00000E+00
    0.59869E+06         0.28757E+06         0.00000E+00
    0.00000E+00         0.00000E+00         0.00000E+00
 
    0.12282E+05         0.60154E+06         0.00000E+00
    0.60154E+06         0.29982E+06         0.00000E+00
    0.00000E+00         0.00000E+00         0.00000E+00
 
    0.87621E+06         0.10701E+05         0.00000E+00
    0.10701E+05        -0.82614E+05         0.00000E+00
    0.00000E+00         0.00000E+00         0.00000E+00
 
    0.87236E+06         0.31671E+05         0.00000E+00
    0.31671E+05        -0.82174E+05         0.00000E+00
    0.00000E+00         0.00000E+00         0.00000E+00
 
    0.86773E+06         0.52467E+05         0.00000E+00
    0.52467E+05        -0.81304E+05         0.00000E+00
    0.00000E+00         0.00000E+00         0.00000E+00
 
    0.86236E+06         0.73077E+05         0.00000E+00
    0.73077E+05        -0.80012E+05         0.00000E+00
    0.00000E+00         0.00000E+00         0.00000E+00
 
    0.85625E+06         0.93489E+05         0.00000E+00
    0.93489E+05        -0.78303E+05         0.00000E+00
    0.00000E+00         0.00000E+00         0.00000E+00
 
    0.84940E+06         0.11369E+06         0.00000E+00
    0.11369E+06        -0.76183E+05         0.00000E+00
    0.00000E+00         0.00000E+00         0.00000E+00
 
    0.84185E+06         0.13367E+06         0.00000E+00
    0.13367E+06        -0.73659E+05         0.00000E+00
    0.00000E+00         0.00000E+00         0.00000E+00
 
    0.83358E+06         0.15342E+06         0.00000E+00
    0.15342E+06        -0.70737E+05         0.00000E+00
    0.00000E+00         0.00000E+00         0.00000E+00
 
    0.82463E+06         0.17292E+06         0.00000E+00
    0.17292E+06        -0.67423E+05         0.00000E+00
    0.00000E+00         0.00000E+00         0.00000E+00
 
    0.81500E+06         0.19217E+06         0.00000E+00
    0.19217E+06        -0.63724E+05         0.00000E+00
    0.00000E+00         0.00000E+00         0.00000E+00
 
    0.80470E+06         0.21116E+06         0.00000E+00
    0.21116E+06        -0.59647E+05         0.00000E+00
    0.00000E+00         0.00000E+00         0.00000E+00
 
    0.79374E+06         0.22987E+06         0.00000E+00
    0.22987E+06        -0.55198E+05         0.00000E+00
    0.00000E+00         0.00000E+00         0.00000E+00
 
    0.78215E+06         0.24830E+06         0.00000E+00
    0.24830E+06        -0.50384E+05         0.00000E+00
    0.00000E+00         0.00000E+00         0.00000E+00
 
    0.76992E+06         0.26644E+06         0.00000E+00
    0.26644E+06        -0.45211E+05         0.00000E+00
    0.00000E+00         0.00000E+00         0.00000E+00
 
    0.75708E+06         0.28428E+06         0.00000E+00
    0.28428E+06        -0.39687E+05         0.00000E+00
    0.00000E+00         0.00000E+00         0.00000E+00
 
    0.74363E+06         0.30181E+06         0.00000E+00
    0.30181E+06        -0.33818E+05         0.00000E+00
    0.00000E+00         0.00000E+00         0.00000E+00
 
    0.72959E+06         0.31902E+06         0.00000E+00
    0.31902E+06        -0.27612E+05         0.00000E+00
    0.00000E+00         0.00000E+00         0.00000E+00
 
    0.71497E+06         0.33590E+06         0.00000E+00
    0.33590E+06        -0.21074E+05         0.00000E+00
    0.00000E+00         0.00000E+00         0.00000E+00
 
    0.69978E+06         0.35245E+06         0.00000E+00
    0.35245E+06        -0.14212E+05         0.00000E+00
    0.00000E+00         0.00000E+00         0.00000E+00
 
    0.68403E+06         0.36865E+06         0.00000E+00
    0.36865E+06        -0.70334E+04         0.00000E+00
    0.00000E+00         0.00000E+00         0.00000E+00
 
    0.66775E+06         0.38451E+06         0.00000E+00
    0.38451E+06         0.45567E+03         0.00000E+00
    0.00000E+00         0.00000E+00         0.00000E+00
 
    0.65093E+06         0.40001E+06         0.00000E+00
    0.40001E+06         0.82480E+04         0.00000E+00
    0.00000E+00         0.00000E+00         0.00000E+00
 
    0.63359E+06         0.41514E+06         0.00000E+00
    0.41514E+06         0.16337E+05         0.00000E+00
    0.00000E+00         0.00000E+00         0.00000E+00
 
    0.61575E+06         0.42991E+06         0.00000E+00
    0.42991E+06         0.24714E+05         0.00000E+00
    0.00000E+00         0.00000E+00         0.00000E+00
 
    0.59742E+06         0.44430E+06         0.00000E+00
    0.44430E+06         0.33374E+05         0.00000E+00
    0.00000E+00         0.00000E+00         0.00000E+00
 
    0.57860E+06         0.45830E+06         0.00000E+00
    0.45830E+06         0.42310E+05         0.00000E+00
    0.00000E+00         0.00000E+00         0.00000E+00
 
    0.55932E+06         0.47192E+06         0.00000E+00
    0.47192E+06         0.51513E+05         0.00000E+00
    0.00000E+00         0.00000E+00         0.00000E+00
 
    0.53958E+06         0.48514E+06         0.00000E+00
    0.48514E+06         0.60978E+05         0.00000E+00
    0.00000E+00         0.00000E+00         0.00000E+00
 
    0.51939E+06         0.49796E+06         0.00000E+00
    0.49796E+06         0.70697E+05         0.00000E+00
    0.00000E+00         0.00000E+00         0.00000E+00
 
    0.49877E+06         0.51037E+06         0.00000E+00
    0.51037E+06         0.80663E+05         0.00000E+00
    0.00000E+00         0.00000E+00         0.00000E+00
 
    0.47773E+06         0.52238E+06         0.00000E+00
    0.52238E+06         0.90869E+05         0.00000E+00
    0.00000E+00         0.00000E+00         0.00000E+00
 
    0.45628E+06         0.53396E+06         0.00000E+00
    0.53396E+06         0.10131E+06         0.00000E+00
    0.00000E+00         0.00000E+00         0.00000E+00
 
    0.43443E+06         0.54512E+06         0.00000E+00
    0.54512E+06         0.11197E+06         0.00000E+00
    0.00000E+00         0.00000E+00         0.00000E+00
 
    0.41220E+06         0.55585E+06         0.00000E+00
    0.55585E+06         0.12286E+06         0.00000E+00
    0.00000E+00         0.00000E+00         0.00000E+00
 
    0.38960E+06         0.56616E+06         0.00000E+00
    0.56616E+06         0.13396E+06         0.00000E+00
    0.00000E+00         0.00000E+00         0.00000E+00
 
    0.36663E+06         0.57602E+06         0.00000E+00
    0.57602E+06         0.14526E+06         0.00000E+00
    0.00000E+00         0.00000E+00         0.00000E+00
 
    0.34331E+06         0.58544E+06         0.00000E+00
    0.58544E+06         0.15676E+06         0.00000E+00
    0.00000E+00         0.00000E+00         0.00000E+00
 
    0.31965E+06         0.59442E+06         0.00000E+00
    0.59442E+06         0.16845E+06         0.00000E+00
    0.00000E+00         0.00000E+00         0.00000E+00
 
    0.29567E+06         0.60295E+06         0.00000E+00
    0.60295E+06         0.18032E+06         0.00000E+00
    0.00000E+00         0.00000E+00         0.00000E+00
 
    0.27137E+06         0.61102E+06         0.00000E+00
    0.61102E+06         0.19237E+06         0.00000E+00
    0.00000E+00         0.00000E+00         0.00000E+00
 
    0.24676E+06         0.61863E+06         0.00000E+00
    0.61863E+06         0.20459E+06         0.00000E+00
    0.00000E+00         0.00000E+00         0.00000E+00
 
    0.22186E+06         0.62579E+06         0.00000E+00
    0.62579E+06         0.21697E+06         0.00000E+00
    0.00000E+00         0.00000E+00         0.00000E+00
 
    0.19668E+06         0.63247E+06         0.00000E+00
    0.63247E+06         0.22951E+06         0.00000E+00
    0.00000E+00         0.00000E+00         0.00000E+00
 
    0.17123E+06         0.63869E+06         0.00000E+00
    0.63869E+06         0.24220E+06         0.00000E+00
    0.00000E+00         0.00000E+00         0.00000E+00
 
    0.14552E+06         0.64443E+06         0.00000E+00
    0.64443E+06         0.25503E+06         0.00000E+00
    0.00000E+00         0.00000E+00         0.00000E+00
 
    0.11956E+06         0.64970E+06         0.00000E+00
    0.64970E+06         0.26799E+06         0.00000E+00
    0.00000E+00         0.00000E+00         0.00000E+00
 
    0.93368E+05         0.65448E+06         0.00000E+00
    0.65448E+06         0.28108E+06         0.00000E+00
    0.00000E+00         0.00000E+00         0.00000E+00
 
    0.66946E+05         0.65879E+06         0.00000E+00
    0.65879E+06         0.29429E+06         0.00000E+00
    0.00000E+00         0.00000E+00         0.00000E+00
 
    0.40310E+05         0.66260E+06         0.00000E+00
    0.66260E+06         0.30761E+06         0.00000E+00
    0.00000E+00         0.00000E+00         0.00000E+00
 
    0.13470E+05         0.66593E+06         0.00000E+00
    0.66593E+06         0.32103E+06         0.00000E+00
    0.00000E+00         0.00000E+00         0.00000E+00
 
    0.97168E+06         0.11874E+05         0.00000E+00
    0.11874E+05        -0.98027E+05         0.00000E+00
    0.00000E+00         0.00000E+00         0.00000E+00
 
    0.96690E+06         0.35105E+05         0.00000E+00
    0.35105E+05        -0.97545E+05         0.00000E+00
    0.00000E+00         0.00000E+00         0.00000E+00
 
    0.96130E+06         0.58130E+05         0.00000E+00
    0.58130E+05        -0.96594E+05         0.00000E+00
    0.00000E+00         0.00000E+00         0.00000E+00
 
    0.95489E+06         0.80937E+05         0.00000E+00
    0.80937E+05        -0.95181E+05         0.00000E+00
    0.00000E+00         0.00000E+00         0.00000E+00
 
    0.94767E+06         0.10351E+06         0.00000E+00
    0.10351E+06        -0.93312E+05         0.00000E+00
    0.00000E+00         0.00000E+00         0.00000E+00
 
    0.93967E+06         0.12584E+06         0.00000E+00
    0.12584E+06        -0.90994E+05         0.00000E+00
    0.00000E+00         0.00000E+00         0.00000E+00
 
    0.93089E+06         0.14792E+06         0.00000E+00
    0.14792E+06        -0.88236E+05         0.00000E+00
    0.00000E+00         0.00000E+00         0.00000E+00
 
    0.92135E+06         0.16973E+06         0.00000E+00
    0.16973E+06        -0.85044E+05         0.00000E+00
    0.00000E+00         0.00000E+00         0.00000E+00
 
    0.91107E+06         0.19126E+06         0.00000E+00
    0.19126E+06        -0.81426E+05         0.00000E+00
    0.00000E+00         0.00000E+00         0.00000E+00
 
    0.90006E+06         0.21250E+06         0.00000E+00
    0.21250E+06        -0.77388E+05         0.00000E+00
    0.00000E+00         0.00000E+00         0.00000E+00
 
    0.88833E+06         0.23345E+06         0.00000E+00
    0.23345E+06        -0.72938E+05         0.00000E+00
    0.00000E+00         0.00000E+00         0.00000E+00
 
    0.87590E+06         0.25408E+06         0.00000E+00
    0.25408E+06        -0.68084E+05         0.00000E+00
    0.00000E+00         0.00000E+00         0.00000E+00
 
    0.86278E+06         0.27440E+06         0.00000E+00
    0.27440E+06        -0.62833E+05         0.00000E+00
    0.00000E+00         0.00000E+00         0.00000E+00
 
    0.84898E+06         0.29439E+06         0.00000E+00
    0.29439E+06        -0.57193E+05         0.00000E+00
    0.00000E+00         0.00000E+00         0.00000E+00
 
    0.83452E+06         0.31404E+06         0.00000E+00
    0.31404E+06        -0.51171E+05         0.00000E+00
    0.00000E+00         0.00000E+00         0.00000E+00
 
    0.81941E+06         0.33335E+06         0.00000E+00
    0.33335E+06        -0.44774E+05         0.00000E+00
    0.00000E+00         0.00000E+00         0.00000E+00
 
    0.80367E+06         0.35230E+06         0.00000E+00
    0.35230E+06        -0.38010E+05         0.00000E+00
    0.00000E+00         0.00000E+00         0.00000E+00
 
    0.78731E+06         0.37089E+06         0.00000E+00
    0.37089E+06        -0.30886E+05         0.00000E+00
    0.00000E+00         0.00000E+00         0.00000E+00
 
    0.77034E+06         0.38911E+06         0.00000E+00
    0.38911E+06        -0.23411E+05         0.00000E+00
    0.00000E+00         0.00000E+00         0.00000E+00
 
    0.75277E+06         0.40695E+06         0.00000E+00
    0.40695E+06        -0.15591E+05         0.00000E+00
    0.00000E+00         0.00000E+00         0.00000E+00
 
    0.73463E+06         0.42441E+06         0.00000E+00
    0.42441E+06        -0.74347E+04         0.00000E+00
    0.00000E+00         0.00000E+00         0.00000E+00
 
    0.71593E+06         0.44147E+06         0.00000E+00
    0.44147E+06         0.10513E+04         0.00000E+00
    0.00000E+00         0.00000E+00         0.00000E+00
 
    0.69667E+06         0.45813E+06         0.00000E+00
    0.45813E+06         0.98592E+04         0.00000E+00
    0.00000E+00         0.00000E+00         0.00000E+00
 
    0.67687E+06         0.47439E+06         0.00000E+00
    0.47439E+06         0.18981E+05         0.00000E+00
    0.00000E+00         0.00000E+00         0.00000E+00
 
    0.65654E+06         0.49023E+06         0.00000E+00
    0.49023E+06         0.28410E+05         0.00000E+00
    0.00000E+00         0.00000E+00         0.00000E+00
 
    0.63571E+06         0.50565E+06         0.00000E+00
    0.50565E+06         0.38139E+05         0.00000E+00
    0.00000E+00         0.00000E+00         0.00000E+00
 
    0.61437E+06         0.52065E+06         0.00000E+00
    0.52065E+06         0.48159E+05         0.00000E+00
    0.00000E+00         0.00000E+00         0.00000E+00
 
    0.59255E+06         0.53522E+06         0.00000E+00
    0.53522E+06         0.58464E+05         0.00000E+00
    0.00000E+00         0.00000E+00         0.00000E+00
 
    0.57025E+06         0.54935E+06         0.00000E+00
    0.54935E+06         0.69046E+05         0.00000E+00
    0.00000E+00         0.00000E+00         0.00000E+00
 
    0.54750E+06         0.56303E+06         0.00000E+00
    0.56303E+06         0.79897E+05         0.00000E+00
    0.00000E+00         0.00000E+00         0.00000E+00
 
    0.52429E+06         0.57627E+06         0.00000E+00
    0.57627E+06         0.91011E+05         0.00000E+00
    0.00000E+00         0.00000E+00         0.00000E+00
 
    0.50065E+06         0.58906E+06         0.00000E+00
    0.58906E+06         0.10238E+06         0.00000E+00
    0.00000E+00         0.00000E+00         0.00000E+00
 
    0.47659E+06         0.60138E+06         0.00000E+00
    0.60138E+06         0.11399E+06         0.00000E+00
    0.00000E+00         0.00000E+00         0.00000E+00
 
    0.45212E+06         0.61324E+06         0.00000E+00
    0.61324E+06         0.12585E+06         0.00000E+00
    0.00000E+00         0.00000E+00         0.00000E+00
 
    0.42725E+06         0.62464E+06         0.00000E+00
    0.62464E+06         0.13794E+06         0.00000E+00
    0.00000E+00         0.00000E+00         0.00000E+00
 
    0.40200E+06         0.63556E+06         0.00000E+00
    0.63556E+06         0.15025E+06         0.00000E+00
    0.00000E+00         0.00000E+00         0.00000E+00
 
    0.37637E+06         0.64600E+06         0.00000E+00
    0.64600E+06         0.16278E+06         0.00000E+00
    0.00000E+00         0.00000E+00         0.00000E+00
 
    0.35039E+06         0.65596E+06         0.00000E+00
    0.65596E+06         0.17552E+06         0.00000E+00
    0.00000E+00         0.00000E+00         0.00000E+00
 
    0.32405E+06         0.66544E+06         0.00000E+00
    0.66544E+06         0.18847E+06         0.00000E+00
    0.00000E+00         0.00000E+00         0.00000E+00
 
    0.29738E+06         0.67443E+06         0.00000E+00
    0.67443E+06         0.20161E+06         0.00000E+00
    0.00000E+00         0.00000E+00         0.00000E+00
 
    0.27038E+06         0.68292E+06         0.00000E+00
    0.68292E+06         0.21494E+06         0.00000E+00
    0.00000E+00         0.00000E+00         0.00000E+00
 
    0.24307E+06         0.69091E+06         0.00000E+00
    0.69091E+06         0.22845E+06         0.00000E+00
    0.00000E+00         0.00000E+00         0.00000E+00
 
    0.21546E+06         0.69840E+06         0.00000E+00
    0.69840E+06         0.24213E+06         0.00000E+00
    0.00000E+00         0.00000E+00         0.00000E+00
 
    0.18756E+06         0.70538E+06         0.00000E+00
    0.70538E+06         0.25598E+06         0.00000E+00
    0.00000E+00         0.00000E+00         0.00000E+00
 
    0.15939E+06         0.71186E+06         0.00000E+00
    0.71186E+06         0.26999E+06         0.00000E+00
    0.00000E+00         0.00000E+00         0.00000E+00
 
    0.13095E+06         0.71782E+06         0.00000E+00
    0.71782E+06         0.28415E+06         0.00000E+00
    0.00000E+00         0.00000E+00         0.00000E+00
 
    0.10225E+06         0.72326E+06         0.00000E+00
    0.72326E+06         0.29846E+06         0.00000E+00
    0.00000E+00         0.00000E+00         0.00000E+00
 
    0.73310E+05         0.72819E+06         0.00000E+00
    0.72819E+06         0.31290E+06         0.00000E+00
    0.00000E+00         0.00000E+00         0.00000E+00
 
    0.44139E+05         0.73259E+06         0.00000E+00
    0.73259E+06         0.32747E+06         0.00000E+00
    0.00000E+00         0.00000E+00         0.00000E+00
 
    0.14749E+05         0.73646E+06         0.00000E+00
    0.73646E+06         0.34216E+06         0.00000E+00
    0.00000E+00         0.00000E+00         0.00000E+00
 
    0.10763E+07         0.13160E+05         0.00000E+00
    0.13160E+05        -0.11621E+06         0.00000E+00
    0.00000E+00         0.00000E+00         0.00000E+00
 
    0.10704E+07         0.38861E+05         0.00000E+00
    0.38861E+05        -0.11569E+06         0.00000E+00
    0.00000E+00         0.00000E+00         0.00000E+00
 
    0.10637E+07         0.64320E+05         0.00000E+00
    0.64320E+05        -0.11465E+06         0.00000E+00
    0.00000E+00         0.00000E+00         0.00000E+00
 
    0.10560E+07         0.89522E+05         0.00000E+00
    0.89522E+05        -0.11311E+06         0.00000E+00
    0.00000E+00         0.00000E+00         0.00000E+00
 
    0.10475E+07         0.11446E+06         0.00000E+00
    0.11446E+06        -0.11107E+06         0.00000E+00
    0.00000E+00         0.00000E+00         0.00000E+00
 
    0.10382E+07         0.13911E+06         0.00000E+00
    0.13911E+06        -0.10854E+06         0.00000E+00
    0.00000E+00         0.00000E+00         0.00000E+00
 
    0.10280E+07         0.16347E+06         0.00000E+00
    0.16347E+06        -0.10553E+06         0.00000E+00
    0.00000E+00         0.00000E+00         0.00000E+00
 
    0.10170E+07         0.18752E+06         0.00000E+00
    0.18752E+06        -0.10206E+06         0.00000E+00
    0.00000E+00         0.00000E+00         0.00000E+00
 
    0.10052E+07         0.21125E+06         0.00000E+00
    0.21125E+06        -0.98114E+05         0.00000E+00
    0.00000E+00         0.00000E+00         0.00000E+00
 
    0.99265E+06         0.23466E+06         0.00000E+00
    0.23466E+06        -0.93717E+05         0.00000E+00
    0.00000E+00         0.00000E+00         0.00000E+00
 
    0.97931E+06         0.25773E+06         0.00000E+00
    0.25773E+06        -0.88873E+05         0.00000E+00
    0.00000E+00         0.00000E+00         0.00000E+00
 
    0.96521E+06         0.28046E+06         0.00000E+00
    0.28046E+06        -0.83591E+05         0.00000E+00
    0.00000E+00         0.00000E+00         0.00000E+00
 
    0.95038E+06         0.30282E+06         0.00000E+00
    0.30282E+06        -0.77878E+05         0.00000E+00
    0.00000E+00         0.00000E+00         0.00000E+00
 
    0.93482E+06         0.32482E+06         0.00000E+00
    0.32482E+06        -0.71743E+05         0.00000E+00
    0.00000E+00         0.00000E+00         0.00000E+00
 
    0.91856E+06         0.34644E+06         0.00000E+00
    0.34644E+06        -0.65193E+05         0.00000E+00
    0.00000E+00         0.00000E+00         0.00000E+00
 
    0.90160E+06         0.36768E+06         0.00000E+00
    0.36768E+06        -0.58238E+05         0.00000E+00
    0.00000E+00         0.00000E+00         0.00000E+00
 
    0.88397E+06         0.38852E+06         0.00000E+00
    0.38852E+06        -0.50885E+05         0.00000E+00
    0.00000E+00         0.00000E+00         0.00000E+00
 
    0.86568E+06         0.40897E+06         0.00000E+00
    0.40897E+06        -0.43143E+05         0.00000E+00
    0.00000E+00         0.00000E+00         0.00000E+00
 
    0.84674E+06         0.42900E+06         0.00000E+00
    0.42900E+06        -0.35020E+05         0.00000E+00
    0.00000E+00         0.00000E+00         0.00000E+00
 
    0.82717E+06         0.44861E+06         0.00000E+00
    0.44861E+06        -0.26523E+05         0.00000E+00
    0.00000E+00         0.00000E+00         0.00000E+00
 
    0.80699E+06         0.46780E+06         0.00000E+00
    0.46780E+06        -0.17661E+05         0.00000E+00
    0.00000E+00         0.00000E+00         0.00000E+00
 
    0.78620E+06         0.48656E+06         0.00000E+00
    0.48656E+06        -0.84422E+04         0.00000E+00
    0.00000E+00         0.00000E+00         0.00000E+00
 
    0.76483E+06         0.50488E+06         0.00000E+00
    0.50488E+06         0.11255E+04         0.00000E+00
    0.00000E+00         0.00000E+00         0.00000E+00
 
    0.74289E+06         0.52276E+06         0.00000E+00
    0.52276E+06         0.11034E+05         0.00000E+00
    0.00000E+00         0.00000E+00         0.00000E+00
 
    0.72039E+06         0.54018E+06         0.00000E+00
    0.54018E+06         0.21276E+05         0.00000E+00
    0.00000E+00         0.00000E+00         0.00000E+00
 
    0.69734E+06         0.55714E+06         0.00000E+00
    0.55714E+06         0.31842E+05         0.00000E+00
    0.00000E+00         0.00000E+00         0.00000E+00
 
    0.67377E+06         0.57364E+06         0.00000E+00
    0.57364E+06         0.42726E+05         0.00000E+00
    0.00000E+00         0.00000E+00         0.00000E+00
 
    0.64968E+06         0.58967E+06         0.00000E+00
    0.58967E+06         0.53919E+05         0.00000E+00
    0.00000E+00         0.00000E+00         0.00000E+00
 
    0.62509E+06         0.60523E+06         0.00000E+00
    0.60523E+06         0.65413E+05         0.00000E+00
    0.00000E+00         0.00000E+00         0.00000E+00
 
    0.60001E+06         0.62030E+06         0.00000E+00
    0.62030E+06         0.77200E+05         0.00000E+00
    0.00000E+00         0.00000E+00         0.00000E+00
 
    0.57446E+06         0.63489E+06         0.00000E+00
    0.63489E+06         0.89274E+05         0.00000E+00
    0.00000E+00         0.00000E+00         0.00000E+00
 
    0.54845E+06         0.64899E+06         0.00000E+00
    0.64899E+06         0.10163E+06         0.00000E+00
    0.00000E+00         0.00000E+00         0.00000E+00
 
    0.52199E+06         0.66259E+06         0.00000E+00
    0.66259E+06         0.11425E+06         0.00000E+00
    0.00000E+00         0.00000E+00         0.00000E+00
 
    0.49509E+06         0.67569E+06         0.00000E+00
    0.67569E+06         0.12713E+06         0.00000E+00
    0.00000E+00         0.00000E+00         0.00000E+00
 
    0.46778E+06         0.68828E+06         0.00000E+00
    0.68828E+06         0.14027E+06         0.00000E+00
    0.00000E+00         0.00000E+00         0.00000E+00
 
    0.44005E+06         0.70036E+06         0.00000E+00
    0.70036E+06         0.15366E+06         0.00000E+00
    0.00000E+00         0.00000E+00         0.00000E+00
 
    0.41193E+06         0.71193E+06         0.00000E+00
    0.71193E+06         0.16728E+06         0.00000E+00
    0.00000E+00         0.00000E+00         0.00000E+00
 
    0.38343E+06         0.72298E+06         0.00000E+00
    0.72298E+06         0.18114E+06         0.00000E+00
    0.00000E+00         0.00000E+00         0.00000E+00
 
    0.35456E+06         0.73351E+06         0.00000E+00
    0.73351E+06         0.19522E+06         0.00000E+00
    0.00000E+00         0.00000E+00         0.00000E+00
 
    0.32534E+06         0.74350E+06         0.00000E+00
    0.74350E+06         0.20952E+06         0.00000E+00
    0.00000E+00         0.00000E+00         0.00000E+00
 
    0.29577E+06         0.75297E+06         0.00000E+00
    0.75297E+06         0.22403E+06         0.00000E+00
    0.00000E+00         0.00000E+00         0.00000E+00
 
    0.26586E+06         0.76190E+06         0.00000E+00
    0.76190E+06         0.23874E+06         0.00000E+00
    0.00000E+00         0.00000E+00         0.00000E+00
 
    0.23564E+06         0.77029E+06         0.00000E+00
    0.77029E+06         0.25365E+06         0.00000E+00
    0.00000E+00         0.00000E+00         0.00000E+00
 
    0.20511E+06         0.77813E+06         0.00000E+00
    0.77813E+06         0.26874E+06         0.00000E+00
    0.00000E+00         0.00000E+00         0.00000E+00
 
    0.17428E+06         0.78543E+06         0.00000E+00
    0.78543E+06         0.28401E+06         0.00000E+00
    0.00000E+00         0.00000E+00         0.00000E+00
 
    0.14317E+06         0.79218E+06         0.00000E+00
    0.79218E+06         0.29945E+06         0.00000E+00
    0.00000E+00         0.00000E+00         0.00000E+00
 
    0.11179E+06         0.79838E+06         0.00000E+00
    0.79838E+06         0.31505E+06         0.00000E+00
    0.00000E+00         0.00000E+00         0.00000E+00
 
    0.80142E+05         0.80401E+06         0.00000E+00
    0.80401E+06         0.33082E+06         0.00000E+00
    0.00000E+00         0.00000E+00         0.00000E+00
 
    0.48250E+05         0.80909E+06         0.00000E+00
    0.80909E+06         0.34673E+06         0.00000E+00
    0.00000E+00         0.00000E+00         0.00000E+00
 
    0.16122E+05         0.81360E+06         0.00000E+00
    0.81360E+06         0.36278E+06         0.00000E+00
    0.00000E+00         0.00000E+00         0.00000E+00
 
    0.11906E+07         0.14564E+05         0.00000E+00
    0.14564E+05        -0.13765E+06         0.00000E+00
    0.00000E+00         0.00000E+00         0.00000E+00
 
    0.11835E+07         0.42959E+05         0.00000E+00
    0.42959E+05        -0.13707E+06         0.00000E+00
    0.00000E+00         0.00000E+00         0.00000E+00
 
    0.11754E+07         0.71068E+05         0.00000E+00
    0.71068E+05        -0.13594E+06         0.00000E+00
    0.00000E+00         0.00000E+00         0.00000E+00
 
    0.11663E+07         0.98878E+05         0.00000E+00
    0.98878E+05        -0.13426E+06         0.00000E+00
    0.00000E+00         0.00000E+00         0.00000E+00
 
    0.11564E+07         0.12638E+06         0.00000E+00
    0.12638E+06        -0.13204E+06         0.00000E+00
    0.00000E+00         0.00000E+00         0.00000E+00
 
    0.11455E+07         0.15355E+06         0.00000E+00
    0.15355E+06        -0.12930E+06         0.00000E+00
    0.00000E+00         0.00000E+00         0.00000E+00
 
    0.11337E+07         0.18039E+06         0.00000E+00
    0.18039E+06        -0.12603E+06         0.00000E+00
    0.00000E+00         0.00000E+00         0.00000E+00
 
    0.11210E+07         0.20687E+06         0.00000E+00
    0.20687E+06        -0.12225E+06         0.00000E+00
    0.00000E+00         0.00000E+00         0.00000E+00
 
    0.11075E+07         0.23300E+06         0.00000E+00
    0.23300E+06        -0.11797E+06         0.00000E+00
    0.00000E+00         0.00000E+00         0.00000E+00
 
    0.10932E+07         0.25876E+06         0.00000E+00
    0.25876E+06        -0.11319E+06         0.00000E+00
    0.00000E+00         0.00000E+00         0.00000E+00
 
    0.10780E+07         0.28413E+06         0.00000E+00
    0.28413E+06        -0.10793E+06         0.00000E+00
    0.00000E+00         0.00000E+00         0.00000E+00
 
    0.10620E+07         0.30912E+06         0.00000E+00
    0.30912E+06        -0.10220E+06         0.00000E+00
    0.00000E+00         0.00000E+00         0.00000E+00
 
    0.10453E+07         0.33370E+06         0.00000E+00
    0.33370E+06        -0.96002E+05         0.00000E+00
    0.00000E+00         0.00000E+00         0.00000E+00
 
    0.10278E+07         0.35788E+06         0.00000E+00
    0.35788E+06        -0.89347E+05         0.00000E+00
    0.00000E+00         0.00000E+00         0.00000E+00
 
    0.10095E+07         0.38163E+06         0.00000E+00
    0.38163E+06        -0.82244E+05         0.00000E+00
    0.00000E+00         0.00000E+00         0.00000E+00
 
    0.99049E+06         0.40496E+06         0.00000E+00
    0.40496E+06        -0.74702E+05         0.00000E+00
    0.00000E+00         0.00000E+00         0.00000E+00
 
    0.97077E+06         0.42785E+06         0.00000E+00
    0.42785E+06        -0.66731E+05         0.00000E+00
    0.00000E+00         0.00000E+00         0.00000E+00
 
    0.95034E+06         0.45029E+06         0.00000E+00
    0.45029E+06        -0.58339E+05         0.00000E+00
    0.00000E+00         0.00000E+00         0.00000E+00
 
    0.92923E+06         0.47229E+06         0.00000E+00
    0.47229E+06        -0.49534E+05         0.00000E+00
    0.00000E+00         0.00000E+00         0.00000E+00
 
    0.90746E+06         0.49382E+06         0.00000E+00
    0.49382E+06        -0.40327E+05         0.00000E+00
    0.00000E+00         0.00000E+00         0.00000E+00
 
    0.88503E+06         0.51489E+06         0.00000E+00
    0.51489E+06        -0.30724E+05         0.00000E+00
    0.00000E+00         0.00000E+00         0.00000E+00
 
    0.86196E+06         0.53548E+06         0.00000E+00
    0.53548E+06        -0.20736E+05         0.00000E+00
    0.00000E+00         0.00000E+00         0.00000E+00
 
    0.83828E+06         0.55560E+06         0.00000E+00
    0.55560E+06        -0.10371E+05         0.00000E+00
    0.00000E+00         0.00000E+00         0.00000E+00
 
    0.81399E+06         0.57522E+06         0.00000E+00
    0.57522E+06         0.36397E+03         0.00000E+00
    0.00000E+00         0.00000E+00         0.00000E+00
 
    0.78912E+06         0.59436E+06         0.00000E+00
    0.59436E+06         0.11459E+05         0.00000E+00
    0.00000E+00         0.00000E+00         0.00000E+00
 
    0.76366E+06         0.61300E+06         0.00000E+00
    0.61300E+06         0.22906E+05         0.00000E+00
    0.00000E+00         0.00000E+00         0.00000E+00
 
    0.73766E+06         0.63113E+06         0.00000E+00
    0.63113E+06         0.34697E+05         0.00000E+00
    0.00000E+00         0.00000E+00         0.00000E+00
 
    0.71110E+06         0.64875E+06         0.00000E+00
    0.64875E+06         0.46823E+05         0.00000E+00
    0.00000E+00         0.00000E+00         0.00000E+00
 
    0.68402E+06         0.66585E+06         0.00000E+00
    0.66585E+06         0.59277E+05         0.00000E+00
    0.00000E+00         0.00000E+00         0.00000E+00
 
    0.65643E+06         0.68244E+06         0.00000E+00
    0.68244E+06         0.72049E+05         0.00000E+00
    0.00000E+00         0.00000E+00         0.00000E+00
 
    0.62833E+06         0.69850E+06         0.00000E+00
    0.69850E+06         0.85133E+05         0.00000E+00
    0.00000E+00         0.00000E+00         0.00000E+00
 
    0.59975E+06         0.71403E+06         0.00000E+00
    0.71403E+06         0.98519E+05         0.00000E+00
    0.00000E+00         0.00000E+00         0.00000E+00
 
    0.57070E+06         0.72902E+06         0.00000E+00
    0.72902E+06         0.11220E+06         0.00000E+00
    0.00000E+00         0.00000E+00         0.00000E+00
 
    0.54119E+06         0.74347E+06         0.00000E+00
    0.74347E+06         0.12617E+06         0.00000E+00
    0.00000E+00         0.00000E+00         0.00000E+00
 
    0.51124E+06         0.75738E+06         0.00000E+00
    0.75738E+06         0.14042E+06         0.00000E+00
    0.00000E+00         0.00000E+00         0.00000E+00
 
    0.48086E+06         0.77074E+06         0.00000E+00
    0.77074E+06         0.15494E+06         0.00000E+00
    0.00000E+00         0.00000E+00         0.00000E+00
 
    0.45006E+06         0.78355E+06         0.00000E+00
    0.78355E+06         0.16972E+06         0.00000E+00
    0.00000E+00         0.00000E+00         0.00000E+00
 
    0.41886E+06         0.79579E+06         0.00000E+00
    0.79579E+06         0.18476E+06         0.00000E+00
    0.00000E+00         0.00000E+00         0.00000E+00
 
    0.38726E+06         0.80748E+06         0.00000E+00
    0.80748E+06         0.20004E+06         0.00000E+00
    0.00000E+00         0.00000E+00         0.00000E+00
 
    0.35529E+06         0.81860E+06         0.00000E+00
    0.81860E+06         0.21557E+06         0.00000E+00
    0.00000E+00         0.00000E+00         0.00000E+00
 
    0.32296E+06         0.82915E+06         0.00000E+00
    0.82915E+06         0.23132E+06         0.00000E+00
    0.00000E+00         0.00000E+00         0.00000E+00
 
    0.29027E+06         0.83912E+06         0.00000E+00
    0.83912E+06         0.24731E+06         0.00000E+00
    0.00000E+00         0.00000E+00         0.00000E+00
 
    0.25724E+06         0.84852E+06         0.00000E+00
    0.84852E+06         0.26351E+06         0.00000E+00
    0.00000E+00         0.00000E+00         0.00000E+00
 
    0.22389E+06         0.85734E+06         0.00000E+00
    0.85734E+06         0.27992E+06         0.00000E+00
    0.00000E+00         0.00000E+00         0.00000E+00
 
    0.19022E+06         0.86557E+06         0.00000E+00
    0.86557E+06         0.29653E+06         0.00000E+00
    0.00000E+00         0.00000E+00         0.00000E+00
 
    0.15625E+06         0.87321E+06         0.00000E+00
    0.87321E+06         0.31333E+06         0.00000E+00
    0.00000E+00         0.00000E+00         0.00000E+00
 
    0.12199E+06         0.88026E+06         0.00000E+00
    0.88026E+06         0.33032E+06         0.00000E+00
    0.00000E+00         0.00000E+00         0.00000E+00
 
    0.87454E+05         0.88671E+06         0.00000E+00
    0.88671E+06         0.34749E+06         0.00000E+00
    0.00000E+00         0.00000E+00         0.00000E+00
 
    0.52650E+05         0.89256E+06         0.00000E+00
    0.89256E+06         0.36483E+06         0.00000E+00
    0.00000E+00         0.00000E+00         0.00000E+00
 
    0.17591E+05         0.89781E+06         0.00000E+00
    0.89781E+06         0.38233E+06         0.00000E+00
    0.00000E+00         0.00000E+00         0.00000E+00
 
    0.13154E+07         0.16094E+05         0.00000E+00
    0.16094E+05        -0.16288E+06         0.00000E+00
    0.00000E+00         0.00000E+00         0.00000E+00
 
    0.13067E+07         0.47416E+05         0.00000E+00
    0.47416E+05        -0.16225E+06         0.00000E+00
    0.00000E+00         0.00000E+00         0.00000E+00
 
    0.12970E+07         0.78404E+05         0.00000E+00
    0.78404E+05        -0.16102E+06         0.00000E+00
    0.00000E+00         0.00000E+00         0.00000E+00
 
    0.12863E+07         0.10904E+06         0.00000E+00
    0.10904E+06        -0.15920E+06         0.00000E+00
    0.00000E+00         0.00000E+00         0.00000E+00
 
    0.12746E+07         0.13932E+06         0.00000E+00
    0.13932E+06        -0.15680E+06         0.00000E+00
    0.00000E+00         0.00000E+00         0.00000E+00
 
    0.12620E+07         0.16923E+06         0.00000E+00
    0.16923E+06        -0.15382E+06         0.00000E+00
    0.00000E+00         0.00000E+00         0.00000E+00
 
    0.12484E+07         0.19875E+06         0.00000E+00
    0.19875E+06        -0.15028E+06         0.00000E+00
    0.00000E+00         0.00000E+00         0.00000E+00
 
    0.12338E+07         0.22787E+06         0.00000E+00
    0.22787E+06        -0.14618E+06         0.00000E+00
    0.00000E+00         0.00000E+00         0.00000E+00
 
    0.12184E+07         0.25659E+06         0.00000E+00
    0.25659E+06        -0.14154E+06         0.00000E+00
    0.00000E+00         0.00000E+00         0.00000E+00
 
    0.12020E+07         0.28488E+06         0.00000E+00
    0.28488E+06        -0.13637E+06         0.00000E+00
    0.00000E+00         0.00000E+00         0.00000E+00
 
    0.11848E+07         0.31275E+06         0.00000E+00
    0.31275E+06        -0.13068E+06         0.00000E+00
    0.00000E+00         0.00000E+00         0.00000E+00
 
    0.11667E+07         0.34017E+06         0.00000E+00
    0.34017E+06        -0.12448E+06         0.00000E+00
    0.00000E+00         0.00000E+00         0.00000E+00
 
    0.11478E+07         0.36715E+06         0.00000E+00
    0.36715E+06        -0.11777E+06         0.00000E+00
    0.00000E+00         0.00000E+00         0.00000E+00
 
    0.11281E+07         0.39367E+06         0.00000E+00
    0.39367E+06        -0.11057E+06         0.00000E+00
    0.00000E+00         0.00000E+00         0.00000E+00
 
    0.11076E+07         0.41973E+06         0.00000E+00
    0.41973E+06        -0.10289E+06         0.00000E+00
    0.00000E+00         0.00000E+00         0.00000E+00
 
    0.10863E+07         0.44531E+06         0.00000E+00
    0.44531E+06        -0.94740E+05         0.00000E+00
    0.00000E+00         0.00000E+00         0.00000E+00
 
    0.10643E+07         0.47041E+06         0.00000E+00
    0.47041E+06        -0.86123E+05         0.00000E+00
    0.00000E+00         0.00000E+00         0.00000E+00
 
    0.10415E+07         0.49502E+06         0.00000E+00
    0.49502E+06        -0.77053E+05         0.00000E+00
    0.00000E+00         0.00000E+00         0.00000E+00
 
    0.10180E+07         0.51913E+06         0.00000E+00
    0.51913E+06        -0.67539E+05         0.00000E+00
    0.00000E+00         0.00000E+00         0.00000E+00
 
    0.99381E+06         0.54274E+06         0.00000E+00
    0.54274E+06        -0.57591E+05         0.00000E+00
    0.00000E+00         0.00000E+00         0.00000E+00
 
    0.96893E+06         0.56583E+06         0.00000E+00
    0.56583E+06        -0.47216E+05         0.00000E+00
    0.00000E+00         0.00000E+00         0.00000E+00
 
    0.94337E+06         0.58841E+06         0.00000E+00
    0.58841E+06        -0.36426E+05         0.00000E+00
    0.00000E+00         0.00000E+00         0.00000E+00
 
    0.91716E+06         0.61046E+06         0.00000E+00
    0.61046E+06        -0.25228E+05         0.00000E+00
    0.00000E+00         0.00000E+00         0.00000E+00
 
    0.89032E+06         0.63198E+06         0.00000E+00
    0.63198E+06        -0.13632E+05         0.00000E+00
    0.00000E+00         0.00000E+00         0.00000E+00
 
    0.86285E+06         0.65297E+06         0.00000E+00
    0.65297E+06        -0.16461E+04         0.00000E+00
    0.00000E+00         0.00000E+00         0.00000E+00
 
    0.83479E+06         0.67342E+06         0.00000E+00
    0.67342E+06         0.10720E+05         0.00000E+00
    0.00000E+00         0.00000E+00         0.00000E+00
 
    0.80614E+06         0.69332E+06         0.00000E+00
    0.69332E+06         0.23458E+05         0.00000E+00
    0.00000E+00         0.00000E+00         0.00000E+00
 
    0.77692E+06         0.71266E+06         0.00000E+00
    0.71266E+06         0.36559E+05         0.00000E+00
    0.00000E+00         0.00000E+00         0.00000E+00
 
    0.74714E+06         0.73145E+06         0.00000E+00
    0.73145E+06         0.50015E+05         0.00000E+00
    0.00000E+00         0.00000E+00         0.00000E+00
 
    0.71683E+06         0.74968E+06         0.00000E+00
    0.74968E+06         0.63817E+05         0.00000E+00
    0.00000E+00         0.00000E+00         0.00000E+00
 
    0.68599E+06         0.76734E+06         0.00000E+00
    0.76734E+06         0.77958E+05         0.00000E+00
    0.00000E+00         0.00000E+00         0.00000E+00
 
    0.65465E+06         0.78443E+06         0.00000E+00
    0.78443E+06         0.92428E+05         0.00000E+00
    0.00000E+00         0.00000E+00         0.00000E+00
 
    0.62280E+06         0.80094E+06         0.00000E+00
    0.80094E+06         0.10722E+06         0.00000E+00
    0.00000E+00         0.00000E+00         0.00000E+00
 
    0.59048E+06         0.81688E+06         0.00000E+00
    0.81688E+06         0.12232E+06         0.00000E+00
    0.00000E+00         0.00000E+00         0.00000E+00
 
    0.55770E+06         0.83222E+06         0.00000E+00
    0.83222E+06         0.13773E+06         0.00000E+00
    0.00000E+00         0.00000E+00         0.00000E+00
 
    0.52446E+06         0.84698E+06         0.00000E+00
    0.84698E+06         0.15344E+06         0.00000E+00
    0.00000E+00         0.00000E+00         0.00000E+00
 
    0.49078E+06         0.86115E+06         0.00000E+00
    0.86115E+06         0.16944E+06         0.00000E+00
    0.00000E+00         0.00000E+00         0.00000E+00
 
    0.45668E+06         0.87472E+06         0.00000E+00
    0.87472E+06         0.18571E+06         0.00000E+00
    0.00000E+00         0.00000E+00         0.00000E+00
 
    0.42217E+06         0.88769E+06         0.00000E+00
    0.88769E+06         0.20227E+06         0.00000E+00
    0.00000E+00         0.00000E+00         0.00000E+00
 
    0.38727E+06         0.90005E+06         0.00000E+00
    0.90005E+06         0.21908E+06         0.00000E+00
    0.00000E+00         0.00000E+00         0.00000E+00
 
    0.35197E+06         0.91180E+06         0.00000E+00
    0.91180E+06         0.23616E+06         0.00000E+00
    0.00000E+00         0.00000E+00         0.00000E+00
 
    0.31631E+06         0.92295E+06         0.00000E+00
    0.92295E+06         0.25348E+06         0.00000E+00
    0.00000E+00         0.00000E+00         0.00000E+00
 
    0.28029E+06         0.93347E+06         0.00000E+00
    0.93347E+06         0.27105E+06         0.00000E+00
    0.00000E+00         0.00000E+00         0.00000E+00
 
    0.24392E+06         0.94338E+06         0.00000E+00
    0.94338E+06         0.28885E+06         0.00000E+00
    0.00000E+00         0.00000E+00         0.00000E+00
 
    0.20722E+06         0.95266E+06         0.00000E+00
    0.95266E+06         0.30688E+06         0.00000E+00
    0.00000E+00         0.00000E+00         0.00000E+00
 
    0.17020E+06         0.96131E+06         0.00000E+00
    0.96131E+06         0.32513E+06         0.00000E+00
    0.00000E+00         0.00000E+00         0.00000E+00
 
    0.13287E+06         0.96934E+06         0.00000E+00
    0.96934E+06         0.34359E+06         0.00000E+00
    0.00000E+00         0.00000E+00         0.00000E+00
 
    0.95250E+05         0.97672E+06         0.00000E+00
    0.97672E+06         0.36225E+06         0.00000E+00
    0.00000E+00         0.00000E+00         0.00000E+00
 
    0.57340E+05         0.98347E+06         0.00000E+00
    0.98347E+06         0.38111E+06         0.00000E+00
    0.00000E+00         0.00000E+00         0.00000E+00
 
    0.19158E+05         0.98958E+06         0.00000E+00
    0.98958E+06         0.40016E+06         0.00000E+00
    0.00000E+00         0.00000E+00         0.00000E+00
 
    0.14510E+07         0.17757E+05         0.00000E+00
    0.17757E+05        -0.19254E+06         0.00000E+00
    0.00000E+00         0.00000E+00         0.00000E+00
 
    0.14406E+07         0.52251E+05         0.00000E+00
    0.52251E+05        -0.19187E+06         0.00000E+00
    0.00000E+00         0.00000E+00         0.00000E+00
 
    0.14291E+07         0.86355E+05         0.00000E+00
    0.86355E+05        -0.19054E+06         0.00000E+00
    0.00000E+00         0.00000E+00         0.00000E+00
 
    0.14165E+07         0.12006E+06         0.00000E+00
    0.12006E+06        -0.18857E+06         0.00000E+00
    0.00000E+00         0.00000E+00         0.00000E+00
 
    0.14028E+07         0.15334E+06         0.00000E+00
    0.15334E+06        -0.18596E+06         0.00000E+00
    0.00000E+00         0.00000E+00         0.00000E+00
 
    0.13881E+07         0.18620E+06         0.00000E+00
    0.18620E+06        -0.18274E+06         0.00000E+00
    0.00000E+00         0.00000E+00         0.00000E+00
 
    0.13724E+07         0.21861E+06         0.00000E+00
    0.21861E+06        -0.17892E+06         0.00000E+00
    0.00000E+00         0.00000E+00         0.00000E+00
 
    0.13557E+07         0.25058E+06         0.00000E+00
    0.25058E+06        -0.17450E+06         0.00000E+00
    0.00000E+00         0.00000E+00         0.00000E+00
 
    0.13381E+07         0.28208E+06         0.00000E+00
    0.28208E+06        -0.16949E+06         0.00000E+00
    0.00000E+00         0.00000E+00         0.00000E+00
 
    0.13195E+07         0.31311E+06         0.00000E+00
    0.31311E+06        -0.16391E+06         0.00000E+00
    0.00000E+00         0.00000E+00         0.00000E+00
 
    0.13000E+07         0.34366E+06         0.00000E+00
    0.34366E+06        -0.15777E+06         0.00000E+00
    0.00000E+00         0.00000E+00         0.00000E+00
 
    0.12795E+07         0.37372E+06         0.00000E+00
    0.37372E+06        -0.15108E+06         0.00000E+00
    0.00000E+00         0.00000E+00         0.00000E+00
 
    0.12583E+07         0.40328E+06         0.00000E+00
    0.40328E+06        -0.14385E+06         0.00000E+00
    0.00000E+00         0.00000E+00         0.00000E+00
 
    0.12361E+07         0.43233E+06         0.00000E+00
    0.43233E+06        -0.13609E+06         0.00000E+00
    0.00000E+00         0.00000E+00         0.00000E+00
 
    0.12131E+07         0.46086E+06         0.00000E+00
    0.46086E+06        -0.12781E+06         0.00000E+00
    0.00000E+00         0.00000E+00         0.00000E+00
 
    0.11893E+07         0.48886E+06         0.00000E+00
    0.48886E+06        -0.11902E+06         0.00000E+00
    0.00000E+00         0.00000E+00         0.00000E+00
 
    0.11647E+07         0.51634E+06         0.00000E+00
    0.51634E+06        -0.10974E+06         0.00000E+00
    0.00000E+00         0.00000E+00         0.00000E+00
 
    0.11394E+07         0.54328E+06         0.00000E+00
    0.54328E+06        -0.99969E+05         0.00000E+00
    0.00000E+00         0.00000E+00         0.00000E+00
 
    0.11132E+07         0.56966E+06         0.00000E+00
    0.56966E+06        -0.89720E+05         0.00000E+00
    0.00000E+00         0.00000E+00         0.00000E+00
 
    0.10864E+07         0.59550E+06         0.00000E+00
    0.59550E+06        -0.79005E+05         0.00000E+00
    0.00000E+00         0.00000E+00         0.00000E+00
 
    0.10588E+07         0.62078E+06         0.00000E+00
    0.62078E+06        -0.67832E+05         0.00000E+00
    0.00000E+00         0.00000E+00         0.00000E+00
 
    0.10305E+07         0.64549E+06         0.00000E+00
    0.64549E+06        -0.56211E+05         0.00000E+00
    0.00000E+00         0.00000E+00         0.00000E+00
 
    0.10016E+07         0.66964E+06         0.00000E+00
    0.66964E+06        -0.44152E+05         0.00000E+00
    0.00000E+00         0.00000E+00         0.00000E+00
 
    0.97195E+06         0.69321E+06         0.00000E+00
    0.69321E+06        -0.31664E+05         0.00000E+00
    0.00000E+00         0.00000E+00         0.00000E+00
 
    0.94168E+06         0.71619E+06         0.00000E+00
    0.71619E+06        -0.18756E+05         0.00000E+00
    0.00000E+00         0.00000E+00         0.00000E+00
 
    0.91078E+06         0.73859E+06         0.00000E+00
    0.73859E+06        -0.54382E+04         0.00000E+00
    0.00000E+00         0.00000E+00         0.00000E+00
 
    0.87928E+06         0.76040E+06         0.00000E+00
    0.76040E+06         0.82814E+04         0.00000E+00
    0.00000E+00         0.00000E+00         0.00000E+00
 
    0.84718E+06         0.78162E+06         0.00000E+00
    0.78162E+06         0.22394E+05         0.00000E+00
    0.00000E+00         0.00000E+00         0.00000E+00
 
    0.81450E+06         0.80223E+06         0.00000E+00
    0.80223E+06         0.36890E+05         0.00000E+00
    0.00000E+00         0.00000E+00         0.00000E+00
 
    0.78126E+06         0.82224E+06         0.00000E+00
    0.82224E+06         0.51761E+05         0.00000E+00
    0.00000E+00         0.00000E+00         0.00000E+00
 
    0.74747E+06         0.84164E+06         0.00000E+00
    0.84164E+06         0.66999E+05         0.00000E+00
    0.00000E+00         0.00000E+00         0.00000E+00
 
    0.71315E+06         0.86043E+06         0.00000E+00
    0.86043E+06         0.82595E+05         0.00000E+00
    0.00000E+00         0.00000E+00         0.00000E+00
 
    0.67831E+06         0.87860E+06         0.00000E+00
    0.87860E+06         0.98540E+05         0.00000E+00
    0.00000E+00         0.00000E+00         0.00000E+00
 
    0.64298E+06         0.89615E+06         0.00000E+00
    0.89615E+06         0.11483E+06         0.00000E+00
    0.00000E+00         0.00000E+00         0.00000E+00
 
    0.60716E+06         0.91307E+06         0.00000E+00
    0.91307E+06         0.13145E+06         0.00000E+00
    0.00000E+00         0.00000E+00         0.00000E+00
 
    0.57087E+06         0.92936E+06         0.00000E+00
    0.92936E+06         0.14840E+06         0.00000E+00
    0.00000E+00         0.00000E+00         0.00000E+00
 
    0.53412E+06         0.94503E+06         0.00000E+00
    0.94503E+06         0.16566E+06         0.00000E+00
    0.00000E+00         0.00000E+00         0.00000E+00
 
    0.49692E+06         0.96005E+06         0.00000E+00
    0.96005E+06         0.18323E+06         0.00000E+00
    0.00000E+00         0.00000E+00         0.00000E+00
 
    0.45930E+06         0.97444E+06         0.00000E+00
    0.97444E+06         0.20111E+06         0.00000E+00
    0.00000E+00         0.00000E+00         0.00000E+00
 
    0.42126E+06         0.98818E+06         0.00000E+00
    0.98818E+06         0.21928E+06         0.00000E+00
    0.00000E+00         0.00000E+00         0.00000E+00
 
    0.38282E+06         0.10013E+07         0.00000E+00
    0.10013E+07         0.23773E+06         0.00000E+00
    0.00000E+00         0.00000E+00         0.00000E+00
 
    0.34399E+06         0.10137E+07         0.00000E+00
    0.10137E+07         0.25647E+06         0.00000E+00
    0.00000E+00         0.00000E+00         0.00000E+00
 
    0.30478E+06         0.10255E+07         0.00000E+00
    0.10255E+07         0.27547E+06         0.00000E+00
    0.00000E+00         0.00000E+00         0.00000E+00
 
    0.26521E+06         0.10366E+07         0.00000E+00
    0.10366E+07         0.29474E+06         0.00000E+00
    0.00000E+00         0.00000E+00         0.00000E+00
 
    0.22529E+06         0.10471E+07         0.00000E+00
    0.10471E+07         0.31426E+06         0.00000E+00
    0.00000E+00         0.00000E+00         0.00000E+00
 
    0.18503E+06         0.10569E+07         0.00000E+00
    0.10569E+07         0.33403E+06         0.00000E+00
    0.00000E+00         0.00000E+00         0.00000E+00
 
    0.14443E+06         0.10660E+07         0.00000E+00
    0.10660E+07         0.35405E+06         0.00000E+00
    0.00000E+00         0.00000E+00         0.00000E+00
 
    0.10353E+06         0.10745E+07         0.00000E+00
    0.10745E+07         0.37429E+06         0.00000E+00
    0.00000E+00         0.00000E+00         0.00000E+00
 
    0.62321E+05         0.10823E+07         0.00000E+00
    0.10823E+07         0.39476E+06         0.00000E+00
    0.00000E+00         0.00000E+00         0.00000E+00
 
    0.20821E+05         0.10894E+07         0.00000E+00
    0.10894E+07         0.41545E+06         0.00000E+00
    0.00000E+00         0.00000E+00         0.00000E+00
 
    0.15982E+07         0.19557E+05         0.00000E+00
    0.19557E+05        -0.22738E+06         0.00000E+00
    0.00000E+00         0.00000E+00         0.00000E+00
 
    0.15857E+07         0.57476E+05         0.00000E+00
    0.57476E+05        -0.22665E+06         0.00000E+00
    0.00000E+00         0.00000E+00         0.00000E+00
 
    0.15720E+07         0.94943E+05         0.00000E+00
    0.94943E+05        -0.22521E+06         0.00000E+00
    0.00000E+00         0.00000E+00         0.00000E+00
 
    0.15572E+07         0.13194E+06         0.00000E+00
    0.13194E+06        -0.22309E+06         0.00000E+00
    0.00000E+00         0.00000E+00         0.00000E+00
 
    0.15413E+07         0.16847E+06         0.00000E+00
    0.16847E+06        -0.22029E+06         0.00000E+00
    0.00000E+00         0.00000E+00         0.00000E+00
 
    0.15243E+07         0.20450E+06         0.00000E+00
    0.20450E+06        -0.21682E+06         0.00000E+00
    0.00000E+00         0.00000E+00         0.00000E+00
 
    0.15062E+07         0.24003E+06         0.00000E+00
    0.24003E+06        -0.21270E+06         0.00000E+00
    0.00000E+00         0.00000E+00         0.00000E+00
 
    0.14871E+07         0.27506E+06         0.00000E+00
    0.27506E+06        -0.20794E+06         0.00000E+00
    0.00000E+00         0.00000E+00         0.00000E+00
 
    0.14669E+07         0.30956E+06         0.00000E+00
    0.30956E+06        -0.20256E+06         0.00000E+00
    0.00000E+00         0.00000E+00         0.00000E+00
 
    0.14458E+07         0.34352E+06         0.00000E+00
    0.34352E+06        -0.19656E+06         0.00000E+00
    0.00000E+00         0.00000E+00         0.00000E+00
 
    0.14237E+07         0.37695E+06         0.00000E+00
    0.37695E+06        -0.18996E+06         0.00000E+00
    0.00000E+00         0.00000E+00         0.00000E+00
 
    0.14007E+07         0.40983E+06         0.00000E+00
    0.40983E+06        -0.18277E+06         0.00000E+00
    0.00000E+00         0.00000E+00         0.00000E+00
 
    0.13767E+07         0.44216E+06         0.00000E+00
    0.44216E+06        -0.17500E+06         0.00000E+00
    0.00000E+00         0.00000E+00         0.00000E+00
 
    0.13519E+07         0.47392E+06         0.00000E+00
    0.47392E+06        -0.16666E+06         0.00000E+00
    0.00000E+00         0.00000E+00         0.00000E+00
 
    0.13262E+07         0.50510E+06         0.00000E+00
    0.50510E+06        -0.15777E+06         0.00000E+00
    0.00000E+00         0.00000E+00         0.00000E+00
 
    0.12996E+07         0.53571E+06         0.00000E+00
    0.53571E+06        -0.14834E+06         0.00000E+00
    0.00000E+00         0.00000E+00         0.00000E+00
 
    0.12722E+07         0.56574E+06         0.00000E+00
    0.56574E+06        -0.13837E+06         0.00000E+00
    0.00000E+00         0.00000E+00         0.00000E+00
 
    0.12440E+07         0.59517E+06         0.00000E+00
    0.59517E+06        -0.12788E+06         0.00000E+00
    0.00000E+00         0.00000E+00         0.00000E+00
 
    0.12150E+07         0.62400E+06         0.00000E+00
    0.62400E+06        -0.11688E+06         0.00000E+00
    0.00000E+00         0.00000E+00         0.00000E+00
 
    0.11852E+07         0.65223E+06         0.00000E+00
    0.65223E+06        -0.10538E+06         0.00000E+00
    0.00000E+00         0.00000E+00         0.00000E+00
 
    0.11547E+07         0.67986E+06         0.00000E+00
    0.67986E+06        -0.93386E+05         0.00000E+00
    0.00000E+00         0.00000E+00         0.00000E+00
 
    0.11235E+07         0.70687E+06         0.00000E+00
    0.70687E+06        -0.80914E+05         0.00000E+00
    0.00000E+00         0.00000E+00         0.00000E+00
 
    0.10915E+07         0.73326E+06         0.00000E+00
    0.73326E+06        -0.67972E+05         0.00000E+00
    0.00000E+00         0.00000E+00         0.00000E+00
 
    0.10589E+07         0.75902E+06         0.00000E+00
    0.75902E+06        -0.54569E+05         0.00000E+00
    0.00000E+00         0.00000E+00         0.00000E+00
 
    0.10256E+07         0.78416E+06         0.00000E+00
    0.78416E+06        -0.40715E+05         0.00000E+00
    0.00000E+00         0.00000E+00         0.00000E+00
 
    0.99165E+06         0.80867E+06         0.00000E+00
    0.80867E+06        -0.26419E+05         0.00000E+00
    0.00000E+00         0.00000E+00         0.00000E+00
 
    0.95707E+06         0.83254E+06         0.00000E+00
    0.83254E+06        -0.11691E+05         0.00000E+00
    0.00000E+00         0.00000E+00         0.00000E+00
 
    0.92187E+06         0.85577E+06         0.00000E+00
    0.85577E+06         0.34605E+04         0.00000E+00
    0.00000E+00         0.00000E+00         0.00000E+00
 
    0.88607E+06         0.87836E+06         0.00000E+00
    0.87836E+06         0.19027E+05         0.00000E+00
    0.00000E+00         0.00000E+00         0.00000E+00
 
    0.84968E+06         0.90030E+06         0.00000E+00
    0.90030E+06         0.34998E+05         0.00000E+00
    0.00000E+00         0.00000E+00         0.00000E+00
 
    0.81274E+06         0.92159E+06         0.00000E+00
    0.92159E+06         0.51367E+05         0.00000E+00
    0.00000E+00         0.00000E+00         0.00000E+00
 
    0.77524E+06         0.94222E+06         0.00000E+00
    0.94222E+06         0.68125E+05         0.00000E+00
    0.00000E+00         0.00000E+00         0.00000E+00
 
    0.73720E+06         0.96219E+06         0.00000E+00
    0.96219E+06         0.85262E+05         0.00000E+00
    0.00000E+00         0.00000E+00         0.00000E+00
 
    0.69865E+06         0.98151E+06         0.00000E+00
    0.98151E+06         0.10277E+06         0.00000E+00
    0.00000E+00         0.00000E+00         0.00000E+00
 
    0.65960E+06         0.10002E+07         0.00000E+00
    0.10002E+07         0.12065E+06         0.00000E+00
    0.00000E+00         0.00000E+00         0.00000E+00
 
    0.62005E+06         0.10181E+07         0.00000E+00
    0.10181E+07         0.13888E+06         0.00000E+00
    0.00000E+00         0.00000E+00         0.00000E+00
 
    0.58003E+06         0.10354E+07         0.00000E+00
    0.10354E+07         0.15745E+06         0.00000E+00
    0.00000E+00         0.00000E+00         0.00000E+00
 
    0.53955E+06         0.10521E+07         0.00000E+00
    0.10521E+07         0.17637E+06         0.00000E+00
    0.00000E+00         0.00000E+00         0.00000E+00
 
    0.49862E+06         0.10680E+07         0.00000E+00
    0.10680E+07         0.19562E+06         0.00000E+00
    0.00000E+00         0.00000E+00         0.00000E+00
 
    0.45726E+06         0.10833E+07         0.00000E+00
    0.10833E+07         0.21520E+06         0.00000E+00
    0.00000E+00         0.00000E+00         0.00000E+00
 
    0.41548E+06         0.10979E+07         0.00000E+00
    0.10979E+07         0.23509E+06         0.00000E+00
    0.00000E+00         0.00000E+00         0.00000E+00
 
    0.37329E+06         0.11118E+07         0.00000E+00
    0.11118E+07         0.25530E+06         0.00000E+00
    0.00000E+00         0.00000E+00         0.00000E+00
 
    0.33070E+06         0.11250E+07         0.00000E+00
    0.11250E+07         0.27580E+06         0.00000E+00
    0.00000E+00         0.00000E+00         0.00000E+00
 
    0.28773E+06         0.11375E+07         0.00000E+00
    0.11375E+07         0.29661E+06         0.00000E+00
    0.00000E+00         0.00000E+00         0.00000E+00
 
    0.24440E+06         0.11493E+07         0.00000E+00
    0.11493E+07         0.31769E+06         0.00000E+00
    0.00000E+00         0.00000E+00         0.00000E+00
 
    0.20070E+06         0.11604E+07         0.00000E+00
    0.11604E+07         0.33906E+06         0.00000E+00
    0.00000E+00         0.00000E+00         0.00000E+00
 
    0.15666E+06         0.11708E+07         0.00000E+00
    0.11708E+07         0.36071E+06         0.00000E+00
    0.00000E+00         0.00000E+00         0.00000E+00
 
    0.11229E+06         0.11805E+07         0.00000E+00
    0.11805E+07         0.38262E+06         0.00000E+00
    0.00000E+00         0.00000E+00         0.00000E+00
 
    0.67589E+05         0.11894E+07         0.00000E+00
    0.11894E+07         0.40478E+06         0.00000E+00
    0.00000E+00         0.00000E+00         0.00000E+00
 
    0.22581E+05         0.11977E+07         0.00000E+00
    0.11977E+07         0.42720E+06         0.00000E+00
    0.00000E+00         0.00000E+00         0.00000E+00
 
    0.17573E+07         0.21499E+05         0.00000E+00
    0.21499E+05        -0.26823E+06         0.00000E+00
    0.00000E+00         0.00000E+00         0.00000E+00
 
    0.17423E+07         0.63104E+05         0.00000E+00
    0.63104E+05        -0.26745E+06         0.00000E+00
    0.00000E+00         0.00000E+00         0.00000E+00
 
    0.17262E+07         0.10419E+06         0.00000E+00
    0.10419E+06        -0.26591E+06         0.00000E+00
    0.00000E+00         0.00000E+00         0.00000E+00
 
    0.17089E+07         0.14473E+06         0.00000E+00
    0.14473E+06        -0.26363E+06         0.00000E+00
    0.00000E+00         0.00000E+00         0.00000E+00
 
    0.16904E+07         0.18473E+06         0.00000E+00
    0.18473E+06        -0.26062E+06         0.00000E+00
    0.00000E+00         0.00000E+00         0.00000E+00
 
    0.16707E+07         0.22417E+06         0.00000E+00
    0.22417E+06        -0.25690E+06         0.00000E+00
    0.00000E+00         0.00000E+00         0.00000E+00
 
    0.16499E+07         0.26304E+06         0.00000E+00
    0.26304E+06        -0.25248E+06         0.00000E+00
    0.00000E+00         0.00000E+00         0.00000E+00
 
    0.16281E+07         0.30134E+06         0.00000E+00
    0.30134E+06        -0.24738E+06         0.00000E+00
    0.00000E+00         0.00000E+00         0.00000E+00
 
    0.16051E+07         0.33904E+06         0.00000E+00
    0.33904E+06        -0.24161E+06         0.00000E+00
    0.00000E+00         0.00000E+00         0.00000E+00
 
    0.15812E+07         0.37616E+06         0.00000E+00
    0.37616E+06        -0.23519E+06         0.00000E+00
    0.00000E+00         0.00000E+00         0.00000E+00
 
    0.15562E+07         0.41266E+06         0.00000E+00
    0.41266E+06        -0.22812E+06         0.00000E+00
    0.00000E+00         0.00000E+00         0.00000E+00
 
    0.15303E+07         0.44856E+06         0.00000E+00
    0.44856E+06        -0.22042E+06         0.00000E+00
    0.00000E+00         0.00000E+00         0.00000E+00
 
    0.15034E+07         0.48384E+06         0.00000E+00
    0.48384E+06        -0.21211E+06         0.00000E+00
    0.00000E+00         0.00000E+00         0.00000E+00
 
    0.14755E+07         0.51850E+06         0.00000E+00
    0.51850E+06        -0.20319E+06         0.00000E+00
    0.00000E+00         0.00000E+00         0.00000E+00
 
    0.14468E+07         0.55253E+06         0.00000E+00
    0.55253E+06        -0.19368E+06         0.00000E+00
    0.00000E+00         0.00000E+00         0.00000E+00
 
    0.14172E+07         0.58592E+06         0.00000E+00
    0.58592E+06        -0.18359E+06         0.00000E+00
    0.00000E+00         0.00000E+00         0.00000E+00
 
    0.13867E+07         0.61866E+06         0.00000E+00
    0.61866E+06        -0.17293E+06         0.00000E+00
    0.00000E+00         0.00000E+00         0.00000E+00
 
    0.13554E+07         0.65077E+06         0.00000E+00
    0.65077E+06        -0.16171E+06         0.00000E+00
    0.00000E+00         0.00000E+00         0.00000E+00
 
    0.13232E+07         0.68222E+06         0.00000E+00
    0.68222E+06        -0.14995E+06         0.00000E+00
    0.00000E+00         0.00000E+00         0.00000E+00
 
    0.12903E+07         0.71301E+06         0.00000E+00
    0.71301E+06        -0.13765E+06         0.00000E+00
    0.00000E+00         0.00000E+00         0.00000E+00
 
    0.12566E+07         0.74314E+06         0.00000E+00
    0.74314E+06        -0.12483E+06         0.00000E+00
    0.00000E+00         0.00000E+00         0.00000E+00
 
    0.12222E+07         0.77261E+06         0.00000E+00
    0.77261E+06        -0.11149E+06         0.00000E+00
    0.00000E+00         0.00000E+00         0.00000E+00
 
    0.11870E+07         0.80141E+06         0.00000E+00
    0.80141E+06        -0.97656E+05         0.00000E+00
    0.00000E+00         0.00000E+00         0.00000E+00
 
    0.11511E+07         0.82954E+06         0.00000E+00
    0.82954E+06        -0.83325E+05         0.00000E+00
    0.00000E+00         0.00000E+00         0.00000E+00
 
    0.11146E+07         0.85699E+06         0.00000E+00
    0.85699E+06        -0.68510E+05         0.00000E+00
    0.00000E+00         0.00000E+00         0.00000E+00
 
    0.10773E+07         0.88376E+06         0.00000E+00
    0.88376E+06        -0.53221E+05         0.00000E+00
    0.00000E+00         0.00000E+00         0.00000E+00
 
    0.10394E+07         0.90985E+06         0.00000E+00
    0.90985E+06        -0.37467E+05         0.00000E+00
    0.00000E+00         0.00000E+00         0.00000E+00
 
    0.10009E+07         0.93526E+06         0.00000E+00
    0.93526E+06        -0.21257E+05         0.00000E+00
    0.00000E+00         0.00000E+00         0.00000E+00
 
    0.96177E+06         0.95998E+06         0.00000E+00
    0.95998E+06        -0.46009E+04         0.00000E+00
    0.00000E+00         0.00000E+00         0.00000E+00
 
    0.92203E+06         0.98400E+06         0.00000E+00
    0.98400E+06         0.12493E+05         0.00000E+00
    0.00000E+00         0.00000E+00         0.00000E+00
 
    0.88171E+06         0.10073E+07         0.00000E+00
    0.10073E+07         0.30017E+05         0.00000E+00
    0.00000E+00         0.00000E+00         0.00000E+00
 
    0.84083E+06         0.10300E+07         0.00000E+00
    0.10300E+07         0.47961E+05         0.00000E+00
    0.00000E+00         0.00000E+00         0.00000E+00
 
    0.79939E+06         0.10519E+07         0.00000E+00
    0.10519E+07         0.66319E+05         0.00000E+00
    0.00000E+00         0.00000E+00         0.00000E+00
 
    0.75742E+06         0.10731E+07         0.00000E+00
    0.10731E+07         0.85081E+05         0.00000E+00
    0.00000E+00         0.00000E+00         0.00000E+00
 
    0.71493E+06         0.10937E+07         0.00000E+00
    0.10937E+07         0.10424E+06         0.00000E+00
    0.00000E+00         0.00000E+00         0.00000E+00
 
    0.67193E+06         0.11135E+07         0.00000E+00
    0.11135E+07         0.12379E+06         0.00000E+00
    0.00000E+00         0.00000E+00         0.00000E+00
 
    0.62845E+06         0.11326E+07         0.00000E+00
    0.11326E+07         0.14372E+06         0.00000E+00
    0.00000E+00         0.00000E+00         0.00000E+00
 
    0.58449E+06         0.11510E+07         0.00000E+00
    0.11510E+07         0.16402E+06         0.00000E+00
    0.00000E+00         0.00000E+00         0.00000E+00
 
    0.54006E+06         0.11687E+07         0.00000E+00
    0.11687E+07         0.18469E+06         0.00000E+00
    0.00000E+00         0.00000E+00         0.00000E+00
 
    0.49519E+06         0.11856E+07         0.00000E+00
    0.11856E+07         0.20572E+06         0.00000E+00
    0.00000E+00         0.00000E+00         0.00000E+00
 
    0.44988E+06         0.12019E+07         0.00000E+00
    0.12019E+07         0.22710E+06         0.00000E+00
    0.00000E+00         0.00000E+00         0.00000E+00
 
    0.40414E+06         0.12174E+07         0.00000E+00
    0.12174E+07         0.24883E+06         0.00000E+00
    0.00000E+00         0.00000E+00         0.00000E+00
 
    0.35799E+06         0.12322E+07         0.00000E+00
    0.12322E+07         0.27090E+06         0.00000E+00
    0.00000E+00         0.00000E+00         0.00000E+00
 
    0.31145E+06         0.12462E+07         0.00000E+00
    0.12462E+07         0.29329E+06         0.00000E+00
    0.00000E+00         0.00000E+00         0.00000E+00
 
    0.26451E+06         0.12595E+07         0.00000E+00
    0.12595E+07         0.31601E+06         0.00000E+00
    0.00000E+00         0.00000E+00         0.00000E+00
 
    0.21720E+06         0.12721E+07         0.00000E+00
    0.12721E+07         0.33905E+06         0.00000E+00
    0.00000E+00         0.00000E+00         0.00000E+00
 
    0.16953E+06         0.12839E+07         0.00000E+00
    0.12839E+07         0.36239E+06         0.00000E+00
    0.00000E+00         0.00000E+00         0.00000E+00
 
    0.12150E+06         0.12950E+07         0.00000E+00
    0.12950E+07         0.38604E+06         0.00000E+00
    0.00000E+00         0.00000E+00         0.00000E+00
 
    0.73133E+05         0.13054E+07         0.00000E+00
    0.13054E+07         0.40999E+06         0.00000E+00
    0.00000E+00         0.00000E+00         0.00000E+00
 
    0.24432E+05         0.13149E+07         0.00000E+00
    0.13149E+07         0.43423E+06         0.00000E+00
    0.00000E+00         0.00000E+00         0.00000E+00
 
    0.19286E+07         0.23585E+05         0.00000E+00
    0.23585E+05        -0.31608E+06         0.00000E+00
    0.00000E+00         0.00000E+00         0.00000E+00
 
    0.19109E+07         0.69139E+05         0.00000E+00
    0.69139E+05        -0.31524E+06         0.00000E+00
    0.00000E+00         0.00000E+00         0.00000E+00
 
    0.18919E+07         0.11409E+06         0.00000E+00
    0.11409E+06        -0.31360E+06         0.00000E+00
    0.00000E+00         0.00000E+00         0.00000E+00
 
    0.18717E+07         0.15843E+06         0.00000E+00
    0.15843E+06        -0.31116E+06         0.00000E+00
    0.00000E+00         0.00000E+00         0.00000E+00
 
    0.18502E+07         0.20214E+06         0.00000E+00
    0.20214E+06        -0.30794E+06         0.00000E+00
    0.00000E+00         0.00000E+00         0.00000E+00
 
    0.18276E+07         0.24522E+06         0.00000E+00
    0.24522E+06        -0.30397E+06         0.00000E+00
    0.00000E+00         0.00000E+00         0.00000E+00
 
    0.18038E+07         0.28765E+06         0.00000E+00
    0.28765E+06        -0.29926E+06         0.00000E+00
    0.00000E+00         0.00000E+00         0.00000E+00
 
    0.17788E+07         0.32944E+06         0.00000E+00
    0.32944E+06        -0.29382E+06         0.00000E+00
    0.00000E+00         0.00000E+00         0.00000E+00
 
    0.17527E+07         0.37056E+06         0.00000E+00
    0.37056E+06        -0.28766E+06         0.00000E+00
    0.00000E+00         0.00000E+00         0.00000E+00
 
    0.17256E+07         0.41102E+06         0.00000E+00
    0.41102E+06        -0.28081E+06         0.00000E+00
    0.00000E+00         0.00000E+00         0.00000E+00
 
    0.16975E+07         0.45081E+06         0.00000E+00
    0.45081E+06        -0.27327E+06         0.00000E+00
    0.00000E+00         0.00000E+00         0.00000E+00
 
    0.16683E+07         0.48993E+06         0.00000E+00
    0.48993E+06        -0.26507E+06         0.00000E+00
    0.00000E+00         0.00000E+00         0.00000E+00
 
    0.16381E+07         0.52836E+06         0.00000E+00
    0.52836E+06        -0.25621E+06         0.00000E+00
    0.00000E+00         0.00000E+00         0.00000E+00
 
    0.16070E+07         0.56610E+06         0.00000E+00
    0.56610E+06        -0.24671E+06         0.00000E+00
    0.00000E+00         0.00000E+00         0.00000E+00
 
    0.15749E+07         0.60314E+06         0.00000E+00
    0.60314E+06        -0.23658E+06         0.00000E+00
    0.00000E+00         0.00000E+00         0.00000E+00
 
    0.15419E+07         0.63950E+06         0.00000E+00
    0.63950E+06        -0.22583E+06         0.00000E+00
    0.00000E+00         0.00000E+00         0.00000E+00
 
    0.15081E+07         0.67515E+06         0.00000E+00
    0.67515E+06        -0.21448E+06         0.00000E+00
    0.00000E+00         0.00000E+00         0.00000E+00
 
    0.14734E+07         0.71009E+06         0.00000E+00
    0.71009E+06        -0.20254E+06         0.00000E+00
    0.00000E+00         0.00000E+00         0.00000E+00
 
    0.14379E+07         0.74433E+06         0.00000E+00
    0.74433E+06        -0.19001E+06         0.00000E+00
    0.00000E+00         0.00000E+00         0.00000E+00
 
    0.14015E+07         0.77785E+06         0.00000E+00
    0.77785E+06        -0.17692E+06         0.00000E+00
    0.00000E+00         0.00000E+00         0.00000E+00
 
    0.13644E+07         0.81066E+06         0.00000E+00
    0.81066E+06        -0.16327E+06         0.00000E+00
    0.00000E+00         0.00000E+00         0.00000E+00
 
    0.13265E+07         0.84276E+06         0.00000E+00
    0.84276E+06        -0.14907E+06         0.00000E+00
    0.00000E+00         0.00000E+00         0.00000E+00
 
    0.12878E+07         0.87413E+06         0.00000E+00
    0.87413E+06        -0.13434E+06         0.00000E+00
    0.00000E+00         0.00000E+00         0.00000E+00
 
    0.12485E+07         0.90479E+06         0.00000E+00
    0.90479E+06        -0.11907E+06         0.00000E+00
    0.00000E+00         0.00000E+00         0.00000E+00
 
    0.12084E+07         0.93471E+06         0.00000E+00
    0.93471E+06        -0.10329E+06         0.00000E+00
    0.00000E+00         0.00000E+00         0.00000E+00
 
    0.11676E+07         0.96392E+06         0.00000E+00
    0.96392E+06        -0.87008E+05         0.00000E+00
    0.00000E+00         0.00000E+00         0.00000E+00
 
    0.11262E+07         0.99239E+06         0.00000E+00
    0.99239E+06        -0.70223E+05         0.00000E+00
    0.00000E+00         0.00000E+00         0.00000E+00
 
    0.10841E+07         0.10201E+07         0.00000E+00
    0.10201E+07        -0.52949E+05         0.00000E+00
    0.00000E+00         0.00000E+00         0.00000E+00
 
    0.10414E+07         0.10471E+07         0.00000E+00
    0.10471E+07        -0.35195E+05         0.00000E+00
    0.00000E+00         0.00000E+00         0.00000E+00
 
    0.99813E+06         0.10734E+07         0.00000E+00
    0.10734E+07        -0.16969E+05         0.00000E+00
    0.00000E+00         0.00000E+00         0.00000E+00
 
    0.95423E+06         0.10990E+07         0.00000E+00
    0.10990E+07         0.17202E+04         0.00000E+00
    0.00000E+00         0.00000E+00         0.00000E+00
 
    0.90975E+06         0.11238E+07         0.00000E+00
    0.11238E+07         0.20865E+05         0.00000E+00
    0.00000E+00         0.00000E+00         0.00000E+00
 
    0.86471E+06         0.11478E+07         0.00000E+00
    0.11478E+07         0.40458E+05         0.00000E+00
    0.00000E+00         0.00000E+00         0.00000E+00
 
    0.81913E+06         0.11712E+07         0.00000E+00
    0.11712E+07         0.60490E+05         0.00000E+00
    0.00000E+00         0.00000E+00         0.00000E+00
 
    0.77301E+06         0.11937E+07         0.00000E+00
    0.11937E+07         0.80954E+05         0.00000E+00
    0.00000E+00         0.00000E+00         0.00000E+00
 
    0.72638E+06         0.12156E+07         0.00000E+00
    0.12156E+07         0.10184E+06         0.00000E+00
    0.00000E+00         0.00000E+00         0.00000E+00
 
    0.67924E+06         0.12367E+07         0.00000E+00
    0.12367E+07         0.12315E+06         0.00000E+00
    0.00000E+00         0.00000E+00         0.00000E+00
 
    0.63161E+06         0.12570E+07         0.00000E+00
    0.12570E+07         0.14487E+06         0.00000E+00
    0.00000E+00         0.00000E+00         0.00000E+00
 
    0.58351E+06         0.12766E+07         0.00000E+00
    0.12766E+07         0.16699E+06         0.00000E+00
    0.00000E+00         0.00000E+00         0.00000E+00
 
    0.53494E+06         0.12954E+07         0.00000E+00
    0.12954E+07         0.18951E+06         0.00000E+00
    0.00000E+00         0.00000E+00         0.00000E+00
 
    0.48592E+06         0.13135E+07         0.00000E+00
    0.13135E+07         0.21242E+06         0.00000E+00
    0.00000E+00         0.00000E+00         0.00000E+00
 
    0.43647E+06         0.13308E+07         0.00000E+00
    0.13308E+07         0.23571E+06         0.00000E+00
    0.00000E+00         0.00000E+00         0.00000E+00
 
    0.38658E+06         0.13474E+07         0.00000E+00
    0.13474E+07         0.25938E+06         0.00000E+00
    0.00000E+00         0.00000E+00         0.00000E+00
 
    0.33628E+06         0.13632E+07         0.00000E+00
    0.13632E+07         0.28343E+06         0.00000E+00
    0.00000E+00         0.00000E+00         0.00000E+00
 
    0.28558E+06         0.13782E+07         0.00000E+00
    0.13782E+07         0.30783E+06         0.00000E+00
    0.00000E+00         0.00000E+00         0.00000E+00
 
    0.23448E+06         0.13924E+07         0.00000E+00
    0.13924E+07         0.33260E+06         0.00000E+00
    0.00000E+00         0.00000E+00         0.00000E+00
 
    0.18300E+06         0.14059E+07         0.00000E+00
    0.14059E+07         0.35771E+06         0.00000E+00
    0.00000E+00         0.00000E+00         0.00000E+00
 
    0.13115E+06         0.14186E+07         0.00000E+00
    0.14186E+07         0.38318E+06         0.00000E+00
    0.00000E+00         0.00000E+00         0.00000E+00
 
    0.78937E+05         0.14305E+07         0.00000E+00
    0.14305E+07         0.40898E+06         0.00000E+00
    0.00000E+00         0.00000E+00         0.00000E+00
 
    0.26370E+05         0.14416E+07         0.00000E+00
    0.14416E+07         0.43511E+06         0.00000E+00
    0.00000E+00         0.00000E+00         0.00000E+00
 
    0.21125E+07         0.25817E+05         0.00000E+00
    0.25817E+05        -0.37205E+06         0.00000E+00
    0.00000E+00         0.00000E+00         0.00000E+00
 
    0.20916E+07         0.75582E+05         0.00000E+00
    0.75582E+05        -0.37115E+06         0.00000E+00
    0.00000E+00         0.00000E+00         0.00000E+00
 
    0.20693E+07         0.12466E+06         0.00000E+00
    0.12466E+06        -0.36940E+06         0.00000E+00
    0.00000E+00         0.00000E+00         0.00000E+00
 
    0.20458E+07         0.17303E+06         0.00000E+00
    0.17303E+06        -0.36680E+06         0.00000E+00
    0.00000E+00         0.00000E+00         0.00000E+00
 
    0.20210E+07         0.22069E+06         0.00000E+00
    0.22069E+06        -0.36339E+06         0.00000E+00
    0.00000E+00         0.00000E+00         0.00000E+00
 
    0.19949E+07         0.26763E+06         0.00000E+00
    0.26763E+06        -0.35917E+06         0.00000E+00
    0.00000E+00         0.00000E+00         0.00000E+00
 
    0.19677E+07         0.31385E+06         0.00000E+00
    0.31385E+06        -0.35416E+06         0.00000E+00
    0.00000E+00         0.00000E+00         0.00000E+00
 
    0.19392E+07         0.35934E+06         0.00000E+00
    0.35934E+06        -0.34838E+06         0.00000E+00
    0.00000E+00         0.00000E+00         0.00000E+00
 
    0.19097E+07         0.40410E+06         0.00000E+00
    0.40410E+06        -0.34185E+06         0.00000E+00
    0.00000E+00         0.00000E+00         0.00000E+00
 
    0.18790E+07         0.44811E+06         0.00000E+00
    0.44811E+06        -0.33458E+06         0.00000E+00
    0.00000E+00         0.00000E+00         0.00000E+00
 
    0.18473E+07         0.49138E+06         0.00000E+00
    0.49138E+06        -0.32659E+06         0.00000E+00
    0.00000E+00         0.00000E+00         0.00000E+00
 
    0.18146E+07         0.53390E+06         0.00000E+00
    0.53390E+06        -0.31788E+06         0.00000E+00
    0.00000E+00         0.00000E+00         0.00000E+00
 
    0.17808E+07         0.57566E+06         0.00000E+00
    0.57566E+06        -0.30849E+06         0.00000E+00
    0.00000E+00         0.00000E+00         0.00000E+00
 
    0.17460E+07         0.61668E+06         0.00000E+00
    0.61668E+06        -0.29842E+06         0.00000E+00
    0.00000E+00         0.00000E+00         0.00000E+00
 
    0.17104E+07         0.65693E+06         0.00000E+00
    0.65693E+06        -0.28768E+06         0.00000E+00
    0.00000E+00         0.00000E+00         0.00000E+00
 
    0.16737E+07         0.69642E+06         0.00000E+00
    0.69642E+06        -0.27629E+06         0.00000E+00
    0.00000E+00         0.00000E+00         0.00000E+00
 
    0.16362E+07         0.73515E+06         0.00000E+00
    0.73515E+06        -0.26426E+06         0.00000E+00
    0.00000E+00         0.00000E+00         0.00000E+00
 
    0.15978E+07         0.77311E+06         0.00000E+00
    0.77311E+06        -0.25160E+06         0.00000E+00
    0.00000E+00         0.00000E+00         0.00000E+00
 
    0.15586E+07         0.81030E+06         0.00000E+00
    0.81030E+06        -0.23833E+06         0.00000E+00
    0.00000E+00         0.00000E+00         0.00000E+00
 
    0.15186E+07         0.84673E+06         0.00000E+00
    0.84673E+06        -0.22445E+06         0.00000E+00
    0.00000E+00         0.00000E+00         0.00000E+00
 
    0.14777E+07         0.88239E+06         0.00000E+00
    0.88239E+06        -0.20999E+06         0.00000E+00
    0.00000E+00         0.00000E+00         0.00000E+00
 
    0.14361E+07         0.91728E+06         0.00000E+00
    0.91728E+06        -0.19494E+06         0.00000E+00
    0.00000E+00         0.00000E+00         0.00000E+00
 
    0.13937E+07         0.95140E+06         0.00000E+00
    0.95140E+06        -0.17932E+06         0.00000E+00
    0.00000E+00         0.00000E+00         0.00000E+00
 
    0.13506E+07         0.98475E+06         0.00000E+00
    0.98475E+06        -0.16314E+06         0.00000E+00
    0.00000E+00         0.00000E+00         0.00000E+00
 
    0.13068E+07         0.10173E+07         0.00000E+00
    0.10173E+07        -0.14641E+06         0.00000E+00
    0.00000E+00         0.00000E+00         0.00000E+00
 
    0.12623E+07         0.10491E+07         0.00000E+00
    0.10491E+07        -0.12914E+06         0.00000E+00
    0.00000E+00         0.00000E+00         0.00000E+00
 
    0.12171E+07         0.10802E+07         0.00000E+00
    0.10802E+07        -0.11133E+06         0.00000E+00
    0.00000E+00         0.00000E+00         0.00000E+00
 
    0.11713E+07         0.11104E+07         0.00000E+00
    0.11104E+07        -0.93002E+05         0.00000E+00
    0.00000E+00         0.00000E+00         0.00000E+00
 
    0.11248E+07         0.11399E+07         0.00000E+00
    0.11399E+07        -0.74158E+05         0.00000E+00
    0.00000E+00         0.00000E+00         0.00000E+00
 
    0.10777E+07         0.11686E+07         0.00000E+00
    0.11686E+07        -0.54806E+05         0.00000E+00
    0.00000E+00         0.00000E+00         0.00000E+00
 
    0.10300E+07         0.11965E+07         0.00000E+00
    0.11965E+07        -0.34955E+05         0.00000E+00
    0.00000E+00         0.00000E+00         0.00000E+00
 
    0.98177E+06         0.12237E+07         0.00000E+00
    0.12237E+07        -0.14611E+05         0.00000E+00
    0.00000E+00         0.00000E+00         0.00000E+00
 
    0.93294E+06         0.12500E+07         0.00000E+00
    0.12500E+07         0.62161E+04         0.00000E+00
    0.00000E+00         0.00000E+00         0.00000E+00
 
    0.88355E+06         0.12756E+07         0.00000E+00
    0.12756E+07         0.27521E+05         0.00000E+00
    0.00000E+00         0.00000E+00         0.00000E+00
 
    0.83362E+06         0.13005E+07         0.00000E+00
    0.13005E+07         0.49296E+05         0.00000E+00
    0.00000E+00         0.00000E+00         0.00000E+00
 
    0.78316E+06         0.13245E+07         0.00000E+00
    0.13245E+07         0.71535E+05         0.00000E+00
    0.00000E+00         0.00000E+00         0.00000E+00
 
    0.73220E+06         0.13478E+07         0.00000E+00
    0.13478E+07         0.94232E+05         0.00000E+00
    0.00000E+00         0.00000E+00         0.00000E+00
 
    0.68073E+06         0.13702E+07         0.00000E+00
    0.13702E+07         0.11738E+06         0.00000E+00
    0.00000E+00         0.00000E+00         0.00000E+00
 
    0.62878E+06         0.13919E+07         0.00000E+00
    0.13919E+07         0.14097E+06         0.00000E+00
    0.00000E+00         0.00000E+00         0.00000E+00
 
    0.57636E+06         0.14128E+07         0.00000E+00
    0.14128E+07         0.16500E+06         0.00000E+00
    0.00000E+00         0.00000E+00         0.00000E+00
 
    0.52347E+06         0.14329E+07         0.00000E+00
    0.14329E+07         0.18946E+06         0.00000E+00
    0.00000E+00         0.00000E+00         0.00000E+00
 
    0.47013E+06         0.14523E+07         0.00000E+00
    0.14523E+07         0.21435E+06         0.00000E+00
    0.00000E+00         0.00000E+00         0.00000E+00
 
    0.41635E+06         0.14708E+07         0.00000E+00
    0.14708E+07         0.23967E+06         0.00000E+00
    0.00000E+00         0.00000E+00         0.00000E+00
 
    0.36214E+06         0.14885E+07         0.00000E+00
    0.14885E+07         0.26539E+06         0.00000E+00
    0.00000E+00         0.00000E+00         0.00000E+00
 
    0.30751E+06         0.15055E+07         0.00000E+00
    0.15055E+07         0.29153E+06         0.00000E+00
    0.00000E+00         0.00000E+00         0.00000E+00
 
    0.25247E+06         0.15216E+07         0.00000E+00
    0.15216E+07         0.31807E+06         0.00000E+00
    0.00000E+00         0.00000E+00         0.00000E+00
 
    0.19703E+06         0.15369E+07         0.00000E+00
    0.15369E+07         0.34501E+06         0.00000E+00
    0.00000E+00         0.00000E+00         0.00000E+00
 
    0.14119E+06         0.15515E+07         0.00000E+00
    0.15515E+07         0.37235E+06         0.00000E+00
    0.00000E+00         0.00000E+00         0.00000E+00
 
    0.84977E+05         0.15652E+07         0.00000E+00
    0.15652E+07         0.40007E+06         0.00000E+00
    0.00000E+00         0.00000E+00         0.00000E+00
 
    0.28387E+05         0.15781E+07         0.00000E+00
    0.15781E+07         0.42818E+06         0.00000E+00
    0.00000E+00         0.00000E+00         0.00000E+00
 
    0.23089E+07         0.28191E+05         0.00000E+00
    0.28191E+05        -0.43741E+06         0.00000E+00
    0.00000E+00         0.00000E+00         0.00000E+00
 
    0.22843E+07         0.82425E+05         0.00000E+00
    0.82425E+05        -0.43646E+06         0.00000E+00
    0.00000E+00         0.00000E+00         0.00000E+00
 
    0.22584E+07         0.13587E+06         0.00000E+00
    0.13587E+06        -0.43460E+06         0.00000E+00
    0.00000E+00         0.00000E+00         0.00000E+00
 
    0.22310E+07         0.18851E+06         0.00000E+00
    0.18851E+06        -0.43186E+06         0.00000E+00
    0.00000E+00         0.00000E+00         0.00000E+00
 
    0.22024E+07         0.24035E+06         0.00000E+00
    0.24035E+06        -0.42824E+06         0.00000E+00
    0.00000E+00         0.00000E+00         0.00000E+00
 
    0.21725E+07         0.29138E+06         0.00000E+00
    0.29138E+06        -0.42378E+06         0.00000E+00
    0.00000E+00         0.00000E+00         0.00000E+00
 
    0.21414E+07         0.34160E+06         0.00000E+00
    0.34160E+06        -0.41849E+06         0.00000E+00
    0.00000E+00         0.00000E+00         0.00000E+00
 
    0.21091E+07         0.39101E+06         0.00000E+00
    0.39101E+06        -0.41239E+06         0.00000E+00
    0.00000E+00         0.00000E+00         0.00000E+00
 
    0.20757E+07         0.43959E+06         0.00000E+00
    0.43959E+06        -0.40550E+06         0.00000E+00
    0.00000E+00         0.00000E+00         0.00000E+00
 
    0.20411E+07         0.48735E+06         0.00000E+00
    0.48735E+06        -0.39782E+06         0.00000E+00
    0.00000E+00         0.00000E+00         0.00000E+00
 
    0.20055E+07         0.53429E+06         0.00000E+00
    0.53429E+06        -0.38939E+06         0.00000E+00
    0.00000E+00         0.00000E+00         0.00000E+00
 
    0.19688E+07         0.58040E+06         0.00000E+00
    0.58040E+06        -0.38021E+06         0.00000E+00
    0.00000E+00         0.00000E+00         0.00000E+00
 
    0.19311E+07         0.62569E+06         0.00000E+00
    0.62569E+06        -0.37031E+06         0.00000E+00
    0.00000E+00         0.00000E+00         0.00000E+00
 
    0.18924E+07         0.67015E+06         0.00000E+00
    0.67015E+06        -0.35969E+06         0.00000E+00
    0.00000E+00         0.00000E+00         0.00000E+00
 
    0.18527E+07         0.71378E+06         0.00000E+00
    0.71378E+06        -0.34836E+06         0.00000E+00
    0.00000E+00         0.00000E+00         0.00000E+00
 
    0.18121E+07         0.75659E+06         0.00000E+00
    0.75659E+06        -0.33636E+06         0.00000E+00
    0.00000E+00         0.00000E+00         0.00000E+00
 
    0.17706E+07         0.79856E+06         0.00000E+00
    0.79856E+06        -0.32368E+06         0.00000E+00
    0.00000E+00         0.00000E+00         0.00000E+00
 
    0.17283E+07         0.83971E+06         0.00000E+00
    0.83971E+06        -0.31033E+06         0.00000E+00
    0.00000E+00         0.00000E+00         0.00000E+00
 
    0.16850E+07         0.88004E+06         0.00000E+00
    0.88004E+06        -0.29634E+06         0.00000E+00
    0.00000E+00         0.00000E+00         0.00000E+00
 
    0.16410E+07         0.91954E+06         0.00000E+00
    0.91954E+06        -0.28172E+06         0.00000E+00
    0.00000E+00         0.00000E+00         0.00000E+00
 
    0.15962E+07         0.95822E+06         0.00000E+00
    0.95822E+06        -0.26646E+06         0.00000E+00
    0.00000E+00         0.00000E+00         0.00000E+00
 
    0.15506E+07         0.99607E+06         0.00000E+00
    0.99607E+06        -0.25060E+06         0.00000E+00
    0.00000E+00         0.00000E+00         0.00000E+00
 
    0.15042E+07         0.10331E+07         0.00000E+00
    0.10331E+07        -0.23412E+06         0.00000E+00
    0.00000E+00         0.00000E+00         0.00000E+00
 
    0.14571E+07         0.10693E+07         0.00000E+00
    0.10693E+07        -0.21706E+06         0.00000E+00
    0.00000E+00         0.00000E+00         0.00000E+00
 
    0.14093E+07         0.11047E+07         0.00000E+00
    0.11047E+07        -0.19941E+06         0.00000E+00
    0.00000E+00         0.00000E+00         0.00000E+00
 
    0.13609E+07         0.11393E+07         0.00000E+00
    0.11393E+07        -0.18118E+06         0.00000E+00
    0.00000E+00         0.00000E+00         0.00000E+00
 
    0.13117E+07         0.11730E+07         0.00000E+00
    0.11730E+07        -0.16238E+06         0.00000E+00
    0.00000E+00         0.00000E+00         0.00000E+00
 
    0.12619E+07         0.12060E+07         0.00000E+00
    0.12060E+07        -0.14302E+06         0.00000E+00
    0.00000E+00         0.00000E+00         0.00000E+00
 
    0.12115E+07         0.12381E+07         0.00000E+00
    0.12381E+07        -0.12311E+06         0.00000E+00
    0.00000E+00         0.00000E+00         0.00000E+00
 
    0.11604E+07         0.12694E+07         0.00000E+00
    0.12694E+07        -0.10266E+06         0.00000E+00
    0.00000E+00         0.00000E+00         0.00000E+00
 
    0.11088E+07         0.12999E+07         0.00000E+00
    0.12999E+07        -0.81671E+05         0.00000E+00
    0.00000E+00         0.00000E+00         0.00000E+00
 
    0.10565E+07         0.13296E+07         0.00000E+00
    0.13296E+07        -0.60150E+05         0.00000E+00
    0.00000E+00         0.00000E+00         0.00000E+00
 
    0.10037E+07         0.13585E+07         0.00000E+00
    0.13585E+07        -0.38106E+05         0.00000E+00
    0.00000E+00         0.00000E+00         0.00000E+00
 
    0.95035E+06         0.13866E+07         0.00000E+00
    0.13866E+07        -0.15545E+05         0.00000E+00
    0.00000E+00         0.00000E+00         0.00000E+00
 
    0.89644E+06         0.14138E+07         0.00000E+00
    0.14138E+07         0.75282E+04         0.00000E+00
    0.00000E+00         0.00000E+00         0.00000E+00
 
    0.84201E+06         0.14403E+07         0.00000E+00
    0.14403E+07         0.31107E+05         0.00000E+00
    0.00000E+00         0.00000E+00         0.00000E+00
 
    0.78706E+06         0.14659E+07         0.00000E+00
    0.14659E+07         0.55185E+05         0.00000E+00
    0.00000E+00         0.00000E+00         0.00000E+00
 
    0.73160E+06         0.14907E+07         0.00000E+00
    0.14907E+07         0.79758E+05         0.00000E+00
    0.00000E+00         0.00000E+00         0.00000E+00
 
    0.67565E+06         0.15147E+07         0.00000E+00
    0.15147E+07         0.10482E+06         0.00000E+00
    0.00000E+00         0.00000E+00         0.00000E+00
 
    0.61922E+06         0.15379E+07         0.00000E+00
    0.15379E+07         0.13037E+06         0.00000E+00
    0.00000E+00         0.00000E+00         0.00000E+00
 
    0.56232E+06         0.15603E+07         0.00000E+00
    0.15603E+07         0.15639E+06         0.00000E+00
    0.00000E+00         0.00000E+00         0.00000E+00
 
    0.50496E+06         0.15819E+07         0.00000E+00
    0.15819E+07         0.18290E+06         0.00000E+00
    0.00000E+00         0.00000E+00         0.00000E+00
 
    0.44714E+06         0.16026E+07         0.00000E+00
    0.16026E+07         0.20987E+06         0.00000E+00
    0.00000E+00         0.00000E+00         0.00000E+00
 
    0.38888E+06         0.16225E+07         0.00000E+00
    0.16225E+07         0.23730E+06         0.00000E+00
    0.00000E+00         0.00000E+00         0.00000E+00
 
    0.33019E+06         0.16416E+07         0.00000E+00
    0.16416E+07         0.26520E+06         0.00000E+00
    0.00000E+00         0.00000E+00         0.00000E+00
 
    0.27106E+06         0.16599E+07         0.00000E+00
    0.16599E+07         0.29356E+06         0.00000E+00
    0.00000E+00         0.00000E+00         0.00000E+00
 
    0.21152E+06         0.16774E+07         0.00000E+00
    0.16774E+07         0.32236E+06         0.00000E+00
    0.00000E+00         0.00000E+00         0.00000E+00
 
    0.15158E+06         0.16940E+07         0.00000E+00
    0.16940E+07         0.35162E+06         0.00000E+00
    0.00000E+00         0.00000E+00         0.00000E+00
 
    0.91222E+05         0.17097E+07         0.00000E+00
    0.17097E+07         0.38132E+06         0.00000E+00
    0.00000E+00         0.00000E+00         0.00000E+00
 
    0.30473E+05         0.17247E+07         0.00000E+00
    0.17247E+07         0.41146E+06         0.00000E+00
    0.00000E+00         0.00000E+00         0.00000E+00
 
    0.25177E+07         0.30703E+05         0.00000E+00
    0.30703E+05        -0.51362E+06         0.00000E+00
    0.00000E+00         0.00000E+00         0.00000E+00
 
    0.24889E+07         0.89650E+05         0.00000E+00
    0.89650E+05        -0.51262E+06         0.00000E+00
    0.00000E+00         0.00000E+00         0.00000E+00
 
    0.24587E+07         0.14770E+06         0.00000E+00
    0.14770E+06        -0.51067E+06         0.00000E+00
    0.00000E+00         0.00000E+00         0.00000E+00
 
    0.24271E+07         0.20484E+06         0.00000E+00
    0.20484E+06        -0.50778E+06         0.00000E+00
    0.00000E+00         0.00000E+00         0.00000E+00
 
    0.23942E+07         0.26107E+06         0.00000E+00
    0.26107E+06        -0.50399E+06         0.00000E+00
    0.00000E+00         0.00000E+00         0.00000E+00
 
    0.23601E+07         0.31640E+06         0.00000E+00
    0.31640E+06        -0.49930E+06         0.00000E+00
    0.00000E+00         0.00000E+00         0.00000E+00
 
    0.23246E+07         0.37082E+06         0.00000E+00
    0.37082E+06        -0.49375E+06         0.00000E+00
    0.00000E+00         0.00000E+00         0.00000E+00
 
    0.22880E+07         0.42433E+06         0.00000E+00
    0.42433E+06        -0.48735E+06         0.00000E+00
    0.00000E+00         0.00000E+00         0.00000E+00
 
    0.22503E+07         0.47694E+06         0.00000E+00
    0.47694E+06        -0.48011E+06         0.00000E+00
    0.00000E+00         0.00000E+00         0.00000E+00
 
    0.22114E+07         0.52863E+06         0.00000E+00
    0.52863E+06        -0.47207E+06         0.00000E+00
    0.00000E+00         0.00000E+00         0.00000E+00
 
    0.21714E+07         0.57942E+06         0.00000E+00
    0.57942E+06        -0.46322E+06         0.00000E+00
    0.00000E+00         0.00000E+00         0.00000E+00
 
    0.21304E+07         0.62930E+06         0.00000E+00
    0.62930E+06        -0.45360E+06         0.00000E+00
    0.00000E+00         0.00000E+00         0.00000E+00
 
    0.20884E+07         0.67828E+06         0.00000E+00
    0.67828E+06        -0.44322E+06         0.00000E+00
    0.00000E+00         0.00000E+00         0.00000E+00
 
    0.20453E+07         0.72636E+06         0.00000E+00
    0.72636E+06        -0.43209E+06         0.00000E+00
    0.00000E+00         0.00000E+00         0.00000E+00
 
    0.20014E+07         0.77354E+06         0.00000E+00
    0.77354E+06        -0.42023E+06         0.00000E+00
    0.00000E+00         0.00000E+00         0.00000E+00
 
    0.19565E+07         0.81982E+06         0.00000E+00
    0.81982E+06        -0.40765E+06         0.00000E+00
    0.00000E+00         0.00000E+00         0.00000E+00
 
    0.19107E+07         0.86521E+06         0.00000E+00
    0.86521E+06        -0.39436E+06         0.00000E+00
    0.00000E+00         0.00000E+00         0.00000E+00
 
    0.18640E+07         0.90972E+06         0.00000E+00
    0.90972E+06        -0.38038E+06         0.00000E+00
    0.00000E+00         0.00000E+00         0.00000E+00
 
    0.18166E+07         0.95334E+06         0.00000E+00
    0.95334E+06        -0.36572E+06         0.00000E+00
    0.00000E+00         0.00000E+00         0.00000E+00
 
    0.17683E+07         0.99608E+06         0.00000E+00
    0.99608E+06        -0.35039E+06         0.00000E+00
    0.00000E+00         0.00000E+00         0.00000E+00
 
    0.17192E+07         0.10379E+07         0.00000E+00
    0.10379E+07        -0.33440E+06         0.00000E+00
    0.00000E+00         0.00000E+00         0.00000E+00
 
    0.16693E+07         0.10789E+07         0.00000E+00
    0.10789E+07        -0.31777E+06         0.00000E+00
    0.00000E+00         0.00000E+00         0.00000E+00
 
    0.16188E+07         0.11190E+07         0.00000E+00
    0.11190E+07        -0.30049E+06         0.00000E+00
    0.00000E+00         0.00000E+00         0.00000E+00
 
    0.15675E+07         0.11583E+07         0.00000E+00
    0.11583E+07        -0.28259E+06         0.00000E+00
    0.00000E+00         0.00000E+00         0.00000E+00
 
    0.15155E+07         0.11967E+07         0.00000E+00
    0.11967E+07        -0.26407E+06         0.00000E+00
    0.00000E+00         0.00000E+00         0.00000E+00
 
    0.14628E+07         0.12342E+07         0.00000E+00
    0.12342E+07        -0.24494E+06         0.00000E+00
    0.00000E+00         0.00000E+00         0.00000E+00
 
    0.14095E+07         0.12709E+07         0.00000E+00
    0.12709E+07        -0.22520E+06         0.00000E+00
    0.00000E+00         0.00000E+00         0.00000E+00
 
    0.13555E+07         0.13067E+07         0.00000E+00
    0.13067E+07        -0.20486E+06         0.00000E+00
    0.00000E+00         0.00000E+00         0.00000E+00
 
    0.13009E+07         0.13416E+07         0.00000E+00
    0.13416E+07        -0.18394E+06         0.00000E+00
    0.00000E+00         0.00000E+00         0.00000E+00
 
    0.12457E+07         0.13757E+07         0.00000E+00
    0.13757E+07        -0.16243E+06         0.00000E+00
    0.00000E+00         0.00000E+00         0.00000E+00
 
    0.11899E+07         0.14090E+07         0.00000E+00
    0.14090E+07        -0.14035E+06         0.00000E+00
    0.00000E+00         0.00000E+00         0.00000E+00
 
    0.11335E+07         0.14414E+07         0.00000E+00
    0.14414E+07        -0.11770E+06         0.00000E+00
    0.00000E+00         0.00000E+00         0.00000E+00
 
    0.10766E+07         0.14730E+07         0.00000E+00
    0.14730E+07        -0.94476E+05         0.00000E+00
    0.00000E+00         0.00000E+00         0.00000E+00
 
    0.10191E+07         0.15038E+07         0.00000E+00
    0.15038E+07        -0.70696E+05         0.00000E+00
    0.00000E+00         0.00000E+00         0.00000E+00
 
    0.96107E+06         0.15337E+07         0.00000E+00
    0.15337E+07        -0.46361E+05         0.00000E+00
    0.00000E+00         0.00000E+00         0.00000E+00
 
    0.90252E+06         0.15628E+07         0.00000E+00
    0.15628E+07        -0.21475E+05         0.00000E+00
    0.00000E+00         0.00000E+00         0.00000E+00
 
    0.84345E+06         0.15910E+07         0.00000E+00
    0.15910E+07         0.39568E+04         0.00000E+00
    0.00000E+00         0.00000E+00         0.00000E+00
 
    0.78387E+06         0.16184E+07         0.00000E+00
    0.16184E+07         0.29931E+05         0.00000E+00
    0.00000E+00         0.00000E+00         0.00000E+00
 
    0.72380E+06         0.16450E+07         0.00000E+00
    0.16450E+07         0.56444E+05         0.00000E+00
    0.00000E+00         0.00000E+00         0.00000E+00
 
    0.66325E+06         0.16707E+07         0.00000E+00
    0.16707E+07         0.83492E+05         0.00000E+00
    0.00000E+00         0.00000E+00         0.00000E+00
 
    0.60221E+06         0.16956E+07         0.00000E+00
    0.16956E+07         0.11107E+06         0.00000E+00
    0.00000E+00         0.00000E+00         0.00000E+00
 
    0.54071E+06         0.17196E+07         0.00000E+00
    0.17196E+07         0.13918E+06         0.00000E+00
    0.00000E+00         0.00000E+00         0.00000E+00
 
    0.47874E+06         0.17429E+07         0.00000E+00
    0.17429E+07         0.16781E+06         0.00000E+00
    0.00000E+00         0.00000E+00         0.00000E+00
 
    0.41632E+06         0.17652E+07         0.00000E+00
    0.17652E+07         0.19696E+06         0.00000E+00
    0.00000E+00         0.00000E+00         0.00000E+00
 
    0.35345E+06         0.17868E+07         0.00000E+00
    0.17868E+07         0.22663E+06         0.00000E+00
    0.00000E+00         0.00000E+00         0.00000E+00
 
    0.29015E+06         0.18075E+07         0.00000E+00
    0.18075E+07         0.25682E+06         0.00000E+00
    0.00000E+00         0.00000E+00         0.00000E+00
 
    0.22640E+06         0.18273E+07         0.00000E+00
    0.18273E+07         0.28752E+06         0.00000E+00
    0.00000E+00         0.00000E+00         0.00000E+00
 
    0.16223E+06         0.18463E+07         0.00000E+00
    0.18463E+07         0.31872E+06         0.00000E+00
    0.00000E+00         0.00000E+00         0.00000E+00
 
    0.97630E+05         0.18644E+07         0.00000E+00
    0.18644E+07         0.35044E+06         0.00000E+00
    0.00000E+00         0.00000E+00         0.00000E+00
 
    0.32613E+05         0.18817E+07         0.00000E+00
    0.18817E+07         0.38266E+06         0.00000E+00
    0.00000E+00         0.00000E+00         0.00000E+00
 
    0.27384E+07         0.33344E+05         0.00000E+00
    0.33344E+05        -0.60235E+06         0.00000E+00
    0.00000E+00         0.00000E+00         0.00000E+00
 
    0.27048E+07         0.97228E+05         0.00000E+00
    0.97228E+05        -0.60130E+06         0.00000E+00
    0.00000E+00         0.00000E+00         0.00000E+00
 
    0.26698E+07         0.16009E+06         0.00000E+00
    0.16009E+06        -0.59926E+06         0.00000E+00
    0.00000E+00         0.00000E+00         0.00000E+00
 
    0.26335E+07         0.22194E+06         0.00000E+00
    0.22194E+06        -0.59625E+06         0.00000E+00
    0.00000E+00         0.00000E+00         0.00000E+00
 
    0.25958E+07         0.28277E+06         0.00000E+00
    0.28277E+06        -0.59229E+06         0.00000E+00
    0.00000E+00         0.00000E+00         0.00000E+00
 
    0.25568E+07         0.34258E+06         0.00000E+00
    0.34258E+06        -0.58741E+06         0.00000E+00
    0.00000E+00         0.00000E+00         0.00000E+00
 
    0.25166E+07         0.40138E+06         0.00000E+00
    0.40138E+06        -0.58162E+06         0.00000E+00
    0.00000E+00         0.00000E+00         0.00000E+00
 
    0.24752E+07         0.45918E+06         0.00000E+00
    0.45918E+06        -0.57495E+06         0.00000E+00
    0.00000E+00         0.00000E+00         0.00000E+00
 
    0.24326E+07         0.51597E+06         0.00000E+00
    0.51597E+06        -0.56741E+06         0.00000E+00
    0.00000E+00         0.00000E+00         0.00000E+00
 
    0.23890E+07         0.57176E+06         0.00000E+00
    0.57176E+06        -0.55904E+06         0.00000E+00
    0.00000E+00         0.00000E+00         0.00000E+00
 
    0.23443E+07         0.62656E+06         0.00000E+00
    0.62656E+06        -0.54983E+06         0.00000E+00
    0.00000E+00         0.00000E+00         0.00000E+00
 
    0.22985E+07         0.68037E+06         0.00000E+00
    0.68037E+06        -0.53982E+06         0.00000E+00
    0.00000E+00         0.00000E+00         0.00000E+00
 
    0.22518E+07         0.73320E+06         0.00000E+00
    0.73320E+06        -0.52901E+06         0.00000E+00
    0.00000E+00         0.00000E+00         0.00000E+00
 
    0.22041E+07         0.78505E+06         0.00000E+00
    0.78505E+06        -0.51743E+06         0.00000E+00
    0.00000E+00         0.00000E+00         0.00000E+00
 
    0.21555E+07         0.83593E+06         0.00000E+00
    0.83593E+06        -0.50509E+06         0.00000E+00
    0.00000E+00         0.00000E+00         0.00000E+00
 
    0.21060E+07         0.88585E+06         0.00000E+00
    0.88585E+06        -0.49200E+06         0.00000E+00
    0.00000E+00         0.00000E+00         0.00000E+00
 
    0.20556E+07         0.93482E+06         0.00000E+00
    0.93482E+06        -0.47817E+06         0.00000E+00
    0.00000E+00         0.00000E+00         0.00000E+00
 
    0.20043E+07         0.98283E+06         0.00000E+00
    0.98283E+06        -0.46362E+06         0.00000E+00
    0.00000E+00         0.00000E+00         0.00000E+00
 
    0.19523E+07         0.10299E+07         0.00000E+00
    0.10299E+07        -0.44836E+06         0.00000E+00
    0.00000E+00         0.00000E+00         0.00000E+00
 
    0.18995E+07         0.10760E+07         0.00000E+00
    0.10760E+07        -0.43240E+06         0.00000E+00
    0.00000E+00         0.00000E+00         0.00000E+00
 
    0.18459E+07         0.11212E+07         0.00000E+00
    0.11212E+07        -0.41575E+06         0.00000E+00
    0.00000E+00         0.00000E+00         0.00000E+00
 
    0.17916E+07         0.11655E+07         0.00000E+00
    0.11655E+07        -0.39843E+06         0.00000E+00
    0.00000E+00         0.00000E+00         0.00000E+00
 
    0.17365E+07         0.12089E+07         0.00000E+00
    0.12089E+07        -0.38043E+06         0.00000E+00
    0.00000E+00         0.00000E+00         0.00000E+00
 
    0.16808E+07         0.12513E+07         0.00000E+00
    0.12513E+07        -0.36177E+06         0.00000E+00
    0.00000E+00         0.00000E+00         0.00000E+00
 
    0.16244E+07         0.12929E+07         0.00000E+00
    0.12929E+07        -0.34245E+06         0.00000E+00
    0.00000E+00         0.00000E+00         0.00000E+00
 
    0.15673E+07         0.13335E+07         0.00000E+00
    0.13335E+07        -0.32249E+06         0.00000E+00
    0.00000E+00         0.00000E+00         0.00000E+00
 
    0.15096E+07         0.13733E+07         0.00000E+00
    0.13733E+07        -0.30189E+06         0.00000E+00
    0.00000E+00         0.00000E+00         0.00000E+00
 
    0.14513E+07         0.14122E+07         0.00000E+00
    0.14122E+07        -0.28066E+06         0.00000E+00
    0.00000E+00         0.00000E+00         0.00000E+00
 
    0.13924E+07         0.14502E+07         0.00000E+00
    0.14502E+07        -0.25879E+06         0.00000E+00
    0.00000E+00         0.00000E+00         0.00000E+00
 
    0.13329E+07         0.14873E+07         0.00000E+00
    0.14873E+07        -0.23631E+06         0.00000E+00
    0.00000E+00         0.00000E+00         0.00000E+00
 
    0.12728E+07         0.15235E+07         0.00000E+00
    0.15235E+07        -0.21320E+06         0.00000E+00
    0.00000E+00         0.00000E+00         0.00000E+00
 
    0.12122E+07         0.15589E+07         0.00000E+00
    0.15589E+07        -0.18948E+06         0.00000E+00
    0.00000E+00         0.00000E+00         0.00000E+00
 
    0.11510E+07         0.15934E+07         0.00000E+00
    0.15934E+07        -0.16516E+06         0.00000E+00
    0.00000E+00         0.00000E+00         0.00000E+00
 
    0.10892E+07         0.16270E+07         0.00000E+00
    0.16270E+07        -0.14022E+06         0.00000E+00
    0.00000E+00         0.00000E+00         0.00000E+00
 
    0.10270E+07         0.16598E+07         0.00000E+00
    0.16598E+07        -0.11469E+06         0.00000E+00
    0.00000E+00         0.00000E+00         0.00000E+00
 
    0.96419E+06         0.16918E+07         0.00000E+00
    0.16918E+07        -0.88554E+05         0.00000E+00
    0.00000E+00         0.00000E+00         0.00000E+00
 
    0.90090E+06         0.17228E+07         0.00000E+00
    0.17228E+07        -0.61822E+05         0.00000E+00
    0.00000E+00         0.00000E+00         0.00000E+00
 
    0.83711E+06         0.17531E+07         0.00000E+00
    0.17531E+07        -0.34496E+05         0.00000E+00
    0.00000E+00         0.00000E+00         0.00000E+00
 
    0.77283E+06         0.17825E+07         0.00000E+00
    0.17825E+07        -0.65779E+04         0.00000E+00
    0.00000E+00         0.00000E+00         0.00000E+00
 
    0.70806E+06         0.18110E+07         0.00000E+00
    0.18110E+07         0.21930E+05         0.00000E+00
    0.00000E+00         0.00000E+00         0.00000E+00
 
    0.64281E+06         0.18387E+07         0.00000E+00
    0.18387E+07         0.51026E+05         0.00000E+00
    0.00000E+00         0.00000E+00         0.00000E+00
 
    0.57709E+06         0.18655E+07         0.00000E+00
    0.18655E+07         0.80708E+05         0.00000E+00
    0.00000E+00         0.00000E+00         0.00000E+00
 
    0.51089E+06         0.18915E+07         0.00000E+00
    0.18915E+07         0.11098E+06         0.00000E+00
    0.00000E+00         0.00000E+00         0.00000E+00
 
    0.44424E+06         0.19166E+07         0.00000E+00
    0.19166E+07         0.14183E+06         0.00000E+00
    0.00000E+00         0.00000E+00         0.00000E+00
 
    0.37712E+06         0.19409E+07         0.00000E+00
    0.19409E+07         0.17326E+06         0.00000E+00
    0.00000E+00         0.00000E+00         0.00000E+00
 
    0.30955E+06         0.19643E+07         0.00000E+00
    0.19643E+07         0.20527E+06         0.00000E+00
    0.00000E+00         0.00000E+00         0.00000E+00
 
    0.24153E+06         0.19869E+07         0.00000E+00
    0.19869E+07         0.23787E+06         0.00000E+00
    0.00000E+00         0.00000E+00         0.00000E+00
 
    0.17306E+06         0.20086E+07         0.00000E+00
    0.20086E+07         0.27104E+06         0.00000E+00
    0.00000E+00         0.00000E+00         0.00000E+00
 
    0.10415E+06         0.20294E+07         0.00000E+00
    0.20294E+07         0.30479E+06         0.00000E+00
    0.00000E+00         0.00000E+00         0.00000E+00
 
    0.34789E+05         0.20494E+07         0.00000E+00
    0.20494E+07         0.33911E+06         0.00000E+00
    0.00000E+00         0.00000E+00         0.00000E+00
 
    0.29703E+07         0.36098E+05         0.00000E+00
    0.36098E+05        -0.70547E+06         0.00000E+00
    0.00000E+00         0.00000E+00         0.00000E+00
 
    0.29313E+07         0.10511E+06         0.00000E+00
    0.10511E+06        -0.70439E+06         0.00000E+00
    0.00000E+00         0.00000E+00         0.00000E+00
 
    0.28908E+07         0.17298E+06         0.00000E+00
    0.17298E+06        -0.70228E+06         0.00000E+00
    0.00000E+00         0.00000E+00         0.00000E+00
 
    0.28491E+07         0.23971E+06         0.00000E+00
    0.23971E+06        -0.69916E+06         0.00000E+00
    0.00000E+00         0.00000E+00         0.00000E+00
 
    0.28060E+07         0.30530E+06         0.00000E+00
    0.30530E+06        -0.69506E+06         0.00000E+00
    0.00000E+00         0.00000E+00         0.00000E+00
 
    0.27617E+07         0.36976E+06         0.00000E+00
    0.36976E+06        -0.69001E+06         0.00000E+00
    0.00000E+00         0.00000E+00         0.00000E+00
 
    0.27162E+07         0.43310E+06         0.00000E+00
    0.43310E+06        -0.68403E+06         0.00000E+00
    0.00000E+00         0.00000E+00         0.00000E+00
 
    0.26695E+07         0.49532E+06         0.00000E+00
    0.49532E+06        -0.67714E+06         0.00000E+00
    0.00000E+00         0.00000E+00         0.00000E+00
 
    0.26217E+07         0.55645E+06         0.00000E+00
    0.55645E+06        -0.66936E+06         0.00000E+00
    0.00000E+00         0.00000E+00         0.00000E+00
 
    0.25729E+07         0.61648E+06         0.00000E+00
    0.61648E+06        -0.66070E+06         0.00000E+00
    0.00000E+00         0.00000E+00         0.00000E+00
 
    0.25230E+07         0.67543E+06         0.00000E+00
    0.67543E+06        -0.65120E+06         0.00000E+00
    0.00000E+00         0.00000E+00         0.00000E+00
 
    0.24721E+07         0.73331E+06         0.00000E+00
    0.73331E+06        -0.64086E+06         0.00000E+00
    0.00000E+00         0.00000E+00         0.00000E+00
 
    0.24203E+07         0.79012E+06         0.00000E+00
    0.79012E+06        -0.62971E+06         0.00000E+00
    0.00000E+00         0.00000E+00         0.00000E+00
 
    0.23675E+07         0.84589E+06         0.00000E+00
    0.84589E+06        -0.61776E+06         0.00000E+00
    0.00000E+00         0.00000E+00         0.00000E+00
 
    0.23139E+07         0.90061E+06         0.00000E+00
    0.90061E+06        -0.60501E+06         0.00000E+00
    0.00000E+00         0.00000E+00         0.00000E+00
 
    0.22594E+07         0.95430E+06         0.00000E+00
    0.95430E+06        -0.59150E+06         0.00000E+00
    0.00000E+00         0.00000E+00         0.00000E+00
 
    0.22041E+07         0.10070E+07         0.00000E+00
    0.10070E+07        -0.57722E+06         0.00000E+00
    0.00000E+00         0.00000E+00         0.00000E+00
 
    0.21480E+07         0.10586E+07         0.00000E+00
    0.10586E+07        -0.56220E+06         0.00000E+00
    0.00000E+00         0.00000E+00         0.00000E+00
 
    0.20911E+07         0.11093E+07         0.00000E+00
    0.11093E+07        -0.54644E+06         0.00000E+00
    0.00000E+00         0.00000E+00         0.00000E+00
 
    0.20335E+07         0.11590E+07         0.00000E+00
    0.11590E+07        -0.52995E+06         0.00000E+00
    0.00000E+00         0.00000E+00         0.00000E+00
 
    0.19752E+07         0.12077E+07         0.00000E+00
    0.12077E+07        -0.51274E+06         0.00000E+00
    0.00000E+00         0.00000E+00         0.00000E+00
 
    0.19161E+07         0.12554E+07         0.00000E+00
    0.12554E+07        -0.49483E+06         0.00000E+00
    0.00000E+00         0.00000E+00         0.00000E+00
 
    0.18564E+07         0.13022E+07         0.00000E+00
    0.13022E+07        -0.47621E+06         0.00000E+00
    0.00000E+00         0.00000E+00         0.00000E+00
 
    0.17961E+07         0.13480E+07         0.00000E+00
    0.13480E+07        -0.45690E+06         0.00000E+00
    0.00000E+00         0.00000E+00         0.00000E+00
 
    0.17351E+07         0.13929E+07         0.00000E+00
    0.13929E+07        -0.43690E+06         0.00000E+00
    0.00000E+00         0.00000E+00         0.00000E+00
 
    0.16735E+07         0.14368E+07         0.00000E+00
    0.14368E+07        -0.41622E+06         0.00000E+00
    0.00000E+00         0.00000E+00         0.00000E+00
 
    0.16113E+07         0.14799E+07         0.00000E+00
    0.14799E+07        -0.39486E+06         0.00000E+00
    0.00000E+00         0.00000E+00         0.00000E+00
 
    0.15485E+07         0.15220E+07         0.00000E+00
    0.15220E+07        -0.37283E+06         0.00000E+00
    0.00000E+00         0.00000E+00         0.00000E+00
 
    0.14851E+07         0.15632E+07         0.00000E+00
    0.15632E+07        -0.35014E+06         0.00000E+00
    0.00000E+00         0.00000E+00         0.00000E+00
 
    0.14212E+07         0.16035E+07         0.00000E+00
    0.16035E+07        -0.32678E+06         0.00000E+00
    0.00000E+00         0.00000E+00         0.00000E+00
 
    0.13567E+07         0.16430E+07         0.00000E+00
    0.16430E+07        -0.30276E+06         0.00000E+00
    0.00000E+00         0.00000E+00         0.00000E+00
 
    0.12917E+07         0.16815E+07         0.00000E+00
    0.16815E+07        -0.27808E+06         0.00000E+00
    0.00000E+00         0.00000E+00         0.00000E+00
 
    0.12261E+07         0.17192E+07         0.00000E+00
    0.17192E+07        -0.25274E+06         0.00000E+00
    0.00000E+00         0.00000E+00         0.00000E+00
 
    0.11601E+07         0.17560E+07         0.00000E+00
    0.17560E+07        -0.22675E+06         0.00000E+00
    0.00000E+00         0.00000E+00         0.00000E+00
 
    0.10935E+07         0.17919E+07         0.00000E+00
    0.17919E+07        -0.20011E+06         0.00000E+00
    0.00000E+00         0.00000E+00         0.00000E+00
 
    0.10264E+07         0.18269E+07         0.00000E+00
    0.18269E+07        -0.17281E+06         0.00000E+00
    0.00000E+00         0.00000E+00         0.00000E+00
 
    0.95884E+06         0.18611E+07         0.00000E+00
    0.18611E+07        -0.14486E+06         0.00000E+00
    0.00000E+00         0.00000E+00         0.00000E+00
 
    0.89078E+06         0.18945E+07         0.00000E+00
    0.18945E+07        -0.11627E+06         0.00000E+00
    0.00000E+00         0.00000E+00         0.00000E+00
 
    0.82224E+06         0.19270E+07         0.00000E+00
    0.19270E+07        -0.87019E+05         0.00000E+00
    0.00000E+00         0.00000E+00         0.00000E+00
 
    0.75321E+06         0.19586E+07         0.00000E+00
    0.19586E+07        -0.57121E+05         0.00000E+00
    0.00000E+00         0.00000E+00         0.00000E+00
 
    0.68370E+06         0.19894E+07         0.00000E+00
    0.19894E+07        -0.26571E+05         0.00000E+00
    0.00000E+00         0.00000E+00         0.00000E+00
 
    0.61372E+06         0.20193E+07         0.00000E+00
    0.20193E+07         0.46296E+04         0.00000E+00
    0.00000E+00         0.00000E+00         0.00000E+00
 
    0.54327E+06         0.20484E+07         0.00000E+00
    0.20484E+07         0.36482E+05         0.00000E+00
    0.00000E+00         0.00000E+00         0.00000E+00
 
    0.47234E+06         0.20766E+07         0.00000E+00
    0.20766E+07         0.68988E+05         0.00000E+00
    0.00000E+00         0.00000E+00         0.00000E+00
 
    0.40095E+06         0.21040E+07         0.00000E+00
    0.21040E+07         0.10215E+06         0.00000E+00
    0.00000E+00         0.00000E+00         0.00000E+00
 
    0.32909E+06         0.21305E+07         0.00000E+00
    0.21305E+07         0.13596E+06         0.00000E+00
    0.00000E+00         0.00000E+00         0.00000E+00
 
    0.25677E+06         0.21561E+07         0.00000E+00
    0.21561E+07         0.17043E+06         0.00000E+00
    0.00000E+00         0.00000E+00         0.00000E+00
 
    0.18397E+06         0.21809E+07         0.00000E+00
    0.21809E+07         0.20555E+06         0.00000E+00
    0.00000E+00         0.00000E+00         0.00000E+00
 
    0.11071E+06         0.22048E+07         0.00000E+00
    0.22048E+07         0.24133E+06         0.00000E+00
    0.00000E+00         0.00000E+00         0.00000E+00
 
    0.36982E+05         0.22279E+07         0.00000E+00
    0.22279E+07         0.27777E+06         0.00000E+00
    0.00000E+00         0.00000E+00         0.00000E+00
 
    0.32120E+07         0.38945E+05         0.00000E+00
    0.38945E+05        -0.82512E+06         0.00000E+00
    0.00000E+00         0.00000E+00         0.00000E+00
 
    0.31669E+07         0.11325E+06         0.00000E+00
    0.11325E+06        -0.82401E+06         0.00000E+00
    0.00000E+00         0.00000E+00         0.00000E+00
 
    0.31204E+07         0.18627E+06         0.00000E+00
    0.18627E+06        -0.82184E+06         0.00000E+00
    0.00000E+00         0.00000E+00         0.00000E+00
 
    0.30726E+07         0.25801E+06         0.00000E+00
    0.25801E+06        -0.81865E+06         0.00000E+00
    0.00000E+00         0.00000E+00         0.00000E+00
 
    0.30236E+07         0.32849E+06         0.00000E+00
    0.32849E+06        -0.81445E+06         0.00000E+00
    0.00000E+00         0.00000E+00         0.00000E+00
 
    0.29734E+07         0.39772E+06         0.00000E+00
    0.39772E+06        -0.80928E+06         0.00000E+00
    0.00000E+00         0.00000E+00         0.00000E+00
 
    0.29220E+07         0.46571E+06         0.00000E+00
    0.46571E+06        -0.80316E+06         0.00000E+00
    0.00000E+00         0.00000E+00         0.00000E+00
 
    0.28695E+07         0.53249E+06         0.00000E+00
    0.53249E+06        -0.79610E+06         0.00000E+00
    0.00000E+00         0.00000E+00         0.00000E+00
 
    0.28160E+07         0.59806E+06         0.00000E+00
    0.59806E+06        -0.78814E+06         0.00000E+00
    0.00000E+00         0.00000E+00         0.00000E+00
 
    0.27615E+07         0.66244E+06         0.00000E+00
    0.66244E+06        -0.77930E+06         0.00000E+00
    0.00000E+00         0.00000E+00         0.00000E+00
 
    0.27060E+07         0.72565E+06         0.00000E+00
    0.72565E+06        -0.76958E+06         0.00000E+00
    0.00000E+00         0.00000E+00         0.00000E+00
 
    0.26496E+07         0.78770E+06         0.00000E+00
    0.78770E+06        -0.75901E+06         0.00000E+00
    0.00000E+00         0.00000E+00         0.00000E+00
 
    0.25923E+07         0.84861E+06         0.00000E+00
    0.84861E+06        -0.74761E+06         0.00000E+00
    0.00000E+00         0.00000E+00         0.00000E+00
 
    0.25341E+07         0.90839E+06         0.00000E+00
    0.90839E+06        -0.73538E+06         0.00000E+00
    0.00000E+00         0.00000E+00         0.00000E+00
 
    0.24751E+07         0.96706E+06         0.00000E+00
    0.96706E+06        -0.72235E+06         0.00000E+00
    0.00000E+00         0.00000E+00         0.00000E+00
 
    0.24154E+07         0.10246E+07         0.00000E+00
    0.10246E+07        -0.70853E+06         0.00000E+00
    0.00000E+00         0.00000E+00         0.00000E+00
 
    0.23548E+07         0.10811E+07         0.00000E+00
    0.10811E+07        -0.69392E+06         0.00000E+00
    0.00000E+00         0.00000E+00         0.00000E+00
 
    0.22936E+07         0.11366E+07         0.00000E+00
    0.11366E+07        -0.67855E+06         0.00000E+00
    0.00000E+00         0.00000E+00         0.00000E+00
 
    0.22316E+07         0.11910E+07         0.00000E+00
    0.11910E+07        -0.66241E+06         0.00000E+00
    0.00000E+00         0.00000E+00         0.00000E+00
 
    0.21690E+07         0.12443E+07         0.00000E+00
    0.12443E+07        -0.64553E+06         0.00000E+00
    0.00000E+00         0.00000E+00         0.00000E+00
 
    0.21057E+07         0.12966E+07         0.00000E+00
    0.12966E+07        -0.62790E+06         0.00000E+00
    0.00000E+00         0.00000E+00         0.00000E+00
 
    0.20418E+07         0.13480E+07         0.00000E+00
    0.13480E+07        -0.60953E+06         0.00000E+00
    0.00000E+00         0.00000E+00         0.00000E+00
 
    0.19772E+07         0.13983E+07         0.00000E+00
    0.13983E+07        -0.59044E+06         0.00000E+00
    0.00000E+00         0.00000E+00         0.00000E+00
 
    0.19121E+07         0.14477E+07         0.00000E+00
    0.14477E+07        -0.57061E+06         0.00000E+00
    0.00000E+00         0.00000E+00         0.00000E+00
 
    0.18463E+07         0.14961E+07         0.00000E+00
    0.14961E+07        -0.55007E+06         0.00000E+00
    0.00000E+00         0.00000E+00         0.00000E+00
 
    0.17800E+07         0.15435E+07         0.00000E+00
    0.15435E+07        -0.52882E+06         0.00000E+00
    0.00000E+00         0.00000E+00         0.00000E+00
 
    0.17132E+07         0.15900E+07         0.00000E+00
    0.15900E+07        -0.50685E+06         0.00000E+00
    0.00000E+00         0.00000E+00         0.00000E+00
 
    0.16458E+07         0.16356E+07         0.00000E+00
    0.16356E+07        -0.48417E+06         0.00000E+00
    0.00000E+00         0.00000E+00         0.00000E+00
 
    0.15779E+07         0.16802E+07         0.00000E+00
    0.16802E+07        -0.46078E+06         0.00000E+00
    0.00000E+00         0.00000E+00         0.00000E+00
 
    0.15095E+07         0.17240E+07         0.00000E+00
    0.17240E+07        -0.43669E+06         0.00000E+00
    0.00000E+00         0.00000E+00         0.00000E+00
 
    0.14405E+07         0.17668E+07         0.00000E+00
    0.17668E+07        -0.41189E+06         0.00000E+00
    0.00000E+00         0.00000E+00         0.00000E+00
 
    0.13711E+07         0.18087E+07         0.00000E+00
    0.18087E+07        -0.38639E+06         0.00000E+00
    0.00000E+00         0.00000E+00         0.00000E+00
 
    0.13011E+07         0.18498E+07         0.00000E+00
    0.18498E+07        -0.36018E+06         0.00000E+00
    0.00000E+00         0.00000E+00         0.00000E+00
 
    0.12307E+07         0.18900E+07         0.00000E+00
    0.18900E+07        -0.33326E+06         0.00000E+00
    0.00000E+00         0.00000E+00         0.00000E+00
 
    0.11598E+07         0.19293E+07         0.00000E+00
    0.19293E+07        -0.30564E+06         0.00000E+00
    0.00000E+00         0.00000E+00         0.00000E+00
 
    0.10884E+07         0.19678E+07         0.00000E+00
    0.19678E+07        -0.27731E+06         0.00000E+00
    0.00000E+00         0.00000E+00         0.00000E+00
 
    0.10166E+07         0.20054E+07         0.00000E+00
    0.20054E+07        -0.24826E+06         0.00000E+00
    0.00000E+00         0.00000E+00         0.00000E+00
 
    0.94422E+06         0.20421E+07         0.00000E+00
    0.20421E+07        -0.21851E+06         0.00000E+00
    0.00000E+00         0.00000E+00         0.00000E+00
 
    0.87141E+06         0.20780E+07         0.00000E+00
    0.20780E+07        -0.18804E+06         0.00000E+00
    0.00000E+00         0.00000E+00         0.00000E+00
 
    0.79813E+06         0.21131E+07         0.00000E+00
    0.21131E+07        -0.15686E+06         0.00000E+00
    0.00000E+00         0.00000E+00         0.00000E+00
 
    0.72438E+06         0.21473E+07         0.00000E+00
    0.21473E+07        -0.12495E+06         0.00000E+00
    0.00000E+00         0.00000E+00         0.00000E+00
 
    0.65016E+06         0.21806E+07         0.00000E+00
    0.21806E+07        -0.92321E+05         0.00000E+00
    0.00000E+00         0.00000E+00         0.00000E+00
 
    0.57547E+06         0.22132E+07         0.00000E+00
    0.22132E+07        -0.58967E+05         0.00000E+00
    0.00000E+00         0.00000E+00         0.00000E+00
 
    0.50030E+06         0.22448E+07         0.00000E+00
    0.22448E+07        -0.24882E+05         0.00000E+00
    0.00000E+00         0.00000E+00         0.00000E+00
 
    0.42465E+06         0.22757E+07         0.00000E+00
    0.22757E+07         0.99344E+04         0.00000E+00
    0.00000E+00         0.00000E+00         0.00000E+00
 
    0.34853E+06         0.23056E+07         0.00000E+00
    0.23056E+07         0.45487E+05         0.00000E+00
    0.00000E+00         0.00000E+00         0.00000E+00
 
    0.27192E+06         0.23348E+07         0.00000E+00
    0.23348E+07         0.81780E+05         0.00000E+00
    0.00000E+00         0.00000E+00         0.00000E+00
 
    0.19482E+06         0.23631E+07         0.00000E+00
    0.23631E+07         0.11882E+06         0.00000E+00
    0.00000E+00         0.00000E+00         0.00000E+00
 
    0.11724E+06         0.23905E+07         0.00000E+00
    0.23905E+07         0.15660E+06         0.00000E+00
    0.00000E+00         0.00000E+00         0.00000E+00
 
    0.39163E+05         0.24171E+07         0.00000E+00
    0.24171E+07         0.19513E+06         0.00000E+00
    0.00000E+00         0.00000E+00         0.00000E+00
 
    0.34620E+07         0.41858E+05         0.00000E+00
    0.41858E+05        -0.96369E+06         0.00000E+00
    0.00000E+00         0.00000E+00         0.00000E+00
 
    0.34100E+07         0.12155E+06         0.00000E+00
    0.12155E+06        -0.96256E+06         0.00000E+00
    0.00000E+00         0.00000E+00         0.00000E+00
 
    0.33568E+07         0.19981E+06         0.00000E+00
    0.19981E+06        -0.96037E+06         0.00000E+00
    0.00000E+00         0.00000E+00         0.00000E+00
 
    0.33023E+07         0.27666E+06         0.00000E+00
    0.27666E+06        -0.95713E+06         0.00000E+00
    0.00000E+00         0.00000E+00         0.00000E+00
 
    0.32467E+07         0.35211E+06         0.00000E+00
    0.35211E+06        -0.95288E+06         0.00000E+00
    0.00000E+00         0.00000E+00         0.00000E+00
 
    0.31899E+07         0.42618E+06         0.00000E+00
    0.42618E+06        -0.94765E+06         0.00000E+00
    0.00000E+00         0.00000E+00         0.00000E+00
 
    0.31321E+07         0.49891E+06         0.00000E+00
    0.49891E+06        -0.94145E+06         0.00000E+00
    0.00000E+00         0.00000E+00         0.00000E+00
 
    0.30733E+07         0.57030E+06         0.00000E+00
    0.57030E+06        -0.93432E+06         0.00000E+00
    0.00000E+00         0.00000E+00         0.00000E+00
 
    0.30136E+07         0.64038E+06         0.00000E+00
    0.64038E+06        -0.92627E+06         0.00000E+00
    0.00000E+00         0.00000E+00         0.00000E+00
 
    0.29529E+07         0.70918E+06         0.00000E+00
    0.70918E+06        -0.91732E+06         0.00000E+00
    0.00000E+00         0.00000E+00         0.00000E+00
 
    0.28914E+07         0.77672E+06         0.00000E+00
    0.77672E+06        -0.90750E+06         0.00000E+00
    0.00000E+00         0.00000E+00         0.00000E+00
 
    0.28290E+07         0.84301E+06         0.00000E+00
    0.84301E+06        -0.89682E+06         0.00000E+00
    0.00000E+00         0.00000E+00         0.00000E+00
 
    0.27658E+07         0.90809E+06         0.00000E+00
    0.90809E+06        -0.88529E+06         0.00000E+00
    0.00000E+00         0.00000E+00         0.00000E+00
 
    0.27019E+07         0.97197E+06         0.00000E+00
    0.97197E+06        -0.87293E+06         0.00000E+00
    0.00000E+00         0.00000E+00         0.00000E+00
 
    0.26373E+07         0.10347E+07         0.00000E+00
    0.10347E+07        -0.85975E+06         0.00000E+00
    0.00000E+00         0.00000E+00         0.00000E+00
 
    0.25719E+07         0.10962E+07         0.00000E+00
    0.10962E+07        -0.84576E+06         0.00000E+00
    0.00000E+00         0.00000E+00         0.00000E+00
 
    0.25059E+07         0.11566E+07         0.00000E+00
    0.11566E+07        -0.83098E+06         0.00000E+00
    0.00000E+00         0.00000E+00         0.00000E+00
 
    0.24393E+07         0.12159E+07         0.00000E+00
    0.12159E+07        -0.81542E+06         0.00000E+00
    0.00000E+00         0.00000E+00         0.00000E+00
 
    0.23720E+07         0.12741E+07         0.00000E+00
    0.12741E+07        -0.79907E+06         0.00000E+00
    0.00000E+00         0.00000E+00         0.00000E+00
 
    0.23041E+07         0.13313E+07         0.00000E+00
    0.13313E+07        -0.78195E+06         0.00000E+00
    0.00000E+00         0.00000E+00         0.00000E+00
 
    0.22357E+07         0.13874E+07         0.00000E+00
    0.13874E+07        -0.76407E+06         0.00000E+00
    0.00000E+00         0.00000E+00         0.00000E+00
 
    0.21667E+07         0.14424E+07         0.00000E+00
    0.14424E+07        -0.74543E+06         0.00000E+00
    0.00000E+00         0.00000E+00         0.00000E+00
 
    0.20972E+07         0.14965E+07         0.00000E+00
    0.14965E+07        -0.72604E+06         0.00000E+00
    0.00000E+00         0.00000E+00         0.00000E+00
 
    0.20271E+07         0.15495E+07         0.00000E+00
    0.15495E+07        -0.70589E+06         0.00000E+00
    0.00000E+00         0.00000E+00         0.00000E+00
 
    0.19566E+07         0.16016E+07         0.00000E+00
    0.16016E+07        -0.68499E+06         0.00000E+00
    0.00000E+00         0.00000E+00         0.00000E+00
 
    0.18855E+07         0.16527E+07         0.00000E+00
    0.16527E+07        -0.66334E+06         0.00000E+00
    0.00000E+00         0.00000E+00         0.00000E+00
 
    0.18140E+07         0.17028E+07         0.00000E+00
    0.17028E+07        -0.64094E+06         0.00000E+00
    0.00000E+00         0.00000E+00         0.00000E+00
 
    0.17419E+07         0.17520E+07         0.00000E+00
    0.17520E+07        -0.61780E+06         0.00000E+00
    0.00000E+00         0.00000E+00         0.00000E+00
 
    0.16694E+07         0.18003E+07         0.00000E+00
    0.18003E+07        -0.59390E+06         0.00000E+00
    0.00000E+00         0.00000E+00         0.00000E+00
 
    0.15965E+07         0.18477E+07         0.00000E+00
    0.18477E+07        -0.56926E+06         0.00000E+00
    0.00000E+00         0.00000E+00         0.00000E+00
 
    0.15231E+07         0.18942E+07         0.00000E+00
    0.18942E+07        -0.54386E+06         0.00000E+00
    0.00000E+00         0.00000E+00         0.00000E+00
 
    0.14492E+07         0.19398E+07         0.00000E+00
    0.19398E+07        -0.51771E+06         0.00000E+00
    0.00000E+00         0.00000E+00         0.00000E+00
 
    0.13749E+07         0.19845E+07         0.00000E+00
    0.19845E+07        -0.49081E+06         0.00000E+00
    0.00000E+00         0.00000E+00         0.00000E+00
 
    0.13002E+07         0.20284E+07         0.00000E+00
    0.20284E+07        -0.46314E+06         0.00000E+00
    0.00000E+00         0.00000E+00         0.00000E+00
 
    0.12249E+07         0.20714E+07         0.00000E+00
    0.20714E+07        -0.43471E+06         0.00000E+00
    0.00000E+00         0.00000E+00         0.00000E+00
 
    0.11493E+07         0.21135E+07         0.00000E+00
    0.21135E+07        -0.40550E+06         0.00000E+00
    0.00000E+00         0.00000E+00         0.00000E+00
 
    0.10732E+07         0.21549E+07         0.00000E+00
    0.21549E+07        -0.37553E+06         0.00000E+00
    0.00000E+00         0.00000E+00         0.00000E+00
 
    0.99664E+06         0.21953E+07         0.00000E+00
    0.21953E+07        -0.34477E+06         0.00000E+00
    0.00000E+00         0.00000E+00         0.00000E+00
 
    0.91964E+06         0.22350E+07         0.00000E+00
    0.22350E+07        -0.31323E+06         0.00000E+00
    0.00000E+00         0.00000E+00         0.00000E+00
 
    0.84218E+06         0.22738E+07         0.00000E+00
    0.22738E+07        -0.28090E+06         0.00000E+00
    0.00000E+00         0.00000E+00         0.00000E+00
 
    0.76426E+06         0.23118E+07         0.00000E+00
    0.23118E+07        -0.24777E+06         0.00000E+00
    0.00000E+00         0.00000E+00         0.00000E+00
 
    0.68587E+06         0.23490E+07         0.00000E+00
    0.23490E+07        -0.21384E+06         0.00000E+00
    0.00000E+00         0.00000E+00         0.00000E+00
 
    0.60702E+06         0.23854E+07         0.00000E+00
    0.23854E+07        -0.17911E+06         0.00000E+00
    0.00000E+00         0.00000E+00         0.00000E+00
 
    0.52769E+06         0.24209E+07         0.00000E+00
    0.24209E+07        -0.14355E+06         0.00000E+00
    0.00000E+00         0.00000E+00         0.00000E+00
 
    0.44788E+06         0.24556E+07         0.00000E+00
    0.24556E+07        -0.10718E+06         0.00000E+00
    0.00000E+00         0.00000E+00         0.00000E+00
 
    0.36757E+06         0.24895E+07         0.00000E+00
    0.24895E+07        -0.69984E+05         0.00000E+00
    0.00000E+00         0.00000E+00         0.00000E+00
 
    0.28677E+06         0.25226E+07         0.00000E+00
    0.25226E+07        -0.31952E+05         0.00000E+00
    0.00000E+00         0.00000E+00         0.00000E+00
 
    0.20546E+06         0.25549E+07         0.00000E+00
    0.25549E+07         0.69204E+04         0.00000E+00
    0.00000E+00         0.00000E+00         0.00000E+00
 
    0.12364E+06         0.25863E+07         0.00000E+00
    0.25863E+07         0.46639E+05         0.00000E+00
    0.00000E+00         0.00000E+00         0.00000E+00
 
    0.41303E+05         0.26169E+07         0.00000E+00
    0.26169E+07         0.87211E+05         0.00000E+00
    0.00000E+00         0.00000E+00         0.00000E+00
 
    0.37178E+07         0.44801E+05         0.00000E+00
    0.44801E+05        -0.11239E+07         0.00000E+00
    0.00000E+00         0.00000E+00         0.00000E+00
 
    0.36582E+07         0.12992E+06         0.00000E+00
    0.12992E+06        -0.11227E+07         0.00000E+00
    0.00000E+00         0.00000E+00         0.00000E+00
 
    0.35974E+07         0.21345E+06         0.00000E+00
    0.21345E+06        -0.11205E+07         0.00000E+00
    0.00000E+00         0.00000E+00         0.00000E+00
 
    0.35356E+07         0.29542E+06         0.00000E+00
    0.29542E+06        -0.11173E+07         0.00000E+00
    0.00000E+00         0.00000E+00         0.00000E+00
 
    0.34727E+07         0.37586E+06         0.00000E+00
    0.37586E+06        -0.11131E+07         0.00000E+00
    0.00000E+00         0.00000E+00         0.00000E+00
 
    0.34089E+07         0.45479E+06         0.00000E+00
    0.45479E+06        -0.11078E+07         0.00000E+00
    0.00000E+00         0.00000E+00         0.00000E+00
 
    0.33441E+07         0.53225E+06         0.00000E+00
    0.53225E+06        -0.11017E+07         0.00000E+00
    0.00000E+00         0.00000E+00         0.00000E+00
 
    0.32784E+07         0.60827E+06         0.00000E+00
    0.60827E+06        -0.10946E+07         0.00000E+00
    0.00000E+00         0.00000E+00         0.00000E+00
 
    0.32119E+07         0.68289E+06         0.00000E+00
    0.68289E+06        -0.10865E+07         0.00000E+00
    0.00000E+00         0.00000E+00         0.00000E+00
 
    0.31447E+07         0.75612E+06         0.00000E+00
    0.75612E+06        -0.10776E+07         0.00000E+00
    0.00000E+00         0.00000E+00         0.00000E+00
 
    0.30766E+07         0.82800E+06         0.00000E+00
    0.82800E+06        -0.10678E+07         0.00000E+00
    0.00000E+00         0.00000E+00         0.00000E+00
 
    0.30079E+07         0.89856E+06         0.00000E+00
    0.89856E+06        -0.10572E+07         0.00000E+00
    0.00000E+00         0.00000E+00         0.00000E+00
 
    0.29386E+07         0.96783E+06         0.00000E+00
    0.96783E+06        -0.10457E+07         0.00000E+00
    0.00000E+00         0.00000E+00         0.00000E+00
 
    0.28686E+07         0.10358E+07         0.00000E+00
    0.10358E+07        -0.10333E+07         0.00000E+00
    0.00000E+00         0.00000E+00         0.00000E+00
 
    0.27979E+07         0.11026E+07         0.00000E+00
    0.11026E+07        -0.10202E+07         0.00000E+00
    0.00000E+00         0.00000E+00         0.00000E+00
 
    0.27268E+07         0.11682E+07         0.00000E+00
    0.11682E+07        -0.10062E+07         0.00000E+00
    0.00000E+00         0.00000E+00         0.00000E+00
 
    0.26550E+07         0.12326E+07         0.00000E+00
    0.12326E+07        -0.99145E+06         0.00000E+00
    0.00000E+00         0.00000E+00         0.00000E+00
 
    0.25828E+07         0.12958E+07         0.00000E+00
    0.12958E+07        -0.97589E+06         0.00000E+00
    0.00000E+00         0.00000E+00         0.00000E+00
 
    0.25100E+07         0.13579E+07         0.00000E+00
    0.13579E+07        -0.95954E+06         0.00000E+00
    0.00000E+00         0.00000E+00         0.00000E+00
 
    0.24368E+07         0.14190E+07         0.00000E+00
    0.14190E+07        -0.94240E+06         0.00000E+00
    0.00000E+00         0.00000E+00         0.00000E+00
 
    0.23631E+07         0.14789E+07         0.00000E+00
    0.14789E+07        -0.92448E+06         0.00000E+00
    0.00000E+00         0.00000E+00         0.00000E+00
 
    0.22889E+07         0.15378E+07         0.00000E+00
    0.15378E+07        -0.90579E+06         0.00000E+00
    0.00000E+00         0.00000E+00         0.00000E+00
 
    0.22144E+07         0.15957E+07         0.00000E+00
    0.15957E+07        -0.88631E+06         0.00000E+00
    0.00000E+00         0.00000E+00         0.00000E+00
 
    0.21393E+07         0.16525E+07         0.00000E+00
    0.16525E+07        -0.86606E+06         0.00000E+00
    0.00000E+00         0.00000E+00         0.00000E+00
 
    0.20639E+07         0.17084E+07         0.00000E+00
    0.17084E+07        -0.84503E+06         0.00000E+00
    0.00000E+00         0.00000E+00         0.00000E+00
 
    0.19881E+07         0.17633E+07         0.00000E+00
    0.17633E+07        -0.82322E+06         0.00000E+00
    0.00000E+00         0.00000E+00         0.00000E+00
 
    0.19118E+07         0.18173E+07         0.00000E+00
    0.18173E+07        -0.80062E+06         0.00000E+00
    0.00000E+00         0.00000E+00         0.00000E+00
 
    0.18352E+07         0.18704E+07         0.00000E+00
    0.18704E+07        -0.77724E+06         0.00000E+00
    0.00000E+00         0.00000E+00         0.00000E+00
 
    0.17582E+07         0.19225E+07         0.00000E+00
    0.19225E+07        -0.75307E+06         0.00000E+00
    0.00000E+00         0.00000E+00         0.00000E+00
 
    0.16807E+07         0.19738E+07         0.00000E+00
    0.19738E+07        -0.72811E+06         0.00000E+00
    0.00000E+00         0.00000E+00         0.00000E+00
 
    0.16029E+07         0.20241E+07         0.00000E+00
    0.20241E+07        -0.70235E+06         0.00000E+00
    0.00000E+00         0.00000E+00         0.00000E+00
 
    0.15247E+07         0.20736E+07         0.00000E+00
    0.20736E+07        -0.67578E+06         0.00000E+00
    0.00000E+00         0.00000E+00         0.00000E+00
 
    0.14461E+07         0.21223E+07         0.00000E+00
    0.21223E+07        -0.64839E+06         0.00000E+00
    0.00000E+00         0.00000E+00         0.00000E+00
 
    0.13671E+07         0.21701E+07         0.00000E+00
    0.21701E+07        -0.62019E+06         0.00000E+00
    0.00000E+00         0.00000E+00         0.00000E+00
 
    0.12877E+07         0.22171E+07         0.00000E+00
    0.22171E+07        -0.59116E+06         0.00000E+00
    0.00000E+00         0.00000E+00         0.00000E+00
 
    0.12079E+07         0.22633E+07         0.00000E+00
    0.22633E+07        -0.56130E+06         0.00000E+00
    0.00000E+00         0.00000E+00         0.00000E+00
 
    0.11277E+07         0.23087E+07         0.00000E+00
    0.23087E+07        -0.53059E+06         0.00000E+00
    0.00000E+00         0.00000E+00         0.00000E+00
 
    0.10471E+07         0.23533E+07         0.00000E+00
    0.23533E+07        -0.49903E+06         0.00000E+00
    0.00000E+00         0.00000E+00         0.00000E+00
 
    0.96605E+06         0.23970E+07         0.00000E+00
    0.23970E+07        -0.46661E+06         0.00000E+00
    0.00000E+00         0.00000E+00         0.00000E+00
 
    0.88455E+06         0.24400E+07         0.00000E+00
    0.24400E+07        -0.43332E+06         0.00000E+00
    0.00000E+00         0.00000E+00         0.00000E+00
 
    0.80262E+06         0.24822E+07         0.00000E+00
    0.24822E+07        -0.39916E+06         0.00000E+00
    0.00000E+00         0.00000E+00         0.00000E+00
 
    0.72023E+06         0.25237E+07         0.00000E+00
    0.25237E+07        -0.36410E+06         0.00000E+00
    0.00000E+00         0.00000E+00         0.00000E+00
 
    0.63737E+06         0.25643E+07         0.00000E+00
    0.25643E+07        -0.32814E+06         0.00000E+00
    0.00000E+00         0.00000E+00         0.00000E+00
 
    0.55404E+06         0.26042E+07         0.00000E+00
    0.26042E+07        -0.29128E+06         0.00000E+00
    0.00000E+00         0.00000E+00         0.00000E+00
 
    0.47022E+06         0.26433E+07         0.00000E+00
    0.26433E+07        -0.25350E+06         0.00000E+00
    0.00000E+00         0.00000E+00         0.00000E+00
 
    0.38590E+06         0.26816E+07         0.00000E+00
    0.26816E+07        -0.21479E+06         0.00000E+00
    0.00000E+00         0.00000E+00         0.00000E+00
 
    0.30107E+06         0.27191E+07         0.00000E+00
    0.27191E+07        -0.17514E+06         0.00000E+00
    0.00000E+00         0.00000E+00         0.00000E+00
 
    0.21571E+06         0.27558E+07         0.00000E+00
    0.27558E+07        -0.13454E+06         0.00000E+00
    0.00000E+00         0.00000E+00         0.00000E+00
 
    0.12981E+06         0.27918E+07         0.00000E+00
    0.27918E+07        -0.92987E+05         0.00000E+00
    0.00000E+00         0.00000E+00         0.00000E+00
 
    0.43364E+05         0.28269E+07         0.00000E+00
    0.28269E+07        -0.50466E+05         0.00000E+00
    0.00000E+00         0.00000E+00         0.00000E+00
 
    0.39765E+07         0.47728E+05         0.00000E+00
    0.47728E+05        -0.13086E+07         0.00000E+00
    0.00000E+00         0.00000E+00         0.00000E+00
 
    0.39085E+07         0.13822E+06         0.00000E+00
    0.13822E+06        -0.13075E+07         0.00000E+00
    0.00000E+00         0.00000E+00         0.00000E+00
 
    0.38394E+07         0.22696E+06         0.00000E+00
    0.22696E+06        -0.13054E+07         0.00000E+00
    0.00000E+00         0.00000E+00         0.00000E+00
 
    0.37695E+07         0.31400E+06         0.00000E+00
    0.31400E+06        -0.13022E+07         0.00000E+00
    0.00000E+00         0.00000E+00         0.00000E+00
 
    0.36987E+07         0.39936E+06         0.00000E+00
    0.39936E+06        -0.12980E+07         0.00000E+00
    0.00000E+00         0.00000E+00         0.00000E+00
 
    0.36271E+07         0.48309E+06         0.00000E+00
    0.48309E+06        -0.12929E+07         0.00000E+00
    0.00000E+00         0.00000E+00         0.00000E+00
 
    0.35547E+07         0.56523E+06         0.00000E+00
    0.56523E+06        -0.12869E+07         0.00000E+00
    0.00000E+00         0.00000E+00         0.00000E+00
 
    0.34817E+07         0.64582E+06         0.00000E+00
    0.64582E+06        -0.12799E+07         0.00000E+00
    0.00000E+00         0.00000E+00         0.00000E+00
 
    0.34080E+07         0.72491E+06         0.00000E+00
    0.72491E+06        -0.12720E+07         0.00000E+00
    0.00000E+00         0.00000E+00         0.00000E+00
 
    0.33337E+07         0.80252E+06         0.00000E+00
    0.80252E+06        -0.12633E+07         0.00000E+00
    0.00000E+00         0.00000E+00         0.00000E+00
 
    0.32588E+07         0.87870E+06         0.00000E+00
    0.87870E+06        -0.12537E+07         0.00000E+00
    0.00000E+00         0.00000E+00         0.00000E+00
 
    0.31834E+07         0.95350E+06         0.00000E+00
    0.95350E+06        -0.12433E+07         0.00000E+00
    0.00000E+00         0.00000E+00         0.00000E+00
 
    0.31075E+07         0.10269E+07         0.00000E+00
    0.10269E+07        -0.12320E+07         0.00000E+00
    0.00000E+00         0.00000E+00         0.00000E+00
 
    0.30311E+07         0.10991E+07         0.00000E+00
    0.10991E+07        -0.12199E+07         0.00000E+00
    0.00000E+00         0.00000E+00         0.00000E+00
 
    0.29543E+07         0.11699E+07         0.00000E+00
    0.11699E+07        -0.12070E+07         0.00000E+00
    0.00000E+00         0.00000E+00         0.00000E+00
 
    0.28771E+07         0.12395E+07         0.00000E+00
    0.12395E+07        -0.11933E+07         0.00000E+00
    0.00000E+00         0.00000E+00         0.00000E+00
 
    0.27995E+07         0.13079E+07         0.00000E+00
    0.13079E+07        -0.11787E+07         0.00000E+00
    0.00000E+00         0.00000E+00         0.00000E+00
 
    0.27215E+07         0.13751E+07         0.00000E+00
    0.13751E+07        -0.11634E+07         0.00000E+00
    0.00000E+00         0.00000E+00         0.00000E+00
 
    0.26431E+07         0.14412E+07         0.00000E+00
    0.14412E+07        -0.11473E+07         0.00000E+00
    0.00000E+00         0.00000E+00         0.00000E+00
 
    0.25644E+07         0.15061E+07         0.00000E+00
    0.15061E+07        -0.11304E+07         0.00000E+00
    0.00000E+00         0.00000E+00         0.00000E+00
 
    0.24854E+07         0.15700E+07         0.00000E+00
    0.15700E+07        -0.11127E+07         0.00000E+00
    0.00000E+00         0.00000E+00         0.00000E+00
 
    0.24060E+07         0.16328E+07         0.00000E+00
    0.16328E+07        -0.10942E+07         0.00000E+00
    0.00000E+00         0.00000E+00         0.00000E+00
 
    0.23264E+07         0.16947E+07         0.00000E+00
    0.16947E+07        -0.10750E+07         0.00000E+00
    0.00000E+00         0.00000E+00         0.00000E+00
 
    0.22464E+07         0.17555E+07         0.00000E+00
    0.17555E+07        -0.10549E+07         0.00000E+00
    0.00000E+00         0.00000E+00         0.00000E+00
 
    0.21662E+07         0.18153E+07         0.00000E+00
    0.18153E+07        -0.10340E+07         0.00000E+00
    0.00000E+00         0.00000E+00         0.00000E+00
 
    0.20856E+07         0.18742E+07         0.00000E+00
    0.18742E+07        -0.10123E+07         0.00000E+00
    0.00000E+00         0.00000E+00         0.00000E+00
 
    0.20048E+07         0.19322E+07         0.00000E+00
    0.19322E+07        -0.98979E+06         0.00000E+00
    0.00000E+00         0.00000E+00         0.00000E+00
 
    0.19236E+07         0.19893E+07         0.00000E+00
    0.19893E+07        -0.96646E+06         0.00000E+00
    0.00000E+00         0.00000E+00         0.00000E+00
 
    0.18422E+07         0.20455E+07         0.00000E+00
    0.20455E+07        -0.94230E+06         0.00000E+00
    0.00000E+00         0.00000E+00         0.00000E+00
 
    0.17604E+07         0.21009E+07         0.00000E+00
    0.21009E+07        -0.91729E+06         0.00000E+00
    0.00000E+00         0.00000E+00         0.00000E+00
 
    0.16784E+07         0.21554E+07         0.00000E+00
    0.21554E+07        -0.89144E+06         0.00000E+00
    0.00000E+00         0.00000E+00         0.00000E+00
 
    0.15960E+07         0.22091E+07         0.00000E+00
    0.22091E+07        -0.86473E+06         0.00000E+00
    0.00000E+00         0.00000E+00         0.00000E+00
 
    0.15133E+07         0.22620E+07         0.00000E+00
    0.22620E+07        -0.83714E+06         0.00000E+00
    0.00000E+00         0.00000E+00         0.00000E+00
 
    0.14302E+07         0.23141E+07         0.00000E+00
    0.23141E+07        -0.80868E+06         0.00000E+00
    0.00000E+00         0.00000E+00         0.00000E+00
 
    0.13469E+07         0.23654E+07         0.00000E+00
    0.23654E+07        -0.77932E+06         0.00000E+00
    0.00000E+00         0.00000E+00         0.00000E+00
 
    0.12631E+07         0.24159E+07         0.00000E+00
    0.24159E+07        -0.74906E+06         0.00000E+00
    0.00000E+00         0.00000E+00         0.00000E+00
 
    0.11790E+07         0.24657E+07         0.00000E+00
    0.24657E+07        -0.71788E+06         0.00000E+00
    0.00000E+00         0.00000E+00         0.00000E+00
 
    0.10945E+07         0.25148E+07         0.00000E+00
    0.25148E+07        -0.68577E+06         0.00000E+00
    0.00000E+00         0.00000E+00         0.00000E+00
 
    0.10096E+07         0.25631E+07         0.00000E+00
    0.25631E+07        -0.65271E+06         0.00000E+00
    0.00000E+00         0.00000E+00         0.00000E+00
 
    0.92435E+06         0.26107E+07         0.00000E+00
    0.26107E+07        -0.61870E+06         0.00000E+00
    0.00000E+00         0.00000E+00         0.00000E+00
 
    0.83864E+06         0.26576E+07         0.00000E+00
    0.26576E+07        -0.58372E+06         0.00000E+00
    0.00000E+00         0.00000E+00         0.00000E+00
 
    0.75249E+06         0.27037E+07         0.00000E+00
    0.27037E+07        -0.54775E+06         0.00000E+00
    0.00000E+00         0.00000E+00         0.00000E+00
 
    0.66588E+06         0.27491E+07         0.00000E+00
    0.27491E+07        -0.51078E+06         0.00000E+00
    0.00000E+00         0.00000E+00         0.00000E+00
 
    0.57879E+06         0.27938E+07         0.00000E+00
    0.27938E+07        -0.47281E+06         0.00000E+00
    0.00000E+00         0.00000E+00         0.00000E+00
 
    0.49122E+06         0.28378E+07         0.00000E+00
    0.28378E+07        -0.43381E+06         0.00000E+00
    0.00000E+00         0.00000E+00         0.00000E+00
 
    0.40313E+06         0.28810E+07         0.00000E+00
    0.28810E+07        -0.39376E+06         0.00000E+00
    0.00000E+00         0.00000E+00         0.00000E+00
 
    0.31451E+06         0.29235E+07         0.00000E+00
    0.29235E+07        -0.35267E+06         0.00000E+00
    0.00000E+00         0.00000E+00         0.00000E+00
 
    0.22535E+06         0.29653E+07         0.00000E+00
    0.29653E+07        -0.31050E+06         0.00000E+00
    0.00000E+00         0.00000E+00         0.00000E+00
 
    0.13562E+06         0.30064E+07         0.00000E+00
    0.30064E+07        -0.26726E+06         0.00000E+00
    0.00000E+00         0.00000E+00         0.00000E+00
 
    0.45306E+05         0.30467E+07         0.00000E+00
    0.30467E+07        -0.22292E+06         0.00000E+00
    0.00000E+00         0.00000E+00         0.00000E+00
 
    0.42342E+07         0.50582E+05         0.00000E+00
    0.50582E+05        -0.15213E+07         0.00000E+00
    0.00000E+00         0.00000E+00         0.00000E+00
 
    0.41569E+07         0.14629E+06         0.00000E+00
    0.14629E+06        -0.15203E+07         0.00000E+00
    0.00000E+00         0.00000E+00         0.00000E+00
 
    0.40788E+07         0.24009E+06         0.00000E+00
    0.24009E+06        -0.15182E+07         0.00000E+00
    0.00000E+00         0.00000E+00         0.00000E+00
 
    0.40001E+07         0.33202E+06         0.00000E+00
    0.33202E+06        -0.15152E+07         0.00000E+00
    0.00000E+00         0.00000E+00         0.00000E+00
 
    0.39207E+07         0.42215E+06         0.00000E+00
    0.42215E+06        -0.15112E+07         0.00000E+00
    0.00000E+00         0.00000E+00         0.00000E+00
 
    0.38407E+07         0.51052E+06         0.00000E+00
    0.51052E+06        -0.15063E+07         0.00000E+00
    0.00000E+00         0.00000E+00         0.00000E+00
 
    0.37603E+07         0.59719E+06         0.00000E+00
    0.59719E+06        -0.15005E+07         0.00000E+00
    0.00000E+00         0.00000E+00         0.00000E+00
 
    0.36793E+07         0.68221E+06         0.00000E+00
    0.68221E+06        -0.14938E+07         0.00000E+00
    0.00000E+00         0.00000E+00         0.00000E+00
 
    0.35980E+07         0.76563E+06         0.00000E+00
    0.76563E+06        -0.14863E+07         0.00000E+00
    0.00000E+00         0.00000E+00         0.00000E+00
 
    0.35162E+07         0.84751E+06         0.00000E+00
    0.84751E+06        -0.14779E+07         0.00000E+00
    0.00000E+00         0.00000E+00         0.00000E+00
 
    0.34341E+07         0.92788E+06         0.00000E+00
    0.92788E+06        -0.14687E+07         0.00000E+00
    0.00000E+00         0.00000E+00         0.00000E+00
 
    0.33517E+07         0.10068E+07         0.00000E+00
    0.10068E+07        -0.14587E+07         0.00000E+00
    0.00000E+00         0.00000E+00         0.00000E+00
 
    0.32690E+07         0.10843E+07         0.00000E+00
    0.10843E+07        -0.14479E+07         0.00000E+00
    0.00000E+00         0.00000E+00         0.00000E+00
 
    0.31861E+07         0.11605E+07         0.00000E+00
    0.11605E+07        -0.14362E+07         0.00000E+00
    0.00000E+00         0.00000E+00         0.00000E+00
 
    0.31029E+07         0.12353E+07         0.00000E+00
    0.12353E+07        -0.14238E+07         0.00000E+00
    0.00000E+00         0.00000E+00         0.00000E+00
 
    0.30195E+07         0.13089E+07         0.00000E+00
    0.13089E+07        -0.14106E+07         0.00000E+00
    0.00000E+00         0.00000E+00         0.00000E+00
 
    0.29359E+07         0.13813E+07         0.00000E+00
    0.13813E+07        -0.13967E+07         0.00000E+00
    0.00000E+00         0.00000E+00         0.00000E+00
 
    0.28520E+07         0.14524E+07         0.00000E+00
    0.14524E+07        -0.13819E+07         0.00000E+00
    0.00000E+00         0.00000E+00         0.00000E+00
 
    0.27681E+07         0.15225E+07         0.00000E+00
    0.15225E+07        -0.13663E+07         0.00000E+00
    0.00000E+00         0.00000E+00         0.00000E+00
 
    0.26839E+07         0.15914E+07         0.00000E+00
    0.15914E+07        -0.13500E+07         0.00000E+00
    0.00000E+00         0.00000E+00         0.00000E+00
 
    0.25996E+07         0.16593E+07         0.00000E+00
    0.16593E+07        -0.13328E+07         0.00000E+00
    0.00000E+00         0.00000E+00         0.00000E+00
 
    0.25151E+07         0.17261E+07         0.00000E+00
    0.17261E+07        -0.13149E+07         0.00000E+00
    0.00000E+00         0.00000E+00         0.00000E+00
 
    0.24305E+07         0.17919E+07         0.00000E+00
    0.17919E+07        -0.12961E+07         0.00000E+00
    0.00000E+00         0.00000E+00         0.00000E+00
 
    0.23457E+07         0.18568E+07         0.00000E+00
    0.18568E+07        -0.12765E+07         0.00000E+00
    0.00000E+00         0.00000E+00         0.00000E+00
 
    0.22608E+07         0.19207E+07         0.00000E+00
    0.19207E+07        -0.12561E+07         0.00000E+00
    0.00000E+00         0.00000E+00         0.00000E+00
 
    0.21757E+07         0.19838E+07         0.00000E+00
    0.19838E+07        -0.12349E+07         0.00000E+00
    0.00000E+00         0.00000E+00         0.00000E+00
 
    0.20904E+07         0.20459E+07         0.00000E+00
    0.20459E+07        -0.12128E+07         0.00000E+00
    0.00000E+00         0.00000E+00         0.00000E+00
 
    0.20049E+07         0.21073E+07         0.00000E+00
    0.21073E+07        -0.11898E+07         0.00000E+00
    0.00000E+00         0.00000E+00         0.00000E+00
 
    0.19193E+07         0.21678E+07         0.00000E+00
    0.21678E+07        -0.11660E+07         0.00000E+00
    0.00000E+00         0.00000E+00         0.00000E+00
 
    0.18334E+07         0.22275E+07         0.00000E+00
    0.22275E+07        -0.11413E+07         0.00000E+00
    0.00000E+00         0.00000E+00         0.00000E+00
 
    0.17474E+07         0.22864E+07         0.00000E+00
    0.22864E+07        -0.11157E+07         0.00000E+00
    0.00000E+00         0.00000E+00         0.00000E+00
 
    0.16611E+07         0.23445E+07         0.00000E+00
    0.23445E+07        -0.10892E+07         0.00000E+00
    0.00000E+00         0.00000E+00         0.00000E+00
 
    0.15746E+07         0.24020E+07         0.00000E+00
    0.24020E+07        -0.10617E+07         0.00000E+00
    0.00000E+00         0.00000E+00         0.00000E+00
 
    0.14878E+07         0.24587E+07         0.00000E+00
    0.24587E+07        -0.10333E+07         0.00000E+00
    0.00000E+00         0.00000E+00         0.00000E+00
 
    0.14007E+07         0.25147E+07         0.00000E+00
    0.25147E+07        -0.10040E+07         0.00000E+00
    0.00000E+00         0.00000E+00         0.00000E+00
 
    0.13133E+07         0.25700E+07         0.00000E+00
    0.25700E+07        -0.97363E+06         0.00000E+00
    0.00000E+00         0.00000E+00         0.00000E+00
 
    0.12257E+07         0.26246E+07         0.00000E+00
    0.26246E+07        -0.94229E+06         0.00000E+00
    0.00000E+00         0.00000E+00         0.00000E+00
 
    0.11377E+07         0.26786E+07         0.00000E+00
    0.26786E+07        -0.90993E+06         0.00000E+00
    0.00000E+00         0.00000E+00         0.00000E+00
 
    0.10493E+07         0.27319E+07         0.00000E+00
    0.27319E+07        -0.87653E+06         0.00000E+00
    0.00000E+00         0.00000E+00         0.00000E+00
 
    0.96054E+06         0.27845E+07         0.00000E+00
    0.27845E+07        -0.84209E+06         0.00000E+00
    0.00000E+00         0.00000E+00         0.00000E+00
 
    0.87139E+06         0.28365E+07         0.00000E+00
    0.28365E+07        -0.80657E+06         0.00000E+00
    0.00000E+00         0.00000E+00         0.00000E+00
 
    0.78182E+06         0.28879E+07         0.00000E+00
    0.28879E+07        -0.76997E+06         0.00000E+00
    0.00000E+00         0.00000E+00         0.00000E+00
 
    0.69180E+06         0.29386E+07         0.00000E+00
    0.29386E+07        -0.73226E+06         0.00000E+00
    0.00000E+00         0.00000E+00         0.00000E+00
 
    0.60132E+06         0.29886E+07         0.00000E+00
    0.29886E+07        -0.69342E+06         0.00000E+00
    0.00000E+00         0.00000E+00         0.00000E+00
 
    0.51033E+06         0.30381E+07         0.00000E+00
    0.30381E+07        -0.65344E+06         0.00000E+00
    0.00000E+00         0.00000E+00         0.00000E+00
 
    0.41882E+06         0.30869E+07         0.00000E+00
    0.30869E+07        -0.61229E+06         0.00000E+00
    0.00000E+00         0.00000E+00         0.00000E+00
 
    0.32677E+06         0.31350E+07         0.00000E+00
    0.31350E+07        -0.56997E+06         0.00000E+00
    0.00000E+00         0.00000E+00         0.00000E+00
 
    0.23415E+06         0.31825E+07         0.00000E+00
    0.31825E+07        -0.52644E+06         0.00000E+00
    0.00000E+00         0.00000E+00         0.00000E+00
 
    0.14093E+06         0.32294E+07         0.00000E+00
    0.32294E+07        -0.48170E+06         0.00000E+00
    0.00000E+00         0.00000E+00         0.00000E+00
 
    0.47082E+05         0.32755E+07         0.00000E+00
    0.32755E+07        -0.43573E+06         0.00000E+00
    0.00000E+00         0.00000E+00         0.00000E+00
 
    0.44862E+07         0.53295E+05         0.00000E+00
    0.53295E+05        -0.17656E+07         0.00000E+00
    0.00000E+00         0.00000E+00         0.00000E+00
 
    0.43988E+07         0.15393E+06         0.00000E+00
    0.15393E+06        -0.17647E+07         0.00000E+00
    0.00000E+00         0.00000E+00         0.00000E+00
 
    0.43109E+07         0.25250E+06         0.00000E+00
    0.25250E+06        -0.17627E+07         0.00000E+00
    0.00000E+00         0.00000E+00         0.00000E+00
 
    0.42226E+07         0.34905E+06         0.00000E+00
    0.34905E+06        -0.17599E+07         0.00000E+00
    0.00000E+00         0.00000E+00         0.00000E+00
 
    0.41340E+07         0.44367E+06         0.00000E+00
    0.44367E+06        -0.17562E+07         0.00000E+00
    0.00000E+00         0.00000E+00         0.00000E+00
 
    0.40451E+07         0.53642E+06         0.00000E+00
    0.53642E+06        -0.17516E+07         0.00000E+00
    0.00000E+00         0.00000E+00         0.00000E+00
 
    0.39560E+07         0.62737E+06         0.00000E+00
    0.62737E+06        -0.17462E+07         0.00000E+00
    0.00000E+00         0.00000E+00         0.00000E+00
 
    0.38668E+07         0.71657E+06         0.00000E+00
    0.71657E+06        -0.17401E+07         0.00000E+00
    0.00000E+00         0.00000E+00         0.00000E+00
 
    0.37774E+07         0.80409E+06         0.00000E+00
    0.80409E+06        -0.17331E+07         0.00000E+00
    0.00000E+00         0.00000E+00         0.00000E+00
 
    0.36878E+07         0.89001E+06         0.00000E+00
    0.89001E+06        -0.17253E+07         0.00000E+00
    0.00000E+00         0.00000E+00         0.00000E+00
 
    0.35982E+07         0.97436E+06         0.00000E+00
    0.97436E+06        -0.17167E+07         0.00000E+00
    0.00000E+00         0.00000E+00         0.00000E+00
 
    0.35086E+07         0.10572E+07         0.00000E+00
    0.10572E+07        -0.17074E+07         0.00000E+00
    0.00000E+00         0.00000E+00         0.00000E+00
 
    0.34189E+07         0.11387E+07         0.00000E+00
    0.11387E+07        -0.16973E+07         0.00000E+00
    0.00000E+00         0.00000E+00         0.00000E+00
 
    0.33293E+07         0.12187E+07         0.00000E+00
    0.12187E+07        -0.16865E+07         0.00000E+00
    0.00000E+00         0.00000E+00         0.00000E+00
 
    0.32396E+07         0.12974E+07         0.00000E+00
    0.12974E+07        -0.16749E+07         0.00000E+00
    0.00000E+00         0.00000E+00         0.00000E+00
 
    0.31499E+07         0.13749E+07         0.00000E+00
    0.13749E+07        -0.16625E+07         0.00000E+00
    0.00000E+00         0.00000E+00         0.00000E+00
 
    0.30603E+07         0.14511E+07         0.00000E+00
    0.14511E+07        -0.16494E+07         0.00000E+00
    0.00000E+00         0.00000E+00         0.00000E+00
 
    0.29708E+07         0.15262E+07         0.00000E+00
    0.15262E+07        -0.16355E+07         0.00000E+00
    0.00000E+00         0.00000E+00         0.00000E+00
 
    0.28812E+07         0.16002E+07         0.00000E+00
    0.16002E+07        -0.16208E+07         0.00000E+00
    0.00000E+00         0.00000E+00         0.00000E+00
 
    0.27917E+07         0.16730E+07         0.00000E+00
    0.16730E+07        -0.16054E+07         0.00000E+00
    0.00000E+00         0.00000E+00         0.00000E+00
 
    0.27023E+07         0.17449E+07         0.00000E+00
    0.17449E+07        -0.15891E+07         0.00000E+00
    0.00000E+00         0.00000E+00         0.00000E+00
 
    0.26128E+07         0.18158E+07         0.00000E+00
    0.18158E+07        -0.15721E+07         0.00000E+00
    0.00000E+00         0.00000E+00         0.00000E+00
 
    0.25234E+07         0.18857E+07         0.00000E+00
    0.18857E+07        -0.15543E+07         0.00000E+00
    0.00000E+00         0.00000E+00         0.00000E+00
 
    0.24341E+07         0.19547E+07         0.00000E+00
    0.19547E+07        -0.15356E+07         0.00000E+00
    0.00000E+00         0.00000E+00         0.00000E+00
 
    0.23447E+07         0.20229E+07         0.00000E+00
    0.20229E+07        -0.15160E+07         0.00000E+00
    0.00000E+00         0.00000E+00         0.00000E+00
 
    0.22553E+07         0.20902E+07         0.00000E+00
    0.20902E+07        -0.14957E+07         0.00000E+00
    0.00000E+00         0.00000E+00         0.00000E+00
 
    0.21659E+07         0.21567E+07         0.00000E+00
    0.21567E+07        -0.14744E+07         0.00000E+00
    0.00000E+00         0.00000E+00         0.00000E+00
 
    0.20765E+07         0.22224E+07         0.00000E+00
    0.22224E+07        -0.14522E+07         0.00000E+00
    0.00000E+00         0.00000E+00         0.00000E+00
 
    0.19870E+07         0.22874E+07         0.00000E+00
    0.22874E+07        -0.14292E+07         0.00000E+00
    0.00000E+00         0.00000E+00         0.00000E+00
 
    0.18974E+07         0.23517E+07         0.00000E+00
    0.23517E+07        -0.14052E+07         0.00000E+00
    0.00000E+00         0.00000E+00         0.00000E+00
 
    0.18077E+07         0.24153E+07         0.00000E+00
    0.24153E+07        -0.13802E+07         0.00000E+00
    0.00000E+00         0.00000E+00         0.00000E+00
 
    0.17179E+07         0.24783E+07         0.00000E+00
    0.24783E+07        -0.13543E+07         0.00000E+00
    0.00000E+00         0.00000E+00         0.00000E+00
 
    0.16280E+07         0.25405E+07         0.00000E+00
    0.25405E+07        -0.13273E+07         0.00000E+00
    0.00000E+00         0.00000E+00         0.00000E+00
 
    0.15378E+07         0.26022E+07         0.00000E+00
    0.26022E+07        -0.12994E+07         0.00000E+00
    0.00000E+00         0.00000E+00         0.00000E+00
 
    0.14475E+07         0.26633E+07         0.00000E+00
    0.26633E+07        -0.12704E+07         0.00000E+00
    0.00000E+00         0.00000E+00         0.00000E+00
 
    0.13570E+07         0.27237E+07         0.00000E+00
    0.27237E+07        -0.12404E+07         0.00000E+00
    0.00000E+00         0.00000E+00         0.00000E+00
 
    0.12662E+07         0.27836E+07         0.00000E+00
    0.27836E+07        -0.12092E+07         0.00000E+00
    0.00000E+00         0.00000E+00         0.00000E+00
 
    0.11751E+07         0.28429E+07         0.00000E+00
    0.28429E+07        -0.11770E+07         0.00000E+00
    0.00000E+00         0.00000E+00         0.00000E+00
 
    0.10837E+07         0.29017E+07         0.00000E+00
    0.29017E+07        -0.11436E+07         0.00000E+00
    0.00000E+00         0.00000E+00         0.00000E+00
 
    0.99193E+06         0.29599E+07         0.00000E+00
    0.29599E+07        -0.11091E+07         0.00000E+00
    0.00000E+00         0.00000E+00         0.00000E+00
 
    0.89981E+06         0.30176E+07         0.00000E+00
    0.30176E+07        -0.10734E+07         0.00000E+00
    0.00000E+00         0.00000E+00         0.00000E+00
 
    0.80729E+06         0.30747E+07         0.00000E+00
    0.30747E+07        -0.10365E+07         0.00000E+00
    0.00000E+00         0.00000E+00         0.00000E+00
 
    0.71432E+06         0.31313E+07         0.00000E+00
    0.31313E+07        -0.99832E+06         0.00000E+00
    0.00000E+00         0.00000E+00         0.00000E+00
 
    0.62090E+06         0.31873E+07         0.00000E+00
    0.31873E+07        -0.95893E+06         0.00000E+00
    0.00000E+00         0.00000E+00         0.00000E+00
 
    0.52696E+06         0.32429E+07         0.00000E+00
    0.32429E+07        -0.91826E+06         0.00000E+00
    0.00000E+00         0.00000E+00         0.00000E+00
 
    0.43250E+06         0.32979E+07         0.00000E+00
    0.32979E+07        -0.87630E+06         0.00000E+00
    0.00000E+00         0.00000E+00         0.00000E+00
 
    0.33747E+06         0.33523E+07         0.00000E+00
    0.33523E+07        -0.83302E+06         0.00000E+00
    0.00000E+00         0.00000E+00         0.00000E+00
 
    0.24183E+06         0.34062E+07         0.00000E+00
    0.34062E+07        -0.78840E+06         0.00000E+00
    0.00000E+00         0.00000E+00         0.00000E+00
 
    0.14557E+06         0.34596E+07         0.00000E+00
    0.34596E+07        -0.74241E+06         0.00000E+00
    0.00000E+00         0.00000E+00         0.00000E+00
 
    0.48636E+05         0.35123E+07         0.00000E+00
    0.35123E+07        -0.69503E+06         0.00000E+00
    0.00000E+00         0.00000E+00         0.00000E+00
 
    0.47266E+07         0.55780E+05         0.00000E+00
    0.55780E+05        -0.20456E+07         0.00000E+00
    0.00000E+00         0.00000E+00         0.00000E+00
 
    0.46282E+07         0.16090E+06         0.00000E+00
    0.16090E+06        -0.20447E+07         0.00000E+00
    0.00000E+00         0.00000E+00         0.00000E+00
 
    0.45298E+07         0.26380E+06         0.00000E+00
    0.26380E+06        -0.20430E+07         0.00000E+00
    0.00000E+00         0.00000E+00         0.00000E+00
 
    0.44313E+07         0.36456E+06         0.00000E+00
    0.36456E+06        -0.20405E+07         0.00000E+00
    0.00000E+00         0.00000E+00         0.00000E+00
 
    0.43329E+07         0.46326E+06         0.00000E+00
    0.46326E+06        -0.20372E+07         0.00000E+00
    0.00000E+00         0.00000E+00         0.00000E+00
 
    0.42346E+07         0.55999E+06         0.00000E+00
    0.55999E+06        -0.20331E+07         0.00000E+00
    0.00000E+00         0.00000E+00         0.00000E+00
 
    0.41364E+07         0.65482E+06         0.00000E+00
    0.65482E+06        -0.20284E+07         0.00000E+00
    0.00000E+00         0.00000E+00         0.00000E+00
 
    0.40385E+07         0.74784E+06         0.00000E+00
    0.74784E+06        -0.20228E+07         0.00000E+00
    0.00000E+00         0.00000E+00         0.00000E+00
 
    0.39407E+07         0.83913E+06         0.00000E+00
    0.83913E+06        -0.20166E+07         0.00000E+00
    0.00000E+00         0.00000E+00         0.00000E+00
 
    0.38431E+07         0.92875E+06         0.00000E+00
    0.92875E+06        -0.20097E+07         0.00000E+00
    0.00000E+00         0.00000E+00         0.00000E+00
 
    0.37459E+07         0.10168E+07         0.00000E+00
    0.10168E+07        -0.20021E+07         0.00000E+00
    0.00000E+00         0.00000E+00         0.00000E+00
 
    0.36489E+07         0.11033E+07         0.00000E+00
    0.11033E+07        -0.19937E+07         0.00000E+00
    0.00000E+00         0.00000E+00         0.00000E+00
 
    0.35521E+07         0.11884E+07         0.00000E+00
    0.11884E+07        -0.19847E+07         0.00000E+00
    0.00000E+00         0.00000E+00         0.00000E+00
 
    0.34557E+07         0.12721E+07         0.00000E+00
    0.12721E+07        -0.19750E+07         0.00000E+00
    0.00000E+00         0.00000E+00         0.00000E+00
 
    0.33596E+07         0.13545E+07         0.00000E+00
    0.13545E+07        -0.19646E+07         0.00000E+00
    0.00000E+00         0.00000E+00         0.00000E+00
 
    0.32638E+07         0.14357E+07         0.00000E+00
    0.14357E+07        -0.19534E+07         0.00000E+00
    0.00000E+00         0.00000E+00         0.00000E+00
 
    0.31683E+07         0.15157E+07         0.00000E+00
    0.15157E+07        -0.19416E+07         0.00000E+00
    0.00000E+00         0.00000E+00         0.00000E+00
 
    0.30731E+07         0.15945E+07         0.00000E+00
    0.15945E+07        -0.19290E+07         0.00000E+00
    0.00000E+00         0.00000E+00         0.00000E+00
 
    0.29783E+07         0.16723E+07         0.00000E+00
    0.16723E+07        -0.19156E+07         0.00000E+00
    0.00000E+00         0.00000E+00         0.00000E+00
 
    0.28837E+07         0.17491E+07         0.00000E+00
    0.17491E+07        -0.19015E+07         0.00000E+00
    0.00000E+00         0.00000E+00         0.00000E+00
 
    0.27893E+07         0.18249E+07         0.00000E+00
    0.18249E+07        -0.18866E+07         0.00000E+00
    0.00000E+00         0.00000E+00         0.00000E+00
 
    0.26953E+07         0.18998E+07         0.00000E+00
    0.18998E+07        -0.18709E+07         0.00000E+00
    0.00000E+00         0.00000E+00         0.00000E+00
 
    0.26015E+07         0.19738E+07         0.00000E+00
    0.19738E+07        -0.18544E+07         0.00000E+00
    0.00000E+00         0.00000E+00         0.00000E+00
 
    0.25079E+07         0.20471E+07         0.00000E+00
    0.20471E+07        -0.18371E+07         0.00000E+00
    0.00000E+00         0.00000E+00         0.00000E+00
 
    0.24145E+07         0.21195E+07         0.00000E+00
    0.21195E+07        -0.18189E+07         0.00000E+00
    0.00000E+00         0.00000E+00         0.00000E+00
 
    0.23213E+07         0.21912E+07         0.00000E+00
    0.21912E+07        -0.17998E+07         0.00000E+00
    0.00000E+00         0.00000E+00         0.00000E+00
 
    0.22282E+07         0.22623E+07         0.00000E+00
    0.22623E+07        -0.17799E+07         0.00000E+00
    0.00000E+00         0.00000E+00         0.00000E+00
 
    0.21352E+07         0.23326E+07         0.00000E+00
    0.23326E+07        -0.17590E+07         0.00000E+00
    0.00000E+00         0.00000E+00         0.00000E+00
 
    0.20424E+07         0.24023E+07         0.00000E+00
    0.24023E+07        -0.17371E+07         0.00000E+00
    0.00000E+00         0.00000E+00         0.00000E+00
 
    0.19496E+07         0.24715E+07         0.00000E+00
    0.24715E+07        -0.17143E+07         0.00000E+00
    0.00000E+00         0.00000E+00         0.00000E+00
 
    0.18568E+07         0.25400E+07         0.00000E+00
    0.25400E+07        -0.16904E+07         0.00000E+00
    0.00000E+00         0.00000E+00         0.00000E+00
 
    0.17640E+07         0.26080E+07         0.00000E+00
    0.26080E+07        -0.16655E+07         0.00000E+00
    0.00000E+00         0.00000E+00         0.00000E+00
 
    0.16712E+07         0.26755E+07         0.00000E+00
    0.26755E+07        -0.16396E+07         0.00000E+00
    0.00000E+00         0.00000E+00         0.00000E+00
 
    0.15783E+07         0.27425E+07         0.00000E+00
    0.27425E+07        -0.16125E+07         0.00000E+00
    0.00000E+00         0.00000E+00         0.00000E+00
 
    0.14853E+07         0.28091E+07         0.00000E+00
    0.28091E+07        -0.15844E+07         0.00000E+00
    0.00000E+00         0.00000E+00         0.00000E+00
 
    0.13921E+07         0.28751E+07         0.00000E+00
    0.28751E+07        -0.15551E+07         0.00000E+00
    0.00000E+00         0.00000E+00         0.00000E+00
 
    0.12988E+07         0.29407E+07         0.00000E+00
    0.29407E+07        -0.15246E+07         0.00000E+00
    0.00000E+00         0.00000E+00         0.00000E+00
 
    0.12052E+07         0.30059E+07         0.00000E+00
    0.30059E+07        -0.14929E+07         0.00000E+00
    0.00000E+00         0.00000E+00         0.00000E+00
 
    0.11114E+07         0.30706E+07         0.00000E+00
    0.30706E+07        -0.14600E+07         0.00000E+00
    0.00000E+00         0.00000E+00         0.00000E+00
 
    0.10172E+07         0.31350E+07         0.00000E+00
    0.31350E+07        -0.14258E+07         0.00000E+00
    0.00000E+00         0.00000E+00         0.00000E+00
 
    0.92271E+06         0.31989E+07         0.00000E+00
    0.31989E+07        -0.13903E+07         0.00000E+00
    0.00000E+00         0.00000E+00         0.00000E+00
 
    0.82783E+06         0.32624E+07         0.00000E+00
    0.32624E+07        -0.13534E+07         0.00000E+00
    0.00000E+00         0.00000E+00         0.00000E+00
 
    0.73252E+06         0.33255E+07         0.00000E+00
    0.33255E+07        -0.13152E+07         0.00000E+00
    0.00000E+00         0.00000E+00         0.00000E+00
 
    0.63674E+06         0.33882E+07         0.00000E+00
    0.33882E+07        -0.12757E+07         0.00000E+00
    0.00000E+00         0.00000E+00         0.00000E+00
 
    0.54045E+06         0.34505E+07         0.00000E+00
    0.34505E+07        -0.12347E+07         0.00000E+00
    0.00000E+00         0.00000E+00         0.00000E+00
 
    0.44361E+06         0.35124E+07         0.00000E+00
    0.35124E+07        -0.11923E+07         0.00000E+00
    0.00000E+00         0.00000E+00         0.00000E+00
 
    0.34618E+06         0.35739E+07         0.00000E+00
    0.35739E+07        -0.11484E+07         0.00000E+00
    0.00000E+00         0.00000E+00         0.00000E+00
 
    0.24811E+06         0.36350E+07         0.00000E+00
    0.36350E+07        -0.11030E+07         0.00000E+00
    0.00000E+00         0.00000E+00         0.00000E+00
 
    0.14937E+06         0.36957E+07         0.00000E+00
    0.36957E+07        -0.10560E+07         0.00000E+00
    0.00000E+00         0.00000E+00         0.00000E+00
 
    0.49912E+05         0.37559E+07         0.00000E+00
    0.37559E+07        -0.10075E+07         0.00000E+00
    0.00000E+00         0.00000E+00         0.00000E+00
 
    0.49483E+07         0.57938E+05         0.00000E+00
    0.57938E+05        -0.23656E+07         0.00000E+00
    0.00000E+00         0.00000E+00         0.00000E+00
 
    0.48382E+07         0.16692E+06         0.00000E+00
    0.16692E+06        -0.23649E+07         0.00000E+00
    0.00000E+00         0.00000E+00         0.00000E+00
 
    0.47285E+07         0.27355E+06         0.00000E+00
    0.27355E+06        -0.23634E+07         0.00000E+00
    0.00000E+00         0.00000E+00         0.00000E+00
 
    0.46193E+07         0.37791E+06         0.00000E+00
    0.37791E+06        -0.23614E+07         0.00000E+00
    0.00000E+00         0.00000E+00         0.00000E+00
 
    0.45106E+07         0.48012E+06         0.00000E+00
    0.48012E+06        -0.23586E+07         0.00000E+00
    0.00000E+00         0.00000E+00         0.00000E+00
 
    0.44024E+07         0.58027E+06         0.00000E+00
    0.58027E+06        -0.23553E+07         0.00000E+00
    0.00000E+00         0.00000E+00         0.00000E+00
 
    0.42949E+07         0.67846E+06         0.00000E+00
    0.67846E+06        -0.23513E+07         0.00000E+00
    0.00000E+00         0.00000E+00         0.00000E+00
 
    0.41879E+07         0.77480E+06         0.00000E+00
    0.77480E+06        -0.23468E+07         0.00000E+00
    0.00000E+00         0.00000E+00         0.00000E+00
 
    0.40816E+07         0.86937E+06         0.00000E+00
    0.86937E+06        -0.23416E+07         0.00000E+00
    0.00000E+00         0.00000E+00         0.00000E+00
 
    0.39759E+07         0.96226E+06         0.00000E+00
    0.96226E+06        -0.23358E+07         0.00000E+00
    0.00000E+00         0.00000E+00         0.00000E+00
 
    0.38708E+07         0.10536E+07         0.00000E+00
    0.10536E+07        -0.23295E+07         0.00000E+00
    0.00000E+00         0.00000E+00         0.00000E+00
 
    0.37665E+07         0.11434E+07         0.00000E+00
    0.11434E+07        -0.23225E+07         0.00000E+00
    0.00000E+00         0.00000E+00         0.00000E+00
 
    0.36628E+07         0.12317E+07         0.00000E+00
    0.12317E+07        -0.23149E+07         0.00000E+00
    0.00000E+00         0.00000E+00         0.00000E+00
 
    0.35598E+07         0.13188E+07         0.00000E+00
    0.13188E+07        -0.23067E+07         0.00000E+00
    0.00000E+00         0.00000E+00         0.00000E+00
 
    0.34574E+07         0.14046E+07         0.00000E+00
    0.14046E+07        -0.22979E+07         0.00000E+00
    0.00000E+00         0.00000E+00         0.00000E+00
 
    0.33557E+07         0.14892E+07         0.00000E+00
    0.14892E+07        -0.22884E+07         0.00000E+00
    0.00000E+00         0.00000E+00         0.00000E+00
 
    0.32546E+07         0.15727E+07         0.00000E+00
    0.15727E+07        -0.22782E+07         0.00000E+00
    0.00000E+00         0.00000E+00         0.00000E+00
 
    0.31542E+07         0.16551E+07         0.00000E+00
    0.16551E+07        -0.22674E+07         0.00000E+00
    0.00000E+00         0.00000E+00         0.00000E+00
 
    0.30543E+07         0.17366E+07         0.00000E+00
    0.17366E+07        -0.22558E+07         0.00000E+00
    0.00000E+00         0.00000E+00         0.00000E+00
 
    0.29550E+07         0.18172E+07         0.00000E+00
    0.18172E+07        -0.22435E+07         0.00000E+00
    0.00000E+00         0.00000E+00         0.00000E+00
 
    0.28563E+07         0.18969E+07         0.00000E+00
    0.18969E+07        -0.22305E+07         0.00000E+00
    0.00000E+00         0.00000E+00         0.00000E+00
 
    0.27581E+07         0.19758E+07         0.00000E+00
    0.19758E+07        -0.22167E+07         0.00000E+00
    0.00000E+00         0.00000E+00         0.00000E+00
 
    0.26604E+07         0.20539E+07         0.00000E+00
    0.20539E+07        -0.22021E+07         0.00000E+00
    0.00000E+00         0.00000E+00         0.00000E+00
 
    0.25631E+07         0.21314E+07         0.00000E+00
    0.21314E+07        -0.21866E+07         0.00000E+00
    0.00000E+00         0.00000E+00         0.00000E+00
 
    0.24662E+07         0.22082E+07         0.00000E+00
    0.22082E+07        -0.21703E+07         0.00000E+00
    0.00000E+00         0.00000E+00         0.00000E+00
 
    0.23698E+07         0.22845E+07         0.00000E+00
    0.22845E+07        -0.21531E+07         0.00000E+00
    0.00000E+00         0.00000E+00         0.00000E+00
 
    0.22736E+07         0.23601E+07         0.00000E+00
    0.23601E+07        -0.21349E+07         0.00000E+00
    0.00000E+00         0.00000E+00         0.00000E+00
 
    0.21778E+07         0.24353E+07         0.00000E+00
    0.24353E+07        -0.21158E+07         0.00000E+00
    0.00000E+00         0.00000E+00         0.00000E+00
 
    0.20823E+07         0.25100E+07         0.00000E+00
    0.25100E+07        -0.20957E+07         0.00000E+00
    0.00000E+00         0.00000E+00         0.00000E+00
 
    0.19869E+07         0.25842E+07         0.00000E+00
    0.25842E+07        -0.20745E+07         0.00000E+00
    0.00000E+00         0.00000E+00         0.00000E+00
 
    0.18917E+07         0.26580E+07         0.00000E+00
    0.26580E+07        -0.20523E+07         0.00000E+00
    0.00000E+00         0.00000E+00         0.00000E+00
 
    0.17967E+07         0.27315E+07         0.00000E+00
    0.27315E+07        -0.20290E+07         0.00000E+00
    0.00000E+00         0.00000E+00         0.00000E+00
 
    0.17017E+07         0.28045E+07         0.00000E+00
    0.28045E+07        -0.20046E+07         0.00000E+00
    0.00000E+00         0.00000E+00         0.00000E+00
 
    0.16067E+07         0.28773E+07         0.00000E+00
    0.28773E+07        -0.19790E+07         0.00000E+00
    0.00000E+00         0.00000E+00         0.00000E+00
 
    0.15118E+07         0.29497E+07         0.00000E+00
    0.29497E+07        -0.19522E+07         0.00000E+00
    0.00000E+00         0.00000E+00         0.00000E+00
 
    0.14167E+07         0.30218E+07         0.00000E+00
    0.30218E+07        -0.19241E+07         0.00000E+00
    0.00000E+00         0.00000E+00         0.00000E+00
 
    0.13216E+07         0.30936E+07         0.00000E+00
    0.30936E+07        -0.18948E+07         0.00000E+00
    0.00000E+00         0.00000E+00         0.00000E+00
 
    0.12263E+07         0.31652E+07         0.00000E+00
    0.31652E+07        -0.18641E+07         0.00000E+00
    0.00000E+00         0.00000E+00         0.00000E+00
 
    0.11307E+07         0.32365E+07         0.00000E+00
    0.32365E+07        -0.18321E+07         0.00000E+00
    0.00000E+00         0.00000E+00         0.00000E+00
 
    0.10349E+07         0.33075E+07         0.00000E+00
    0.33075E+07        -0.17987E+07         0.00000E+00
    0.00000E+00         0.00000E+00         0.00000E+00
 
    0.93879E+06         0.33783E+07         0.00000E+00
    0.33783E+07        -0.17639E+07         0.00000E+00
    0.00000E+00         0.00000E+00         0.00000E+00
 
    0.84229E+06         0.34489E+07         0.00000E+00
    0.34489E+07        -0.17276E+07         0.00000E+00
    0.00000E+00         0.00000E+00         0.00000E+00
 
    0.74537E+06         0.35192E+07         0.00000E+00
    0.35192E+07        -0.16898E+07         0.00000E+00
    0.00000E+00         0.00000E+00         0.00000E+00
 
    0.64797E+06         0.35893E+07         0.00000E+00
    0.35893E+07        -0.16505E+07         0.00000E+00
    0.00000E+00         0.00000E+00         0.00000E+00
 
    0.55006E+06         0.36592E+07         0.00000E+00
    0.36592E+07        -0.16096E+07         0.00000E+00
    0.00000E+00         0.00000E+00         0.00000E+00
 
    0.45156E+06         0.37288E+07         0.00000E+00
    0.37288E+07        -0.15671E+07         0.00000E+00
    0.00000E+00         0.00000E+00         0.00000E+00
 
    0.35245E+06         0.37981E+07         0.00000E+00
    0.37981E+07        -0.15230E+07         0.00000E+00
    0.00000E+00         0.00000E+00         0.00000E+00
 
    0.25265E+06         0.38672E+07         0.00000E+00
    0.38672E+07        -0.14772E+07         0.00000E+00
    0.00000E+00         0.00000E+00         0.00000E+00
 
    0.15214E+06         0.39360E+07         0.00000E+00
    0.39360E+07        -0.14297E+07         0.00000E+00
    0.00000E+00         0.00000E+00         0.00000E+00
 
    0.50846E+05         0.40046E+07         0.00000E+00
    0.40046E+07        -0.13805E+07         0.00000E+00
    0.00000E+00         0.00000E+00         0.00000E+00
 
    0.51429E+07         0.59648E+05         0.00000E+00
    0.59648E+05        -0.27304E+07         0.00000E+00
    0.00000E+00         0.00000E+00         0.00000E+00
 
    0.50204E+07         0.17166E+06         0.00000E+00
    0.17166E+06        -0.27299E+07         0.00000E+00
    0.00000E+00         0.00000E+00         0.00000E+00
 
    0.48989E+07         0.28119E+06         0.00000E+00
    0.28119E+06        -0.27288E+07         0.00000E+00
    0.00000E+00         0.00000E+00         0.00000E+00
 
    0.47784E+07         0.38837E+06         0.00000E+00
    0.38837E+06        -0.27273E+07         0.00000E+00
    0.00000E+00         0.00000E+00         0.00000E+00
 
    0.46590E+07         0.49332E+06         0.00000E+00
    0.49332E+06        -0.27254E+07         0.00000E+00
    0.00000E+00         0.00000E+00         0.00000E+00
 
    0.45407E+07         0.59616E+06         0.00000E+00
    0.59616E+06        -0.27229E+07         0.00000E+00
    0.00000E+00         0.00000E+00         0.00000E+00
 
    0.44235E+07         0.69702E+06         0.00000E+00
    0.69702E+06        -0.27200E+07         0.00000E+00
    0.00000E+00         0.00000E+00         0.00000E+00
 
    0.43074E+07         0.79600E+06         0.00000E+00
    0.79600E+06        -0.27167E+07         0.00000E+00
    0.00000E+00         0.00000E+00         0.00000E+00
 
    0.41925E+07         0.89322E+06         0.00000E+00
    0.89322E+06        -0.27129E+07         0.00000E+00
    0.00000E+00         0.00000E+00         0.00000E+00
 
    0.40787E+07         0.98879E+06         0.00000E+00
    0.98879E+06        -0.27087E+07         0.00000E+00
    0.00000E+00         0.00000E+00         0.00000E+00
 
    0.39661E+07         0.10828E+07         0.00000E+00
    0.10828E+07        -0.27040E+07         0.00000E+00
    0.00000E+00         0.00000E+00         0.00000E+00
 
    0.38546E+07         0.11754E+07         0.00000E+00
    0.11754E+07        -0.26988E+07         0.00000E+00
    0.00000E+00         0.00000E+00         0.00000E+00
 
    0.37442E+07         0.12666E+07         0.00000E+00
    0.12666E+07        -0.26931E+07         0.00000E+00
    0.00000E+00         0.00000E+00         0.00000E+00
 
    0.36348E+07         0.13565E+07         0.00000E+00
    0.13565E+07        -0.26868E+07         0.00000E+00
    0.00000E+00         0.00000E+00         0.00000E+00
 
    0.35266E+07         0.14453E+07         0.00000E+00
    0.14453E+07        -0.26801E+07         0.00000E+00
    0.00000E+00         0.00000E+00         0.00000E+00
 
    0.34194E+07         0.15330E+07         0.00000E+00
    0.15330E+07        -0.26727E+07         0.00000E+00
    0.00000E+00         0.00000E+00         0.00000E+00
 
    0.33132E+07         0.16197E+07         0.00000E+00
    0.16197E+07        -0.26648E+07         0.00000E+00
    0.00000E+00         0.00000E+00         0.00000E+00
 
    0.32080E+07         0.17055E+07         0.00000E+00
    0.17055E+07        -0.26563E+07         0.00000E+00
    0.00000E+00         0.00000E+00         0.00000E+00
 
    0.31038E+07         0.17905E+07         0.00000E+00
    0.17905E+07        -0.26471E+07         0.00000E+00
    0.00000E+00         0.00000E+00         0.00000E+00
 
    0.30004E+07         0.18746E+07         0.00000E+00
    0.18746E+07        -0.26372E+07         0.00000E+00
    0.00000E+00         0.00000E+00         0.00000E+00
 
    0.28979E+07         0.19581E+07         0.00000E+00
    0.19581E+07        -0.26266E+07         0.00000E+00
    0.00000E+00         0.00000E+00         0.00000E+00
 
    0.27962E+07         0.20409E+07         0.00000E+00
    0.20409E+07        -0.26152E+07         0.00000E+00
    0.00000E+00         0.00000E+00         0.00000E+00
 
    0.26953E+07         0.21232E+07         0.00000E+00
    0.21232E+07        -0.26030E+07         0.00000E+00
    0.00000E+00         0.00000E+00         0.00000E+00
 
    0.25951E+07         0.22049E+07         0.00000E+00
    0.22049E+07        -0.25900E+07         0.00000E+00
    0.00000E+00         0.00000E+00         0.00000E+00
 
    0.24956E+07         0.22862E+07         0.00000E+00
    0.22862E+07        -0.25762E+07         0.00000E+00
    0.00000E+00         0.00000E+00         0.00000E+00
 
    0.23967E+07         0.23670E+07         0.00000E+00
    0.23670E+07        -0.25614E+07         0.00000E+00
    0.00000E+00         0.00000E+00         0.00000E+00
 
    0.22983E+07         0.24475E+07         0.00000E+00
    0.24475E+07        -0.25457E+07         0.00000E+00
    0.00000E+00         0.00000E+00         0.00000E+00
 
    0.22005E+07         0.25276E+07         0.00000E+00
    0.25276E+07        -0.25290E+07         0.00000E+00
    0.00000E+00         0.00000E+00         0.00000E+00
 
    0.21031E+07         0.26075E+07         0.00000E+00
    0.26075E+07        -0.25112E+07         0.00000E+00
    0.00000E+00         0.00000E+00         0.00000E+00
 
    0.20061E+07         0.26871E+07         0.00000E+00
    0.26871E+07        -0.24924E+07         0.00000E+00
    0.00000E+00         0.00000E+00         0.00000E+00
 
    0.19094E+07         0.27665E+07         0.00000E+00
    0.27665E+07        -0.24724E+07         0.00000E+00
    0.00000E+00         0.00000E+00         0.00000E+00
 
    0.18129E+07         0.28457E+07         0.00000E+00
    0.28457E+07        -0.24513E+07         0.00000E+00
    0.00000E+00         0.00000E+00         0.00000E+00
 
    0.17167E+07         0.29247E+07         0.00000E+00
    0.29247E+07        -0.24290E+07         0.00000E+00
    0.00000E+00         0.00000E+00         0.00000E+00
 
    0.16206E+07         0.30036E+07         0.00000E+00
    0.30036E+07        -0.24054E+07         0.00000E+00
    0.00000E+00         0.00000E+00         0.00000E+00
 
    0.15246E+07         0.30824E+07         0.00000E+00
    0.30824E+07        -0.23805E+07         0.00000E+00
    0.00000E+00         0.00000E+00         0.00000E+00
 
    0.14286E+07         0.31610E+07         0.00000E+00
    0.31610E+07        -0.23543E+07         0.00000E+00
    0.00000E+00         0.00000E+00         0.00000E+00
 
    0.13325E+07         0.32397E+07         0.00000E+00
    0.32397E+07        -0.23267E+07         0.00000E+00
    0.00000E+00         0.00000E+00         0.00000E+00
 
    0.12364E+07         0.33182E+07         0.00000E+00
    0.33182E+07        -0.22976E+07         0.00000E+00
    0.00000E+00         0.00000E+00         0.00000E+00
 
    0.11401E+07         0.33967E+07         0.00000E+00
    0.33967E+07        -0.22671E+07         0.00000E+00
    0.00000E+00         0.00000E+00         0.00000E+00
 
    0.10435E+07         0.34751E+07         0.00000E+00
    0.34751E+07        -0.22350E+07         0.00000E+00
    0.00000E+00         0.00000E+00         0.00000E+00
 
    0.94665E+06         0.35535E+07         0.00000E+00
    0.35535E+07        -0.22014E+07         0.00000E+00
    0.00000E+00         0.00000E+00         0.00000E+00
 
    0.84943E+06         0.36318E+07         0.00000E+00
    0.36318E+07        -0.21662E+07         0.00000E+00
    0.00000E+00         0.00000E+00         0.00000E+00
 
    0.75179E+06         0.37101E+07         0.00000E+00
    0.37101E+07        -0.21293E+07         0.00000E+00
    0.00000E+00         0.00000E+00         0.00000E+00
 
    0.65367E+06         0.37883E+07         0.00000E+00
    0.37883E+07        -0.20908E+07         0.00000E+00
    0.00000E+00         0.00000E+00         0.00000E+00
 
    0.55500E+06         0.38665E+07         0.00000E+00
    0.38665E+07        -0.20505E+07         0.00000E+00
    0.00000E+00         0.00000E+00         0.00000E+00
 
    0.45573E+06         0.39447E+07         0.00000E+00
    0.39447E+07        -0.20084E+07         0.00000E+00
    0.00000E+00         0.00000E+00         0.00000E+00
 
    0.35579E+06         0.40228E+07         0.00000E+00
    0.40228E+07        -0.19645E+07         0.00000E+00
    0.00000E+00         0.00000E+00         0.00000E+00
 
    0.25512E+06         0.41008E+07         0.00000E+00
    0.41008E+07        -0.19188E+07         0.00000E+00
    0.00000E+00         0.00000E+00         0.00000E+00
 
    0.15367E+06         0.41787E+07         0.00000E+00
    0.41787E+07        -0.18711E+07         0.00000E+00
    0.00000E+00         0.00000E+00         0.00000E+00
 
    0.51368E+05         0.42565E+07         0.00000E+00
    0.42565E+07        -0.18215E+07         0.00000E+00
    0.00000E+00         0.00000E+00         0.00000E+00
 
    0.53004E+07         0.60770E+05         0.00000E+00
    0.60770E+05        -0.31452E+07         0.00000E+00
    0.00000E+00         0.00000E+00         0.00000E+00
 
    0.51649E+07         0.17471E+06         0.00000E+00
    0.17471E+06        -0.31449E+07         0.00000E+00
    0.00000E+00         0.00000E+00         0.00000E+00
 
    0.50311E+07         0.28609E+06         0.00000E+00
    0.28609E+06        -0.31444E+07         0.00000E+00
    0.00000E+00         0.00000E+00         0.00000E+00
 
    0.48991E+07         0.39506E+06         0.00000E+00
    0.39506E+06        -0.31436E+07         0.00000E+00
    0.00000E+00         0.00000E+00         0.00000E+00
 
    0.47687E+07         0.50178E+06         0.00000E+00
    0.50178E+06        -0.31426E+07         0.00000E+00
    0.00000E+00         0.00000E+00         0.00000E+00
 
    0.46402E+07         0.60638E+06         0.00000E+00
    0.60638E+06        -0.31413E+07         0.00000E+00
    0.00000E+00         0.00000E+00         0.00000E+00
 
    0.45134E+07         0.70900E+06         0.00000E+00
    0.70900E+06        -0.31398E+07         0.00000E+00
    0.00000E+00         0.00000E+00         0.00000E+00
 
    0.43883E+07         0.80979E+06         0.00000E+00
    0.80979E+06        -0.31381E+07         0.00000E+00
    0.00000E+00         0.00000E+00         0.00000E+00
 
    0.42650E+07         0.90886E+06         0.00000E+00
    0.90886E+06        -0.31360E+07         0.00000E+00
    0.00000E+00         0.00000E+00         0.00000E+00
 
    0.41434E+07         0.10063E+07         0.00000E+00
    0.10063E+07        -0.31337E+07         0.00000E+00
    0.00000E+00         0.00000E+00         0.00000E+00
 
    0.40234E+07         0.11024E+07         0.00000E+00
    0.11024E+07        -0.31311E+07         0.00000E+00
    0.00000E+00         0.00000E+00         0.00000E+00
 
    0.39052E+07         0.11971E+07         0.00000E+00
    0.11971E+07        -0.31281E+07         0.00000E+00
    0.00000E+00         0.00000E+00         0.00000E+00
 
    0.37885E+07         0.12905E+07         0.00000E+00
    0.12905E+07        -0.31248E+07         0.00000E+00
    0.00000E+00         0.00000E+00         0.00000E+00
 
    0.36735E+07         0.13828E+07         0.00000E+00
    0.13828E+07        -0.31211E+07         0.00000E+00
    0.00000E+00         0.00000E+00         0.00000E+00
 
    0.35600E+07         0.14741E+07         0.00000E+00
    0.14741E+07        -0.31169E+07         0.00000E+00
    0.00000E+00         0.00000E+00         0.00000E+00
 
    0.34480E+07         0.15645E+07         0.00000E+00
    0.15645E+07        -0.31123E+07         0.00000E+00
    0.00000E+00         0.00000E+00         0.00000E+00
 
    0.33374E+07         0.16540E+07         0.00000E+00
    0.16540E+07        -0.31072E+07         0.00000E+00
    0.00000E+00         0.00000E+00         0.00000E+00
 
    0.32282E+07         0.17428E+07         0.00000E+00
    0.17428E+07        -0.31016E+07         0.00000E+00
    0.00000E+00         0.00000E+00         0.00000E+00
 
    0.31204E+07         0.18310E+07         0.00000E+00
    0.18310E+07        -0.30953E+07         0.00000E+00
    0.00000E+00         0.00000E+00         0.00000E+00
 
    0.30138E+07         0.19185E+07         0.00000E+00
    0.19185E+07        -0.30885E+07         0.00000E+00
    0.00000E+00         0.00000E+00         0.00000E+00
 
    0.29085E+07         0.20056E+07         0.00000E+00
    0.20056E+07        -0.30809E+07         0.00000E+00
    0.00000E+00         0.00000E+00         0.00000E+00
 
    0.28043E+07         0.20922E+07         0.00000E+00
    0.20922E+07        -0.30727E+07         0.00000E+00
    0.00000E+00         0.00000E+00         0.00000E+00
 
    0.27011E+07         0.21785E+07         0.00000E+00
    0.21785E+07        -0.30636E+07         0.00000E+00
    0.00000E+00         0.00000E+00         0.00000E+00
 
    0.25990E+07         0.22644E+07         0.00000E+00
    0.22644E+07        -0.30538E+07         0.00000E+00
    0.00000E+00         0.00000E+00         0.00000E+00
 
    0.24978E+07         0.23502E+07         0.00000E+00
    0.23502E+07        -0.30430E+07         0.00000E+00
    0.00000E+00         0.00000E+00         0.00000E+00
 
    0.23975E+07         0.24357E+07         0.00000E+00
    0.24357E+07        -0.30314E+07         0.00000E+00
    0.00000E+00         0.00000E+00         0.00000E+00
 
    0.22980E+07         0.25211E+07         0.00000E+00
    0.25211E+07        -0.30188E+07         0.00000E+00
    0.00000E+00         0.00000E+00         0.00000E+00
 
    0.21991E+07         0.26064E+07         0.00000E+00
    0.26064E+07        -0.30052E+07         0.00000E+00
    0.00000E+00         0.00000E+00         0.00000E+00
 
    0.21010E+07         0.26917E+07         0.00000E+00
    0.26917E+07        -0.29904E+07         0.00000E+00
    0.00000E+00         0.00000E+00         0.00000E+00
 
    0.20034E+07         0.27769E+07         0.00000E+00
    0.27769E+07        -0.29746E+07         0.00000E+00
    0.00000E+00         0.00000E+00         0.00000E+00
 
    0.19062E+07         0.28622E+07         0.00000E+00
    0.28622E+07        -0.29576E+07         0.00000E+00
    0.00000E+00         0.00000E+00         0.00000E+00
 
    0.18095E+07         0.29475E+07         0.00000E+00
    0.29475E+07        -0.29393E+07         0.00000E+00
    0.00000E+00         0.00000E+00         0.00000E+00
 
    0.17131E+07         0.30329E+07         0.00000E+00
    0.30329E+07        -0.29197E+07         0.00000E+00
    0.00000E+00         0.00000E+00         0.00000E+00
 
    0.16170E+07         0.31184E+07         0.00000E+00
    0.31184E+07        -0.28988E+07         0.00000E+00
    0.00000E+00         0.00000E+00         0.00000E+00
 
    0.15211E+07         0.32041E+07         0.00000E+00
    0.32041E+07        -0.28765E+07         0.00000E+00
    0.00000E+00         0.00000E+00         0.00000E+00
 
    0.14252E+07         0.32899E+07         0.00000E+00
    0.32899E+07        -0.28528E+07         0.00000E+00
    0.00000E+00         0.00000E+00         0.00000E+00
 
    0.13294E+07         0.33758E+07         0.00000E+00
    0.33758E+07        -0.28275E+07         0.00000E+00
    0.00000E+00         0.00000E+00         0.00000E+00
 
    0.12335E+07         0.34619E+07         0.00000E+00
    0.34619E+07        -0.28007E+07         0.00000E+00
    0.00000E+00         0.00000E+00         0.00000E+00
 
    0.11375E+07         0.35482E+07         0.00000E+00
    0.35482E+07        -0.27723E+07         0.00000E+00
    0.00000E+00         0.00000E+00         0.00000E+00
 
    0.10413E+07         0.36347E+07         0.00000E+00
    0.36347E+07        -0.27422E+07         0.00000E+00
    0.00000E+00         0.00000E+00         0.00000E+00
 
    0.94477E+06         0.37214E+07         0.00000E+00
    0.37214E+07        -0.27104E+07         0.00000E+00
    0.00000E+00         0.00000E+00         0.00000E+00
 
    0.84791E+06         0.38083E+07         0.00000E+00
    0.38083E+07        -0.26768E+07         0.00000E+00
    0.00000E+00         0.00000E+00         0.00000E+00
 
    0.75062E+06         0.38953E+07         0.00000E+00
    0.38953E+07        -0.26414E+07         0.00000E+00
    0.00000E+00         0.00000E+00         0.00000E+00
 
    0.65283E+06         0.39826E+07         0.00000E+00
    0.39826E+07        -0.26042E+07         0.00000E+00
    0.00000E+00         0.00000E+00         0.00000E+00
 
    0.55445E+06         0.40700E+07         0.00000E+00
    0.40700E+07        -0.25650E+07         0.00000E+00
    0.00000E+00         0.00000E+00         0.00000E+00
 
    0.45542E+06         0.41576E+07         0.00000E+00
    0.41576E+07        -0.25239E+07         0.00000E+00
    0.00000E+00         0.00000E+00         0.00000E+00
 
    0.35568E+06         0.42454E+07         0.00000E+00
    0.42454E+07        -0.24808E+07         0.00000E+00
    0.00000E+00         0.00000E+00         0.00000E+00
 
    0.25514E+06         0.43333E+07         0.00000E+00
    0.43333E+07        -0.24356E+07         0.00000E+00
    0.00000E+00         0.00000E+00         0.00000E+00
 
    0.15374E+06         0.44213E+07         0.00000E+00
    0.44213E+07        -0.23884E+07         0.00000E+00
    0.00000E+00         0.00000E+00         0.00000E+00
 
    0.51406E+05         0.45094E+07         0.00000E+00
    0.45094E+07        -0.23389E+07         0.00000E+00
    0.00000E+00         0.00000E+00         0.00000E+00
 
    0.54089E+07         0.61139E+05         0.00000E+00
    0.61139E+05        -0.36154E+07         0.00000E+00
    0.00000E+00         0.00000E+00         0.00000E+00
 
    0.52601E+07         0.17562E+06         0.00000E+00
    0.17562E+06        -0.36155E+07         0.00000E+00
    0.00000E+00         0.00000E+00         0.00000E+00
 
    0.51139E+07         0.28752E+06         0.00000E+00
    0.28752E+06        -0.36156E+07         0.00000E+00
    0.00000E+00         0.00000E+00         0.00000E+00
 
    0.49702E+07         0.39701E+06         0.00000E+00
    0.39701E+06        -0.36157E+07         0.00000E+00
    0.00000E+00         0.00000E+00         0.00000E+00
 
    0.48290E+07         0.50426E+06         0.00000E+00
    0.50426E+06        -0.36159E+07         0.00000E+00
    0.00000E+00         0.00000E+00         0.00000E+00
 
    0.46903E+07         0.60945E+06         0.00000E+00
    0.60945E+06        -0.36161E+07         0.00000E+00
    0.00000E+00         0.00000E+00         0.00000E+00
 
    0.45542E+07         0.71273E+06         0.00000E+00
    0.71273E+06        -0.36163E+07         0.00000E+00
    0.00000E+00         0.00000E+00         0.00000E+00
 
    0.44205E+07         0.81426E+06         0.00000E+00
    0.81426E+06        -0.36165E+07         0.00000E+00
    0.00000E+00         0.00000E+00         0.00000E+00
 
    0.42892E+07         0.91420E+06         0.00000E+00
    0.91420E+06        -0.36166E+07         0.00000E+00
    0.00000E+00         0.00000E+00         0.00000E+00
 
    0.41603E+07         0.10127E+07         0.00000E+00
    0.10127E+07        -0.36167E+07         0.00000E+00
    0.00000E+00         0.00000E+00         0.00000E+00
 
    0.40337E+07         0.11099E+07         0.00000E+00
    0.11099E+07        -0.36166E+07         0.00000E+00
    0.00000E+00         0.00000E+00         0.00000E+00
 
    0.39094E+07         0.12058E+07         0.00000E+00
    0.12058E+07        -0.36164E+07         0.00000E+00
    0.00000E+00         0.00000E+00         0.00000E+00
 
    0.37873E+07         0.13008E+07         0.00000E+00
    0.13008E+07        -0.36161E+07         0.00000E+00
    0.00000E+00         0.00000E+00         0.00000E+00
 
    0.36673E+07         0.13948E+07         0.00000E+00
    0.13948E+07        -0.36154E+07         0.00000E+00
    0.00000E+00         0.00000E+00         0.00000E+00
 
    0.35495E+07         0.14880E+07         0.00000E+00
    0.14880E+07        -0.36145E+07         0.00000E+00
    0.00000E+00         0.00000E+00         0.00000E+00
 
    0.34336E+07         0.15805E+07         0.00000E+00
    0.15805E+07        -0.36133E+07         0.00000E+00
    0.00000E+00         0.00000E+00         0.00000E+00
 
    0.33197E+07         0.16724E+07         0.00000E+00
    0.16724E+07        -0.36116E+07         0.00000E+00
    0.00000E+00         0.00000E+00         0.00000E+00
 
    0.32076E+07         0.17637E+07         0.00000E+00
    0.17637E+07        -0.36096E+07         0.00000E+00
    0.00000E+00         0.00000E+00         0.00000E+00
 
    0.30973E+07         0.18547E+07         0.00000E+00
    0.18547E+07        -0.36070E+07         0.00000E+00
    0.00000E+00         0.00000E+00         0.00000E+00
 
    0.29887E+07         0.19454E+07         0.00000E+00
    0.19454E+07        -0.36038E+07         0.00000E+00
    0.00000E+00         0.00000E+00         0.00000E+00
 
    0.28816E+07         0.20358E+07         0.00000E+00
    0.20358E+07        -0.36001E+07         0.00000E+00
    0.00000E+00         0.00000E+00         0.00000E+00
 
    0.27761E+07         0.21261E+07         0.00000E+00
    0.21261E+07        -0.35956E+07         0.00000E+00
    0.00000E+00         0.00000E+00         0.00000E+00
 
    0.26720E+07         0.22163E+07         0.00000E+00
    0.22163E+07        -0.35905E+07         0.00000E+00
    0.00000E+00         0.00000E+00         0.00000E+00
 
    0.25692E+07         0.23064E+07         0.00000E+00
    0.23064E+07        -0.35845E+07         0.00000E+00
    0.00000E+00         0.00000E+00         0.00000E+00
 
    0.24676E+07         0.23966E+07         0.00000E+00
    0.23966E+07        -0.35777E+07         0.00000E+00
    0.00000E+00         0.00000E+00         0.00000E+00
 
    0.23672E+07         0.24869E+07         0.00000E+00
    0.24869E+07        -0.35699E+07         0.00000E+00
    0.00000E+00         0.00000E+00         0.00000E+00
 
    0.22678E+07         0.25774E+07         0.00000E+00
    0.25774E+07        -0.35611E+07         0.00000E+00
    0.00000E+00         0.00000E+00         0.00000E+00
 
    0.21693E+07         0.26680E+07         0.00000E+00
    0.26680E+07        -0.35513E+07         0.00000E+00
    0.00000E+00         0.00000E+00         0.00000E+00
 
    0.20717E+07         0.27589E+07         0.00000E+00
    0.27589E+07        -0.35404E+07         0.00000E+00
    0.00000E+00         0.00000E+00         0.00000E+00
 
    0.19749E+07         0.28501E+07         0.00000E+00
    0.28501E+07        -0.35282E+07         0.00000E+00
    0.00000E+00         0.00000E+00         0.00000E+00
 
    0.18787E+07         0.29416E+07         0.00000E+00
    0.29416E+07        -0.35149E+07         0.00000E+00
    0.00000E+00         0.00000E+00         0.00000E+00
 
    0.17830E+07         0.30335E+07         0.00000E+00
    0.30335E+07        -0.35002E+07         0.00000E+00
    0.00000E+00         0.00000E+00         0.00000E+00
 
    0.16878E+07         0.31257E+07         0.00000E+00
    0.31257E+07        -0.34841E+07         0.00000E+00
    0.00000E+00         0.00000E+00         0.00000E+00
 
    0.15930E+07         0.32183E+07         0.00000E+00
    0.32183E+07        -0.34666E+07         0.00000E+00
    0.00000E+00         0.00000E+00         0.00000E+00
 
    0.14984E+07         0.33114E+07         0.00000E+00
    0.33114E+07        -0.34476E+07         0.00000E+00
    0.00000E+00         0.00000E+00         0.00000E+00
 
    0.14041E+07         0.34048E+07         0.00000E+00
    0.34048E+07        -0.34270E+07         0.00000E+00
    0.00000E+00         0.00000E+00         0.00000E+00
 
    0.13098E+07         0.34988E+07         0.00000E+00
    0.34988E+07        -0.34048E+07         0.00000E+00
    0.00000E+00         0.00000E+00         0.00000E+00
 
    0.12155E+07         0.35931E+07         0.00000E+00
    0.35931E+07        -0.33809E+07         0.00000E+00
    0.00000E+00         0.00000E+00         0.00000E+00
 
    0.11211E+07         0.36880E+07         0.00000E+00
    0.36880E+07        -0.33553E+07         0.00000E+00
    0.00000E+00         0.00000E+00         0.00000E+00
 
    0.10265E+07         0.37833E+07         0.00000E+00
    0.37833E+07        -0.33278E+07         0.00000E+00
    0.00000E+00         0.00000E+00         0.00000E+00
 
    0.93159E+06         0.38791E+07         0.00000E+00
    0.38791E+07        -0.32985E+07         0.00000E+00
    0.00000E+00         0.00000E+00         0.00000E+00
 
    0.83635E+06         0.39753E+07         0.00000E+00
    0.39753E+07        -0.32673E+07         0.00000E+00
    0.00000E+00         0.00000E+00         0.00000E+00
 
    0.74065E+06         0.40720E+07         0.00000E+00
    0.40720E+07        -0.32340E+07         0.00000E+00
    0.00000E+00         0.00000E+00         0.00000E+00
 
    0.64440E+06         0.41691E+07         0.00000E+00
    0.41691E+07        -0.31987E+07         0.00000E+00
    0.00000E+00         0.00000E+00         0.00000E+00
 
    0.54753E+06         0.42667E+07         0.00000E+00
    0.42667E+07        -0.31614E+07         0.00000E+00
    0.00000E+00         0.00000E+00         0.00000E+00
 
    0.44995E+06         0.43647E+07         0.00000E+00
    0.43647E+07        -0.31218E+07         0.00000E+00
    0.00000E+00         0.00000E+00         0.00000E+00
 
    0.35158E+06         0.44631E+07         0.00000E+00
    0.44631E+07        -0.30801E+07         0.00000E+00
    0.00000E+00         0.00000E+00         0.00000E+00
 
    0.25233E+06         0.45620E+07         0.00000E+00
    0.45620E+07        -0.30360E+07         0.00000E+00
    0.00000E+00         0.00000E+00         0.00000E+00
 
    0.15212E+06         0.46611E+07         0.00000E+00
    0.46611E+07        -0.29897E+07         0.00000E+00
    0.00000E+00         0.00000E+00         0.00000E+00
 
    0.50886E+05         0.47607E+07         0.00000E+00
    0.47607E+07        -0.29410E+07         0.00000E+00
    0.00000E+00         0.00000E+00         0.00000E+00
 
    0.54549E+07         0.60564E+05         0.00000E+00
    0.60564E+05        -0.41468E+07         0.00000E+00
    0.00000E+00         0.00000E+00         0.00000E+00
 
    0.52927E+07         0.17388E+06         0.00000E+00
    0.17388E+06        -0.41473E+07         0.00000E+00
    0.00000E+00         0.00000E+00         0.00000E+00
 
    0.51341E+07         0.28465E+06         0.00000E+00
    0.28465E+06        -0.41481E+07         0.00000E+00
    0.00000E+00         0.00000E+00         0.00000E+00
 
    0.49790E+07         0.39308E+06         0.00000E+00
    0.39308E+06        -0.41494E+07         0.00000E+00
    0.00000E+00         0.00000E+00         0.00000E+00
 
    0.48273E+07         0.49936E+06         0.00000E+00
    0.49936E+06        -0.41510E+07         0.00000E+00
    0.00000E+00         0.00000E+00         0.00000E+00
 
    0.46790E+07         0.60370E+06         0.00000E+00
    0.60370E+06        -0.41530E+07         0.00000E+00
    0.00000E+00         0.00000E+00         0.00000E+00
 
    0.45341E+07         0.70628E+06         0.00000E+00
    0.70628E+06        -0.41553E+07         0.00000E+00
    0.00000E+00         0.00000E+00         0.00000E+00
 
    0.43924E+07         0.80729E+06         0.00000E+00
    0.80729E+06        -0.41579E+07         0.00000E+00
    0.00000E+00         0.00000E+00         0.00000E+00
 
    0.42540E+07         0.90688E+06         0.00000E+00
    0.90688E+06        -0.41607E+07         0.00000E+00
    0.00000E+00         0.00000E+00         0.00000E+00
 
    0.41187E+07         0.10052E+07         0.00000E+00
    0.10052E+07        -0.41637E+07         0.00000E+00
    0.00000E+00         0.00000E+00         0.00000E+00
 
    0.39864E+07         0.11025E+07         0.00000E+00
    0.11025E+07        -0.41668E+07         0.00000E+00
    0.00000E+00         0.00000E+00         0.00000E+00
 
    0.38572E+07         0.11988E+07         0.00000E+00
    0.11988E+07        -0.41700E+07         0.00000E+00
    0.00000E+00         0.00000E+00         0.00000E+00
 
    0.37308E+07         0.12944E+07         0.00000E+00
    0.12944E+07        -0.41731E+07         0.00000E+00
    0.00000E+00         0.00000E+00         0.00000E+00
 
    0.36071E+07         0.13893E+07         0.00000E+00
    0.13893E+07        -0.41763E+07         0.00000E+00
    0.00000E+00         0.00000E+00         0.00000E+00
 
    0.34862E+07         0.14836E+07         0.00000E+00
    0.14836E+07        -0.41793E+07         0.00000E+00
    0.00000E+00         0.00000E+00         0.00000E+00
 
    0.33678E+07         0.15776E+07         0.00000E+00
    0.15776E+07        -0.41821E+07         0.00000E+00
    0.00000E+00         0.00000E+00         0.00000E+00
 
    0.32519E+07         0.16713E+07         0.00000E+00
    0.16713E+07        -0.41846E+07         0.00000E+00
    0.00000E+00         0.00000E+00         0.00000E+00
 
    0.31383E+07         0.17648E+07         0.00000E+00
    0.17648E+07        -0.41869E+07         0.00000E+00
    0.00000E+00         0.00000E+00         0.00000E+00
 
    0.30270E+07         0.18582E+07         0.00000E+00
    0.18582E+07        -0.41887E+07         0.00000E+00
    0.00000E+00         0.00000E+00         0.00000E+00
 
    0.29178E+07         0.19516E+07         0.00000E+00
    0.19516E+07        -0.41900E+07         0.00000E+00
    0.00000E+00         0.00000E+00         0.00000E+00
 
    0.28106E+07         0.20451E+07         0.00000E+00
    0.20451E+07        -0.41908E+07         0.00000E+00
    0.00000E+00         0.00000E+00         0.00000E+00
 
    0.27053E+07         0.21388E+07         0.00000E+00
    0.21388E+07        -0.41910E+07         0.00000E+00
    0.00000E+00         0.00000E+00         0.00000E+00
 
    0.26017E+07         0.22328E+07         0.00000E+00
    0.22328E+07        -0.41905E+07         0.00000E+00
    0.00000E+00         0.00000E+00         0.00000E+00
 
    0.24998E+07         0.23270E+07         0.00000E+00
    0.23270E+07        -0.41892E+07         0.00000E+00
    0.00000E+00         0.00000E+00         0.00000E+00
 
    0.23995E+07         0.24217E+07         0.00000E+00
    0.24217E+07        -0.41870E+07         0.00000E+00
    0.00000E+00         0.00000E+00         0.00000E+00
 
    0.23005E+07         0.25169E+07         0.00000E+00
    0.25169E+07        -0.41839E+07         0.00000E+00
    0.00000E+00         0.00000E+00         0.00000E+00
 
    0.22029E+07         0.26125E+07         0.00000E+00
    0.26125E+07        -0.41798E+07         0.00000E+00
    0.00000E+00         0.00000E+00         0.00000E+00
 
    0.21064E+07         0.27087E+07         0.00000E+00
    0.27087E+07        -0.41746E+07         0.00000E+00
    0.00000E+00         0.00000E+00         0.00000E+00
 
    0.20110E+07         0.28055E+07         0.00000E+00
    0.28055E+07        -0.41683E+07         0.00000E+00
    0.00000E+00         0.00000E+00         0.00000E+00
 
    0.19165E+07         0.29029E+07         0.00000E+00
    0.29029E+07        -0.41607E+07         0.00000E+00
    0.00000E+00         0.00000E+00         0.00000E+00
 
    0.18228E+07         0.30010E+07         0.00000E+00
    0.30010E+07        -0.41518E+07         0.00000E+00
    0.00000E+00         0.00000E+00         0.00000E+00
 
    0.17298E+07         0.30998E+07         0.00000E+00
    0.30998E+07        -0.41414E+07         0.00000E+00
    0.00000E+00         0.00000E+00         0.00000E+00
 
    0.16374E+07         0.31993E+07         0.00000E+00
    0.31993E+07        -0.41297E+07         0.00000E+00
    0.00000E+00         0.00000E+00         0.00000E+00
 
    0.15454E+07         0.32996E+07         0.00000E+00
    0.32996E+07        -0.41163E+07         0.00000E+00
    0.00000E+00         0.00000E+00         0.00000E+00
 
    0.14538E+07         0.34006E+07         0.00000E+00
    0.34006E+07        -0.41014E+07         0.00000E+00
    0.00000E+00         0.00000E+00         0.00000E+00
 
    0.13625E+07         0.35023E+07         0.00000E+00
    0.35023E+07        -0.40848E+07         0.00000E+00
    0.00000E+00         0.00000E+00         0.00000E+00
 
    0.12712E+07         0.36049E+07         0.00000E+00
    0.36049E+07        -0.40664E+07         0.00000E+00
    0.00000E+00         0.00000E+00         0.00000E+00
 
    0.11800E+07         0.37082E+07         0.00000E+00
    0.37082E+07        -0.40462E+07         0.00000E+00
    0.00000E+00         0.00000E+00         0.00000E+00
 
    0.10887E+07         0.38124E+07         0.00000E+00
    0.38124E+07        -0.40240E+07         0.00000E+00
    0.00000E+00         0.00000E+00         0.00000E+00
 
    0.99726E+06         0.39173E+07         0.00000E+00
    0.39173E+07        -0.39999E+07         0.00000E+00
    0.00000E+00         0.00000E+00         0.00000E+00
 
    0.90548E+06         0.40230E+07         0.00000E+00
    0.40230E+07        -0.39738E+07         0.00000E+00
    0.00000E+00         0.00000E+00         0.00000E+00
 
    0.81330E+06         0.41294E+07         0.00000E+00
    0.41294E+07        -0.39456E+07         0.00000E+00
    0.00000E+00         0.00000E+00         0.00000E+00
 
    0.72062E+06         0.42367E+07         0.00000E+00
    0.42367E+07        -0.39152E+07         0.00000E+00
    0.00000E+00         0.00000E+00         0.00000E+00
 
    0.62734E+06         0.43447E+07         0.00000E+00
    0.43447E+07        -0.38826E+07         0.00000E+00
    0.00000E+00         0.00000E+00         0.00000E+00
 
    0.53336E+06         0.44534E+07         0.00000E+00
    0.44534E+07        -0.38476E+07         0.00000E+00
    0.00000E+00         0.00000E+00         0.00000E+00
 
    0.43859E+06         0.45628E+07         0.00000E+00
    0.45628E+07        -0.38103E+07         0.00000E+00
    0.00000E+00         0.00000E+00         0.00000E+00
 
    0.34293E+06         0.46730E+07         0.00000E+00
    0.46730E+07        -0.37706E+07         0.00000E+00
    0.00000E+00         0.00000E+00         0.00000E+00
 
    0.24630E+06         0.47838E+07         0.00000E+00
    0.47838E+07        -0.37284E+07         0.00000E+00
    0.00000E+00         0.00000E+00         0.00000E+00
 
    0.14859E+06         0.48953E+07         0.00000E+00
    0.48953E+07        -0.36837E+07         0.00000E+00
    0.00000E+00         0.00000E+00         0.00000E+00
 
    0.49730E+05         0.50074E+07         0.00000E+00
    0.50074E+07        -0.36364E+07         0.00000E+00
    0.00000E+00         0.00000E+00         0.00000E+00
 
    0.54227E+07         0.58827E+05         0.00000E+00
    0.58827E+05        -0.47455E+07         0.00000E+00
    0.00000E+00         0.00000E+00         0.00000E+00
 
    0.52475E+07         0.16889E+06         0.00000E+00
    0.16889E+06        -0.47464E+07         0.00000E+00
    0.00000E+00         0.00000E+00         0.00000E+00
 
    0.50770E+07         0.27652E+06         0.00000E+00
    0.27652E+06        -0.47482E+07         0.00000E+00
    0.00000E+00         0.00000E+00         0.00000E+00
 
    0.49110E+07         0.38198E+06         0.00000E+00
    0.38198E+06        -0.47508E+07         0.00000E+00
    0.00000E+00         0.00000E+00         0.00000E+00
 
    0.47496E+07         0.48548E+06         0.00000E+00
    0.48548E+06        -0.47542E+07         0.00000E+00
    0.00000E+00         0.00000E+00         0.00000E+00
 
    0.45926E+07         0.58726E+06         0.00000E+00
    0.58726E+06        -0.47584E+07         0.00000E+00
    0.00000E+00         0.00000E+00         0.00000E+00
 
    0.44399E+07         0.68751E+06         0.00000E+00
    0.68751E+06        -0.47632E+07         0.00000E+00
    0.00000E+00         0.00000E+00         0.00000E+00
 
    0.42915E+07         0.78646E+06         0.00000E+00
    0.78646E+06        -0.47686E+07         0.00000E+00
    0.00000E+00         0.00000E+00         0.00000E+00
 
    0.41471E+07         0.88429E+06         0.00000E+00
    0.88429E+06        -0.47746E+07         0.00000E+00
    0.00000E+00         0.00000E+00         0.00000E+00
 
    0.40067E+07         0.98118E+06         0.00000E+00
    0.98118E+06        -0.47810E+07         0.00000E+00
    0.00000E+00         0.00000E+00         0.00000E+00
 
    0.38703E+07         0.10773E+07         0.00000E+00
    0.10773E+07        -0.47879E+07         0.00000E+00
    0.00000E+00         0.00000E+00         0.00000E+00
 
    0.37375E+07         0.11729E+07         0.00000E+00
    0.11729E+07        -0.47951E+07         0.00000E+00
    0.00000E+00         0.00000E+00         0.00000E+00
 
    0.36084E+07         0.12680E+07         0.00000E+00
    0.12680E+07        -0.48025E+07         0.00000E+00
    0.00000E+00         0.00000E+00         0.00000E+00
 
    0.34827E+07         0.13628E+07         0.00000E+00
    0.13628E+07        -0.48101E+07         0.00000E+00
    0.00000E+00         0.00000E+00         0.00000E+00
 
    0.33603E+07         0.14575E+07         0.00000E+00
    0.14575E+07        -0.48177E+07         0.00000E+00
    0.00000E+00         0.00000E+00         0.00000E+00
 
    0.32412E+07         0.15522E+07         0.00000E+00
    0.15522E+07        -0.48254E+07         0.00000E+00
    0.00000E+00         0.00000E+00         0.00000E+00
 
    0.31250E+07         0.16469E+07         0.00000E+00
    0.16469E+07        -0.48329E+07         0.00000E+00
    0.00000E+00         0.00000E+00         0.00000E+00
 
    0.30118E+07         0.17419E+07         0.00000E+00
    0.17419E+07        -0.48402E+07         0.00000E+00
    0.00000E+00         0.00000E+00         0.00000E+00
 
    0.29013E+07         0.18373E+07         0.00000E+00
    0.18373E+07        -0.48473E+07         0.00000E+00
    0.00000E+00         0.00000E+00         0.00000E+00
 
    0.27934E+07         0.19330E+07         0.00000E+00
    0.19330E+07        -0.48540E+07         0.00000E+00
    0.00000E+00         0.00000E+00         0.00000E+00
 
    0.26880E+07         0.20293E+07         0.00000E+00
    0.20293E+07        -0.48602E+07         0.00000E+00
    0.00000E+00         0.00000E+00         0.00000E+00
 
    0.25848E+07         0.21262E+07         0.00000E+00
    0.21262E+07        -0.48658E+07         0.00000E+00
    0.00000E+00         0.00000E+00         0.00000E+00
 
    0.24838E+07         0.22238E+07         0.00000E+00
    0.22238E+07        -0.48708E+07         0.00000E+00
    0.00000E+00         0.00000E+00         0.00000E+00
 
    0.23847E+07         0.23221E+07         0.00000E+00
    0.23221E+07        -0.48750E+07         0.00000E+00
    0.00000E+00         0.00000E+00         0.00000E+00
 
    0.22875E+07         0.24213E+07         0.00000E+00
    0.24213E+07        -0.48784E+07         0.00000E+00
    0.00000E+00         0.00000E+00         0.00000E+00
 
    0.21920E+07         0.25213E+07         0.00000E+00
    0.25213E+07        -0.48808E+07         0.00000E+00
    0.00000E+00         0.00000E+00         0.00000E+00
 
    0.20980E+07         0.26223E+07         0.00000E+00
    0.26223E+07        -0.48822E+07         0.00000E+00
    0.00000E+00         0.00000E+00         0.00000E+00
 
    0.20054E+07         0.27242E+07         0.00000E+00
    0.27242E+07        -0.48825E+07         0.00000E+00
    0.00000E+00         0.00000E+00         0.00000E+00
 
    0.19141E+07         0.28272E+07         0.00000E+00
    0.28272E+07        -0.48816E+07         0.00000E+00
    0.00000E+00         0.00000E+00         0.00000E+00
 
    0.18238E+07         0.29312E+07         0.00000E+00
    0.29312E+07        -0.48793E+07         0.00000E+00
    0.00000E+00         0.00000E+00         0.00000E+00
 
    0.17345E+07         0.30362E+07         0.00000E+00
    0.30362E+07        -0.48757E+07         0.00000E+00
    0.00000E+00         0.00000E+00         0.00000E+00
 
    0.16461E+07         0.31424E+07         0.00000E+00
    0.31424E+07        -0.48706E+07         0.00000E+00
    0.00000E+00         0.00000E+00         0.00000E+00
 
    0.15583E+07         0.32497E+07         0.00000E+00
    0.32497E+07        -0.48639E+07         0.00000E+00
    0.00000E+00         0.00000E+00         0.00000E+00
 
    0.14711E+07         0.33581E+07         0.00000E+00
    0.33581E+07        -0.48556E+07         0.00000E+00
    0.00000E+00         0.00000E+00         0.00000E+00
 
    0.13842E+07         0.34677E+07         0.00000E+00
    0.34677E+07        -0.48455E+07         0.00000E+00
    0.00000E+00         0.00000E+00         0.00000E+00
 
    0.12977E+07         0.35784E+07         0.00000E+00
    0.35784E+07        -0.48337E+07         0.00000E+00
    0.00000E+00         0.00000E+00         0.00000E+00
 
    0.12113E+07         0.36903E+07         0.00000E+00
    0.36903E+07        -0.48199E+07         0.00000E+00
    0.00000E+00         0.00000E+00         0.00000E+00
 
    0.11249E+07         0.38034E+07         0.00000E+00
    0.38034E+07        -0.48041E+07         0.00000E+00
    0.00000E+00         0.00000E+00         0.00000E+00
 
    0.10385E+07         0.39176E+07         0.00000E+00
    0.39176E+07        -0.47863E+07         0.00000E+00
    0.00000E+00         0.00000E+00         0.00000E+00
 
    0.95180E+06         0.40329E+07         0.00000E+00
    0.40329E+07        -0.47664E+07         0.00000E+00
    0.00000E+00         0.00000E+00         0.00000E+00
 
    0.86479E+06         0.41494E+07         0.00000E+00
    0.41494E+07        -0.47442E+07         0.00000E+00
    0.00000E+00         0.00000E+00         0.00000E+00
 
    0.77731E+06         0.42670E+07         0.00000E+00
    0.42670E+07        -0.47198E+07         0.00000E+00
    0.00000E+00         0.00000E+00         0.00000E+00
 
    0.68927E+06         0.43857E+07         0.00000E+00
    0.43857E+07        -0.46930E+07         0.00000E+00
    0.00000E+00         0.00000E+00         0.00000E+00
 
    0.60054E+06         0.45056E+07         0.00000E+00
    0.45056E+07        -0.46637E+07         0.00000E+00
    0.00000E+00         0.00000E+00         0.00000E+00
 
    0.51102E+06         0.46264E+07         0.00000E+00
    0.46264E+07        -0.46320E+07         0.00000E+00
    0.00000E+00         0.00000E+00         0.00000E+00
 
    0.42060E+06         0.47484E+07         0.00000E+00
    0.47484E+07        -0.45977E+07         0.00000E+00
    0.00000E+00         0.00000E+00         0.00000E+00
 
    0.32918E+06         0.48713E+07         0.00000E+00
    0.48713E+07        -0.45607E+07         0.00000E+00
    0.00000E+00         0.00000E+00         0.00000E+00
 
    0.23665E+06         0.49953E+07         0.00000E+00
    0.49953E+07        -0.45211E+07         0.00000E+00
    0.00000E+00         0.00000E+00         0.00000E+00
 
    0.14291E+06         0.51202E+07         0.00000E+00
    0.51202E+07        -0.44787E+07         0.00000E+00
    0.00000E+00         0.00000E+00         0.00000E+00
 
    0.47863E+05         0.52460E+07         0.00000E+00
    0.52460E+07        -0.44334E+07         0.00000E+00
    0.00000E+00         0.00000E+00         0.00000E+00
 
    0.52944E+07         0.55677E+05         0.00000E+00
    0.55677E+05        -0.54174E+07         0.00000E+00
    0.00000E+00         0.00000E+00         0.00000E+00
 
    0.51070E+07         0.15997E+06         0.00000E+00
    0.15997E+06        -0.54189E+07         0.00000E+00
    0.00000E+00         0.00000E+00         0.00000E+00
 
    0.49255E+07         0.26208E+06         0.00000E+00
    0.26208E+06        -0.54218E+07         0.00000E+00
    0.00000E+00         0.00000E+00         0.00000E+00
 
    0.47500E+07         0.36229E+06         0.00000E+00
    0.36229E+06        -0.54261E+07         0.00000E+00
    0.00000E+00         0.00000E+00         0.00000E+00
 
    0.45801E+07         0.46086E+06         0.00000E+00
    0.46086E+06        -0.54316E+07         0.00000E+00
    0.00000E+00         0.00000E+00         0.00000E+00
 
    0.44158E+07         0.55804E+06         0.00000E+00
    0.55804E+06        -0.54383E+07         0.00000E+00
    0.00000E+00         0.00000E+00         0.00000E+00
 
    0.42569E+07         0.65406E+06         0.00000E+00
    0.65406E+06        -0.54461E+07         0.00000E+00
    0.00000E+00         0.00000E+00         0.00000E+00
 
    0.41034E+07         0.74916E+06         0.00000E+00
    0.74916E+06        -0.54549E+07         0.00000E+00
    0.00000E+00         0.00000E+00         0.00000E+00
 
    0.39549E+07         0.84355E+06         0.00000E+00
    0.84355E+06        -0.54646E+07         0.00000E+00
    0.00000E+00         0.00000E+00         0.00000E+00
 
    0.38113E+07         0.93744E+06         0.00000E+00
    0.93744E+06        -0.54752E+07         0.00000E+00
    0.00000E+00         0.00000E+00         0.00000E+00
 
    0.36726E+07         0.10310E+07         0.00000E+00
    0.10310E+07        -0.54864E+07         0.00000E+00
    0.00000E+00         0.00000E+00         0.00000E+00
 
    0.35384E+07         0.11245E+07         0.00000E+00
    0.11245E+07        -0.54983E+07         0.00000E+00
    0.00000E+00         0.00000E+00         0.00000E+00
 
    0.34086E+07         0.12179E+07         0.00000E+00
    0.12179E+07        -0.55107E+07         0.00000E+00
    0.00000E+00         0.00000E+00         0.00000E+00
 
    0.32830E+07         0.13116E+07         0.00000E+00
    0.13116E+07        -0.55235E+07         0.00000E+00
    0.00000E+00         0.00000E+00         0.00000E+00
 
    0.31615E+07         0.14056E+07         0.00000E+00
    0.14056E+07        -0.55366E+07         0.00000E+00
    0.00000E+00         0.00000E+00         0.00000E+00
 
    0.30438E+07         0.15001E+07         0.00000E+00
    0.15001E+07        -0.55499E+07         0.00000E+00
    0.00000E+00         0.00000E+00         0.00000E+00
 
    0.29297E+07         0.15953E+07         0.00000E+00
    0.15953E+07        -0.55632E+07         0.00000E+00
    0.00000E+00         0.00000E+00         0.00000E+00
 
    0.28191E+07         0.16911E+07         0.00000E+00
    0.16911E+07        -0.55765E+07         0.00000E+00
    0.00000E+00         0.00000E+00         0.00000E+00
 
    0.27118E+07         0.17879E+07         0.00000E+00
    0.17879E+07        -0.55897E+07         0.00000E+00
    0.00000E+00         0.00000E+00         0.00000E+00
 
    0.26075E+07         0.18855E+07         0.00000E+00
    0.18855E+07        -0.56025E+07         0.00000E+00
    0.00000E+00         0.00000E+00         0.00000E+00
 
    0.25062E+07         0.19842E+07         0.00000E+00
    0.19842E+07        -0.56150E+07         0.00000E+00
    0.00000E+00         0.00000E+00         0.00000E+00
 
    0.24075E+07         0.20840E+07         0.00000E+00
    0.20840E+07        -0.56270E+07         0.00000E+00
    0.00000E+00         0.00000E+00         0.00000E+00
 
    0.23113E+07         0.21851E+07         0.00000E+00
    0.21851E+07        -0.56383E+07         0.00000E+00
    0.00000E+00         0.00000E+00         0.00000E+00
 
    0.22174E+07         0.22874E+07         0.00000E+00
    0.22874E+07        -0.56490E+07         0.00000E+00
    0.00000E+00         0.00000E+00         0.00000E+00
 
    0.21257E+07         0.23910E+07         0.00000E+00
    0.23910E+07        -0.56588E+07         0.00000E+00
    0.00000E+00         0.00000E+00         0.00000E+00
 
    0.20359E+07         0.24960E+07         0.00000E+00
    0.24960E+07        -0.56676E+07         0.00000E+00
    0.00000E+00         0.00000E+00         0.00000E+00
 
    0.19479E+07         0.26024E+07         0.00000E+00
    0.26024E+07        -0.56754E+07         0.00000E+00
    0.00000E+00         0.00000E+00         0.00000E+00
 
    0.18615E+07         0.27103E+07         0.00000E+00
    0.27103E+07        -0.56821E+07         0.00000E+00
    0.00000E+00         0.00000E+00         0.00000E+00
 
    0.17765E+07         0.28197E+07         0.00000E+00
    0.28197E+07        -0.56875E+07         0.00000E+00
    0.00000E+00         0.00000E+00         0.00000E+00
 
    0.16927E+07         0.29306E+07         0.00000E+00
    0.29306E+07        -0.56915E+07         0.00000E+00
    0.00000E+00         0.00000E+00         0.00000E+00
 
    0.16100E+07         0.30430E+07         0.00000E+00
    0.30430E+07        -0.56940E+07         0.00000E+00
    0.00000E+00         0.00000E+00         0.00000E+00
 
    0.15282E+07         0.31571E+07         0.00000E+00
    0.31571E+07        -0.56950E+07         0.00000E+00
    0.00000E+00         0.00000E+00         0.00000E+00
 
    0.14472E+07         0.32727E+07         0.00000E+00
    0.32727E+07        -0.56943E+07         0.00000E+00
    0.00000E+00         0.00000E+00         0.00000E+00
 
    0.13668E+07         0.33899E+07         0.00000E+00
    0.33899E+07        -0.56918E+07         0.00000E+00
    0.00000E+00         0.00000E+00         0.00000E+00
 
    0.12868E+07         0.35087E+07         0.00000E+00
    0.35087E+07        -0.56874E+07         0.00000E+00
    0.00000E+00         0.00000E+00         0.00000E+00
 
    0.12071E+07         0.36290E+07         0.00000E+00
    0.36290E+07        -0.56812E+07         0.00000E+00
    0.00000E+00         0.00000E+00         0.00000E+00
 
    0.11275E+07         0.37510E+07         0.00000E+00
    0.37510E+07        -0.56728E+07         0.00000E+00
    0.00000E+00         0.00000E+00         0.00000E+00
 
    0.10480E+07         0.38745E+07         0.00000E+00
    0.38745E+07        -0.56623E+07         0.00000E+00
    0.00000E+00         0.00000E+00         0.00000E+00
 
    0.96826E+06         0.39996E+07         0.00000E+00
    0.39996E+07        -0.56497E+07         0.00000E+00
    0.00000E+00         0.00000E+00         0.00000E+00
 
    0.88828E+06         0.41263E+07         0.00000E+00
    0.41263E+07        -0.56347E+07         0.00000E+00
    0.00000E+00         0.00000E+00         0.00000E+00
 
    0.80788E+06         0.42545E+07         0.00000E+00
    0.42545E+07        -0.56173E+07         0.00000E+00
    0.00000E+00         0.00000E+00         0.00000E+00
 
    0.72695E+06         0.43841E+07         0.00000E+00
    0.43841E+07        -0.55974E+07         0.00000E+00
    0.00000E+00         0.00000E+00         0.00000E+00
 
    0.64534E+06         0.45153E+07         0.00000E+00
    0.45153E+07        -0.55750E+07         0.00000E+00
    0.00000E+00         0.00000E+00         0.00000E+00
 
    0.56294E+06         0.46480E+07         0.00000E+00
    0.46480E+07        -0.55500E+07         0.00000E+00
    0.00000E+00         0.00000E+00         0.00000E+00
 
    0.47962E+06         0.47821E+07         0.00000E+00
    0.47821E+07        -0.55223E+07         0.00000E+00
    0.00000E+00         0.00000E+00         0.00000E+00
 
    0.39527E+06         0.49176E+07         0.00000E+00
    0.49176E+07        -0.54917E+07         0.00000E+00
    0.00000E+00         0.00000E+00         0.00000E+00
 
    0.30976E+06         0.50545E+07         0.00000E+00
    0.50545E+07        -0.54583E+07         0.00000E+00
    0.00000E+00         0.00000E+00         0.00000E+00
 
    0.22299E+06         0.51927E+07         0.00000E+00
    0.51927E+07        -0.54220E+07         0.00000E+00
    0.00000E+00         0.00000E+00         0.00000E+00
 
    0.13484E+06         0.53322E+07         0.00000E+00
    0.53322E+07        -0.53827E+07         0.00000E+00
    0.00000E+00         0.00000E+00         0.00000E+00
 
    0.45203E+05         0.54730E+07         0.00000E+00
    0.54730E+07        -0.53403E+07         0.00000E+00
    0.00000E+00         0.00000E+00         0.00000E+00
 
    0.50498E+07         0.50836E+05         0.00000E+00
    0.50836E+05        -0.61689E+07         0.00000E+00
    0.00000E+00         0.00000E+00         0.00000E+00
 
    0.48517E+07         0.14639E+06         0.00000E+00
    0.14639E+06        -0.61711E+07         0.00000E+00
    0.00000E+00         0.00000E+00         0.00000E+00
 
    0.46610E+07         0.24017E+06         0.00000E+00
    0.24017E+06        -0.61753E+07         0.00000E+00
    0.00000E+00         0.00000E+00         0.00000E+00
 
    0.44776E+07         0.33247E+06         0.00000E+00
    0.33247E+06        -0.61815E+07         0.00000E+00
    0.00000E+00         0.00000E+00         0.00000E+00
 
    0.43013E+07         0.42359E+06         0.00000E+00
    0.42359E+06        -0.61895E+07         0.00000E+00
    0.00000E+00         0.00000E+00         0.00000E+00
 
    0.41318E+07         0.51381E+06         0.00000E+00
    0.51381E+06        -0.61991E+07         0.00000E+00
    0.00000E+00         0.00000E+00         0.00000E+00
 
    0.39690E+07         0.60340E+06         0.00000E+00
    0.60340E+06        -0.62104E+07         0.00000E+00
    0.00000E+00         0.00000E+00         0.00000E+00
 
    0.38127E+07         0.69259E+06         0.00000E+00
    0.69259E+06        -0.62231E+07         0.00000E+00
    0.00000E+00         0.00000E+00         0.00000E+00
 
    0.36625E+07         0.78163E+06         0.00000E+00
    0.78163E+06        -0.62372E+07         0.00000E+00
    0.00000E+00         0.00000E+00         0.00000E+00
 
    0.35183E+07         0.87074E+06         0.00000E+00
    0.87074E+06        -0.62525E+07         0.00000E+00
    0.00000E+00         0.00000E+00         0.00000E+00
 
    0.33799E+07         0.96012E+06         0.00000E+00
    0.96012E+06        -0.62689E+07         0.00000E+00
    0.00000E+00         0.00000E+00         0.00000E+00
 
    0.32469E+07         0.10500E+07         0.00000E+00
    0.10500E+07        -0.62862E+07         0.00000E+00
    0.00000E+00         0.00000E+00         0.00000E+00
 
    0.31192E+07         0.11405E+07         0.00000E+00
    0.11405E+07        -0.63043E+07         0.00000E+00
    0.00000E+00         0.00000E+00         0.00000E+00
 
    0.29965E+07         0.12318E+07         0.00000E+00
    0.12318E+07        -0.63231E+07         0.00000E+00
    0.00000E+00         0.00000E+00         0.00000E+00
 
    0.28785E+07         0.13240E+07         0.00000E+00
    0.13240E+07        -0.63424E+07         0.00000E+00
    0.00000E+00         0.00000E+00         0.00000E+00
 
    0.27651E+07         0.14174E+07         0.00000E+00
    0.14174E+07        -0.63622E+07         0.00000E+00
    0.00000E+00         0.00000E+00         0.00000E+00
 
    0.26560E+07         0.15121E+07         0.00000E+00
    0.15121E+07        -0.63822E+07         0.00000E+00
    0.00000E+00         0.00000E+00         0.00000E+00
 
    0.25508E+07         0.16081E+07         0.00000E+00
    0.16081E+07        -0.64023E+07         0.00000E+00
    0.00000E+00         0.00000E+00         0.00000E+00
 
    0.24495E+07         0.17055E+07         0.00000E+00
    0.17055E+07        -0.64224E+07         0.00000E+00
    0.00000E+00         0.00000E+00         0.00000E+00
 
    0.23518E+07         0.18046E+07         0.00000E+00
    0.18046E+07        -0.64423E+07         0.00000E+00
    0.00000E+00         0.00000E+00         0.00000E+00
 
    0.22573E+07         0.19053E+07         0.00000E+00
    0.19053E+07        -0.64620E+07         0.00000E+00
    0.00000E+00         0.00000E+00         0.00000E+00
 
    0.21659E+07         0.20077E+07         0.00000E+00
    0.20077E+07        -0.64812E+07         0.00000E+00
    0.00000E+00         0.00000E+00         0.00000E+00
 
    0.20774E+07         0.21120E+07         0.00000E+00
    0.21120E+07        -0.64998E+07         0.00000E+00
    0.00000E+00         0.00000E+00         0.00000E+00
 
    0.19915E+07         0.22181E+07         0.00000E+00
    0.22181E+07        -0.65178E+07         0.00000E+00
    0.00000E+00         0.00000E+00         0.00000E+00
 
    0.19080E+07         0.23262E+07         0.00000E+00
    0.23262E+07        -0.65350E+07         0.00000E+00
    0.00000E+00         0.00000E+00         0.00000E+00
 
    0.18267E+07         0.24362E+07         0.00000E+00
    0.24362E+07        -0.65512E+07         0.00000E+00
    0.00000E+00         0.00000E+00         0.00000E+00
 
    0.17473E+07         0.25483E+07         0.00000E+00
    0.25483E+07        -0.65663E+07         0.00000E+00
    0.00000E+00         0.00000E+00         0.00000E+00
 
    0.16697E+07         0.26624E+07         0.00000E+00
    0.26624E+07        -0.65802E+07         0.00000E+00
    0.00000E+00         0.00000E+00         0.00000E+00
 
    0.15936E+07         0.27785E+07         0.00000E+00
    0.27785E+07        -0.65928E+07         0.00000E+00
    0.00000E+00         0.00000E+00         0.00000E+00
 
    0.15188E+07         0.28967E+07         0.00000E+00
    0.28967E+07        -0.66039E+07         0.00000E+00
    0.00000E+00         0.00000E+00         0.00000E+00
 
    0.14453E+07         0.30170E+07         0.00000E+00
    0.30170E+07        -0.66135E+07         0.00000E+00
    0.00000E+00         0.00000E+00         0.00000E+00
 
    0.13726E+07         0.31395E+07         0.00000E+00
    0.31395E+07        -0.66214E+07         0.00000E+00
    0.00000E+00         0.00000E+00         0.00000E+00
 
    0.13008E+07         0.32640E+07         0.00000E+00
    0.32640E+07        -0.66275E+07         0.00000E+00
    0.00000E+00         0.00000E+00         0.00000E+00
 
    0.12295E+07         0.33905E+07         0.00000E+00
    0.33905E+07        -0.66318E+07         0.00000E+00
    0.00000E+00         0.00000E+00         0.00000E+00
 
    0.11586E+07         0.35192E+07         0.00000E+00
    0.35192E+07        -0.66340E+07         0.00000E+00
    0.00000E+00         0.00000E+00         0.00000E+00
 
    0.10880E+07         0.36499E+07         0.00000E+00
    0.36499E+07        -0.66342E+07         0.00000E+00
    0.00000E+00         0.00000E+00         0.00000E+00
 
    0.10175E+07         0.37827E+07         0.00000E+00
    0.37827E+07        -0.66321E+07         0.00000E+00
    0.00000E+00         0.00000E+00         0.00000E+00
 
    0.94694E+06         0.39176E+07         0.00000E+00
    0.39176E+07        -0.66278E+07         0.00000E+00
    0.00000E+00         0.00000E+00         0.00000E+00
 
    0.87612E+06         0.40544E+07         0.00000E+00
    0.40544E+07        -0.66211E+07         0.00000E+00
    0.00000E+00         0.00000E+00         0.00000E+00
 
    0.80492E+06         0.41932E+07         0.00000E+00
    0.41932E+07        -0.66119E+07         0.00000E+00
    0.00000E+00         0.00000E+00         0.00000E+00
 
    0.73319E+06         0.43340E+07         0.00000E+00
    0.43340E+07        -0.66001E+07         0.00000E+00
    0.00000E+00         0.00000E+00         0.00000E+00
 
    0.66080E+06         0.44767E+07         0.00000E+00
    0.44767E+07        -0.65857E+07         0.00000E+00
    0.00000E+00         0.00000E+00         0.00000E+00
 
    0.58760E+06         0.46214E+07         0.00000E+00
    0.46214E+07        -0.65685E+07         0.00000E+00
    0.00000E+00         0.00000E+00         0.00000E+00
 
    0.51347E+06         0.47678E+07         0.00000E+00
    0.47678E+07        -0.65485E+07         0.00000E+00
    0.00000E+00         0.00000E+00         0.00000E+00
 
    0.43826E+06         0.49162E+07         0.00000E+00
    0.49162E+07        -0.65256E+07         0.00000E+00
    0.00000E+00         0.00000E+00         0.00000E+00
 
    0.36184E+06         0.50663E+07         0.00000E+00
    0.50663E+07        -0.64997E+07         0.00000E+00
    0.00000E+00         0.00000E+00         0.00000E+00
 
    0.28410E+06         0.52182E+07         0.00000E+00
    0.52182E+07        -0.64707E+07         0.00000E+00
    0.00000E+00         0.00000E+00         0.00000E+00
 
    0.20490E+06         0.53719E+07         0.00000E+00
    0.53719E+07        -0.64386E+07         0.00000E+00
    0.00000E+00         0.00000E+00         0.00000E+00
 
    0.12414E+06         0.55272E+07         0.00000E+00
    0.55272E+07        -0.64032E+07         0.00000E+00
    0.00000E+00         0.00000E+00         0.00000E+00
 
    0.41672E+05         0.56842E+07         0.00000E+00
    0.56842E+07        -0.63645E+07         0.00000E+00
    0.00000E+00         0.00000E+00         0.00000E+00
 
    0.46663E+07         0.43998E+05         0.00000E+00
    0.43998E+05        -0.70061E+07         0.00000E+00
    0.00000E+00         0.00000E+00         0.00000E+00
 
    0.44598E+07         0.12737E+06         0.00000E+00
    0.12737E+06        -0.70091E+07         0.00000E+00
    0.00000E+00         0.00000E+00         0.00000E+00
 
    0.42624E+07         0.20955E+06         0.00000E+00
    0.20955E+06        -0.70148E+07         0.00000E+00
    0.00000E+00         0.00000E+00         0.00000E+00
 
    0.40739E+07         0.29089E+06         0.00000E+00
    0.29089E+06        -0.70231E+07         0.00000E+00
    0.00000E+00         0.00000E+00         0.00000E+00
 
    0.38940E+07         0.37169E+06         0.00000E+00
    0.37169E+06        -0.70339E+07         0.00000E+00
    0.00000E+00         0.00000E+00         0.00000E+00
 
    0.37223E+07         0.45228E+06         0.00000E+00
    0.45228E+06        -0.70470E+07         0.00000E+00
    0.00000E+00         0.00000E+00         0.00000E+00
 
    0.35587E+07         0.53292E+06         0.00000E+00
    0.53292E+06        -0.70622E+07         0.00000E+00
    0.00000E+00         0.00000E+00         0.00000E+00
 
    0.34027E+07         0.61388E+06         0.00000E+00
    0.61388E+06        -0.70794E+07         0.00000E+00
    0.00000E+00         0.00000E+00         0.00000E+00
 
    0.32541E+07         0.69542E+06         0.00000E+00
    0.69542E+06        -0.70984E+07         0.00000E+00
    0.00000E+00         0.00000E+00         0.00000E+00
 
    0.31125E+07         0.77777E+06         0.00000E+00
    0.77777E+06        -0.71191E+07         0.00000E+00
    0.00000E+00         0.00000E+00         0.00000E+00
 
    0.29777E+07         0.86114E+06         0.00000E+00
    0.86114E+06        -0.71412E+07         0.00000E+00
    0.00000E+00         0.00000E+00         0.00000E+00
 
    0.28494E+07         0.94573E+06         0.00000E+00
    0.94573E+06        -0.71647E+07         0.00000E+00
    0.00000E+00         0.00000E+00         0.00000E+00
 
    0.27272E+07         0.10317E+07         0.00000E+00
    0.10317E+07        -0.71893E+07         0.00000E+00
    0.00000E+00         0.00000E+00         0.00000E+00
 
    0.26108E+07         0.11193E+07         0.00000E+00
    0.11193E+07        -0.72148E+07         0.00000E+00
    0.00000E+00         0.00000E+00         0.00000E+00
 
    0.24999E+07         0.12086E+07         0.00000E+00
    0.12086E+07        -0.72412E+07         0.00000E+00
    0.00000E+00         0.00000E+00         0.00000E+00
 
    0.23942E+07         0.12998E+07         0.00000E+00
    0.12998E+07        -0.72682E+07         0.00000E+00
    0.00000E+00         0.00000E+00         0.00000E+00
 
    0.22935E+07         0.13930E+07         0.00000E+00
    0.13930E+07        -0.72957E+07         0.00000E+00
    0.00000E+00         0.00000E+00         0.00000E+00
 
    0.21973E+07         0.14883E+07         0.00000E+00
    0.14883E+07        -0.73234E+07         0.00000E+00
    0.00000E+00         0.00000E+00         0.00000E+00
 
    0.21054E+07         0.15859E+07         0.00000E+00
    0.15859E+07        -0.73514E+07         0.00000E+00
    0.00000E+00         0.00000E+00         0.00000E+00
 
    0.20176E+07         0.16858E+07         0.00000E+00
    0.16858E+07        -0.73793E+07         0.00000E+00
    0.00000E+00         0.00000E+00         0.00000E+00
 
    0.19334E+07         0.17880E+07         0.00000E+00
    0.17880E+07        -0.74070E+07         0.00000E+00
    0.00000E+00         0.00000E+00         0.00000E+00
 
    0.18527E+07         0.18928E+07         0.00000E+00
    0.18928E+07        -0.74343E+07         0.00000E+00
    0.00000E+00         0.00000E+00         0.00000E+00
 
    0.17751E+07         0.20001E+07         0.00000E+00
    0.20001E+07        -0.74612E+07         0.00000E+00
    0.00000E+00         0.00000E+00         0.00000E+00
 
    0.17005E+07         0.21099E+07         0.00000E+00
    0.21099E+07        -0.74874E+07         0.00000E+00
    0.00000E+00         0.00000E+00         0.00000E+00
 
    0.16284E+07         0.22224E+07         0.00000E+00
    0.22224E+07        -0.75128E+07         0.00000E+00
    0.00000E+00         0.00000E+00         0.00000E+00
 
    0.15587E+07         0.23376E+07         0.00000E+00
    0.23376E+07        -0.75372E+07         0.00000E+00
    0.00000E+00         0.00000E+00         0.00000E+00
 
    0.14911E+07         0.24554E+07         0.00000E+00
    0.24554E+07        -0.75606E+07         0.00000E+00
    0.00000E+00         0.00000E+00         0.00000E+00
 
    0.14253E+07         0.25760E+07         0.00000E+00
    0.25760E+07        -0.75827E+07         0.00000E+00
    0.00000E+00         0.00000E+00         0.00000E+00
 
    0.13611E+07         0.26992E+07         0.00000E+00
    0.26992E+07        -0.76034E+07         0.00000E+00
    0.00000E+00         0.00000E+00         0.00000E+00
 
    0.12983E+07         0.28251E+07         0.00000E+00
    0.28251E+07        -0.76226E+07         0.00000E+00
    0.00000E+00         0.00000E+00         0.00000E+00
 
    0.12367E+07         0.29538E+07         0.00000E+00
    0.29538E+07        -0.76401E+07         0.00000E+00
    0.00000E+00         0.00000E+00         0.00000E+00
 
    0.11759E+07         0.30851E+07         0.00000E+00
    0.30851E+07        -0.76559E+07         0.00000E+00
    0.00000E+00         0.00000E+00         0.00000E+00
 
    0.11159E+07         0.32191E+07         0.00000E+00
    0.32191E+07        -0.76698E+07         0.00000E+00
    0.00000E+00         0.00000E+00         0.00000E+00
 
    0.10564E+07         0.33557E+07         0.00000E+00
    0.33557E+07        -0.76816E+07         0.00000E+00
    0.00000E+00         0.00000E+00         0.00000E+00
 
    0.99728E+06         0.34950E+07         0.00000E+00
    0.34950E+07        -0.76913E+07         0.00000E+00
    0.00000E+00         0.00000E+00         0.00000E+00
 
    0.93826E+06         0.36369E+07         0.00000E+00
    0.36369E+07        -0.76988E+07         0.00000E+00
    0.00000E+00         0.00000E+00         0.00000E+00
 
    0.87920E+06         0.37813E+07         0.00000E+00
    0.37813E+07        -0.77039E+07         0.00000E+00
    0.00000E+00         0.00000E+00         0.00000E+00
 
    0.81993E+06         0.39282E+07         0.00000E+00
    0.39282E+07        -0.77065E+07         0.00000E+00
    0.00000E+00         0.00000E+00         0.00000E+00
 
    0.76028E+06         0.40777E+07         0.00000E+00
    0.40777E+07        -0.77066E+07         0.00000E+00
    0.00000E+00         0.00000E+00         0.00000E+00
 
    0.70010E+06         0.42295E+07         0.00000E+00
    0.42295E+07        -0.77040E+07         0.00000E+00
    0.00000E+00         0.00000E+00         0.00000E+00
 
    0.63924E+06         0.43838E+07         0.00000E+00
    0.43838E+07        -0.76987E+07         0.00000E+00
    0.00000E+00         0.00000E+00         0.00000E+00
 
    0.57754E+06         0.45405E+07         0.00000E+00
    0.45405E+07        -0.76906E+07         0.00000E+00
    0.00000E+00         0.00000E+00         0.00000E+00
 
    0.51486E+06         0.46996E+07         0.00000E+00
    0.46996E+07        -0.76795E+07         0.00000E+00
    0.00000E+00         0.00000E+00         0.00000E+00
 
    0.45105E+06         0.48609E+07         0.00000E+00
    0.48609E+07        -0.76654E+07         0.00000E+00
    0.00000E+00         0.00000E+00         0.00000E+00
 
    0.38600E+06         0.50245E+07         0.00000E+00
    0.50245E+07        -0.76482E+07         0.00000E+00
    0.00000E+00         0.00000E+00         0.00000E+00
 
    0.31955E+06         0.51903E+07         0.00000E+00
    0.51903E+07        -0.76278E+07         0.00000E+00
    0.00000E+00         0.00000E+00         0.00000E+00
 
    0.25158E+06         0.53583E+07         0.00000E+00
    0.53583E+07        -0.76042E+07         0.00000E+00
    0.00000E+00         0.00000E+00         0.00000E+00
 
    0.18195E+06         0.55284E+07         0.00000E+00
    0.55284E+07        -0.75771E+07         0.00000E+00
    0.00000E+00         0.00000E+00         0.00000E+00
 
    0.11052E+06         0.57006E+07         0.00000E+00
    0.57006E+07        -0.75467E+07         0.00000E+00
    0.00000E+00         0.00000E+00         0.00000E+00
 
    0.37164E+05         0.58749E+07         0.00000E+00
    0.58749E+07        -0.75127E+07         0.00000E+00
    0.00000E+00         0.00000E+00         0.00000E+00
 
    0.41191E+07         0.34851E+05         0.00000E+00
    0.34851E+05        -0.79347E+07         0.00000E+00
    0.00000E+00         0.00000E+00         0.00000E+00
 
    0.39077E+07         0.10212E+06         0.00000E+00
    0.10212E+06        -0.79386E+07         0.00000E+00
    0.00000E+00         0.00000E+00         0.00000E+00
 
    0.37073E+07         0.16904E+06         0.00000E+00
    0.16904E+06        -0.79461E+07         0.00000E+00
    0.00000E+00         0.00000E+00         0.00000E+00
 
    0.35174E+07         0.23597E+06         0.00000E+00
    0.23597E+06        -0.79569E+07         0.00000E+00
    0.00000E+00         0.00000E+00         0.00000E+00
 
    0.33377E+07         0.30326E+06         0.00000E+00
    0.30326E+06        -0.79708E+07         0.00000E+00
    0.00000E+00         0.00000E+00         0.00000E+00
 
    0.31678E+07         0.37122E+06         0.00000E+00
    0.37122E+06        -0.79877E+07         0.00000E+00
    0.00000E+00         0.00000E+00         0.00000E+00
 
    0.30073E+07         0.44016E+06         0.00000E+00
    0.44016E+06        -0.80073E+07         0.00000E+00
    0.00000E+00         0.00000E+00         0.00000E+00
 
    0.28558E+07         0.51034E+06         0.00000E+00
    0.51034E+06        -0.80294E+07         0.00000E+00
    0.00000E+00         0.00000E+00         0.00000E+00
 
    0.27129E+07         0.58202E+06         0.00000E+00
    0.58202E+06        -0.80539E+07         0.00000E+00
    0.00000E+00         0.00000E+00         0.00000E+00
 
    0.25782E+07         0.65544E+06         0.00000E+00
    0.65544E+06        -0.80805E+07         0.00000E+00
    0.00000E+00         0.00000E+00         0.00000E+00
 
    0.24513E+07         0.73081E+06         0.00000E+00
    0.73081E+06        -0.81089E+07         0.00000E+00
    0.00000E+00         0.00000E+00         0.00000E+00
 
    0.23318E+07         0.80834E+06         0.00000E+00
    0.80834E+06        -0.81391E+07         0.00000E+00
    0.00000E+00         0.00000E+00         0.00000E+00
 
    0.22193E+07         0.88820E+06         0.00000E+00
    0.88820E+06        -0.81708E+07         0.00000E+00
    0.00000E+00         0.00000E+00         0.00000E+00
 
    0.21134E+07         0.97058E+06         0.00000E+00
    0.97058E+06        -0.82038E+07         0.00000E+00
    0.00000E+00         0.00000E+00         0.00000E+00
 
    0.20138E+07         0.10556E+07         0.00000E+00
    0.10556E+07        -0.82379E+07         0.00000E+00
    0.00000E+00         0.00000E+00         0.00000E+00
 
    0.19200E+07         0.11434E+07         0.00000E+00
    0.11434E+07        -0.82729E+07         0.00000E+00
    0.00000E+00         0.00000E+00         0.00000E+00
 
    0.18318E+07         0.12342E+07         0.00000E+00
    0.12342E+07        -0.83086E+07         0.00000E+00
    0.00000E+00         0.00000E+00         0.00000E+00
 
    0.17487E+07         0.13279E+07         0.00000E+00
    0.13279E+07        -0.83448E+07         0.00000E+00
    0.00000E+00         0.00000E+00         0.00000E+00
 
    0.16703E+07         0.14248E+07         0.00000E+00
    0.14248E+07        -0.83813E+07         0.00000E+00
    0.00000E+00         0.00000E+00         0.00000E+00
 
    0.15964E+07         0.15248E+07         0.00000E+00
    0.15248E+07        -0.84179E+07         0.00000E+00
    0.00000E+00         0.00000E+00         0.00000E+00
 
    0.15265E+07         0.16282E+07         0.00000E+00
    0.16282E+07        -0.84545E+07         0.00000E+00
    0.00000E+00         0.00000E+00         0.00000E+00
 
    0.14604E+07         0.17348E+07         0.00000E+00
    0.17348E+07        -0.84908E+07         0.00000E+00
    0.00000E+00         0.00000E+00         0.00000E+00
 
    0.13977E+07         0.18449E+07         0.00000E+00
    0.18449E+07        -0.85267E+07         0.00000E+00
    0.00000E+00         0.00000E+00         0.00000E+00
 
    0.13380E+07         0.19583E+07         0.00000E+00
    0.19583E+07        -0.85621E+07         0.00000E+00
    0.00000E+00         0.00000E+00         0.00000E+00
 
    0.12811E+07         0.20752E+07         0.00000E+00
    0.20752E+07        -0.85966E+07         0.00000E+00
    0.00000E+00         0.00000E+00         0.00000E+00
 
    0.12267E+07         0.21955E+07         0.00000E+00
    0.21955E+07        -0.86302E+07         0.00000E+00
    0.00000E+00         0.00000E+00         0.00000E+00
 
    0.11744E+07         0.23192E+07         0.00000E+00
    0.23192E+07        -0.86627E+07         0.00000E+00
    0.00000E+00         0.00000E+00         0.00000E+00
 
    0.11239E+07         0.24464E+07         0.00000E+00
    0.24464E+07        -0.86939E+07         0.00000E+00
    0.00000E+00         0.00000E+00         0.00000E+00
 
    0.10750E+07         0.25771E+07         0.00000E+00
    0.25771E+07        -0.87236E+07         0.00000E+00
    0.00000E+00         0.00000E+00         0.00000E+00
 
    0.10275E+07         0.27112E+07         0.00000E+00
    0.27112E+07        -0.87518E+07         0.00000E+00
    0.00000E+00         0.00000E+00         0.00000E+00
 
    0.98095E+06         0.28486E+07         0.00000E+00
    0.28486E+07        -0.87783E+07         0.00000E+00
    0.00000E+00         0.00000E+00         0.00000E+00
 
    0.93523E+06         0.29894E+07         0.00000E+00
    0.29894E+07        -0.88028E+07         0.00000E+00
    0.00000E+00         0.00000E+00         0.00000E+00
 
    0.89008E+06         0.31336E+07         0.00000E+00
    0.31336E+07        -0.88254E+07         0.00000E+00
    0.00000E+00         0.00000E+00         0.00000E+00
 
    0.84527E+06         0.32810E+07         0.00000E+00
    0.32810E+07        -0.88458E+07         0.00000E+00
    0.00000E+00         0.00000E+00         0.00000E+00
 
    0.80059E+06         0.34316E+07         0.00000E+00
    0.34316E+07        -0.88639E+07         0.00000E+00
    0.00000E+00         0.00000E+00         0.00000E+00
 
    0.75583E+06         0.35854E+07         0.00000E+00
    0.35854E+07        -0.88796E+07         0.00000E+00
    0.00000E+00         0.00000E+00         0.00000E+00
 
    0.71081E+06         0.37422E+07         0.00000E+00
    0.37422E+07        -0.88927E+07         0.00000E+00
    0.00000E+00         0.00000E+00         0.00000E+00
 
    0.66535E+06         0.39022E+07         0.00000E+00
    0.39022E+07        -0.89033E+07         0.00000E+00
    0.00000E+00         0.00000E+00         0.00000E+00
 
    0.61928E+06         0.40651E+07         0.00000E+00
    0.40651E+07        -0.89111E+07         0.00000E+00
    0.00000E+00         0.00000E+00         0.00000E+00
 
    0.57245E+06         0.42309E+07         0.00000E+00
    0.42309E+07        -0.89160E+07         0.00000E+00
    0.00000E+00         0.00000E+00         0.00000E+00
 
    0.52471E+06         0.43996E+07         0.00000E+00
    0.43996E+07        -0.89181E+07         0.00000E+00
    0.00000E+00         0.00000E+00         0.00000E+00
 
    0.47592E+06         0.45712E+07         0.00000E+00
    0.45712E+07        -0.89171E+07         0.00000E+00
    0.00000E+00         0.00000E+00         0.00000E+00
 
    0.42594E+06         0.47455E+07         0.00000E+00
    0.47455E+07        -0.89130E+07         0.00000E+00
    0.00000E+00         0.00000E+00         0.00000E+00
 
    0.37465E+06         0.49225E+07         0.00000E+00
    0.49225E+07        -0.89057E+07         0.00000E+00
    0.00000E+00         0.00000E+00         0.00000E+00
 
    0.32190E+06         0.51023E+07         0.00000E+00
    0.51023E+07        -0.88952E+07         0.00000E+00
    0.00000E+00         0.00000E+00         0.00000E+00
 
    0.26754E+06         0.52848E+07         0.00000E+00
    0.52848E+07        -0.88813E+07         0.00000E+00
    0.00000E+00         0.00000E+00         0.00000E+00
 
    0.21144E+06         0.54698E+07         0.00000E+00
    0.54698E+07        -0.88639E+07         0.00000E+00
    0.00000E+00         0.00000E+00         0.00000E+00
 
    0.15352E+06         0.56573E+07         0.00000E+00
    0.56573E+07        -0.88430E+07         0.00000E+00
    0.00000E+00         0.00000E+00         0.00000E+00
 
    0.93655E+05         0.58474E+07         0.00000E+00
    0.58474E+07        -0.88185E+07         0.00000E+00
    0.00000E+00         0.00000E+00         0.00000E+00
 
    0.31616E+05         0.60402E+07         0.00000E+00
    0.60402E+07        -0.87903E+07         0.00000E+00
    0.00000E+00         0.00000E+00         0.00000E+00
 
    0.33814E+07         0.23107E+05         0.00000E+00
    0.23107E+05        -0.89602E+07         0.00000E+00
    0.00000E+00         0.00000E+00         0.00000E+00
 
    0.31700E+07         0.69954E+05         0.00000E+00
    0.69954E+05        -0.89651E+07         0.00000E+00
    0.00000E+00         0.00000E+00         0.00000E+00
 
    0.29714E+07         0.11759E+06         0.00000E+00
    0.11759E+06        -0.89744E+07         0.00000E+00
    0.00000E+00         0.00000E+00         0.00000E+00
 
    0.27853E+07         0.16639E+06         0.00000E+00
    0.16639E+06        -0.89879E+07         0.00000E+00
    0.00000E+00         0.00000E+00         0.00000E+00
 
    0.26110E+07         0.21670E+06         0.00000E+00
    0.21670E+06        -0.90052E+07         0.00000E+00
    0.00000E+00         0.00000E+00         0.00000E+00
 
    0.24480E+07         0.26884E+06         0.00000E+00
    0.26884E+06        -0.90262E+07         0.00000E+00
    0.00000E+00         0.00000E+00         0.00000E+00
 
    0.22958E+07         0.32311E+06         0.00000E+00
    0.32311E+06        -0.90505E+07         0.00000E+00
    0.00000E+00         0.00000E+00         0.00000E+00
 
    0.21539E+07         0.37978E+06         0.00000E+00
    0.37978E+06        -0.90779E+07         0.00000E+00
    0.00000E+00         0.00000E+00         0.00000E+00
 
    0.20219E+07         0.43909E+06         0.00000E+00
    0.43909E+06        -0.91082E+07         0.00000E+00
    0.00000E+00         0.00000E+00         0.00000E+00
 
    0.18992E+07         0.50128E+06         0.00000E+00
    0.50128E+06        -0.91410E+07         0.00000E+00
    0.00000E+00         0.00000E+00         0.00000E+00
 
    0.17852E+07         0.56655E+06         0.00000E+00
    0.56655E+06        -0.91763E+07         0.00000E+00
    0.00000E+00         0.00000E+00         0.00000E+00
 
    0.16797E+07         0.63509E+06         0.00000E+00
    0.63509E+06        -0.92136E+07         0.00000E+00
    0.00000E+00         0.00000E+00         0.00000E+00
 
    0.15819E+07         0.70708E+06         0.00000E+00
    0.70708E+06        -0.92529E+07         0.00000E+00
    0.00000E+00         0.00000E+00         0.00000E+00
 
    0.14916E+07         0.78266E+06         0.00000E+00
    0.78266E+06        -0.92937E+07         0.00000E+00
    0.00000E+00         0.00000E+00         0.00000E+00
 
    0.14082E+07         0.86198E+06         0.00000E+00
    0.86198E+06        -0.93360E+07         0.00000E+00
    0.00000E+00         0.00000E+00         0.00000E+00
 
    0.13313E+07         0.94514E+06         0.00000E+00
    0.94514E+06        -0.93795E+07         0.00000E+00
    0.00000E+00         0.00000E+00         0.00000E+00
 
    0.12604E+07         0.10323E+07         0.00000E+00
    0.10323E+07        -0.94239E+07         0.00000E+00
    0.00000E+00         0.00000E+00         0.00000E+00
 
    0.11952E+07         0.11234E+07         0.00000E+00
    0.11234E+07        -0.94690E+07         0.00000E+00
    0.00000E+00         0.00000E+00         0.00000E+00
 
    0.11351E+07         0.12188E+07         0.00000E+00
    0.12188E+07        -0.95147E+07         0.00000E+00
    0.00000E+00         0.00000E+00         0.00000E+00
 
    0.10797E+07         0.13183E+07         0.00000E+00
    0.13183E+07        -0.95606E+07         0.00000E+00
    0.00000E+00         0.00000E+00         0.00000E+00
 
    0.10287E+07         0.14220E+07         0.00000E+00
    0.14220E+07        -0.96067E+07         0.00000E+00
    0.00000E+00         0.00000E+00         0.00000E+00
 
    0.98166E+06         0.15300E+07         0.00000E+00
    0.15300E+07        -0.96526E+07         0.00000E+00
    0.00000E+00         0.00000E+00         0.00000E+00
 
    0.93817E+06         0.16424E+07         0.00000E+00
    0.16424E+07        -0.96983E+07         0.00000E+00
    0.00000E+00         0.00000E+00         0.00000E+00
 
    0.89786E+06         0.17591E+07         0.00000E+00
    0.17591E+07        -0.97434E+07         0.00000E+00
    0.00000E+00         0.00000E+00         0.00000E+00
 
    0.86036E+06         0.18801E+07         0.00000E+00
    0.18801E+07        -0.97878E+07         0.00000E+00
    0.00000E+00         0.00000E+00         0.00000E+00
 
    0.82532E+06         0.20055E+07         0.00000E+00
    0.20055E+07        -0.98314E+07         0.00000E+00
    0.00000E+00         0.00000E+00         0.00000E+00
 
    0.79238E+06         0.21352E+07         0.00000E+00
    0.21352E+07        -0.98739E+07         0.00000E+00
    0.00000E+00         0.00000E+00         0.00000E+00
 
    0.76122E+06         0.22692E+07         0.00000E+00
    0.22692E+07        -0.99151E+07         0.00000E+00
    0.00000E+00         0.00000E+00         0.00000E+00
 
    0.73150E+06         0.24074E+07         0.00000E+00
    0.24074E+07        -0.99549E+07         0.00000E+00
    0.00000E+00         0.00000E+00         0.00000E+00
 
    0.70292E+06         0.25499E+07         0.00000E+00
    0.25499E+07        -0.99930E+07         0.00000E+00
    0.00000E+00         0.00000E+00         0.00000E+00
 
    0.67517E+06         0.26966E+07         0.00000E+00
    0.26966E+07        -0.10029E+08         0.00000E+00
    0.00000E+00         0.00000E+00         0.00000E+00
 
    0.64797E+06         0.28474E+07         0.00000E+00
    0.28474E+07        -0.10064E+08         0.00000E+00
    0.00000E+00         0.00000E+00         0.00000E+00
 
    0.62106E+06         0.30023E+07         0.00000E+00
    0.30023E+07        -0.10096E+08         0.00000E+00
    0.00000E+00         0.00000E+00         0.00000E+00
 
    0.59417E+06         0.31611E+07         0.00000E+00
    0.31611E+07        -0.10126E+08         0.00000E+00
    0.00000E+00         0.00000E+00         0.00000E+00
 
    0.56706E+06         0.33238E+07         0.00000E+00
    0.33238E+07        -0.10154E+08         0.00000E+00
    0.00000E+00         0.00000E+00         0.00000E+00
 
    0.53952E+06         0.34903E+07         0.00000E+00
    0.34903E+07        -0.10179E+08         0.00000E+00
    0.00000E+00         0.00000E+00         0.00000E+00
 
    0.51134E+06         0.36606E+07         0.00000E+00
    0.36606E+07        -0.10201E+08         0.00000E+00
    0.00000E+00         0.00000E+00         0.00000E+00
 
    0.48233E+06         0.38344E+07         0.00000E+00
    0.38344E+07        -0.10221E+08         0.00000E+00
    0.00000E+00         0.00000E+00         0.00000E+00
 
    0.45234E+06         0.40118E+07         0.00000E+00
    0.40118E+07        -0.10238E+08         0.00000E+00
    0.00000E+00         0.00000E+00         0.00000E+00
 
    0.42121E+06         0.41925E+07         0.00000E+00
    0.41925E+07        -0.10251E+08         0.00000E+00
    0.00000E+00         0.00000E+00         0.00000E+00
 
    0.38883E+06         0.43766E+07         0.00000E+00
    0.43766E+07        -0.10262E+08         0.00000E+00
    0.00000E+00         0.00000E+00         0.00000E+00
 
    0.35507E+06         0.45640E+07         0.00000E+00
    0.45640E+07        -0.10269E+08         0.00000E+00
    0.00000E+00         0.00000E+00         0.00000E+00
 
    0.31983E+06         0.47545E+07         0.00000E+00
    0.47545E+07        -0.10273E+08         0.00000E+00
    0.00000E+00         0.00000E+00         0.00000E+00
 
    0.28306E+06         0.49481E+07         0.00000E+00
    0.49481E+07        -0.10273E+08         0.00000E+00
    0.00000E+00         0.00000E+00         0.00000E+00
 
    0.24472E+06         0.51447E+07         0.00000E+00
    0.51447E+07        -0.10270E+08         0.00000E+00
    0.00000E+00         0.00000E+00         0.00000E+00
 
    0.20475E+06         0.53443E+07         0.00000E+00
    0.53443E+07        -0.10264E+08         0.00000E+00
    0.00000E+00         0.00000E+00         0.00000E+00
 
    0.16296E+06         0.55473E+07         0.00000E+00
    0.55473E+07        -0.10254E+08         0.00000E+00
    0.00000E+00         0.00000E+00         0.00000E+00
 
    0.11906E+06         0.57533E+07         0.00000E+00
    0.57533E+07        -0.10241E+08         0.00000E+00
    0.00000E+00         0.00000E+00         0.00000E+00
 
    0.72815E+05         0.59625E+07         0.00000E+00
    0.59625E+07        -0.10223E+08         0.00000E+00
    0.00000E+00         0.00000E+00         0.00000E+00
 
    0.24538E+05         0.61739E+07         0.00000E+00
    0.61739E+07        -0.10202E+08         0.00000E+00
    0.00000E+00         0.00000E+00         0.00000E+00
 
    0.24253E+07         0.85527E+04         0.00000E+00
    0.85527E+04        -0.10087E+08         0.00000E+00
    0.00000E+00         0.00000E+00         0.00000E+00
 
    0.22205E+07         0.30416E+05         0.00000E+00
    0.30416E+05        -0.10093E+08         0.00000E+00
    0.00000E+00         0.00000E+00         0.00000E+00
 
    0.20304E+07         0.54561E+05         0.00000E+00
    0.54561E+05        -0.10104E+08         0.00000E+00
    0.00000E+00         0.00000E+00         0.00000E+00
 
    0.18545E+07         0.81349E+05         0.00000E+00
    0.81349E+05        -0.10121E+08         0.00000E+00
    0.00000E+00         0.00000E+00         0.00000E+00
 
    0.16920E+07         0.11111E+06         0.00000E+00
    0.11111E+06        -0.10141E+08         0.00000E+00
    0.00000E+00         0.00000E+00         0.00000E+00
 
    0.15424E+07         0.14414E+06         0.00000E+00
    0.14414E+06        -0.10167E+08         0.00000E+00
    0.00000E+00         0.00000E+00         0.00000E+00
 
    0.14050E+07         0.18073E+06         0.00000E+00
    0.18073E+06        -0.10196E+08         0.00000E+00
    0.00000E+00         0.00000E+00         0.00000E+00
 
    0.12791E+07         0.22111E+06         0.00000E+00
    0.22111E+06        -0.10228E+08         0.00000E+00
    0.00000E+00         0.00000E+00         0.00000E+00
 
    0.11642E+07         0.26551E+06         0.00000E+00
    0.26551E+06        -0.10265E+08         0.00000E+00
    0.00000E+00         0.00000E+00         0.00000E+00
 
    0.10596E+07         0.31414E+06         0.00000E+00
    0.31414E+06        -0.10304E+08         0.00000E+00
    0.00000E+00         0.00000E+00         0.00000E+00
 
    0.96477E+06         0.36717E+06         0.00000E+00
    0.36717E+06        -0.10346E+08         0.00000E+00
    0.00000E+00         0.00000E+00         0.00000E+00
 
    0.87910E+06         0.42478E+06         0.00000E+00
    0.42478E+06        -0.10390E+08         0.00000E+00
    0.00000E+00         0.00000E+00         0.00000E+00
 
    0.80205E+06         0.48709E+06         0.00000E+00
    0.48709E+06        -0.10437E+08         0.00000E+00
    0.00000E+00         0.00000E+00         0.00000E+00
 
    0.73305E+06         0.55424E+06         0.00000E+00
    0.55424E+06        -0.10486E+08         0.00000E+00
    0.00000E+00         0.00000E+00         0.00000E+00
 
    0.67156E+06         0.62635E+06         0.00000E+00
    0.62635E+06        -0.10536E+08         0.00000E+00
    0.00000E+00         0.00000E+00         0.00000E+00
 
    0.61706E+06         0.70349E+06         0.00000E+00
    0.70349E+06        -0.10588E+08         0.00000E+00
    0.00000E+00         0.00000E+00         0.00000E+00
 
    0.56903E+06         0.78576E+06         0.00000E+00
    0.78576E+06        -0.10642E+08         0.00000E+00
    0.00000E+00         0.00000E+00         0.00000E+00
 
    0.52696E+06         0.87322E+06         0.00000E+00
    0.87322E+06        -0.10696E+08         0.00000E+00
    0.00000E+00         0.00000E+00         0.00000E+00
 
    0.49037E+06         0.96593E+06         0.00000E+00
    0.96593E+06        -0.10751E+08         0.00000E+00
    0.00000E+00         0.00000E+00         0.00000E+00
 
    0.45878E+06         0.10639E+07         0.00000E+00
    0.10639E+07        -0.10806E+08         0.00000E+00
    0.00000E+00         0.00000E+00         0.00000E+00
 
    0.43172E+06         0.11672E+07         0.00000E+00
    0.11672E+07        -0.10862E+08         0.00000E+00
    0.00000E+00         0.00000E+00         0.00000E+00
 
    0.40873E+06         0.12759E+07         0.00000E+00
    0.12759E+07        -0.10918E+08         0.00000E+00
    0.00000E+00         0.00000E+00         0.00000E+00
 
    0.38938E+06         0.13899E+07         0.00000E+00
    0.13899E+07        -0.10973E+08         0.00000E+00
    0.00000E+00         0.00000E+00         0.00000E+00
 
    0.37322E+06         0.15092E+07         0.00000E+00
    0.15092E+07        -0.11029E+08         0.00000E+00
    0.00000E+00         0.00000E+00         0.00000E+00
 
    0.35984E+06         0.16339E+07         0.00000E+00
    0.16339E+07        -0.11084E+08         0.00000E+00
    0.00000E+00         0.00000E+00         0.00000E+00
 
    0.34884E+06         0.17639E+07         0.00000E+00
    0.17639E+07        -0.11138E+08         0.00000E+00
    0.00000E+00         0.00000E+00         0.00000E+00
 
    0.33980E+06         0.18992E+07         0.00000E+00
    0.18992E+07        -0.11191E+08         0.00000E+00
    0.00000E+00         0.00000E+00         0.00000E+00
 
    0.33236E+06         0.20397E+07         0.00000E+00
    0.20397E+07        -0.11243E+08         0.00000E+00
    0.00000E+00         0.00000E+00         0.00000E+00
 
    0.32614E+06         0.21854E+07         0.00000E+00
    0.21854E+07        -0.11293E+08         0.00000E+00
    0.00000E+00         0.00000E+00         0.00000E+00
 
    0.32078E+06         0.23362E+07         0.00000E+00
    0.23362E+07        -0.11343E+08         0.00000E+00
    0.00000E+00         0.00000E+00         0.00000E+00
 
    0.31593E+06         0.24922E+07         0.00000E+00
    0.24922E+07        -0.11390E+08         0.00000E+00
    0.00000E+00         0.00000E+00         0.00000E+00
 
    0.31127E+06         0.26531E+07         0.00000E+00
    0.26531E+07        -0.11435E+08         0.00000E+00
    0.00000E+00         0.00000E+00         0.00000E+00
 
    0.30648E+06         0.28189E+07         0.00000E+00
    0.28189E+07        -0.11479E+08         0.00000E+00
    0.00000E+00         0.00000E+00         0.00000E+00
 
    0.30126E+06         0.29895E+07         0.00000E+00
    0.29895E+07        -0.11520E+08         0.00000E+00
    0.00000E+00         0.00000E+00         0.00000E+00
 
    0.29533E+06         0.31647E+07         0.00000E+00
    0.31647E+07        -0.11559E+08         0.00000E+00
    0.00000E+00         0.00000E+00         0.00000E+00
 
    0.28845E+06         0.33446E+07         0.00000E+00
    0.33446E+07        -0.11595E+08         0.00000E+00
    0.00000E+00         0.00000E+00         0.00000E+00
 
    0.28037E+06         0.35289E+07         0.00000E+00
    0.35289E+07        -0.11629E+08         0.00000E+00
    0.00000E+00         0.00000E+00         0.00000E+00
 
    0.27088E+06         0.37176E+07         0.00000E+00
    0.37176E+07        -0.11659E+08         0.00000E+00
    0.00000E+00         0.00000E+00         0.00000E+00
 
    0.25977E+06         0.39104E+07         0.00000E+00
    0.39104E+07        -0.11687E+08         0.00000E+00
    0.00000E+00         0.00000E+00         0.00000E+00
 
    0.24689E+06         0.41073E+07         0.00000E+00
    0.41073E+07        -0.11711E+08         0.00000E+00
    0.00000E+00         0.00000E+00         0.00000E+00
 
    0.23216E+06         0.43079E+07         0.00000E+00
    0.43079E+07        -0.11732E+08         0.00000E+00
    0.00000E+00         0.00000E+00         0.00000E+00
 
    0.21556E+06         0.45123E+07         0.00000E+00
    0.45123E+07        -0.11749E+08         0.00000E+00
    0.00000E+00         0.00000E+00         0.00000E+00
 
    0.19704E+06         0.47202E+07         0.00000E+00
    0.47202E+07        -0.11763E+08         0.00000E+00
    0.00000E+00         0.00000E+00         0.00000E+00
 
    0.17649E+06         0.49317E+07         0.00000E+00
    0.49317E+07        -0.11773E+08         0.00000E+00
    0.00000E+00         0.00000E+00         0.00000E+00
 
    0.15382E+06         0.51466E+07         0.00000E+00
    0.51466E+07        -0.11779E+08         0.00000E+00
    0.00000E+00         0.00000E+00         0.00000E+00
 
    0.12912E+06         0.53644E+07         0.00000E+00
    0.53644E+07        -0.11781E+08         0.00000E+00
    0.00000E+00         0.00000E+00         0.00000E+00
 
    0.10296E+06         0.55846E+07         0.00000E+00
    0.55846E+07        -0.11779E+08         0.00000E+00
    0.00000E+00         0.00000E+00         0.00000E+00
 
    0.75867E+05         0.58080E+07         0.00000E+00
    0.58080E+07        -0.11774E+08         0.00000E+00
    0.00000E+00         0.00000E+00         0.00000E+00
 
    0.47878E+05         0.60352E+07         0.00000E+00
    0.60352E+07        -0.11767E+08         0.00000E+00
    0.00000E+00         0.00000E+00         0.00000E+00
 
    0.16824E+05         0.62697E+07         0.00000E+00
    0.62697E+07        -0.11757E+08         0.00000E+00
    0.00000E+00         0.00000E+00         0.00000E+00
 
    0.12234E+07        -0.88728E+04         0.00000E+00
   -0.88728E+04        -0.11320E+08         0.00000E+00
    0.00000E+00         0.00000E+00         0.00000E+00
 
    0.10336E+07        -0.16525E+05         0.00000E+00
   -0.16525E+05        -0.11327E+08         0.00000E+00
    0.00000E+00         0.00000E+00         0.00000E+00
 
    0.86037E+06        -0.20012E+05         0.00000E+00
   -0.20012E+05        -0.11340E+08         0.00000E+00
    0.00000E+00         0.00000E+00         0.00000E+00
 
    0.70289E+06        -0.19017E+05         0.00000E+00
   -0.19017E+05        -0.11358E+08         0.00000E+00
    0.00000E+00         0.00000E+00         0.00000E+00
 
    0.56036E+06        -0.13256E+05         0.00000E+00
   -0.13256E+05        -0.11382E+08         0.00000E+00
    0.00000E+00         0.00000E+00         0.00000E+00
 
    0.43198E+06        -0.24745E+04         0.00000E+00
   -0.24745E+04        -0.11412E+08         0.00000E+00
    0.00000E+00         0.00000E+00         0.00000E+00
 
    0.31698E+06         0.13553E+05         0.00000E+00
    0.13553E+05        -0.11445E+08         0.00000E+00
    0.00000E+00         0.00000E+00         0.00000E+00
 
    0.21462E+06         0.35026E+05         0.00000E+00
    0.35026E+05        -0.11483E+08         0.00000E+00
    0.00000E+00         0.00000E+00         0.00000E+00
 
    0.12415E+06         0.62122E+05         0.00000E+00
    0.62122E+05        -0.11525E+08         0.00000E+00
    0.00000E+00         0.00000E+00         0.00000E+00
 
    0.44878E+05         0.94995E+05         0.00000E+00
    0.94995E+05        -0.11570E+08         0.00000E+00
    0.00000E+00         0.00000E+00         0.00000E+00
 
   -0.23899E+05         0.13378E+06         0.00000E+00
    0.13378E+06        -0.11618E+08         0.00000E+00
    0.00000E+00         0.00000E+00         0.00000E+00
 
   -0.82848E+05         0.17859E+06         0.00000E+00
    0.17859E+06        -0.11669E+08         0.00000E+00
    0.00000E+00         0.00000E+00         0.00000E+00
 
   -0.13262E+06         0.22952E+06         0.00000E+00
    0.22952E+06        -0.11723E+08         0.00000E+00
    0.00000E+00         0.00000E+00         0.00000E+00
 
   -0.17386E+06         0.28666E+06         0.00000E+00
    0.28666E+06        -0.11779E+08         0.00000E+00
    0.00000E+00         0.00000E+00         0.00000E+00
 
   -0.20717E+06         0.35007E+06         0.00000E+00
    0.35007E+06        -0.11837E+08         0.00000E+00
    0.00000E+00         0.00000E+00         0.00000E+00
 
   -0.23315E+06         0.41981E+06         0.00000E+00
    0.41981E+06        -0.11897E+08         0.00000E+00
    0.00000E+00         0.00000E+00         0.00000E+00
 
   -0.25238E+06         0.49591E+06         0.00000E+00
    0.49591E+06        -0.11958E+08         0.00000E+00
    0.00000E+00         0.00000E+00         0.00000E+00
 
   -0.26544E+06         0.57841E+06         0.00000E+00
    0.57841E+06        -0.12021E+08         0.00000E+00
    0.00000E+00         0.00000E+00         0.00000E+00
 
   -0.27285E+06         0.66733E+06         0.00000E+00
    0.66733E+06        -0.12084E+08         0.00000E+00
    0.00000E+00         0.00000E+00         0.00000E+00
 
   -0.27516E+06         0.76268E+06         0.00000E+00
    0.76268E+06        -0.12149E+08         0.00000E+00
    0.00000E+00         0.00000E+00         0.00000E+00
 
   -0.27289E+06         0.86445E+06         0.00000E+00
    0.86445E+06        -0.12214E+08         0.00000E+00
    0.00000E+00         0.00000E+00         0.00000E+00
 
   -0.26654E+06         0.97264E+06         0.00000E+00
    0.97264E+06        -0.12279E+08         0.00000E+00
    0.00000E+00         0.00000E+00         0.00000E+00
 
   -0.25659E+06         0.10872E+07         0.00000E+00
    0.10872E+07        -0.12344E+08         0.00000E+00
    0.00000E+00         0.00000E+00         0.00000E+00
 
   -0.24353E+06         0.12082E+07         0.00000E+00
    0.12082E+07        -0.12409E+08         0.00000E+00
    0.00000E+00         0.00000E+00         0.00000E+00
 
   -0.22781E+06         0.13355E+07         0.00000E+00
    0.13355E+07        -0.12474E+08         0.00000E+00
    0.00000E+00         0.00000E+00         0.00000E+00
 
   -0.20990E+06         0.14692E+07         0.00000E+00
    0.14692E+07        -0.12539E+08         0.00000E+00
    0.00000E+00         0.00000E+00         0.00000E+00
 
   -0.19023E+06         0.16090E+07         0.00000E+00
    0.16090E+07        -0.12603E+08         0.00000E+00
    0.00000E+00         0.00000E+00         0.00000E+00
 
   -0.16923E+06         0.17551E+07         0.00000E+00
    0.17551E+07        -0.12666E+08         0.00000E+00
    0.00000E+00         0.00000E+00         0.00000E+00
 
   -0.14731E+06         0.19074E+07         0.00000E+00
    0.19074E+07        -0.12727E+08         0.00000E+00
    0.00000E+00         0.00000E+00         0.00000E+00
 
   -0.12489E+06         0.20657E+07         0.00000E+00
    0.20657E+07        -0.12788E+08         0.00000E+00
    0.00000E+00         0.00000E+00         0.00000E+00
 
   -0.10234E+06         0.22300E+07         0.00000E+00
    0.22300E+07        -0.12847E+08         0.00000E+00
    0.00000E+00         0.00000E+00         0.00000E+00
 
   -0.80050E+05         0.24002E+07         0.00000E+00
    0.24002E+07        -0.12905E+08         0.00000E+00
    0.00000E+00         0.00000E+00         0.00000E+00
 
   -0.58378E+05         0.25762E+07         0.00000E+00
    0.25762E+07        -0.12961E+08         0.00000E+00
    0.00000E+00         0.00000E+00         0.00000E+00
 
   -0.37665E+05         0.27579E+07         0.00000E+00
    0.27579E+07        -0.13014E+08         0.00000E+00
    0.00000E+00         0.00000E+00         0.00000E+00
 
   -0.18247E+05         0.29452E+07         0.00000E+00
    0.29452E+07        -0.13066E+08         0.00000E+00
    0.00000E+00         0.00000E+00         0.00000E+00
 
   -0.44718E+03         0.31380E+07         0.00000E+00
    0.31380E+07        -0.13116E+08         0.00000E+00
    0.00000E+00         0.00000E+00         0.00000E+00
 
    0.15457E+05         0.33360E+07         0.00000E+00
    0.33360E+07        -0.13162E+08         0.00000E+00
    0.00000E+00         0.00000E+00         0.00000E+00
 
    0.29251E+05         0.35391E+07         0.00000E+00
    0.35391E+07        -0.13207E+08         0.00000E+00
    0.00000E+00         0.00000E+00         0.00000E+00
 
    0.40753E+05         0.37473E+07         0.00000E+00
    0.37473E+07        -0.13248E+08         0.00000E+00
    0.00000E+00         0.00000E+00         0.00000E+00
 
    0.49722E+05         0.39604E+07         0.00000E+00
    0.39604E+07        -0.13287E+08         0.00000E+00
    0.00000E+00         0.00000E+00         0.00000E+00
 
    0.55840E+05         0.41784E+07         0.00000E+00
    0.41784E+07        -0.13322E+08         0.00000E+00
    0.00000E+00         0.00000E+00         0.00000E+00
 
    0.58876E+05         0.44008E+07         0.00000E+00
    0.44008E+07        -0.13354E+08         0.00000E+00
    0.00000E+00         0.00000E+00         0.00000E+00
 
    0.58918E+05         0.46272E+07         0.00000E+00
    0.46272E+07        -0.13383E+08         0.00000E+00
    0.00000E+00         0.00000E+00         0.00000E+00
 
    0.56599E+05         0.48567E+07         0.00000E+00
    0.48567E+07        -0.13407E+08         0.00000E+00
    0.00000E+00         0.00000E+00         0.00000E+00
 
    0.52575E+05         0.50902E+07         0.00000E+00
    0.50902E+07        -0.13430E+08         0.00000E+00
    0.00000E+00         0.00000E+00         0.00000E+00
 
    0.46922E+05         0.53284E+07         0.00000E+00
    0.53284E+07        -0.13449E+08         0.00000E+00
    0.00000E+00         0.00000E+00         0.00000E+00
 
    0.38228E+05         0.55731E+07         0.00000E+00
    0.55731E+07        -0.13465E+08         0.00000E+00
    0.00000E+00         0.00000E+00         0.00000E+00
 
    0.25792E+05         0.58206E+07         0.00000E+00
    0.58206E+07        -0.13470E+08         0.00000E+00
    0.00000E+00         0.00000E+00         0.00000E+00
 
    0.10897E+05         0.60691E+07         0.00000E+00
    0.60691E+07        -0.13464E+08         0.00000E+00
    0.00000E+00         0.00000E+00         0.00000E+00
 
    0.14995E+04         0.63090E+07         0.00000E+00
    0.63090E+07        -0.13453E+08         0.00000E+00
    0.00000E+00         0.00000E+00         0.00000E+00
 
   -0.24971E+06        -0.29002E+05         0.00000E+00
   -0.29002E+05        -0.12660E+08         0.00000E+00
    0.00000E+00         0.00000E+00         0.00000E+00
 
   -0.41390E+06        -0.70290E+05         0.00000E+00
   -0.70290E+05        -0.12667E+08         0.00000E+00
    0.00000E+00         0.00000E+00         0.00000E+00
 
   -0.56002E+06        -0.10511E+06         0.00000E+00
   -0.10511E+06        -0.12682E+08         0.00000E+00
    0.00000E+00         0.00000E+00         0.00000E+00
 
   -0.68909E+06        -0.13324E+06         0.00000E+00
   -0.13324E+06        -0.12703E+08         0.00000E+00
    0.00000E+00         0.00000E+00         0.00000E+00
 
   -0.80206E+06        -0.15448E+06         0.00000E+00
   -0.15448E+06        -0.12730E+08         0.00000E+00
    0.00000E+00         0.00000E+00         0.00000E+00
 
   -0.89987E+06        -0.16864E+06         0.00000E+00
   -0.16864E+06        -0.12762E+08         0.00000E+00
    0.00000E+00         0.00000E+00         0.00000E+00
 
   -0.98343E+06        -0.17560E+06         0.00000E+00
   -0.17560E+06        -0.12800E+08         0.00000E+00
    0.00000E+00         0.00000E+00         0.00000E+00
 
   -0.10536E+07        -0.17522E+06         0.00000E+00
   -0.17522E+06        -0.12841E+08         0.00000E+00
    0.00000E+00         0.00000E+00         0.00000E+00
 
   -0.11112E+07        -0.16741E+06         0.00000E+00
   -0.16741E+06        -0.12888E+08         0.00000E+00
    0.00000E+00         0.00000E+00         0.00000E+00
 
   -0.11571E+07        -0.15209E+06         0.00000E+00
   -0.15209E+06        -0.12937E+08         0.00000E+00
    0.00000E+00         0.00000E+00         0.00000E+00
 
   -0.11921E+07        -0.12921E+06         0.00000E+00
   -0.12921E+06        -0.12991E+08         0.00000E+00
    0.00000E+00         0.00000E+00         0.00000E+00
 
   -0.12169E+07        -0.98708E+05         0.00000E+00
   -0.98708E+05        -0.13047E+08         0.00000E+00
    0.00000E+00         0.00000E+00         0.00000E+00
 
   -0.12322E+07        -0.60571E+05         0.00000E+00
   -0.60571E+05        -0.13107E+08         0.00000E+00
    0.00000E+00         0.00000E+00         0.00000E+00
 
   -0.12387E+07        -0.14781E+05         0.00000E+00
   -0.14781E+05        -0.13169E+08         0.00000E+00
    0.00000E+00         0.00000E+00         0.00000E+00
 
   -0.12372E+07         0.38666E+05         0.00000E+00
    0.38666E+05        -0.13233E+08         0.00000E+00
    0.00000E+00         0.00000E+00         0.00000E+00
 
   -0.12283E+07         0.99762E+05         0.00000E+00
    0.99762E+05        -0.13299E+08         0.00000E+00
    0.00000E+00         0.00000E+00         0.00000E+00
 
   -0.12125E+07         0.16849E+06         0.00000E+00
    0.16849E+06        -0.13367E+08         0.00000E+00
    0.00000E+00         0.00000E+00         0.00000E+00
 
   -0.11906E+07         0.24482E+06         0.00000E+00
    0.24482E+06        -0.13436E+08         0.00000E+00
    0.00000E+00         0.00000E+00         0.00000E+00
 
   -0.11631E+07         0.32874E+06         0.00000E+00
    0.32874E+06        -0.13506E+08         0.00000E+00
    0.00000E+00         0.00000E+00         0.00000E+00
 
   -0.11306E+07         0.42019E+06         0.00000E+00
    0.42019E+06        -0.13578E+08         0.00000E+00
    0.00000E+00         0.00000E+00         0.00000E+00
 
   -0.10936E+07         0.51914E+06         0.00000E+00
    0.51914E+06        -0.13650E+08         0.00000E+00
    0.00000E+00         0.00000E+00         0.00000E+00
 
   -0.10527E+07         0.62554E+06         0.00000E+00
    0.62554E+06        -0.13723E+08         0.00000E+00
    0.00000E+00         0.00000E+00         0.00000E+00
 
   -0.10083E+07         0.73934E+06         0.00000E+00
    0.73934E+06        -0.13796E+08         0.00000E+00
    0.00000E+00         0.00000E+00         0.00000E+00
 
   -0.96111E+06         0.86049E+06         0.00000E+00
    0.86049E+06        -0.13870E+08         0.00000E+00
    0.00000E+00         0.00000E+00         0.00000E+00
 
   -0.91146E+06         0.98893E+06         0.00000E+00
    0.98893E+06        -0.13943E+08         0.00000E+00
    0.00000E+00         0.00000E+00         0.00000E+00
 
   -0.85989E+06         0.11246E+07         0.00000E+00
    0.11246E+07        -0.14017E+08         0.00000E+00
    0.00000E+00         0.00000E+00         0.00000E+00
 
   -0.80685E+06         0.12674E+07         0.00000E+00
    0.12674E+07        -0.14090E+08         0.00000E+00
    0.00000E+00         0.00000E+00         0.00000E+00
 
   -0.75283E+06         0.14173E+07         0.00000E+00
    0.14173E+07        -0.14162E+08         0.00000E+00
    0.00000E+00         0.00000E+00         0.00000E+00
 
   -0.69826E+06         0.15742E+07         0.00000E+00
    0.15742E+07        -0.14234E+08         0.00000E+00
    0.00000E+00         0.00000E+00         0.00000E+00
 
   -0.64359E+06         0.17381E+07         0.00000E+00
    0.17381E+07        -0.14305E+08         0.00000E+00
    0.00000E+00         0.00000E+00         0.00000E+00
 
   -0.58925E+06         0.19088E+07         0.00000E+00
    0.19088E+07        -0.14376E+08         0.00000E+00
    0.00000E+00         0.00000E+00         0.00000E+00
 
   -0.53566E+06         0.20862E+07         0.00000E+00
    0.20862E+07        -0.14445E+08         0.00000E+00
    0.00000E+00         0.00000E+00         0.00000E+00
 
   -0.48327E+06         0.22702E+07         0.00000E+00
    0.22702E+07        -0.14513E+08         0.00000E+00
    0.00000E+00         0.00000E+00         0.00000E+00
 
   -0.43246E+06         0.24608E+07         0.00000E+00
    0.24608E+07        -0.14580E+08         0.00000E+00
    0.00000E+00         0.00000E+00         0.00000E+00
 
   -0.38361E+06         0.26576E+07         0.00000E+00
    0.26576E+07        -0.14645E+08         0.00000E+00
    0.00000E+00         0.00000E+00         0.00000E+00
 
   -0.33702E+06         0.28607E+07         0.00000E+00
    0.28607E+07        -0.14708E+08         0.00000E+00
    0.00000E+00         0.00000E+00         0.00000E+00
 
   -0.29310E+06         0.30699E+07         0.00000E+00
    0.30699E+07        -0.14770E+08         0.00000E+00
    0.00000E+00         0.00000E+00         0.00000E+00
 
   -0.25235E+06         0.32852E+07         0.00000E+00
    0.32852E+07        -0.14830E+08         0.00000E+00
    0.00000E+00         0.00000E+00         0.00000E+00
 
   -0.21517E+06         0.35060E+07         0.00000E+00
    0.35060E+07        -0.14887E+08         0.00000E+00
    0.00000E+00         0.00000E+00         0.00000E+00
 
   -0.18150E+06         0.37316E+07         0.00000E+00
    0.37316E+07        -0.14942E+08         0.00000E+00
    0.00000E+00         0.00000E+00         0.00000E+00
 
   -0.15090E+06         0.39618E+07         0.00000E+00
    0.39618E+07        -0.14996E+08         0.00000E+00
    0.00000E+00         0.00000E+00         0.00000E+00
 
   -0.12322E+06         0.41975E+07         0.00000E+00
    0.41975E+07        -0.15050E+08         0.00000E+00
    0.00000E+00         0.00000E+00         0.00000E+00
 
   -0.99465E+05         0.44398E+07         0.00000E+00
    0.44398E+07        -0.15101E+08         0.00000E+00
    0.00000E+00         0.00000E+00         0.00000E+00
 
   -0.82018E+05         0.46894E+07         0.00000E+00
    0.46894E+07        -0.15151E+08         0.00000E+00
    0.00000E+00         0.00000E+00         0.00000E+00
 
   -0.72199E+05         0.49418E+07         0.00000E+00
    0.49418E+07        -0.15188E+08         0.00000E+00
    0.00000E+00         0.00000E+00         0.00000E+00
 
   -0.68167E+05         0.51927E+07         0.00000E+00
    0.51927E+07        -0.15221E+08         0.00000E+00
    0.00000E+00         0.00000E+00         0.00000E+00
 
   -0.61932E+05         0.54349E+07         0.00000E+00
    0.54349E+07        -0.15255E+08         0.00000E+00
    0.00000E+00         0.00000E+00         0.00000E+00
 
   -0.47617E+05         0.56838E+07         0.00000E+00
    0.56838E+07        -0.15324E+08         0.00000E+00
    0.00000E+00         0.00000E+00         0.00000E+00
 
   -0.50271E+05         0.59285E+07         0.00000E+00
    0.59285E+07        -0.15414E+08         0.00000E+00
    0.00000E+00         0.00000E+00        -0.25450E+05
 
   -0.12608E+06         0.61520E+07         0.00000E+00
    0.61520E+07        -0.15494E+08         0.00000E+00
    0.00000E+00         0.00000E+00        -0.12055E+06
 
   -0.20146E+07        -0.51383E+05         0.00000E+00
   -0.51383E+05        -0.14108E+08         0.00000E+00
    0.00000E+00         0.00000E+00         0.00000E+00
 
   -0.21404E+07        -0.12953E+06         0.00000E+00
   -0.12953E+06        -0.14117E+08         0.00000E+00
    0.00000E+00         0.00000E+00         0.00000E+00
 
   -0.22472E+07        -0.19852E+06         0.00000E+00
   -0.19852E+06        -0.14132E+08         0.00000E+00
    0.00000E+00         0.00000E+00         0.00000E+00
 
   -0.23361E+07        -0.25824E+06         0.00000E+00
   -0.25824E+06        -0.14155E+08         0.00000E+00
    0.00000E+00         0.00000E+00         0.00000E+00
 
   -0.24083E+07        -0.30861E+06         0.00000E+00
   -0.30861E+06        -0.14184E+08         0.00000E+00
    0.00000E+00         0.00000E+00         0.00000E+00
 
   -0.24649E+07        -0.34958E+06         0.00000E+00
   -0.34958E+06        -0.14218E+08         0.00000E+00
    0.00000E+00         0.00000E+00         0.00000E+00
 
   -0.25068E+07        -0.38112E+06         0.00000E+00
   -0.38112E+06        -0.14258E+08         0.00000E+00
    0.00000E+00         0.00000E+00         0.00000E+00
 
   -0.25350E+07        -0.40323E+06         0.00000E+00
   -0.40323E+06        -0.14302E+08         0.00000E+00
    0.00000E+00         0.00000E+00         0.00000E+00
 
   -0.25505E+07        -0.41591E+06         0.00000E+00
   -0.41591E+06        -0.14351E+08         0.00000E+00
    0.00000E+00         0.00000E+00         0.00000E+00
 
   -0.25542E+07        -0.41921E+06         0.00000E+00
   -0.41921E+06        -0.14404E+08         0.00000E+00
    0.00000E+00         0.00000E+00         0.00000E+00
 
   -0.25470E+07        -0.41316E+06         0.00000E+00
   -0.41316E+06        -0.14460E+08         0.00000E+00
    0.00000E+00         0.00000E+00         0.00000E+00
 
   -0.25296E+07        -0.39782E+06         0.00000E+00
   -0.39782E+06        -0.14520E+08         0.00000E+00
    0.00000E+00         0.00000E+00         0.00000E+00
 
   -0.25029E+07        -0.37327E+06         0.00000E+00
   -0.37327E+06        -0.14582E+08         0.00000E+00
    0.00000E+00         0.00000E+00         0.00000E+00
 
   -0.24676E+07        -0.33959E+06         0.00000E+00
   -0.33959E+06        -0.14647E+08         0.00000E+00
    0.00000E+00         0.00000E+00         0.00000E+00
 
   -0.24245E+07        -0.29685E+06         0.00000E+00
   -0.29685E+06        -0.14715E+08         0.00000E+00
    0.00000E+00         0.00000E+00         0.00000E+00
 
   -0.23742E+07        -0.24517E+06         0.00000E+00
   -0.24517E+06        -0.14784E+08         0.00000E+00
    0.00000E+00         0.00000E+00         0.00000E+00
 
   -0.23175E+07        -0.18464E+06         0.00000E+00
   -0.18464E+06        -0.14856E+08         0.00000E+00
    0.00000E+00         0.00000E+00         0.00000E+00
 
   -0.22548E+07        -0.11535E+06         0.00000E+00
   -0.11535E+06        -0.14928E+08         0.00000E+00
    0.00000E+00         0.00000E+00         0.00000E+00
 
   -0.21870E+07        -0.37408E+05         0.00000E+00
   -0.37408E+05        -0.15002E+08         0.00000E+00
    0.00000E+00         0.00000E+00         0.00000E+00
 
   -0.21144E+07         0.49081E+05         0.00000E+00
    0.49081E+05        -0.15078E+08         0.00000E+00
    0.00000E+00         0.00000E+00         0.00000E+00
 
   -0.20377E+07         0.14402E+06         0.00000E+00
    0.14402E+06        -0.15154E+08         0.00000E+00
    0.00000E+00         0.00000E+00         0.00000E+00
 
   -0.19575E+07         0.24730E+06         0.00000E+00
    0.24730E+06        -0.15231E+08         0.00000E+00
    0.00000E+00         0.00000E+00         0.00000E+00
 
   -0.18742E+07         0.35883E+06         0.00000E+00
    0.35883E+06        -0.15309E+08         0.00000E+00
    0.00000E+00         0.00000E+00         0.00000E+00
 
   -0.17884E+07         0.47853E+06         0.00000E+00
    0.47853E+06        -0.15387E+08         0.00000E+00
    0.00000E+00         0.00000E+00         0.00000E+00
 
   -0.17006E+07         0.60628E+06         0.00000E+00
    0.60628E+06        -0.15466E+08         0.00000E+00
    0.00000E+00         0.00000E+00         0.00000E+00
 
   -0.16112E+07         0.74201E+06         0.00000E+00
    0.74201E+06        -0.15545E+08         0.00000E+00
    0.00000E+00         0.00000E+00         0.00000E+00
 
   -0.15208E+07         0.88563E+06         0.00000E+00
    0.88563E+06        -0.15624E+08         0.00000E+00
    0.00000E+00         0.00000E+00         0.00000E+00
 
   -0.14298E+07         0.10370E+07         0.00000E+00
    0.10370E+07        -0.15703E+08         0.00000E+00
    0.00000E+00         0.00000E+00         0.00000E+00
 
   -0.13387E+07         0.11962E+07         0.00000E+00
    0.11962E+07        -0.15781E+08         0.00000E+00
    0.00000E+00         0.00000E+00         0.00000E+00
 
   -0.12479E+07         0.13629E+07         0.00000E+00
    0.13629E+07        -0.15860E+08         0.00000E+00
    0.00000E+00         0.00000E+00         0.00000E+00
 
   -0.11580E+07         0.15372E+07         0.00000E+00
    0.15372E+07        -0.15938E+08         0.00000E+00
    0.00000E+00         0.00000E+00         0.00000E+00
 
   -0.10695E+07         0.17188E+07         0.00000E+00
    0.17188E+07        -0.16016E+08         0.00000E+00
    0.00000E+00         0.00000E+00         0.00000E+00
 
   -0.98271E+06         0.19077E+07         0.00000E+00
    0.19077E+07        -0.16093E+08         0.00000E+00
    0.00000E+00         0.00000E+00         0.00000E+00
 
   -0.89820E+06         0.21038E+07         0.00000E+00
    0.21038E+07        -0.16170E+08         0.00000E+00
    0.00000E+00         0.00000E+00         0.00000E+00
 
   -0.81658E+06         0.23070E+07         0.00000E+00
    0.23070E+07        -0.16246E+08         0.00000E+00
    0.00000E+00         0.00000E+00         0.00000E+00
 
   -0.73849E+06         0.25170E+07         0.00000E+00
    0.25170E+07        -0.16320E+08         0.00000E+00
    0.00000E+00         0.00000E+00         0.00000E+00
 
   -0.66415E+06         0.27329E+07         0.00000E+00
    0.27329E+07        -0.16393E+08         0.00000E+00
    0.00000E+00         0.00000E+00         0.00000E+00
 
   -0.59334E+06         0.29546E+07         0.00000E+00
    0.29546E+07        -0.16466E+08         0.00000E+00
    0.00000E+00         0.00000E+00         0.00000E+00
 
   -0.52640E+06         0.31829E+07         0.00000E+00
    0.31829E+07        -0.16539E+08         0.00000E+00
    0.00000E+00         0.00000E+00         0.00000E+00
 
   -0.46518E+06         0.34193E+07         0.00000E+00
    0.34193E+07        -0.16611E+08         0.00000E+00
    0.00000E+00         0.00000E+00         0.00000E+00
 
   -0.41247E+06         0.36626E+07         0.00000E+00
    0.36626E+07        -0.16678E+08         0.00000E+00
    0.00000E+00         0.00000E+00         0.00000E+00
 
   -0.36901E+06         0.39072E+07         0.00000E+00
    0.39072E+07        -0.16735E+08         0.00000E+00
    0.00000E+00         0.00000E+00         0.00000E+00
 
   -0.33085E+06         0.41475E+07         0.00000E+00
    0.41475E+07        -0.16791E+08         0.00000E+00
    0.00000E+00         0.00000E+00         0.00000E+00
 
   -0.28991E+06         0.43824E+07         0.00000E+00
    0.43824E+07        -0.16854E+08         0.00000E+00
    0.00000E+00         0.00000E+00         0.00000E+00
 
   -0.25256E+06         0.46242E+07         0.00000E+00
    0.46242E+07        -0.16962E+08         0.00000E+00
    0.00000E+00         0.00000E+00        -0.94522E+04
 
   -0.26208E+06         0.48527E+07         0.00000E+00
    0.48527E+07        -0.17067E+08         0.00000E+00
    0.00000E+00         0.00000E+00        -0.69139E+05
 
   -0.30431E+06         0.50722E+07         0.00000E+00
    0.50722E+07        -0.17167E+08         0.00000E+00
    0.00000E+00         0.00000E+00        -0.16001E+06
 
   -0.40565E+06         0.52680E+07         0.00000E+00
    0.52680E+07        -0.17245E+08         0.00000E+00
    0.00000E+00         0.00000E+00        -0.30863E+06
 
   -0.55830E+06         0.54445E+07         0.00000E+00
    0.54445E+07        -0.17323E+08         0.00000E+00
    0.00000E+00         0.00000E+00        -0.50455E+06
 
   -0.73767E+06         0.56189E+07         0.00000E+00
    0.56189E+07        -0.17434E+08         0.00000E+00
    0.00000E+00         0.00000E+00        -0.72044E+06
 
   -0.40843E+07        -0.75255E+05         0.00000E+00
   -0.75255E+05        -0.15664E+08         0.00000E+00
    0.00000E+00         0.00000E+00         0.00000E+00
 
   -0.41568E+07        -0.19213E+06         0.00000E+00
   -0.19213E+06        -0.15673E+08         0.00000E+00
    0.00000E+00         0.00000E+00         0.00000E+00
 
   -0.42102E+07        -0.29675E+06         0.00000E+00
   -0.29675E+06        -0.15689E+08         0.00000E+00
    0.00000E+00         0.00000E+00         0.00000E+00
 
   -0.42456E+07        -0.38919E+06         0.00000E+00
   -0.38919E+06        -0.15712E+08         0.00000E+00
    0.00000E+00         0.00000E+00         0.00000E+00
 
   -0.42644E+07        -0.46954E+06         0.00000E+00
   -0.46954E+06        -0.15741E+08         0.00000E+00
    0.00000E+00         0.00000E+00         0.00000E+00
 
   -0.42676E+07        -0.53791E+06         0.00000E+00
   -0.53791E+06        -0.15777E+08         0.00000E+00
    0.00000E+00         0.00000E+00         0.00000E+00
 
   -0.42565E+07        -0.59440E+06         0.00000E+00
   -0.59440E+06        -0.15817E+08         0.00000E+00
    0.00000E+00         0.00000E+00         0.00000E+00
 
   -0.42322E+07        -0.63917E+06         0.00000E+00
   -0.63917E+06        -0.15862E+08         0.00000E+00
    0.00000E+00         0.00000E+00         0.00000E+00
 
   -0.41955E+07        -0.67237E+06         0.00000E+00
   -0.67237E+06        -0.15911E+08         0.00000E+00
    0.00000E+00         0.00000E+00         0.00000E+00
 
   -0.41476E+07        -0.69419E+06         0.00000E+00
   -0.69419E+06        -0.15964E+08         0.00000E+00
    0.00000E+00         0.00000E+00         0.00000E+00
 
   -0.40894E+07        -0.70480E+06         0.00000E+00
   -0.70480E+06        -0.16020E+08         0.00000E+00
    0.00000E+00         0.00000E+00         0.00000E+00
 
   -0.40216E+07        -0.70440E+06         0.00000E+00
   -0.70440E+06        -0.16080E+08         0.00000E+00
    0.00000E+00         0.00000E+00         0.00000E+00
 
   -0.39453E+07        -0.69319E+06         0.00000E+00
   -0.69319E+06        -0.16142E+08         0.00000E+00
    0.00000E+00         0.00000E+00         0.00000E+00
 
   -0.38611E+07        -0.67139E+06         0.00000E+00
   -0.67139E+06        -0.16206E+08         0.00000E+00
    0.00000E+00         0.00000E+00         0.00000E+00
 
   -0.37698E+07        -0.63919E+06         0.00000E+00
   -0.63919E+06        -0.16273E+08         0.00000E+00
    0.00000E+00         0.00000E+00         0.00000E+00
 
   -0.36720E+07        -0.59682E+06         0.00000E+00
   -0.59682E+06        -0.16342E+08         0.00000E+00
    0.00000E+00         0.00000E+00         0.00000E+00
 
   -0.35686E+07        -0.54448E+06         0.00000E+00
   -0.54448E+06        -0.16412E+08         0.00000E+00
    0.00000E+00         0.00000E+00         0.00000E+00
 
   -0.34600E+07        -0.48238E+06         0.00000E+00
   -0.48238E+06        -0.16483E+08         0.00000E+00
    0.00000E+00         0.00000E+00         0.00000E+00
 
   -0.33470E+07        -0.41071E+06         0.00000E+00
   -0.41071E+06        -0.16556E+08         0.00000E+00
    0.00000E+00         0.00000E+00         0.00000E+00
 
   -0.32299E+07        -0.32966E+06         0.00000E+00
   -0.32966E+06        -0.16631E+08         0.00000E+00
    0.00000E+00         0.00000E+00         0.00000E+00
 
   -0.31095E+07        -0.23941E+06         0.00000E+00
   -0.23941E+06        -0.16706E+08         0.00000E+00
    0.00000E+00         0.00000E+00         0.00000E+00
 
   -0.29861E+07        -0.14015E+06         0.00000E+00
   -0.14015E+06        -0.16782E+08         0.00000E+00
    0.00000E+00         0.00000E+00         0.00000E+00
 
   -0.28603E+07        -0.32016E+05         0.00000E+00
   -0.32016E+05        -0.16859E+08         0.00000E+00
    0.00000E+00         0.00000E+00         0.00000E+00
 
   -0.27325E+07         0.84838E+05         0.00000E+00
    0.84838E+05        -0.16936E+08         0.00000E+00
    0.00000E+00         0.00000E+00         0.00000E+00
 
   -0.26033E+07         0.21028E+06         0.00000E+00
    0.21028E+06        -0.17014E+08         0.00000E+00
    0.00000E+00         0.00000E+00         0.00000E+00
 
   -0.24730E+07         0.34421E+06         0.00000E+00
    0.34421E+06        -0.17093E+08         0.00000E+00
    0.00000E+00         0.00000E+00         0.00000E+00
 
   -0.23421E+07         0.48651E+06         0.00000E+00
    0.48651E+06        -0.17172E+08         0.00000E+00
    0.00000E+00         0.00000E+00         0.00000E+00
 
   -0.22111E+07         0.63710E+06         0.00000E+00
    0.63710E+06        -0.17252E+08         0.00000E+00
    0.00000E+00         0.00000E+00         0.00000E+00
 
   -0.20805E+07         0.79586E+06         0.00000E+00
    0.79586E+06        -0.17332E+08         0.00000E+00
    0.00000E+00         0.00000E+00         0.00000E+00
 
   -0.19506E+07         0.96271E+06         0.00000E+00
    0.96271E+06        -0.17412E+08         0.00000E+00
    0.00000E+00         0.00000E+00         0.00000E+00
 
   -0.18220E+07         0.11376E+07         0.00000E+00
    0.11376E+07        -0.17492E+08         0.00000E+00
    0.00000E+00         0.00000E+00         0.00000E+00
 
   -0.16953E+07         0.13207E+07         0.00000E+00
    0.13207E+07        -0.17573E+08         0.00000E+00
    0.00000E+00         0.00000E+00         0.00000E+00
 
   -0.15712E+07         0.15117E+07         0.00000E+00
    0.15117E+07        -0.17654E+08         0.00000E+00
    0.00000E+00         0.00000E+00         0.00000E+00
 
   -0.14502E+07         0.17102E+07         0.00000E+00
    0.17102E+07        -0.17734E+08         0.00000E+00
    0.00000E+00         0.00000E+00         0.00000E+00
 
   -0.13323E+07         0.19156E+07         0.00000E+00
    0.19156E+07        -0.17813E+08         0.00000E+00
    0.00000E+00         0.00000E+00         0.00000E+00
 
   -0.12180E+07         0.21290E+07         0.00000E+00
    0.21290E+07        -0.17894E+08         0.00000E+00
    0.00000E+00         0.00000E+00         0.00000E+00
 
   -0.11092E+07         0.23520E+07         0.00000E+00
    0.23520E+07        -0.17975E+08         0.00000E+00
    0.00000E+00         0.00000E+00         0.00000E+00
 
   -0.10090E+07         0.25836E+07         0.00000E+00
    0.25836E+07        -0.18050E+08         0.00000E+00
    0.00000E+00         0.00000E+00         0.00000E+00
 
   -0.91810E+06         0.28180E+07         0.00000E+00
    0.28180E+07        -0.18117E+08         0.00000E+00
    0.00000E+00         0.00000E+00         0.00000E+00
 
   -0.83190E+06         0.30494E+07         0.00000E+00
    0.30494E+07        -0.18182E+08         0.00000E+00
    0.00000E+00         0.00000E+00         0.00000E+00
 
   -0.74324E+06         0.32819E+07         0.00000E+00
    0.32819E+07        -0.18271E+08         0.00000E+00
    0.00000E+00         0.00000E+00         0.00000E+00
 
   -0.69076E+06         0.35145E+07         0.00000E+00
    0.35145E+07        -0.18381E+08         0.00000E+00
    0.00000E+00         0.00000E+00        -0.42629E+05
 
   -0.65941E+06         0.37445E+07         0.00000E+00
    0.37445E+07        -0.18488E+08         0.00000E+00
    0.00000E+00         0.00000E+00        -0.11071E+06
 
   -0.65904E+06         0.39697E+07         0.00000E+00
    0.39697E+07        -0.18584E+08         0.00000E+00
    0.00000E+00         0.00000E+00        -0.21523E+06
 
   -0.74210E+06         0.41749E+07         0.00000E+00
    0.41749E+07        -0.18650E+08         0.00000E+00
    0.00000E+00         0.00000E+00        -0.40990E+06
 
   -0.84719E+06         0.43759E+07         0.00000E+00
    0.43759E+07        -0.18732E+08         0.00000E+00
    0.00000E+00         0.00000E+00        -0.62545E+06
 
   -0.97001E+06         0.45665E+07         0.00000E+00
    0.45665E+07        -0.18833E+08         0.00000E+00
    0.00000E+00         0.00000E+00        -0.84451E+06
 
   -0.11084E+07         0.47465E+07         0.00000E+00
    0.47465E+07        -0.18940E+08         0.00000E+00
    0.00000E+00         0.00000E+00        -0.10528E+07
 
   -0.12634E+07         0.49222E+07         0.00000E+00
    0.49222E+07        -0.19047E+08         0.00000E+00
    0.00000E+00         0.00000E+00        -0.12470E+07
 
   -0.14279E+07         0.50995E+07         0.00000E+00
    0.50995E+07        -0.19142E+08         0.00000E+00
    0.00000E+00         0.00000E+00        -0.14261E+07
 
   -0.64610E+07        -0.99707E+05         0.00000E+00
   -0.99707E+05        -0.17324E+08         0.00000E+00
    0.00000E+00         0.00000E+00         0.00000E+00
 
   -0.64637E+07        -0.25521E+06         0.00000E+00
   -0.25521E+06        -0.17333E+08         0.00000E+00
    0.00000E+00         0.00000E+00         0.00000E+00
 
   -0.64479E+07        -0.39518E+06         0.00000E+00
   -0.39518E+06        -0.17349E+08         0.00000E+00
    0.00000E+00         0.00000E+00         0.00000E+00
 
   -0.64150E+07        -0.51977E+06         0.00000E+00
   -0.51977E+06        -0.17371E+08         0.00000E+00
    0.00000E+00         0.00000E+00         0.00000E+00
 
   -0.63663E+07        -0.62923E+06         0.00000E+00
   -0.62923E+06        -0.17399E+08         0.00000E+00
    0.00000E+00         0.00000E+00         0.00000E+00
 
   -0.63032E+07        -0.72387E+06         0.00000E+00
   -0.72387E+06        -0.17433E+08         0.00000E+00
    0.00000E+00         0.00000E+00         0.00000E+00
 
   -0.62269E+07        -0.80401E+06         0.00000E+00
   -0.80401E+06        -0.17472E+08         0.00000E+00
    0.00000E+00         0.00000E+00         0.00000E+00
 
   -0.61384E+07        -0.86998E+06         0.00000E+00
   -0.86998E+06        -0.17514E+08         0.00000E+00
    0.00000E+00         0.00000E+00         0.00000E+00
 
   -0.60390E+07        -0.92212E+06         0.00000E+00
   -0.92212E+06        -0.17561E+08         0.00000E+00
    0.00000E+00         0.00000E+00         0.00000E+00
 
   -0.59297E+07        -0.96079E+06         0.00000E+00
   -0.96079E+06        -0.17610E+08         0.00000E+00
    0.00000E+00         0.00000E+00         0.00000E+00
 
   -0.58114E+07        -0.98635E+06         0.00000E+00
   -0.98635E+06        -0.17663E+08         0.00000E+00
    0.00000E+00         0.00000E+00         0.00000E+00
 
   -0.56850E+07        -0.99917E+06         0.00000E+00
   -0.99917E+06        -0.17718E+08         0.00000E+00
    0.00000E+00         0.00000E+00         0.00000E+00
 
   -0.55514E+07        -0.99962E+06         0.00000E+00
   -0.99962E+06        -0.17775E+08         0.00000E+00
    0.00000E+00         0.00000E+00         0.00000E+00
 
   -0.54114E+07        -0.98805E+06         0.00000E+00
   -0.98805E+06        -0.17834E+08         0.00000E+00
    0.00000E+00         0.00000E+00         0.00000E+00
 
   -0.52658E+07        -0.96486E+06         0.00000E+00
   -0.96486E+06        -0.17895E+08         0.00000E+00
    0.00000E+00         0.00000E+00         0.00000E+00
 
   -0.51151E+07        -0.93039E+06         0.00000E+00
   -0.93039E+06        -0.17957E+08         0.00000E+00
    0.00000E+00         0.00000E+00         0.00000E+00
 
   -0.49601E+07        -0.88500E+06         0.00000E+00
   -0.88500E+06        -0.18021E+08         0.00000E+00
    0.00000E+00         0.00000E+00         0.00000E+00
 
   -0.48013E+07        -0.82904E+06         0.00000E+00
   -0.82904E+06        -0.18086E+08         0.00000E+00
    0.00000E+00         0.00000E+00         0.00000E+00
 
   -0.46392E+07        -0.76282E+06         0.00000E+00
   -0.76282E+06        -0.18151E+08         0.00000E+00
    0.00000E+00         0.00000E+00         0.00000E+00
 
   -0.44744E+07        -0.68666E+06         0.00000E+00
   -0.68666E+06        -0.18218E+08         0.00000E+00
    0.00000E+00         0.00000E+00         0.00000E+00
 
   -0.43073E+07        -0.60085E+06         0.00000E+00
   -0.60085E+06        -0.18285E+08         0.00000E+00
    0.00000E+00         0.00000E+00         0.00000E+00
 
   -0.41383E+07        -0.50565E+06         0.00000E+00
   -0.50565E+06        -0.18353E+08         0.00000E+00
    0.00000E+00         0.00000E+00         0.00000E+00
 
   -0.39678E+07        -0.40129E+06         0.00000E+00
   -0.40129E+06        -0.18422E+08         0.00000E+00
    0.00000E+00         0.00000E+00         0.00000E+00
 
   -0.37961E+07        -0.28799E+06         0.00000E+00
   -0.28799E+06        -0.18491E+08         0.00000E+00
    0.00000E+00         0.00000E+00         0.00000E+00
 
   -0.36237E+07        -0.16592E+06         0.00000E+00
   -0.16592E+06        -0.18562E+08         0.00000E+00
    0.00000E+00         0.00000E+00         0.00000E+00
 
   -0.34508E+07        -0.35236E+05         0.00000E+00
   -0.35236E+05        -0.18632E+08         0.00000E+00
    0.00000E+00         0.00000E+00         0.00000E+00
 
   -0.32778E+07         0.10394E+06         0.00000E+00
    0.10394E+06        -0.18704E+08         0.00000E+00
    0.00000E+00         0.00000E+00         0.00000E+00
 
   -0.31050E+07         0.25157E+06         0.00000E+00
    0.25157E+06        -0.18777E+08         0.00000E+00
    0.00000E+00         0.00000E+00         0.00000E+00
 
   -0.29328E+07         0.40770E+06         0.00000E+00
    0.40770E+06        -0.18850E+08         0.00000E+00
    0.00000E+00         0.00000E+00         0.00000E+00
 
   -0.27618E+07         0.57232E+06         0.00000E+00
    0.57232E+06        -0.18924E+08         0.00000E+00
    0.00000E+00         0.00000E+00         0.00000E+00
 
   -0.25923E+07         0.74526E+06         0.00000E+00
    0.74526E+06        -0.18999E+08         0.00000E+00
    0.00000E+00         0.00000E+00         0.00000E+00
 
   -0.24244E+07         0.92606E+06         0.00000E+00
    0.92606E+06        -0.19074E+08         0.00000E+00
    0.00000E+00         0.00000E+00         0.00000E+00
 
   -0.22584E+07         0.11154E+07         0.00000E+00
    0.11154E+07        -0.19150E+08         0.00000E+00
    0.00000E+00         0.00000E+00         0.00000E+00
 
   -0.20956E+07         0.13147E+07         0.00000E+00
    0.13147E+07        -0.19228E+08         0.00000E+00
    0.00000E+00         0.00000E+00         0.00000E+00
 
   -0.19388E+07         0.15251E+07         0.00000E+00
    0.15251E+07        -0.19306E+08         0.00000E+00
    0.00000E+00         0.00000E+00         0.00000E+00
 
   -0.17893E+07         0.17416E+07         0.00000E+00
    0.17416E+07        -0.19374E+08         0.00000E+00
    0.00000E+00         0.00000E+00         0.00000E+00
 
   -0.16433E+07         0.19584E+07         0.00000E+00
    0.19584E+07        -0.19441E+08         0.00000E+00
    0.00000E+00         0.00000E+00         0.00000E+00
 
   -0.14986E+07         0.21779E+07         0.00000E+00
    0.21779E+07        -0.19530E+08         0.00000E+00
    0.00000E+00         0.00000E+00        -0.58644E+04
 
   -0.13863E+07         0.24010E+07         0.00000E+00
    0.24010E+07        -0.19637E+08         0.00000E+00
    0.00000E+00         0.00000E+00        -0.57376E+05
 
   -0.12960E+07         0.26277E+07         0.00000E+00
    0.26277E+07        -0.19738E+08         0.00000E+00
    0.00000E+00         0.00000E+00        -0.14196E+06
 
   -0.12508E+07         0.28518E+07         0.00000E+00
    0.28518E+07        -0.19818E+08         0.00000E+00
    0.00000E+00         0.00000E+00        -0.28494E+06
 
   -0.12700E+07         0.30703E+07         0.00000E+00
    0.30703E+07        -0.19890E+08         0.00000E+00
    0.00000E+00         0.00000E+00        -0.50498E+06
 
   -0.13034E+07         0.32817E+07         0.00000E+00
    0.32817E+07        -0.19972E+08         0.00000E+00
    0.00000E+00         0.00000E+00        -0.73227E+06
 
   -0.13616E+07         0.34846E+07         0.00000E+00
    0.34846E+07        -0.20070E+08         0.00000E+00
    0.00000E+00         0.00000E+00        -0.96129E+06
 
   -0.14455E+07         0.36809E+07         0.00000E+00
    0.36809E+07        -0.20173E+08         0.00000E+00
    0.00000E+00         0.00000E+00        -0.11833E+07
 
   -0.15435E+07         0.38769E+07         0.00000E+00
    0.38769E+07        -0.20274E+08         0.00000E+00
    0.00000E+00         0.00000E+00        -0.13860E+07
 
   -0.16605E+07         0.40789E+07         0.00000E+00
    0.40789E+07        -0.20366E+08         0.00000E+00
    0.00000E+00         0.00000E+00        -0.15802E+07
 
   -0.17932E+07         0.42876E+07         0.00000E+00
    0.42876E+07        -0.20449E+08         0.00000E+00
    0.00000E+00         0.00000E+00        -0.17666E+07
 
   -0.19415E+07         0.44972E+07         0.00000E+00
    0.44972E+07        -0.20528E+08         0.00000E+00
    0.00000E+00         0.00000E+00        -0.19430E+07
 
   -0.21064E+07         0.47069E+07         0.00000E+00
    0.47069E+07        -0.20604E+08         0.00000E+00
    0.00000E+00         0.00000E+00        -0.21110E+07
 
   -0.91349E+07        -0.12326E+06         0.00000E+00
   -0.12326E+06        -0.19082E+08         0.00000E+00
    0.00000E+00         0.00000E+00         0.00000E+00
 
   -0.90494E+07        -0.31570E+06         0.00000E+00
   -0.31570E+06        -0.19091E+08         0.00000E+00
    0.00000E+00         0.00000E+00         0.00000E+00
 
   -0.89471E+07        -0.48840E+06         0.00000E+00
   -0.48840E+06        -0.19105E+08         0.00000E+00
    0.00000E+00         0.00000E+00         0.00000E+00
 
   -0.88296E+07        -0.64223E+06         0.00000E+00
   -0.64223E+06        -0.19126E+08         0.00000E+00
    0.00000E+00         0.00000E+00         0.00000E+00
 
   -0.86984E+07        -0.77773E+06         0.00000E+00
   -0.77773E+06        -0.19151E+08         0.00000E+00
    0.00000E+00         0.00000E+00         0.00000E+00
 
   -0.85548E+07        -0.89543E+06         0.00000E+00
   -0.89543E+06        -0.19181E+08         0.00000E+00
    0.00000E+00         0.00000E+00         0.00000E+00
 
   -0.84002E+07        -0.99588E+06         0.00000E+00
   -0.99588E+06        -0.19215E+08         0.00000E+00
    0.00000E+00         0.00000E+00         0.00000E+00
 
   -0.82358E+07        -0.10796E+07         0.00000E+00
   -0.10796E+07        -0.19252E+08         0.00000E+00
    0.00000E+00         0.00000E+00         0.00000E+00
 
   -0.80626E+07        -0.11472E+07         0.00000E+00
   -0.11472E+07        -0.19292E+08         0.00000E+00
    0.00000E+00         0.00000E+00         0.00000E+00
 
   -0.78818E+07        -0.11992E+07         0.00000E+00
   -0.11992E+07        -0.19334E+08         0.00000E+00
    0.00000E+00         0.00000E+00         0.00000E+00
 
   -0.76943E+07        -0.12362E+07         0.00000E+00
   -0.12362E+07        -0.19378E+08         0.00000E+00
    0.00000E+00         0.00000E+00         0.00000E+00
 
   -0.75011E+07        -0.12587E+07         0.00000E+00
   -0.12587E+07        -0.19424E+08         0.00000E+00
    0.00000E+00         0.00000E+00         0.00000E+00
 
   -0.73030E+07        -0.12672E+07         0.00000E+00
   -0.12672E+07        -0.19471E+08         0.00000E+00
    0.00000E+00         0.00000E+00         0.00000E+00
 
   -0.71008E+07        -0.12625E+07         0.00000E+00
   -0.12625E+07        -0.19519E+08         0.00000E+00
    0.00000E+00         0.00000E+00         0.00000E+00
 
   -0.68953E+07        -0.12450E+07         0.00000E+00
   -0.12450E+07        -0.19568E+08         0.00000E+00
    0.00000E+00         0.00000E+00         0.00000E+00
 
   -0.66871E+07        -0.12154E+07         0.00000E+00
   -0.12154E+07        -0.19618E+08         0.00000E+00
    0.00000E+00         0.00000E+00         0.00000E+00
 
   -0.64767E+07        -0.11741E+07         0.00000E+00
   -0.11741E+07        -0.19668E+08         0.00000E+00
    0.00000E+00         0.00000E+00         0.00000E+00
 
   -0.62646E+07        -0.11217E+07         0.00000E+00
   -0.11217E+07        -0.19719E+08         0.00000E+00
    0.00000E+00         0.00000E+00         0.00000E+00
 
   -0.60513E+07        -0.10587E+07         0.00000E+00
   -0.10587E+07        -0.19769E+08         0.00000E+00
    0.00000E+00         0.00000E+00         0.00000E+00
 
   -0.58371E+07        -0.98563E+06         0.00000E+00
   -0.98563E+06        -0.19820E+08         0.00000E+00
    0.00000E+00         0.00000E+00         0.00000E+00
 
   -0.56223E+07        -0.90284E+06         0.00000E+00
   -0.90284E+06        -0.19872E+08         0.00000E+00
    0.00000E+00         0.00000E+00         0.00000E+00
 
   -0.54071E+07        -0.81075E+06         0.00000E+00
   -0.81075E+06        -0.19924E+08         0.00000E+00
    0.00000E+00         0.00000E+00         0.00000E+00
 
   -0.51917E+07        -0.70969E+06         0.00000E+00
   -0.70969E+06        -0.19976E+08         0.00000E+00
    0.00000E+00         0.00000E+00         0.00000E+00
 
   -0.49762E+07        -0.59993E+06         0.00000E+00
   -0.59993E+06        -0.20029E+08         0.00000E+00
    0.00000E+00         0.00000E+00         0.00000E+00
 
   -0.47609E+07        -0.48168E+06         0.00000E+00
   -0.48168E+06        -0.20083E+08         0.00000E+00
    0.00000E+00         0.00000E+00         0.00000E+00
 
   -0.45458E+07        -0.35508E+06         0.00000E+00
   -0.35508E+06        -0.20138E+08         0.00000E+00
    0.00000E+00         0.00000E+00         0.00000E+00
 
   -0.43311E+07        -0.22026E+06         0.00000E+00
   -0.22026E+06        -0.20194E+08         0.00000E+00
    0.00000E+00         0.00000E+00         0.00000E+00
 
   -0.41168E+07        -0.77450E+05         0.00000E+00
   -0.77450E+05        -0.20250E+08         0.00000E+00
    0.00000E+00         0.00000E+00         0.00000E+00
 
   -0.39028E+07         0.73213E+05         0.00000E+00
    0.73213E+05        -0.20308E+08         0.00000E+00
    0.00000E+00         0.00000E+00         0.00000E+00
 
   -0.36892E+07         0.23206E+06         0.00000E+00
    0.23206E+06        -0.20367E+08         0.00000E+00
    0.00000E+00         0.00000E+00         0.00000E+00
 
   -0.34762E+07         0.40001E+06         0.00000E+00
    0.40001E+06        -0.20428E+08         0.00000E+00
    0.00000E+00         0.00000E+00         0.00000E+00
 
   -0.32656E+07         0.57843E+06         0.00000E+00
    0.57843E+06        -0.20493E+08         0.00000E+00
    0.00000E+00         0.00000E+00         0.00000E+00
 
   -0.30583E+07         0.76479E+06         0.00000E+00
    0.76479E+06        -0.20553E+08         0.00000E+00
    0.00000E+00         0.00000E+00         0.00000E+00
 
   -0.28516E+07         0.95491E+06         0.00000E+00
    0.95491E+06        -0.20611E+08         0.00000E+00
    0.00000E+00         0.00000E+00         0.00000E+00
 
   -0.26442E+07         0.11480E+07         0.00000E+00
    0.11480E+07        -0.20675E+08         0.00000E+00
    0.00000E+00         0.00000E+00        -0.69131E+04
 
   -0.24572E+07         0.13484E+07         0.00000E+00
    0.13484E+07        -0.20767E+08         0.00000E+00
    0.00000E+00         0.00000E+00        -0.54398E+05
 
   -0.22920E+07         0.15571E+07         0.00000E+00
    0.15571E+07        -0.20854E+08         0.00000E+00
    0.00000E+00         0.00000E+00        -0.14389E+06
 
   -0.21647E+07         0.17700E+07         0.00000E+00
    0.17700E+07        -0.20924E+08         0.00000E+00
    0.00000E+00         0.00000E+00        -0.29383E+06
 
   -0.20922E+07         0.19819E+07         0.00000E+00
    0.19819E+07        -0.20991E+08         0.00000E+00
    0.00000E+00         0.00000E+00        -0.51747E+06
 
   -0.20398E+07         0.21899E+07         0.00000E+00
    0.21899E+07        -0.21073E+08         0.00000E+00
    0.00000E+00         0.00000E+00        -0.75481E+06
 
   -0.20134E+07         0.23921E+07         0.00000E+00
    0.23921E+07        -0.21167E+08         0.00000E+00
    0.00000E+00         0.00000E+00        -0.99444E+06
 
   -0.20153E+07         0.25929E+07         0.00000E+00
    0.25929E+07        -0.21264E+08         0.00000E+00
    0.00000E+00         0.00000E+00        -0.12278E+07
 
   -0.20391E+07         0.27981E+07         0.00000E+00
    0.27981E+07        -0.21362E+08         0.00000E+00
    0.00000E+00         0.00000E+00        -0.14478E+07
 
   -0.20849E+07         0.30086E+07         0.00000E+00
    0.30086E+07        -0.21455E+08         0.00000E+00
    0.00000E+00         0.00000E+00        -0.16603E+07
 
   -0.21501E+07         0.32279E+07         0.00000E+00
    0.32279E+07        -0.21542E+08         0.00000E+00
    0.00000E+00         0.00000E+00        -0.18642E+07
 
   -0.22370E+07         0.34501E+07         0.00000E+00
    0.34501E+07        -0.21625E+08         0.00000E+00
    0.00000E+00         0.00000E+00        -0.20591E+07
 
   -0.23431E+07         0.36730E+07         0.00000E+00
    0.36730E+07        -0.21706E+08         0.00000E+00
    0.00000E+00         0.00000E+00        -0.22433E+07
 
   -0.24677E+07         0.38955E+07         0.00000E+00
    0.38955E+07        -0.21787E+08         0.00000E+00
    0.00000E+00         0.00000E+00        -0.24194E+07
 
   -0.26085E+07         0.41226E+07         0.00000E+00
    0.41226E+07        -0.21863E+08         0.00000E+00
    0.00000E+00         0.00000E+00        -0.25907E+07
 
   -0.27618E+07         0.43522E+07         0.00000E+00
    0.43522E+07        -0.21933E+08         0.00000E+00
    0.00000E+00         0.00000E+00        -0.27581E+07
 
   -0.12080E+08        -0.14615E+06         0.00000E+00
   -0.14615E+06        -0.20933E+08         0.00000E+00
    0.00000E+00         0.00000E+00         0.00000E+00
 
   -0.11886E+08        -0.36836E+06         0.00000E+00
   -0.36836E+06        -0.20938E+08         0.00000E+00
    0.00000E+00         0.00000E+00         0.00000E+00
 
   -0.11679E+08        -0.56839E+06         0.00000E+00
   -0.56839E+06        -0.20949E+08         0.00000E+00
    0.00000E+00         0.00000E+00         0.00000E+00
 
   -0.11460E+08        -0.74619E+06         0.00000E+00
   -0.74619E+06        -0.20965E+08         0.00000E+00
    0.00000E+00         0.00000E+00         0.00000E+00
 
   -0.11231E+08        -0.90254E+06         0.00000E+00
   -0.90254E+06        -0.20985E+08         0.00000E+00
    0.00000E+00         0.00000E+00         0.00000E+00
 
   -0.10993E+08        -0.10382E+07         0.00000E+00
   -0.10382E+07        -0.21008E+08         0.00000E+00
    0.00000E+00         0.00000E+00         0.00000E+00
 
   -0.10747E+08        -0.11537E+07         0.00000E+00
   -0.11537E+07        -0.21034E+08         0.00000E+00
    0.00000E+00         0.00000E+00         0.00000E+00
 
   -0.10494E+08        -0.12499E+07         0.00000E+00
   -0.12499E+07        -0.21062E+08         0.00000E+00
    0.00000E+00         0.00000E+00         0.00000E+00
 
   -0.10235E+08        -0.13275E+07         0.00000E+00
   -0.13275E+07        -0.21092E+08         0.00000E+00
    0.00000E+00         0.00000E+00         0.00000E+00
 
   -0.99722E+07        -0.13870E+07         0.00000E+00
   -0.13870E+07        -0.21122E+08         0.00000E+00
    0.00000E+00         0.00000E+00         0.00000E+00
 
   -0.97062E+07        -0.14294E+07         0.00000E+00
   -0.14294E+07        -0.21153E+08         0.00000E+00
    0.00000E+00         0.00000E+00         0.00000E+00
 
   -0.94381E+07        -0.14557E+07         0.00000E+00
   -0.14557E+07        -0.21184E+08         0.00000E+00
    0.00000E+00         0.00000E+00         0.00000E+00
 
   -0.91687E+07        -0.14666E+07         0.00000E+00
   -0.14666E+07        -0.21215E+08         0.00000E+00
    0.00000E+00         0.00000E+00         0.00000E+00
 
   -0.88989E+07        -0.14629E+07         0.00000E+00
   -0.14629E+07        -0.21246E+08         0.00000E+00
    0.00000E+00         0.00000E+00         0.00000E+00
 
   -0.86293E+07        -0.14458E+07         0.00000E+00
   -0.14458E+07        -0.21276E+08         0.00000E+00
    0.00000E+00         0.00000E+00         0.00000E+00
 
   -0.83605E+07        -0.14159E+07         0.00000E+00
   -0.14159E+07        -0.21305E+08         0.00000E+00
    0.00000E+00         0.00000E+00         0.00000E+00
 
   -0.80929E+07        -0.13742E+07         0.00000E+00
   -0.13742E+07        -0.21333E+08         0.00000E+00
    0.00000E+00         0.00000E+00         0.00000E+00
 
   -0.78267E+07        -0.13215E+07         0.00000E+00
   -0.13215E+07        -0.21361E+08         0.00000E+00
    0.00000E+00         0.00000E+00         0.00000E+00
 
   -0.75622E+07        -0.12583E+07         0.00000E+00
   -0.12583E+07        -0.21389E+08         0.00000E+00
    0.00000E+00         0.00000E+00         0.00000E+00
 
   -0.72994E+07        -0.11855E+07         0.00000E+00
   -0.11855E+07        -0.21416E+08         0.00000E+00
    0.00000E+00         0.00000E+00         0.00000E+00
 
   -0.70385E+07        -0.11035E+07         0.00000E+00
   -0.11035E+07        -0.21443E+08         0.00000E+00
    0.00000E+00         0.00000E+00         0.00000E+00
 
   -0.67793E+07        -0.10129E+07         0.00000E+00
   -0.10129E+07        -0.21471E+08         0.00000E+00
    0.00000E+00         0.00000E+00         0.00000E+00
 
   -0.65217E+07        -0.91425E+06         0.00000E+00
   -0.91425E+06        -0.21498E+08         0.00000E+00
    0.00000E+00         0.00000E+00         0.00000E+00
 
   -0.62655E+07        -0.80787E+06         0.00000E+00
   -0.80787E+06        -0.21526E+08         0.00000E+00
    0.00000E+00         0.00000E+00         0.00000E+00
 
   -0.60105E+07        -0.69407E+06         0.00000E+00
   -0.69407E+06        -0.21555E+08         0.00000E+00
    0.00000E+00         0.00000E+00         0.00000E+00
 
   -0.57562E+07        -0.57309E+06         0.00000E+00
   -0.57309E+06        -0.21584E+08         0.00000E+00
    0.00000E+00         0.00000E+00         0.00000E+00
 
   -0.55024E+07        -0.44487E+06         0.00000E+00
   -0.44487E+06        -0.21616E+08         0.00000E+00
    0.00000E+00         0.00000E+00         0.00000E+00
 
   -0.52492E+07        -0.30889E+06         0.00000E+00
   -0.30889E+06        -0.21650E+08         0.00000E+00
    0.00000E+00         0.00000E+00         0.00000E+00
 
   -0.49968E+07        -0.16501E+06         0.00000E+00
   -0.16501E+06        -0.21687E+08         0.00000E+00
    0.00000E+00         0.00000E+00         0.00000E+00
 
   -0.47448E+07        -0.14586E+05         0.00000E+00
   -0.14586E+05        -0.21724E+08         0.00000E+00
    0.00000E+00         0.00000E+00         0.00000E+00
 
   -0.44908E+07         0.14079E+06         0.00000E+00
    0.14079E+06        -0.21760E+08         0.00000E+00
    0.00000E+00         0.00000E+00         0.00000E+00
 
   -0.42347E+07         0.29971E+06         0.00000E+00
    0.29971E+06        -0.21795E+08         0.00000E+00
    0.00000E+00         0.00000E+00        -0.67580E+04
 
   -0.39891E+07         0.46521E+06         0.00000E+00
    0.46521E+06        -0.21844E+08         0.00000E+00
    0.00000E+00         0.00000E+00        -0.46931E+05
 
   -0.37531E+07         0.64013E+06         0.00000E+00
    0.64013E+06        -0.21903E+08         0.00000E+00
    0.00000E+00         0.00000E+00        -0.11967E+06
 
   -0.35251E+07         0.82415E+06         0.00000E+00
    0.82415E+06        -0.21963E+08         0.00000E+00
    0.00000E+00         0.00000E+00        -0.22240E+06
 
   -0.33565E+07         0.10099E+07         0.00000E+00
    0.10099E+07        -0.22009E+08         0.00000E+00
    0.00000E+00         0.00000E+00        -0.42516E+06
 
   -0.32066E+07         0.11928E+07         0.00000E+00
    0.11928E+07        -0.22076E+08         0.00000E+00
    0.00000E+00         0.00000E+00        -0.64980E+06
 
   -0.30804E+07         0.13714E+07         0.00000E+00
    0.13714E+07        -0.22153E+08         0.00000E+00
    0.00000E+00         0.00000E+00        -0.88334E+06
 
   -0.29785E+07         0.15522E+07         0.00000E+00
    0.15522E+07        -0.22236E+08         0.00000E+00
    0.00000E+00         0.00000E+00        -0.11140E+07
 
   -0.29026E+07         0.17399E+07         0.00000E+00
    0.17399E+07        -0.22323E+08         0.00000E+00
    0.00000E+00         0.00000E+00        -0.13420E+07
 
   -0.28511E+07         0.19362E+07         0.00000E+00
    0.19362E+07        -0.22411E+08         0.00000E+00
    0.00000E+00         0.00000E+00        -0.15673E+07
 
   -0.28220E+07         0.21416E+07         0.00000E+00
    0.21416E+07        -0.22498E+08         0.00000E+00
    0.00000E+00         0.00000E+00        -0.17894E+07
 
   -0.28156E+07         0.23551E+07         0.00000E+00
    0.23551E+07        -0.22585E+08         0.00000E+00
    0.00000E+00         0.00000E+00        -0.20076E+07
 
   -0.28334E+07         0.25765E+07         0.00000E+00
    0.25765E+07        -0.22672E+08         0.00000E+00
    0.00000E+00         0.00000E+00        -0.22200E+07
 
   -0.28767E+07         0.28014E+07         0.00000E+00
    0.28014E+07        -0.22761E+08         0.00000E+00
    0.00000E+00         0.00000E+00        -0.24255E+07
 
   -0.29420E+07         0.30342E+07         0.00000E+00
    0.30342E+07        -0.22849E+08         0.00000E+00
    0.00000E+00         0.00000E+00        -0.26253E+07
 
   -0.30274E+07         0.32740E+07         0.00000E+00
    0.32740E+07        -0.22933E+08         0.00000E+00
    0.00000E+00         0.00000E+00        -0.28206E+07
 
   -0.31315E+07         0.35202E+07         0.00000E+00
    0.35202E+07        -0.23013E+08         0.00000E+00
    0.00000E+00         0.00000E+00        -0.30108E+07
 
   -0.32521E+07         0.37702E+07         0.00000E+00
    0.37702E+07        -0.23088E+08         0.00000E+00
    0.00000E+00         0.00000E+00        -0.31961E+07
 
   -0.33902E+07         0.40301E+07         0.00000E+00
    0.40301E+07        -0.23154E+08         0.00000E+00
    0.00000E+00         0.00000E+00        -0.33759E+07
 
   -0.15246E+08        -0.15658E+06         0.00000E+00
   -0.15658E+06        -0.22849E+08         0.00000E+00
    0.00000E+00         0.00000E+00         0.00000E+00
 
   -0.14929E+08        -0.40469E+06         0.00000E+00
   -0.40469E+06        -0.22856E+08         0.00000E+00
    0.00000E+00         0.00000E+00         0.00000E+00
 
   -0.14603E+08        -0.62548E+06         0.00000E+00
   -0.62548E+06        -0.22864E+08         0.00000E+00
    0.00000E+00         0.00000E+00         0.00000E+00
 
   -0.14267E+08        -0.82165E+06         0.00000E+00
   -0.82165E+06        -0.22874E+08         0.00000E+00
    0.00000E+00         0.00000E+00         0.00000E+00
 
   -0.13924E+08        -0.99320E+06         0.00000E+00
   -0.99320E+06        -0.22888E+08         0.00000E+00
    0.00000E+00         0.00000E+00         0.00000E+00
 
   -0.13575E+08        -0.11403E+07         0.00000E+00
   -0.11403E+07        -0.22904E+08         0.00000E+00
    0.00000E+00         0.00000E+00         0.00000E+00
 
   -0.13220E+08        -0.12632E+07         0.00000E+00
   -0.12632E+07        -0.22920E+08         0.00000E+00
    0.00000E+00         0.00000E+00         0.00000E+00
 
   -0.12863E+08        -0.13626E+07         0.00000E+00
   -0.13626E+07        -0.22936E+08         0.00000E+00
    0.00000E+00         0.00000E+00         0.00000E+00
 
   -0.12506E+08        -0.14399E+07         0.00000E+00
   -0.14399E+07        -0.22951E+08         0.00000E+00
    0.00000E+00         0.00000E+00         0.00000E+00
 
   -0.12150E+08        -0.14964E+07         0.00000E+00
   -0.14964E+07        -0.22963E+08         0.00000E+00
    0.00000E+00         0.00000E+00         0.00000E+00
 
   -0.11796E+08        -0.15338E+07         0.00000E+00
   -0.15338E+07        -0.22973E+08         0.00000E+00
    0.00000E+00         0.00000E+00         0.00000E+00
 
   -0.11446E+08        -0.15535E+07         0.00000E+00
   -0.15535E+07        -0.22981E+08         0.00000E+00
    0.00000E+00         0.00000E+00         0.00000E+00
 
   -0.11101E+08        -0.15572E+07         0.00000E+00
   -0.15572E+07        -0.22985E+08         0.00000E+00
    0.00000E+00         0.00000E+00         0.00000E+00
 
   -0.10762E+08        -0.15464E+07         0.00000E+00
   -0.15464E+07        -0.22987E+08         0.00000E+00
    0.00000E+00         0.00000E+00         0.00000E+00
 
   -0.10427E+08        -0.15224E+07         0.00000E+00
   -0.15224E+07        -0.22987E+08         0.00000E+00
    0.00000E+00         0.00000E+00         0.00000E+00
 
   -0.10099E+08        -0.14864E+07         0.00000E+00
   -0.14864E+07        -0.22985E+08         0.00000E+00
    0.00000E+00         0.00000E+00         0.00000E+00
 
   -0.97760E+07        -0.14395E+07         0.00000E+00
   -0.14395E+07        -0.22981E+08         0.00000E+00
    0.00000E+00         0.00000E+00         0.00000E+00
 
   -0.94588E+07        -0.13826E+07         0.00000E+00
   -0.13826E+07        -0.22976E+08         0.00000E+00
    0.00000E+00         0.00000E+00         0.00000E+00
 
   -0.91470E+07        -0.13165E+07         0.00000E+00
   -0.13165E+07        -0.22971E+08         0.00000E+00
    0.00000E+00         0.00000E+00         0.00000E+00
 
   -0.88403E+07        -0.12422E+07         0.00000E+00
   -0.12422E+07        -0.22965E+08         0.00000E+00
    0.00000E+00         0.00000E+00         0.00000E+00
 
   -0.85384E+07        -0.11601E+07         0.00000E+00
   -0.11601E+07        -0.22959E+08         0.00000E+00
    0.00000E+00         0.00000E+00         0.00000E+00
 
   -0.82408E+07        -0.10709E+07         0.00000E+00
   -0.10709E+07        -0.22953E+08         0.00000E+00
    0.00000E+00         0.00000E+00         0.00000E+00
 
   -0.79473E+07        -0.97492E+06         0.00000E+00
   -0.97492E+06        -0.22948E+08         0.00000E+00
    0.00000E+00         0.00000E+00         0.00000E+00
 
   -0.76572E+07        -0.87304E+06         0.00000E+00
   -0.87304E+06        -0.22945E+08         0.00000E+00
    0.00000E+00         0.00000E+00         0.00000E+00
 
   -0.73696E+07        -0.76557E+06         0.00000E+00
   -0.76557E+06        -0.22943E+08         0.00000E+00
    0.00000E+00         0.00000E+00         0.00000E+00
 
   -0.70836E+07        -0.65267E+06         0.00000E+00
   -0.65267E+06        -0.22944E+08         0.00000E+00
    0.00000E+00         0.00000E+00         0.00000E+00
 
   -0.67979E+07        -0.53475E+06         0.00000E+00
   -0.53475E+06        -0.22945E+08         0.00000E+00
    0.00000E+00         0.00000E+00         0.00000E+00
 
   -0.65108E+07        -0.41273E+06         0.00000E+00
   -0.41273E+06        -0.22948E+08         0.00000E+00
    0.00000E+00         0.00000E+00         0.00000E+00
 
   -0.62281E+07        -0.28666E+06         0.00000E+00
   -0.28666E+06        -0.22946E+08         0.00000E+00
    0.00000E+00         0.00000E+00        -0.18594E+05
 
   -0.59457E+07        -0.15541E+06         0.00000E+00
   -0.15541E+06        -0.22950E+08         0.00000E+00
    0.00000E+00         0.00000E+00        -0.50255E+05
 
   -0.56653E+07        -0.17559E+05         0.00000E+00
   -0.17559E+05        -0.22969E+08         0.00000E+00
    0.00000E+00         0.00000E+00        -0.99889E+05
 
   -0.53832E+07         0.12760E+06         0.00000E+00
    0.12760E+06        -0.22995E+08         0.00000E+00
    0.00000E+00         0.00000E+00        -0.16328E+06
 
   -0.51272E+07         0.27644E+06         0.00000E+00
    0.27644E+06        -0.23021E+08         0.00000E+00
    0.00000E+00         0.00000E+00        -0.29151E+06
 
   -0.48960E+07         0.42279E+06         0.00000E+00
    0.42279E+06        -0.23054E+08         0.00000E+00
    0.00000E+00         0.00000E+00        -0.46970E+06
 
   -0.46814E+07         0.56302E+06         0.00000E+00
    0.56302E+06        -0.23097E+08         0.00000E+00
    0.00000E+00         0.00000E+00        -0.66236E+06
 
   -0.44858E+07         0.70247E+06         0.00000E+00
    0.70247E+06        -0.23151E+08         0.00000E+00
    0.00000E+00         0.00000E+00        -0.86032E+06
 
   -0.43114E+07         0.84767E+06         0.00000E+00
    0.84767E+06        -0.23210E+08         0.00000E+00
    0.00000E+00         0.00000E+00        -0.10630E+07
 
   -0.41556E+07         0.10013E+07         0.00000E+00
    0.10013E+07        -0.23274E+08         0.00000E+00
    0.00000E+00         0.00000E+00        -0.12717E+07
 
   -0.40179E+07         0.11633E+07         0.00000E+00
    0.11633E+07        -0.23343E+08         0.00000E+00
    0.00000E+00         0.00000E+00        -0.14861E+07
 
   -0.38996E+07         0.13346E+07         0.00000E+00
    0.13346E+07        -0.23417E+08         0.00000E+00
    0.00000E+00         0.00000E+00        -0.17052E+07
 
   -0.38015E+07         0.15160E+07         0.00000E+00
    0.15160E+07        -0.23497E+08         0.00000E+00
    0.00000E+00         0.00000E+00        -0.19283E+07
 
   -0.37253E+07         0.17074E+07         0.00000E+00
    0.17074E+07        -0.23582E+08         0.00000E+00
    0.00000E+00         0.00000E+00        -0.21553E+07
 
   -0.36722E+07         0.19112E+07         0.00000E+00
    0.19112E+07        -0.23671E+08         0.00000E+00
    0.00000E+00         0.00000E+00        -0.23851E+07
 
   -0.36431E+07         0.21270E+07         0.00000E+00
    0.21270E+07        -0.23765E+08         0.00000E+00
    0.00000E+00         0.00000E+00        -0.26160E+07
 
   -0.36381E+07         0.23562E+07         0.00000E+00
    0.23562E+07        -0.23859E+08         0.00000E+00
    0.00000E+00         0.00000E+00        -0.28468E+07
 
   -0.36569E+07         0.25976E+07         0.00000E+00
    0.25976E+07        -0.23954E+08         0.00000E+00
    0.00000E+00         0.00000E+00        -0.30768E+07
 
   -0.36994E+07         0.28498E+07         0.00000E+00
    0.28498E+07        -0.24049E+08         0.00000E+00
    0.00000E+00         0.00000E+00        -0.33053E+07
 
   -0.37659E+07         0.31127E+07         0.00000E+00
    0.31127E+07        -0.24141E+08         0.00000E+00
    0.00000E+00         0.00000E+00        -0.35313E+07
 
   -0.38619E+07         0.33821E+07         0.00000E+00
    0.33821E+07        -0.24232E+08         0.00000E+00
    0.00000E+00         0.00000E+00        -0.37479E+07
 
   -0.39890E+07         0.36512E+07         0.00000E+00
    0.36512E+07        -0.24327E+08         0.00000E+00
    0.00000E+00         0.00000E+00        -0.39560E+07
 
   -0.18580E+08        -0.17148E+06         0.00000E+00
   -0.17148E+06        -0.24881E+08         0.00000E+00
    0.00000E+00         0.00000E+00         0.00000E+00
 
   -0.18131E+08        -0.43401E+06         0.00000E+00
   -0.43401E+06        -0.24873E+08         0.00000E+00
    0.00000E+00         0.00000E+00         0.00000E+00
 
   -0.17667E+08        -0.67289E+06         0.00000E+00
   -0.67289E+06        -0.24883E+08         0.00000E+00
    0.00000E+00         0.00000E+00         0.00000E+00
 
   -0.17189E+08        -0.87802E+06         0.00000E+00
   -0.87802E+06        -0.24896E+08         0.00000E+00
    0.00000E+00         0.00000E+00         0.00000E+00
 
   -0.16703E+08        -0.10484E+07         0.00000E+00
   -0.10484E+07        -0.24905E+08         0.00000E+00
    0.00000E+00         0.00000E+00         0.00000E+00
 
   -0.16215E+08        -0.11849E+07         0.00000E+00
   -0.11849E+07        -0.24907E+08         0.00000E+00
    0.00000E+00         0.00000E+00         0.00000E+00
 
   -0.15731E+08        -0.12909E+07         0.00000E+00
   -0.12909E+07        -0.24900E+08         0.00000E+00
    0.00000E+00         0.00000E+00         0.00000E+00
 
   -0.15255E+08        -0.13703E+07         0.00000E+00
   -0.13703E+07        -0.24886E+08         0.00000E+00
    0.00000E+00         0.00000E+00         0.00000E+00
 
   -0.14789E+08        -0.14264E+07         0.00000E+00
   -0.14264E+07        -0.24864E+08         0.00000E+00
    0.00000E+00         0.00000E+00         0.00000E+00
 
   -0.14334E+08        -0.14617E+07         0.00000E+00
   -0.14617E+07        -0.24836E+08         0.00000E+00
    0.00000E+00         0.00000E+00         0.00000E+00
 
   -0.13891E+08        -0.14790E+07         0.00000E+00
   -0.14790E+07        -0.24802E+08         0.00000E+00
    0.00000E+00         0.00000E+00         0.00000E+00
 
   -0.13462E+08        -0.14807E+07         0.00000E+00
   -0.14807E+07        -0.24762E+08         0.00000E+00
    0.00000E+00         0.00000E+00         0.00000E+00
 
   -0.13045E+08        -0.14686E+07         0.00000E+00
   -0.14686E+07        -0.24723E+08         0.00000E+00
    0.00000E+00         0.00000E+00         0.00000E+00
 
   -0.12641E+08        -0.14440E+07         0.00000E+00
   -0.14440E+07        -0.24679E+08         0.00000E+00
    0.00000E+00         0.00000E+00         0.00000E+00
 
   -0.12249E+08        -0.14085E+07         0.00000E+00
   -0.14085E+07        -0.24633E+08         0.00000E+00
    0.00000E+00         0.00000E+00         0.00000E+00
 
   -0.11869E+08        -0.13633E+07         0.00000E+00
   -0.13633E+07        -0.24584E+08         0.00000E+00
    0.00000E+00         0.00000E+00         0.00000E+00
 
   -0.11500E+08        -0.13097E+07         0.00000E+00
   -0.13097E+07        -0.24534E+08         0.00000E+00
    0.00000E+00         0.00000E+00         0.00000E+00
 
   -0.11141E+08        -0.12488E+07         0.00000E+00
   -0.12488E+07        -0.24484E+08         0.00000E+00
    0.00000E+00         0.00000E+00         0.00000E+00
 
   -0.10792E+08        -0.11815E+07         0.00000E+00
   -0.11815E+07        -0.24434E+08         0.00000E+00
    0.00000E+00         0.00000E+00         0.00000E+00
 
   -0.10451E+08        -0.11086E+07         0.00000E+00
   -0.11086E+07        -0.24384E+08         0.00000E+00
    0.00000E+00         0.00000E+00         0.00000E+00
 
   -0.10118E+08        -0.10308E+07         0.00000E+00
   -0.10308E+07        -0.24336E+08         0.00000E+00
    0.00000E+00         0.00000E+00         0.00000E+00
 
   -0.97921E+07        -0.94859E+06         0.00000E+00
   -0.94859E+06        -0.24290E+08         0.00000E+00
    0.00000E+00         0.00000E+00        -0.76187E+03
 
   -0.94723E+07        -0.86234E+06         0.00000E+00
   -0.86234E+06        -0.24245E+08         0.00000E+00
    0.00000E+00         0.00000E+00        -0.69240E+04
 
   -0.91583E+07        -0.77200E+06         0.00000E+00
   -0.77200E+06        -0.24200E+08         0.00000E+00
    0.00000E+00         0.00000E+00        -0.19766E+05
 
   -0.88477E+07        -0.67792E+06         0.00000E+00
   -0.67792E+06        -0.24158E+08         0.00000E+00
    0.00000E+00         0.00000E+00        -0.34485E+05
 
   -0.85397E+07        -0.58046E+06         0.00000E+00
   -0.58046E+06        -0.24118E+08         0.00000E+00
    0.00000E+00         0.00000E+00        -0.51203E+05
 
   -0.82329E+07        -0.47963E+06         0.00000E+00
   -0.47963E+06        -0.24087E+08         0.00000E+00
    0.00000E+00         0.00000E+00        -0.70036E+05
 
   -0.79287E+07        -0.37497E+06         0.00000E+00
   -0.37497E+06        -0.24064E+08         0.00000E+00
    0.00000E+00         0.00000E+00        -0.98871E+05
 
   -0.76249E+07        -0.26694E+06         0.00000E+00
   -0.26694E+06        -0.24053E+08         0.00000E+00
    0.00000E+00         0.00000E+00        -0.13603E+06
 
   -0.73261E+07        -0.15656E+06         0.00000E+00
   -0.15656E+06        -0.24049E+08         0.00000E+00
    0.00000E+00         0.00000E+00        -0.19663E+06
 
   -0.70477E+07        -0.47941E+05         0.00000E+00
   -0.47941E+05        -0.24044E+08         0.00000E+00
    0.00000E+00         0.00000E+00        -0.31321E+06
 
   -0.67786E+07         0.55268E+05         0.00000E+00
    0.55268E+05        -0.24049E+08         0.00000E+00
    0.00000E+00         0.00000E+00        -0.44432E+06
 
   -0.65226E+07         0.15397E+06         0.00000E+00
    0.15397E+06        -0.24064E+08         0.00000E+00
    0.00000E+00         0.00000E+00        -0.58402E+06
 
   -0.62817E+07         0.25355E+06         0.00000E+00
    0.25355E+06        -0.24086E+08         0.00000E+00
    0.00000E+00         0.00000E+00        -0.73229E+06
 
   -0.60542E+07         0.35699E+06         0.00000E+00
    0.35699E+06        -0.24116E+08         0.00000E+00
    0.00000E+00         0.00000E+00        -0.88970E+06
 
   -0.58392E+07         0.46464E+06         0.00000E+00
    0.46464E+06        -0.24153E+08         0.00000E+00
    0.00000E+00         0.00000E+00        -0.10565E+07
 
   -0.56339E+07         0.57709E+06         0.00000E+00
    0.57709E+06        -0.24196E+08         0.00000E+00
    0.00000E+00         0.00000E+00        -0.12338E+07
 
   -0.54393E+07         0.69569E+06         0.00000E+00
    0.69569E+06        -0.24247E+08         0.00000E+00
    0.00000E+00         0.00000E+00        -0.14226E+07
 
   -0.52577E+07         0.82221E+06         0.00000E+00
    0.82221E+06        -0.24306E+08         0.00000E+00
    0.00000E+00         0.00000E+00        -0.16225E+07
 
   -0.50895E+07         0.95803E+06         0.00000E+00
    0.95803E+06        -0.24375E+08         0.00000E+00
    0.00000E+00         0.00000E+00        -0.18341E+07
 
   -0.49356E+07         0.11045E+07         0.00000E+00
    0.11045E+07        -0.24451E+08         0.00000E+00
    0.00000E+00         0.00000E+00        -0.20579E+07
 
   -0.47963E+07         0.12638E+07         0.00000E+00
    0.12638E+07        -0.24536E+08         0.00000E+00
    0.00000E+00         0.00000E+00        -0.22944E+07
 
   -0.46730E+07         0.14379E+07         0.00000E+00
    0.14379E+07        -0.24630E+08         0.00000E+00
    0.00000E+00         0.00000E+00        -0.25440E+07
 
   -0.45681E+07         0.16286E+07         0.00000E+00
    0.16286E+07        -0.24732E+08         0.00000E+00
    0.00000E+00         0.00000E+00        -0.28070E+07
 
   -0.44874E+07         0.18375E+07         0.00000E+00
    0.18375E+07        -0.24842E+08         0.00000E+00
    0.00000E+00         0.00000E+00        -0.30807E+07
 
   -0.44345E+07         0.20653E+07         0.00000E+00
    0.20653E+07        -0.24961E+08         0.00000E+00
    0.00000E+00         0.00000E+00        -0.33629E+07
 
   -0.44128E+07         0.23114E+07         0.00000E+00
    0.23114E+07        -0.25086E+08         0.00000E+00
    0.00000E+00         0.00000E+00        -0.36498E+07
 
   -0.44270E+07         0.25684E+07         0.00000E+00
    0.25684E+07        -0.25217E+08         0.00000E+00
    0.00000E+00         0.00000E+00        -0.39345E+07
 
   -0.44839E+07         0.28464E+07         0.00000E+00
    0.28464E+07        -0.25351E+08         0.00000E+00
    0.00000E+00         0.00000E+00        -0.42113E+07
 
   -0.45639E+07         0.31312E+07         0.00000E+00
    0.31312E+07        -0.25475E+08         0.00000E+00
    0.00000E+00         0.00000E+00        -0.44772E+07
 
   -0.22064E+08        -0.19307E+06         0.00000E+00
   -0.19307E+06        -0.26844E+08         0.00000E+00
    0.00000E+00         0.00000E+00        -0.10271E+07
 
   -0.21441E+08        -0.49024E+06         0.00000E+00
   -0.49024E+06        -0.26887E+08         0.00000E+00
    0.00000E+00         0.00000E+00        -0.87972E+06
 
   -0.20764E+08        -0.71308E+06         0.00000E+00
   -0.71308E+06        -0.26887E+08         0.00000E+00
    0.00000E+00         0.00000E+00        -0.77872E+06
 
   -0.20081E+08        -0.87974E+06         0.00000E+00
   -0.87974E+06        -0.26857E+08         0.00000E+00
    0.00000E+00         0.00000E+00        -0.69711E+06
 
   -0.19405E+08        -0.99996E+06         0.00000E+00
   -0.99996E+06        -0.26818E+08         0.00000E+00
    0.00000E+00         0.00000E+00        -0.62350E+06
 
   -0.18750E+08        -0.10823E+07         0.00000E+00
   -0.10823E+07        -0.26764E+08         0.00000E+00
    0.00000E+00         0.00000E+00        -0.55462E+06
 
   -0.18124E+08        -0.11345E+07         0.00000E+00
   -0.11345E+07        -0.26705E+08         0.00000E+00
    0.00000E+00         0.00000E+00        -0.49412E+06
 
   -0.17529E+08        -0.11627E+07         0.00000E+00
   -0.11627E+07        -0.26637E+08         0.00000E+00
    0.00000E+00         0.00000E+00        -0.43870E+06
 
   -0.16965E+08        -0.11733E+07         0.00000E+00
   -0.11733E+07        -0.26559E+08         0.00000E+00
    0.00000E+00         0.00000E+00        -0.38600E+06
 
   -0.16428E+08        -0.11706E+07         0.00000E+00
   -0.11706E+07        -0.26469E+08         0.00000E+00
    0.00000E+00         0.00000E+00        -0.33430E+06
 
   -0.15914E+08        -0.11561E+07         0.00000E+00
   -0.11561E+07        -0.26376E+08         0.00000E+00
    0.00000E+00         0.00000E+00        -0.28659E+06
 
   -0.15424E+08        -0.11317E+07         0.00000E+00
   -0.11317E+07        -0.26277E+08         0.00000E+00
    0.00000E+00         0.00000E+00        -0.24120E+06
 
   -0.14956E+08        -0.10996E+07         0.00000E+00
   -0.10996E+07        -0.26172E+08         0.00000E+00
    0.00000E+00         0.00000E+00        -0.21200E+06
 
   -0.14509E+08        -0.10617E+07         0.00000E+00
   -0.10617E+07        -0.26066E+08         0.00000E+00
    0.00000E+00         0.00000E+00        -0.18681E+06
 
   -0.14079E+08        -0.10187E+07         0.00000E+00
   -0.10187E+07        -0.25960E+08         0.00000E+00
    0.00000E+00         0.00000E+00        -0.16383E+06
 
   -0.13666E+08        -0.97193E+06         0.00000E+00
   -0.97193E+06        -0.25854E+08         0.00000E+00
    0.00000E+00         0.00000E+00        -0.14302E+06
 
   -0.13269E+08        -0.92197E+06         0.00000E+00
   -0.92197E+06        -0.25751E+08         0.00000E+00
    0.00000E+00         0.00000E+00        -0.12494E+06
 
   -0.12886E+08        -0.86910E+06         0.00000E+00
   -0.86910E+06        -0.25652E+08         0.00000E+00
    0.00000E+00         0.00000E+00        -0.10965E+06
 
   -0.12516E+08        -0.81360E+06         0.00000E+00
   -0.81360E+06        -0.25556E+08         0.00000E+00
    0.00000E+00         0.00000E+00        -0.97280E+05
 
   -0.12156E+08        -0.75567E+06         0.00000E+00
   -0.75567E+06        -0.25464E+08         0.00000E+00
    0.00000E+00         0.00000E+00        -0.88054E+05
 
   -0.11806E+08        -0.69541E+06         0.00000E+00
   -0.69541E+06        -0.25378E+08         0.00000E+00
    0.00000E+00         0.00000E+00        -0.82182E+05
 
   -0.11464E+08        -0.63280E+06         0.00000E+00
   -0.63280E+06        -0.25297E+08         0.00000E+00
    0.00000E+00         0.00000E+00        -0.80953E+05
 
   -0.11129E+08        -0.56822E+06         0.00000E+00
   -0.56822E+06        -0.25225E+08         0.00000E+00
    0.00000E+00         0.00000E+00        -0.82578E+05
 
   -0.10801E+08        -0.50198E+06         0.00000E+00
   -0.50198E+06        -0.25161E+08         0.00000E+00
    0.00000E+00         0.00000E+00        -0.87044E+05
 
   -0.10477E+08        -0.43416E+06         0.00000E+00
   -0.43416E+06        -0.25105E+08         0.00000E+00
    0.00000E+00         0.00000E+00        -0.96951E+05
 
   -0.10157E+08        -0.36493E+06         0.00000E+00
   -0.36493E+06        -0.25058E+08         0.00000E+00
    0.00000E+00         0.00000E+00        -0.11156E+06
 
   -0.98441E+07        -0.29500E+06         0.00000E+00
   -0.29500E+06        -0.25014E+08         0.00000E+00
    0.00000E+00         0.00000E+00        -0.14579E+06
 
   -0.95394E+07        -0.22639E+06         0.00000E+00
   -0.22639E+06        -0.24977E+08         0.00000E+00
    0.00000E+00         0.00000E+00        -0.20423E+06
 
   -0.92420E+07        -0.16050E+06         0.00000E+00
   -0.16050E+06        -0.24949E+08         0.00000E+00
    0.00000E+00         0.00000E+00        -0.27462E+06
 
   -0.89537E+07        -0.98067E+05         0.00000E+00
   -0.98067E+05        -0.24929E+08         0.00000E+00
    0.00000E+00         0.00000E+00        -0.35353E+06
 
   -0.86769E+07        -0.36989E+05         0.00000E+00
   -0.36989E+05        -0.24920E+08         0.00000E+00
    0.00000E+00         0.00000E+00        -0.44284E+06
 
   -0.84108E+07         0.24677E+05         0.00000E+00
    0.24677E+05        -0.24918E+08         0.00000E+00
    0.00000E+00         0.00000E+00        -0.54172E+06
 
   -0.81541E+07         0.87284E+05         0.00000E+00
    0.87284E+05        -0.24924E+08         0.00000E+00
    0.00000E+00         0.00000E+00        -0.65039E+06
 
   -0.79054E+07         0.15072E+06         0.00000E+00
    0.15072E+06        -0.24938E+08         0.00000E+00
    0.00000E+00         0.00000E+00        -0.76860E+06
 
   -0.76639E+07         0.21564E+06         0.00000E+00
    0.21564E+06        -0.24959E+08         0.00000E+00
    0.00000E+00         0.00000E+00        -0.89729E+06
 
   -0.74296E+07         0.28299E+06         0.00000E+00
    0.28299E+06        -0.24988E+08         0.00000E+00
    0.00000E+00         0.00000E+00        -0.10371E+07
 
   -0.72005E+07         0.35349E+06         0.00000E+00
    0.35349E+06        -0.25027E+08         0.00000E+00
    0.00000E+00         0.00000E+00        -0.11902E+07
 
   -0.69756E+07         0.42814E+06         0.00000E+00
    0.42814E+06        -0.25074E+08         0.00000E+00
    0.00000E+00         0.00000E+00        -0.13573E+07
 
   -0.67560E+07         0.50807E+06         0.00000E+00
    0.50807E+06        -0.25130E+08         0.00000E+00
    0.00000E+00         0.00000E+00        -0.15392E+07
 
   -0.65418E+07         0.59464E+06         0.00000E+00
    0.59464E+06        -0.25197E+08         0.00000E+00
    0.00000E+00         0.00000E+00        -0.17374E+07
 
   -0.63332E+07         0.68992E+06         0.00000E+00
    0.68992E+06        -0.25274E+08         0.00000E+00
    0.00000E+00         0.00000E+00        -0.19538E+07
 
   -0.61301E+07         0.79592E+06         0.00000E+00
    0.79592E+06        -0.25363E+08         0.00000E+00
    0.00000E+00         0.00000E+00        -0.21910E+07
 
   -0.59314E+07         0.91281E+06         0.00000E+00
    0.91281E+06        -0.25465E+08         0.00000E+00
    0.00000E+00         0.00000E+00        -0.24523E+07
 
   -0.57408E+07         0.10441E+07         0.00000E+00
    0.10441E+07        -0.25580E+08         0.00000E+00
    0.00000E+00         0.00000E+00        -0.27385E+07
 
   -0.55600E+07         0.11937E+07         0.00000E+00
    0.11937E+07        -0.25710E+08         0.00000E+00
    0.00000E+00         0.00000E+00        -0.30523E+07
 
   -0.53976E+07         0.13656E+07         0.00000E+00
    0.13656E+07        -0.25855E+08         0.00000E+00
    0.00000E+00         0.00000E+00        -0.33919E+07
 
   -0.52628E+07         0.15643E+07         0.00000E+00
    0.15643E+07        -0.26018E+08         0.00000E+00
    0.00000E+00         0.00000E+00        -0.37558E+07
 
   -0.51631E+07         0.17986E+07         0.00000E+00
    0.17986E+07        -0.26196E+08         0.00000E+00
    0.00000E+00         0.00000E+00        -0.41414E+07
 
   -0.51030E+07         0.20576E+07         0.00000E+00
    0.20576E+07        -0.26392E+08         0.00000E+00
    0.00000E+00         0.00000E+00        -0.45446E+07
 
   -0.51225E+07         0.23679E+07         0.00000E+00
    0.23679E+07        -0.26615E+08         0.00000E+00
    0.00000E+00         0.00000E+00        -0.49546E+07
 
   -0.25335E+08        -0.26060E+06         0.00000E+00
   -0.26060E+06        -0.28959E+08         0.00000E+00
    0.00000E+00         0.00000E+00        -0.51492E+07
 
   -0.24402E+08        -0.33452E+06         0.00000E+00
   -0.33452E+06        -0.28863E+08         0.00000E+00
    0.00000E+00         0.00000E+00        -0.40788E+07
 
   -0.23499E+08        -0.38994E+06         0.00000E+00
   -0.38994E+06        -0.28747E+08         0.00000E+00
    0.00000E+00         0.00000E+00        -0.32197E+07
 
   -0.22646E+08        -0.43104E+06         0.00000E+00
   -0.43104E+06        -0.28614E+08         0.00000E+00
    0.00000E+00         0.00000E+00        -0.25084E+07
 
   -0.21832E+08        -0.46397E+06         0.00000E+00
   -0.46397E+06        -0.28457E+08         0.00000E+00
    0.00000E+00         0.00000E+00        -0.19671E+07
 
   -0.21058E+08        -0.48531E+06         0.00000E+00
   -0.48531E+06        -0.28287E+08         0.00000E+00
    0.00000E+00         0.00000E+00        -0.15888E+07
 
   -0.20337E+08        -0.49695E+06         0.00000E+00
   -0.49695E+06        -0.28105E+08         0.00000E+00
    0.00000E+00         0.00000E+00        -0.13293E+07
 
   -0.19666E+08        -0.49917E+06         0.00000E+00
   -0.49917E+06        -0.27918E+08         0.00000E+00
    0.00000E+00         0.00000E+00        -0.11744E+07
 
   -0.19047E+08        -0.49480E+06         0.00000E+00
   -0.49480E+06        -0.27733E+08         0.00000E+00
    0.00000E+00         0.00000E+00        -0.10383E+07
 
   -0.18461E+08        -0.48425E+06         0.00000E+00
   -0.48425E+06        -0.27552E+08         0.00000E+00
    0.00000E+00         0.00000E+00        -0.91337E+06
 
   -0.17907E+08        -0.46783E+06         0.00000E+00
   -0.46783E+06        -0.27374E+08         0.00000E+00
    0.00000E+00         0.00000E+00        -0.79709E+06
 
   -0.17388E+08        -0.44930E+06         0.00000E+00
   -0.44930E+06        -0.27202E+08         0.00000E+00
    0.00000E+00         0.00000E+00        -0.69057E+06
 
   -0.16898E+08        -0.42906E+06         0.00000E+00
   -0.42906E+06        -0.27037E+08         0.00000E+00
    0.00000E+00         0.00000E+00        -0.59358E+06
 
   -0.16431E+08        -0.40716E+06         0.00000E+00
   -0.40716E+06        -0.26878E+08         0.00000E+00
    0.00000E+00         0.00000E+00        -0.50496E+06
 
   -0.15987E+08        -0.38500E+06         0.00000E+00
   -0.38500E+06        -0.26727E+08         0.00000E+00
    0.00000E+00         0.00000E+00        -0.42486E+06
 
   -0.15563E+08        -0.36226E+06         0.00000E+00
   -0.36226E+06        -0.26584E+08         0.00000E+00
    0.00000E+00         0.00000E+00        -0.35328E+06
 
   -0.15156E+08        -0.33898E+06         0.00000E+00
   -0.33898E+06        -0.26449E+08         0.00000E+00
    0.00000E+00         0.00000E+00        -0.28992E+06
 
   -0.14764E+08        -0.31539E+06         0.00000E+00
   -0.31539E+06        -0.26323E+08         0.00000E+00
    0.00000E+00         0.00000E+00        -0.23484E+06
 
   -0.14386E+08        -0.29157E+06         0.00000E+00
   -0.29157E+06        -0.26205E+08         0.00000E+00
    0.00000E+00         0.00000E+00        -0.18815E+06
 
   -0.14019E+08        -0.26751E+06         0.00000E+00
   -0.26751E+06        -0.26096E+08         0.00000E+00
    0.00000E+00         0.00000E+00        -0.15005E+06
 
   -0.13663E+08        -0.24322E+06         0.00000E+00
   -0.24322E+06        -0.25997E+08         0.00000E+00
    0.00000E+00         0.00000E+00        -0.12079E+06
 
   -0.13315E+08        -0.21885E+06         0.00000E+00
   -0.21885E+06        -0.25906E+08         0.00000E+00
    0.00000E+00         0.00000E+00        -0.10077E+06
 
   -0.12975E+08        -0.19428E+06         0.00000E+00
   -0.19428E+06        -0.25825E+08         0.00000E+00
    0.00000E+00         0.00000E+00        -0.89849E+05
 
   -0.12643E+08        -0.16931E+06         0.00000E+00
   -0.16931E+06        -0.25753E+08         0.00000E+00
    0.00000E+00         0.00000E+00        -0.88263E+05
 
   -0.12317E+08        -0.14423E+06         0.00000E+00
   -0.14423E+06        -0.25691E+08         0.00000E+00
    0.00000E+00         0.00000E+00        -0.96717E+05
 
   -0.12000E+08        -0.11975E+06         0.00000E+00
   -0.11975E+06        -0.25639E+08         0.00000E+00
    0.00000E+00         0.00000E+00        -0.11528E+06
 
   -0.11691E+08        -0.96556E+05         0.00000E+00
   -0.96556E+05        -0.25597E+08         0.00000E+00
    0.00000E+00         0.00000E+00        -0.14391E+06
 
   -0.11391E+08        -0.74070E+05         0.00000E+00
   -0.74070E+05        -0.25564E+08         0.00000E+00
    0.00000E+00         0.00000E+00        -0.18224E+06
 
   -0.11099E+08        -0.52123E+05         0.00000E+00
   -0.52123E+05        -0.25541E+08         0.00000E+00
    0.00000E+00         0.00000E+00        -0.23021E+06
 
   -0.10816E+08        -0.30596E+05         0.00000E+00
   -0.30596E+05        -0.25526E+08         0.00000E+00
    0.00000E+00         0.00000E+00        -0.28743E+06
 
   -0.10541E+08        -0.94810E+04         0.00000E+00
   -0.94810E+04        -0.25519E+08         0.00000E+00
    0.00000E+00         0.00000E+00        -0.35378E+06
 
   -0.10274E+08         0.11498E+05         0.00000E+00
    0.11498E+05        -0.25521E+08         0.00000E+00
    0.00000E+00         0.00000E+00        -0.42945E+06
 
   -0.10014E+08         0.32738E+05         0.00000E+00
    0.32738E+05        -0.25531E+08         0.00000E+00
    0.00000E+00         0.00000E+00        -0.51480E+06
 
   -0.97599E+07         0.54520E+05         0.00000E+00
    0.54520E+05        -0.25550E+08         0.00000E+00
    0.00000E+00         0.00000E+00        -0.61045E+06
 
   -0.95117E+07         0.76860E+05         0.00000E+00
    0.76860E+05        -0.25577E+08         0.00000E+00
    0.00000E+00         0.00000E+00        -0.71694E+06
 
   -0.92682E+07         0.10007E+06         0.00000E+00
    0.10007E+06        -0.25614E+08         0.00000E+00
    0.00000E+00         0.00000E+00        -0.83509E+06
 
   -0.90275E+07         0.12434E+06         0.00000E+00
    0.12434E+06        -0.25660E+08         0.00000E+00
    0.00000E+00         0.00000E+00        -0.96618E+06
 
   -0.87870E+07         0.14979E+06         0.00000E+00
    0.14979E+06        -0.25717E+08         0.00000E+00
    0.00000E+00         0.00000E+00        -0.11124E+07
 
   -0.85460E+07         0.17706E+06         0.00000E+00
    0.17706E+06        -0.25784E+08         0.00000E+00
    0.00000E+00         0.00000E+00        -0.12753E+07
 
   -0.83044E+07         0.20676E+06         0.00000E+00
    0.20676E+06        -0.25863E+08         0.00000E+00
    0.00000E+00         0.00000E+00        -0.14567E+07
 
   -0.80618E+07         0.23927E+06         0.00000E+00
    0.23927E+06        -0.25954E+08         0.00000E+00
    0.00000E+00         0.00000E+00        -0.16588E+07
 
   -0.78167E+07         0.27533E+06         0.00000E+00
    0.27533E+06        -0.26059E+08         0.00000E+00
    0.00000E+00         0.00000E+00        -0.18849E+07
 
   -0.75681E+07         0.31688E+06         0.00000E+00
    0.31688E+06        -0.26179E+08         0.00000E+00
    0.00000E+00         0.00000E+00        -0.21391E+07
 
   -0.73134E+07         0.36443E+06         0.00000E+00
    0.36443E+06        -0.26316E+08         0.00000E+00
    0.00000E+00         0.00000E+00        -0.24272E+07
 
   -0.70497E+07         0.41952E+06         0.00000E+00
    0.41952E+06        -0.26473E+08         0.00000E+00
    0.00000E+00         0.00000E+00        -0.27567E+07
 
   -0.67787E+07         0.48595E+06         0.00000E+00
    0.48595E+06        -0.26653E+08         0.00000E+00
    0.00000E+00         0.00000E+00        -0.31342E+07
 
   -0.65018E+07         0.56799E+06         0.00000E+00
    0.56799E+06        -0.26857E+08         0.00000E+00
    0.00000E+00         0.00000E+00        -0.35679E+07
 
   -0.62293E+07         0.67182E+06         0.00000E+00
    0.67182E+06        -0.27092E+08         0.00000E+00
    0.00000E+00         0.00000E+00        -0.40635E+07
 
   -0.59661E+07         0.81258E+06         0.00000E+00
    0.81258E+06        -0.27362E+08         0.00000E+00
    0.00000E+00         0.00000E+00        -0.46326E+07
 
   -0.57041E+07         0.98189E+06         0.00000E+00
    0.98189E+06        -0.27665E+08         0.00000E+00
    0.00000E+00         0.00000E+00        -0.52902E+07
 
TENSORS stresstot double 
   -0.49997E+08         0.16778E+01         0.00000E+00
    0.16778E+01        -0.50000E+08         0.00000E+00
    0.00000E+00         0.00000E+00        -0.50000E+08
 
   -0.49997E+08         0.53046E+01         0.00000E+00
    0.53046E+01        -0.50000E+08         0.00000E+00
    0.00000E+00         0.00000E+00        -0.50000E+08
 
   -0.49997E+08         0.89604E+01         0.00000E+00
    0.89604E+01        -0.50000E+08         0.00000E+00
    0.00000E+00         0.00000E+00        -0.50000E+08
 
   -0.49997E+08         0.12634E+02         0.00000E+00
    0.12634E+02        -0.50000E+08         0.00000E+00
    0.00000E+00         0.00000E+00        -0.50000E+08
 
   -0.49997E+08         0.16319E+02         0.00000E+00
    0.16319E+02        -0.50000E+08         0.00000E+00
    0.00000E+00         0.00000E+00        -0.50000E+08
 
   -0.49997E+08         0.20008E+02         0.00000E+00
    0.20008E+02        -0.50000E+08         0.00000E+00
    0.00000E+00         0.00000E+00        -0.50000E+08
 
   -0.49997E+08         0.23696E+02         0.00000E+00
    0.23696E+02        -0.50000E+08         0.00000E+00
    0.00000E+00         0.00000E+00        -0.50000E+08
 
   -0.49997E+08         0.27378E+02         0.00000E+00
    0.27378E+02        -0.50000E+08         0.00000E+00
    0.00000E+00         0.00000E+00        -0.50000E+08
 
   -0.49997E+08         0.31051E+02         0.00000E+00
    0.31051E+02        -0.50000E+08         0.00000E+00
    0.00000E+00         0.00000E+00        -0.50000E+08
 
   -0.49997E+08         0.34709E+02         0.00000E+00
    0.34709E+02        -0.50000E+08         0.00000E+00
    0.00000E+00         0.00000E+00        -0.50000E+08
 
   -0.49997E+08         0.38349E+02         0.00000E+00
    0.38349E+02        -0.50000E+08         0.00000E+00
    0.00000E+00         0.00000E+00        -0.50000E+08
 
   -0.49997E+08         0.41965E+02         0.00000E+00
    0.41965E+02        -0.50000E+08         0.00000E+00
    0.00000E+00         0.00000E+00        -0.50000E+08
 
   -0.49997E+08         0.45555E+02         0.00000E+00
    0.45555E+02        -0.50000E+08         0.00000E+00
    0.00000E+00         0.00000E+00        -0.50000E+08
 
   -0.49997E+08         0.49114E+02         0.00000E+00
    0.49114E+02        -0.50000E+08         0.00000E+00
    0.00000E+00         0.00000E+00        -0.50000E+08
 
   -0.49998E+08         0.52638E+02         0.00000E+00
    0.52638E+02        -0.50000E+08         0.00000E+00
    0.00000E+00         0.00000E+00        -0.50000E+08
 
   -0.49998E+08         0.56122E+02         0.00000E+00
    0.56122E+02        -0.50000E+08         0.00000E+00
    0.00000E+00         0.00000E+00        -0.50000E+08
 
   -0.49998E+08         0.59564E+02         0.00000E+00
    0.59564E+02        -0.50000E+08         0.00000E+00
    0.00000E+00         0.00000E+00        -0.50000E+08
 
   -0.49998E+08         0.62959E+02         0.00000E+00
    0.62959E+02        -0.50000E+08         0.00000E+00
    0.00000E+00         0.00000E+00        -0.50000E+08
 
   -0.49998E+08         0.66302E+02         0.00000E+00
    0.66302E+02        -0.50000E+08         0.00000E+00
    0.00000E+00         0.00000E+00        -0.50000E+08
 
   -0.49998E+08         0.69591E+02         0.00000E+00
    0.69591E+02        -0.50000E+08         0.00000E+00
    0.00000E+00         0.00000E+00        -0.50000E+08
 
   -0.49998E+08         0.72822E+02         0.00000E+00
    0.72822E+02        -0.50000E+08         0.00000E+00
    0.00000E+00         0.00000E+00        -0.50000E+08
 
   -0.49998E+08         0.75990E+02         0.00000E+00
    0.75990E+02        -0.50000E+08         0.00000E+00
    0.00000E+00         0.00000E+00        -0.50000E+08
 
   -0.49998E+08         0.79092E+02         0.00000E+00
    0.79092E+02        -0.50000E+08         0.00000E+00
    0.00000E+00         0.00000E+00        -0.50000E+08
 
   -0.49998E+08         0.82124E+02         0.00000E+00
    0.82124E+02        -0.50000E+08         0.00000E+00
    0.00000E+00         0.00000E+00        -0.50000E+08
 
   -0.49998E+08         0.85083E+02         0.00000E+00
    0.85083E+02        -0.50000E+08         0.00000E+00
    0.00000E+00         0.00000E+00        -0.50000E+08
 
   -0.49998E+08         0.87965E+02         0.00000E+00
    0.87965E+02        -0.50000E+08         0.00000E+00
    0.00000E+00         0.00000E+00        -0.50000E+08
 
   -0.49998E+08         0.90767E+02         0.00000E+00
    0.90767E+02        -0.49999E+08         0.00000E+00
    0.00000E+00         0.00000E+00        -0.50000E+08
 
   -0.49998E+08         0.93485E+02         0.00000E+00
    0.93485E+02        -0.49999E+08         0.00000E+00
    0.00000E+00         0.00000E+00        -0.50000E+08
 
   -0.49998E+08         0.96116E+02         0.00000E+00
    0.96116E+02        -0.49999E+08         0.00000E+00
    0.00000E+00         0.00000E+00        -0.50000E+08
 
   -0.49998E+08         0.98656E+02         0.00000E+00
    0.98656E+02        -0.49999E+08         0.00000E+00
    0.00000E+00         0.00000E+00        -0.50000E+08
 
   -0.49998E+08         0.10110E+03         0.00000E+00
    0.10110E+03        -0.49999E+08         0.00000E+00
    0.00000E+00         0.00000E+00        -0.50000E+08
 
   -0.49998E+08         0.10345E+03         0.00000E+00
    0.10345E+03        -0.49999E+08         0.00000E+00
    0.00000E+00         0.00000E+00        -0.50000E+08
 
   -0.49998E+08         0.10570E+03         0.00000E+00
    0.10570E+03        -0.49999E+08         0.00000E+00
    0.00000E+00         0.00000E+00        -0.50000E+08
 
   -0.49999E+08         0.10785E+03         0.00000E+00
    0.10785E+03        -0.49999E+08         0.00000E+00
    0.00000E+00         0.00000E+00        -0.50000E+08
 
   -0.49999E+08         0.10989E+03         0.00000E+00
    0.10989E+03        -0.49999E+08         0.00000E+00
    0.00000E+00         0.00000E+00        -0.50000E+08
 
   -0.49999E+08         0.11183E+03         0.00000E+00
    0.11183E+03        -0.49999E+08         0.00000E+00
    0.00000E+00         0.00000E+00        -0.50000E+08
 
   -0.49999E+08         0.11365E+03         0.00000E+00
    0.11365E+03        -0.49999E+08         0.00000E+00
    0.00000E+00         0.00000E+00        -0.50000E+08
 
   -0.49999E+08         0.11536E+03         0.00000E+00
    0.11536E+03        -0.49999E+08         0.00000E+00
    0.00000E+00         0.00000E+00        -0.50000E+08
 
   -0.49999E+08         0.11695E+03         0.00000E+00
    0.11695E+03        -0.49999E+08         0.00000E+00
    0.00000E+00         0.00000E+00        -0.50000E+08
 
   -0.49999E+08         0.11842E+03         0.00000E+00
    0.11842E+03        -0.49999E+08         0.00000E+00
    0.00000E+00         0.00000E+00        -0.50000E+08
 
   -0.49999E+08         0.11978E+03         0.00000E+00
    0.11978E+03        -0.49999E+08         0.00000E+00
    0.00000E+00         0.00000E+00        -0.50000E+08
 
   -0.49999E+08         0.12101E+03         0.00000E+00
    0.12101E+03        -0.49999E+08         0.00000E+00
    0.00000E+00         0.00000E+00        -0.50000E+08
 
   -0.49999E+08         0.12212E+03         0.00000E+00
    0.12212E+03        -0.49999E+08         0.00000E+00
    0.00000E+00         0.00000E+00        -0.50000E+08
 
   -0.49999E+08         0.12310E+03         0.00000E+00
    0.12310E+03        -0.49999E+08         0.00000E+00
    0.00000E+00         0.00000E+00        -0.50000E+08
 
   -0.49999E+08         0.12395E+03         0.00000E+00
    0.12395E+03        -0.49999E+08         0.00000E+00
    0.00000E+00         0.00000E+00        -0.50000E+08
 
   -0.50000E+08         0.12468E+03         0.00000E+00
    0.12468E+03        -0.49999E+08         0.00000E+00
    0.00000E+00         0.00000E+00        -0.50000E+08
 
   -0.50000E+08         0.12527E+03         0.00000E+00
    0.12527E+03        -0.49999E+08         0.00000E+00
    0.00000E+00         0.00000E+00        -0.50000E+08
 
   -0.50000E+08         0.12574E+03         0.00000E+00
    0.12574E+03        -0.49999E+08         0.00000E+00
    0.00000E+00         0.00000E+00        -0.50000E+08
 
   -0.50000E+08         0.12609E+03         0.00000E+00
    0.12609E+03        -0.49999E+08         0.00000E+00
    0.00000E+00         0.00000E+00        -0.50000E+08
 
   -0.50000E+08         0.12632E+03         0.00000E+00
    0.12632E+03        -0.49998E+08         0.00000E+00
    0.00000E+00         0.00000E+00        -0.50000E+08
 
   -0.49997E+08         0.53397E+01         0.00000E+00
    0.53397E+01        -0.50000E+08         0.00000E+00
    0.00000E+00         0.00000E+00        -0.50000E+08
 
   -0.49997E+08         0.16253E+02         0.00000E+00
    0.16253E+02        -0.50000E+08         0.00000E+00
    0.00000E+00         0.00000E+00        -0.50000E+08
 
   -0.49997E+08         0.27241E+02         0.00000E+00
    0.27241E+02        -0.50000E+08         0.00000E+00
    0.00000E+00         0.00000E+00        -0.50000E+08
 
   -0.49997E+08         0.38282E+02         0.00000E+00
    0.38282E+02        -0.50000E+08         0.00000E+00
    0.00000E+00         0.00000E+00        -0.50000E+08
 
   -0.49997E+08         0.49358E+02         0.00000E+00
    0.49358E+02        -0.50000E+08         0.00000E+00
    0.00000E+00         0.00000E+00        -0.50000E+08
 
   -0.49997E+08         0.60451E+02         0.00000E+00
    0.60451E+02        -0.50000E+08         0.00000E+00
    0.00000E+00         0.00000E+00        -0.50000E+08
 
   -0.49997E+08         0.71546E+02         0.00000E+00
    0.71546E+02        -0.50000E+08         0.00000E+00
    0.00000E+00         0.00000E+00        -0.50000E+08
 
   -0.49997E+08         0.82627E+02         0.00000E+00
    0.82627E+02        -0.50000E+08         0.00000E+00
    0.00000E+00         0.00000E+00        -0.50000E+08
 
   -0.49997E+08         0.93682E+02         0.00000E+00
    0.93682E+02        -0.50000E+08         0.00000E+00
    0.00000E+00         0.00000E+00        -0.50000E+08
 
   -0.49997E+08         0.10470E+03         0.00000E+00
    0.10470E+03        -0.50000E+08         0.00000E+00
    0.00000E+00         0.00000E+00        -0.50000E+08
 
   -0.49997E+08         0.11565E+03         0.00000E+00
    0.11565E+03        -0.50000E+08         0.00000E+00
    0.00000E+00         0.00000E+00        -0.50000E+08
 
   -0.49997E+08         0.12655E+03         0.00000E+00
    0.12655E+03        -0.50000E+08         0.00000E+00
    0.00000E+00         0.00000E+00        -0.50000E+08
 
   -0.49997E+08         0.13736E+03         0.00000E+00
    0.13736E+03        -0.50000E+08         0.00000E+00
    0.00000E+00         0.00000E+00        -0.50000E+08
 
   -0.49997E+08         0.14808E+03         0.00000E+00
    0.14808E+03        -0.50000E+08         0.00000E+00
    0.00000E+00         0.00000E+00        -0.50000E+08
 
   -0.49997E+08         0.15869E+03         0.00000E+00
    0.15869E+03        -0.50000E+08         0.00000E+00
    0.00000E+00         0.00000E+00        -0.50000E+08
 
   -0.49998E+08         0.16919E+03         0.00000E+00
    0.16919E+03        -0.50000E+08         0.00000E+00
    0.00000E+00         0.00000E+00        -0.50000E+08
 
   -0.49998E+08         0.17956E+03         0.00000E+00
    0.17956E+03        -0.50000E+08         0.00000E+00
    0.00000E+00         0.00000E+00        -0.50000E+08
 
   -0.49998E+08         0.18979E+03         0.00000E+00
    0.18979E+03        -0.50000E+08         0.00000E+00
    0.00000E+00         0.00000E+00        -0.50000E+08
 
   -0.49998E+08         0.19986E+03         0.00000E+00
    0.19986E+03        -0.50000E+08         0.00000E+00
    0.00000E+00         0.00000E+00        -0.50000E+08
 
   -0.49998E+08         0.20977E+03         0.00000E+00
    0.20977E+03        -0.50000E+08         0.00000E+00
    0.00000E+00         0.00000E+00        -0.50000E+08
 
   -0.49998E+08         0.21951E+03         0.00000E+00
    0.21951E+03        -0.50000E+08         0.00000E+00
    0.00000E+00         0.00000E+00        -0.50000E+08
 
   -0.49998E+08         0.22905E+03         0.00000E+00
    0.22905E+03        -0.50000E+08         0.00000E+00
    0.00000E+00         0.00000E+00        -0.50000E+08
 
   -0.49998E+08         0.23840E+03         0.00000E+00
    0.23840E+03        -0.50000E+08         0.00000E+00
    0.00000E+00         0.00000E+00        -0.50000E+08
 
   -0.49998E+08         0.24754E+03         0.00000E+00
    0.24754E+03        -0.50000E+08         0.00000E+00
    0.00000E+00         0.00000E+00        -0.50000E+08
 
   -0.49998E+08         0.25646E+03         0.00000E+00
    0.25646E+03        -0.50000E+08         0.00000E+00
    0.00000E+00         0.00000E+00        -0.50000E+08
 
   -0.49998E+08         0.26514E+03         0.00000E+00
    0.26514E+03        -0.50000E+08         0.00000E+00
    0.00000E+00         0.00000E+00        -0.50000E+08
 
   -0.49998E+08         0.27358E+03         0.00000E+00
    0.27358E+03        -0.49999E+08         0.00000E+00
    0.00000E+00         0.00000E+00        -0.50000E+08
 
   -0.49998E+08         0.28177E+03         0.00000E+00
    0.28177E+03        -0.49999E+08         0.00000E+00
    0.00000E+00         0.00000E+00        -0.50000E+08
 
   -0.49998E+08         0.28970E+03         0.00000E+00
    0.28970E+03        -0.49999E+08         0.00000E+00
    0.00000E+00         0.00000E+00        -0.50000E+08
 
   -0.49998E+08         0.29736E+03         0.00000E+00
    0.29736E+03        -0.49999E+08         0.00000E+00
    0.00000E+00         0.00000E+00        -0.50000E+08
 
   -0.49998E+08         0.30473E+03         0.00000E+00
    0.30473E+03        -0.49999E+08         0.00000E+00
    0.00000E+00         0.00000E+00        -0.50000E+08
 
   -0.49998E+08         0.31181E+03         0.00000E+00
    0.31181E+03        -0.49999E+08         0.00000E+00
    0.00000E+00         0.00000E+00        -0.50000E+08
 
   -0.49998E+08         0.31859E+03         0.00000E+00
    0.31859E+03        -0.49999E+08         0.00000E+00
    0.00000E+00         0.00000E+00        -0.50000E+08
 
   -0.49998E+08         0.32506E+03         0.00000E+00
    0.32506E+03        -0.49999E+08         0.00000E+00
    0.00000E+00         0.00000E+00        -0.50000E+08
 
   -0.49999E+08         0.33122E+03         0.00000E+00
    0.33122E+03        -0.49999E+08         0.00000E+00
    0.00000E+00         0.00000E+00        -0.50000E+08
 
   -0.49999E+08         0.33704E+03         0.00000E+00
    0.33704E+03        -0.49999E+08         0.00000E+00
    0.00000E+00         0.00000E+00        -0.50000E+08
 
   -0.49999E+08         0.34254E+03         0.00000E+00
    0.34254E+03        -0.49999E+08         0.00000E+00
    0.00000E+00         0.00000E+00        -0.50000E+08
 
   -0.49999E+08         0.34768E+03         0.00000E+00
    0.34768E+03        -0.49999E+08         0.00000E+00
    0.00000E+00         0.00000E+00        -0.50000E+08
 
   -0.49999E+08         0.35248E+03         0.00000E+00
    0.35248E+03        -0.49999E+08         0.00000E+00
    0.00000E+00         0.00000E+00        -0.50000E+08
 
   -0.49999E+08         0.35693E+03         0.00000E+00
    0.35693E+03        -0.49999E+08         0.00000E+00
    0.00000E+00         0.00000E+00        -0.50000E+08
 
   -0.49999E+08         0.36100E+03         0.00000E+00
    0.36100E+03        -0.49999E+08         0.00000E+00
    0.00000E+00         0.00000E+00        -0.50000E+08
 
   -0.49999E+08         0.36471E+03         0.00000E+00
    0.36471E+03        -0.49999E+08         0.00000E+00
    0.00000E+00         0.00000E+00        -0.50000E+08
 
   -0.49999E+08         0.36804E+03         0.00000E+00
    0.36804E+03        -0.49999E+08         0.00000E+00
    0.00000E+00         0.00000E+00        -0.50000E+08
 
   -0.49999E+08         0.37099E+03         0.00000E+00
    0.37099E+03        -0.49999E+08         0.00000E+00
    0.00000E+00         0.00000E+00        -0.50000E+08
 
   -0.49999E+08         0.37356E+03         0.00000E+00
    0.37356E+03        -0.49999E+08         0.00000E+00
    0.00000E+00         0.00000E+00        -0.50000E+08
 
   -0.50000E+08         0.37573E+03         0.00000E+00
    0.37573E+03        -0.49999E+08         0.00000E+00
    0.00000E+00         0.00000E+00        -0.50000E+08
 
   -0.50000E+08         0.37752E+03         0.00000E+00
    0.37752E+03        -0.49999E+08         0.00000E+00
    0.00000E+00         0.00000E+00        -0.50000E+08
 
   -0.50000E+08         0.37890E+03         0.00000E+00
    0.37890E+03        -0.49999E+08         0.00000E+00
    0.00000E+00         0.00000E+00        -0.50000E+08
 
   -0.50000E+08         0.37989E+03         0.00000E+00
    0.37989E+03        -0.49998E+08         0.00000E+00
    0.00000E+00         0.00000E+00        -0.50000E+08
 
   -0.50000E+08         0.38049E+03         0.00000E+00
    0.38049E+03        -0.49998E+08         0.00000E+00
    0.00000E+00         0.00000E+00        -0.50000E+08
 
   -0.49997E+08         0.90707E+01         0.00000E+00
    0.90707E+01        -0.50000E+08         0.00000E+00
    0.00000E+00         0.00000E+00        -0.50000E+08
 
   -0.49997E+08         0.27515E+02         0.00000E+00
    0.27515E+02        -0.50000E+08         0.00000E+00
    0.00000E+00         0.00000E+00        -0.50000E+08
 
   -0.49997E+08         0.46043E+02         0.00000E+00
    0.46043E+02        -0.50000E+08         0.00000E+00
    0.00000E+00         0.00000E+00        -0.50000E+08
 
   -0.49997E+08         0.64635E+02         0.00000E+00
    0.64635E+02        -0.50000E+08         0.00000E+00
    0.00000E+00         0.00000E+00        -0.50000E+08
 
   -0.49997E+08         0.83269E+02         0.00000E+00
    0.83269E+02        -0.50000E+08         0.00000E+00
    0.00000E+00         0.00000E+00        -0.50000E+08
 
   -0.49997E+08         0.10192E+03         0.00000E+00
    0.10192E+03        -0.50000E+08         0.00000E+00
    0.00000E+00         0.00000E+00        -0.50000E+08
 
   -0.49997E+08         0.12058E+03         0.00000E+00
    0.12058E+03        -0.50000E+08         0.00000E+00
    0.00000E+00         0.00000E+00        -0.50000E+08
 
   -0.49997E+08         0.13920E+03         0.00000E+00
    0.13920E+03        -0.50000E+08         0.00000E+00
    0.00000E+00         0.00000E+00        -0.50000E+08
 
   -0.49997E+08         0.15778E+03         0.00000E+00
    0.15778E+03        -0.50000E+08         0.00000E+00
    0.00000E+00         0.00000E+00        -0.50000E+08
 
   -0.49997E+08         0.17630E+03         0.00000E+00
    0.17630E+03        -0.50000E+08         0.00000E+00
    0.00000E+00         0.00000E+00        -0.50000E+08
 
   -0.49997E+08         0.19472E+03         0.00000E+00
    0.19472E+03        -0.50000E+08         0.00000E+00
    0.00000E+00         0.00000E+00        -0.50000E+08
 
   -0.49997E+08         0.21303E+03         0.00000E+00
    0.21303E+03        -0.50000E+08         0.00000E+00
    0.00000E+00         0.00000E+00        -0.50000E+08
 
   -0.49997E+08         0.23121E+03         0.00000E+00
    0.23121E+03        -0.50000E+08         0.00000E+00
    0.00000E+00         0.00000E+00        -0.50000E+08
 
   -0.49997E+08         0.24923E+03         0.00000E+00
    0.24923E+03        -0.50000E+08         0.00000E+00
    0.00000E+00         0.00000E+00        -0.50000E+08
 
   -0.49997E+08         0.26707E+03         0.00000E+00
    0.26707E+03        -0.50000E+08         0.00000E+00
    0.00000E+00         0.00000E+00        -0.50000E+08
 
   -0.49997E+08         0.28472E+03         0.00000E+00
    0.28472E+03        -0.50000E+08         0.00000E+00
    0.00000E+00         0.00000E+00        -0.50000E+08
 
   -0.49997E+08         0.30216E+03         0.00000E+00
    0.30216E+03        -0.50000E+08         0.00000E+00
    0.00000E+00         0.00000E+00        -0.50000E+08
 
   -0.49998E+08         0.31935E+03         0.00000E+00
    0.31935E+03        -0.50000E+08         0.00000E+00
    0.00000E+00         0.00000E+00        -0.50000E+08
 
   -0.49998E+08         0.33629E+03         0.00000E+00
    0.33629E+03        -0.50000E+08         0.00000E+00
    0.00000E+00         0.00000E+00        -0.50000E+08
 
   -0.49998E+08         0.35296E+03         0.00000E+00
    0.35296E+03        -0.50000E+08         0.00000E+00
    0.00000E+00         0.00000E+00        -0.50000E+08
 
   -0.49998E+08         0.36933E+03         0.00000E+00
    0.36933E+03        -0.50000E+08         0.00000E+00
    0.00000E+00         0.00000E+00        -0.50000E+08
 
   -0.49998E+08         0.38538E+03         0.00000E+00
    0.38538E+03        -0.50000E+08         0.00000E+00
    0.00000E+00         0.00000E+00        -0.50000E+08
 
   -0.49998E+08         0.40110E+03         0.00000E+00
    0.40110E+03        -0.50000E+08         0.00000E+00
    0.00000E+00         0.00000E+00        -0.50000E+08
 
   -0.49998E+08         0.41646E+03         0.00000E+00
    0.41646E+03        -0.50000E+08         0.00000E+00
    0.00000E+00         0.00000E+00        -0.50000E+08
 
   -0.49998E+08         0.43146E+03         0.00000E+00
    0.43146E+03        -0.50000E+08         0.00000E+00
    0.00000E+00         0.00000E+00        -0.50000E+08
 
   -0.49998E+08         0.44606E+03         0.00000E+00
    0.44606E+03        -0.50000E+08         0.00000E+00
    0.00000E+00         0.00000E+00        -0.50000E+08
 
   -0.49998E+08         0.46026E+03         0.00000E+00
    0.46026E+03        -0.49999E+08         0.00000E+00
    0.00000E+00         0.00000E+00        -0.50000E+08
 
   -0.49998E+08         0.47403E+03         0.00000E+00
    0.47403E+03        -0.49999E+08         0.00000E+00
    0.00000E+00         0.00000E+00        -0.50000E+08
 
   -0.49998E+08         0.48737E+03         0.00000E+00
    0.48737E+03        -0.49999E+08         0.00000E+00
    0.00000E+00         0.00000E+00        -0.50000E+08
 
   -0.49998E+08         0.50024E+03         0.00000E+00
    0.50024E+03        -0.49999E+08         0.00000E+00
    0.00000E+00         0.00000E+00        -0.50000E+08
 
   -0.49998E+08         0.51264E+03         0.00000E+00
    0.51264E+03        -0.49999E+08         0.00000E+00
    0.00000E+00         0.00000E+00        -0.50000E+08
 
   -0.49998E+08         0.52455E+03         0.00000E+00
    0.52455E+03        -0.49999E+08         0.00000E+00
    0.00000E+00         0.00000E+00        -0.50000E+08
 
   -0.49998E+08         0.53595E+03         0.00000E+00
    0.53595E+03        -0.49999E+08         0.00000E+00
    0.00000E+00         0.00000E+00        -0.50000E+08
 
   -0.49998E+08         0.54684E+03         0.00000E+00
    0.54684E+03        -0.49999E+08         0.00000E+00
    0.00000E+00         0.00000E+00        -0.50000E+08
 
   -0.49999E+08         0.55718E+03         0.00000E+00
    0.55718E+03        -0.49999E+08         0.00000E+00
    0.00000E+00         0.00000E+00        -0.50000E+08
 
   -0.49999E+08         0.56698E+03         0.00000E+00
    0.56698E+03        -0.49999E+08         0.00000E+00
    0.00000E+00         0.00000E+00        -0.50000E+08
 
   -0.49999E+08         0.57621E+03         0.00000E+00
    0.57621E+03        -0.49999E+08         0.00000E+00
    0.00000E+00         0.00000E+00        -0.50000E+08
 
   -0.49999E+08         0.58487E+03         0.00000E+00
    0.58487E+03        -0.49999E+08         0.00000E+00
    0.00000E+00         0.00000E+00        -0.50000E+08
 
   -0.49999E+08         0.59294E+03         0.00000E+00
    0.59294E+03        -0.49999E+08         0.00000E+00
    0.00000E+00         0.00000E+00        -0.50000E+08
 
   -0.49999E+08         0.60040E+03         0.00000E+00
    0.60040E+03        -0.49999E+08         0.00000E+00
    0.00000E+00         0.00000E+00        -0.50000E+08
 
   -0.49999E+08         0.60726E+03         0.00000E+00
    0.60726E+03        -0.49999E+08         0.00000E+00
    0.00000E+00         0.00000E+00        -0.50000E+08
 
   -0.49999E+08         0.61348E+03         0.00000E+00
    0.61348E+03        -0.49999E+08         0.00000E+00
    0.00000E+00         0.00000E+00        -0.50000E+08
 
   -0.49999E+08         0.61908E+03         0.00000E+00
    0.61908E+03        -0.49999E+08         0.00000E+00
    0.00000E+00         0.00000E+00        -0.50000E+08
 
   -0.49999E+08         0.62403E+03         0.00000E+00
    0.62403E+03        -0.49999E+08         0.00000E+00
    0.00000E+00         0.00000E+00        -0.50000E+08
 
   -0.49999E+08         0.62832E+03         0.00000E+00
    0.62832E+03        -0.49999E+08         0.00000E+00
    0.00000E+00         0.00000E+00        -0.50000E+08
 
   -0.50000E+08         0.63195E+03         0.00000E+00
    0.63195E+03        -0.49999E+08         0.00000E+00
    0.00000E+00         0.00000E+00        -0.50000E+08
 
   -0.50000E+08         0.63491E+03         0.00000E+00
    0.63491E+03        -0.49999E+08         0.00000E+00
    0.00000E+00         0.00000E+00        -0.50000E+08
 
   -0.50000E+08         0.63719E+03         0.00000E+00
    0.63719E+03        -0.49998E+08         0.00000E+00
    0.00000E+00         0.00000E+00        -0.50000E+08
 
   -0.50000E+08         0.63879E+03         0.00000E+00
    0.63879E+03        -0.49998E+08         0.00000E+00
    0.00000E+00         0.00000E+00        -0.50000E+08
 
   -0.50000E+08         0.63968E+03         0.00000E+00
    0.63968E+03        -0.49998E+08         0.00000E+00
    0.00000E+00         0.00000E+00        -0.50000E+08
 
   -0.49997E+08         0.12917E+02         0.00000E+00
    0.12917E+02        -0.50000E+08         0.00000E+00
    0.00000E+00         0.00000E+00        -0.50000E+08
 
   -0.49997E+08         0.39155E+02         0.00000E+00
    0.39155E+02        -0.50000E+08         0.00000E+00
    0.00000E+00         0.00000E+00        -0.50000E+08
 
   -0.49997E+08         0.65502E+02         0.00000E+00
    0.65502E+02        -0.50000E+08         0.00000E+00
    0.00000E+00         0.00000E+00        -0.50000E+08
 
   -0.49997E+08         0.91928E+02         0.00000E+00
    0.91928E+02        -0.50000E+08         0.00000E+00
    0.00000E+00         0.00000E+00        -0.50000E+08
 
   -0.49997E+08         0.11840E+03         0.00000E+00
    0.11840E+03        -0.50000E+08         0.00000E+00
    0.00000E+00         0.00000E+00        -0.50000E+08
 
   -0.49997E+08         0.14490E+03         0.00000E+00
    0.14490E+03        -0.50000E+08         0.00000E+00
    0.00000E+00         0.00000E+00        -0.50000E+08
 
   -0.49997E+08         0.17138E+03         0.00000E+00
    0.17138E+03        -0.50000E+08         0.00000E+00
    0.00000E+00         0.00000E+00        -0.50000E+08
 
   -0.49997E+08         0.19783E+03         0.00000E+00
    0.19783E+03        -0.50000E+08         0.00000E+00
    0.00000E+00         0.00000E+00        -0.50000E+08
 
   -0.49997E+08         0.22420E+03         0.00000E+00
    0.22420E+03        -0.50000E+08         0.00000E+00
    0.00000E+00         0.00000E+00        -0.50000E+08
 
   -0.49997E+08         0.25048E+03         0.00000E+00
    0.25048E+03        -0.50000E+08         0.00000E+00
    0.00000E+00         0.00000E+00        -0.50000E+08
 
   -0.49997E+08         0.27662E+03         0.00000E+00
    0.27662E+03        -0.50000E+08         0.00000E+00
    0.00000E+00         0.00000E+00        -0.50000E+08
 
   -0.49997E+08         0.30260E+03         0.00000E+00
    0.30260E+03        -0.50000E+08         0.00000E+00
    0.00000E+00         0.00000E+00        -0.50000E+08
 
   -0.49997E+08         0.32839E+03         0.00000E+00
    0.32839E+03        -0.50000E+08         0.00000E+00
    0.00000E+00         0.00000E+00        -0.50000E+08
 
   -0.49997E+08         0.35397E+03         0.00000E+00
    0.35397E+03        -0.50000E+08         0.00000E+00
    0.00000E+00         0.00000E+00        -0.50000E+08
 
   -0.49997E+08         0.37929E+03         0.00000E+00
    0.37929E+03        -0.50000E+08         0.00000E+00
    0.00000E+00         0.00000E+00        -0.50000E+08
 
   -0.49997E+08         0.40433E+03         0.00000E+00
    0.40433E+03        -0.50000E+08         0.00000E+00
    0.00000E+00         0.00000E+00        -0.50000E+08
 
   -0.49997E+08         0.42907E+03         0.00000E+00
    0.42907E+03        -0.50000E+08         0.00000E+00
    0.00000E+00         0.00000E+00        -0.50000E+08
 
   -0.49997E+08         0.45347E+03         0.00000E+00
    0.45347E+03        -0.50000E+08         0.00000E+00
    0.00000E+00         0.00000E+00        -0.50000E+08
 
   -0.49997E+08         0.47751E+03         0.00000E+00
    0.47751E+03        -0.50000E+08         0.00000E+00
    0.00000E+00         0.00000E+00        -0.50000E+08
 
   -0.49997E+08         0.50115E+03         0.00000E+00
    0.50115E+03        -0.50000E+08         0.00000E+00
    0.00000E+00         0.00000E+00        -0.50000E+08
 
   -0.49998E+08         0.52438E+03         0.00000E+00
    0.52438E+03        -0.50000E+08         0.00000E+00
    0.00000E+00         0.00000E+00        -0.50000E+08
 
   -0.49998E+08         0.54716E+03         0.00000E+00
    0.54716E+03        -0.50000E+08         0.00000E+00
    0.00000E+00         0.00000E+00        -0.50000E+08
 
   -0.49998E+08         0.56946E+03         0.00000E+00
    0.56946E+03        -0.50000E+08         0.00000E+00
    0.00000E+00         0.00000E+00        -0.50000E+08
 
   -0.49998E+08         0.59126E+03         0.00000E+00
    0.59126E+03        -0.50000E+08         0.00000E+00
    0.00000E+00         0.00000E+00        -0.50000E+08
 
   -0.49998E+08         0.61254E+03         0.00000E+00
    0.61254E+03        -0.50000E+08         0.00000E+00
    0.00000E+00         0.00000E+00        -0.50000E+08
 
   -0.49998E+08         0.63327E+03         0.00000E+00
    0.63327E+03        -0.49999E+08         0.00000E+00
    0.00000E+00         0.00000E+00        -0.50000E+08
 
   -0.49998E+08         0.65341E+03         0.00000E+00
    0.65341E+03        -0.49999E+08         0.00000E+00
    0.00000E+00         0.00000E+00        -0.50000E+08
 
   -0.49998E+08         0.67296E+03         0.00000E+00
    0.67296E+03        -0.49999E+08         0.00000E+00
    0.00000E+00         0.00000E+00        -0.50000E+08
 
   -0.49998E+08         0.69187E+03         0.00000E+00
    0.69187E+03        -0.49999E+08         0.00000E+00
    0.00000E+00         0.00000E+00        -0.50000E+08
 
   -0.49998E+08         0.71014E+03         0.00000E+00
    0.71014E+03        -0.49999E+08         0.00000E+00
    0.00000E+00         0.00000E+00        -0.50000E+08
 
   -0.49998E+08         0.72774E+03         0.00000E+00
    0.72774E+03        -0.49999E+08         0.00000E+00
    0.00000E+00         0.00000E+00        -0.50000E+08
 
   -0.49998E+08         0.74464E+03         0.00000E+00
    0.74464E+03        -0.49999E+08         0.00000E+00
    0.00000E+00         0.00000E+00        -0.50000E+08
 
   -0.49998E+08         0.76082E+03         0.00000E+00
    0.76082E+03        -0.49999E+08         0.00000E+00
    0.00000E+00         0.00000E+00        -0.50000E+08
 
   -0.49998E+08         0.77626E+03         0.00000E+00
    0.77626E+03        -0.49999E+08         0.00000E+00
    0.00000E+00         0.00000E+00        -0.50000E+08
 
   -0.49998E+08         0.79094E+03         0.00000E+00
    0.79094E+03        -0.49999E+08         0.00000E+00
    0.00000E+00         0.00000E+00        -0.50000E+08
 
   -0.49999E+08         0.80484E+03         0.00000E+00
    0.80484E+03        -0.49999E+08         0.00000E+00
    0.00000E+00         0.00000E+00        -0.50000E+08
 
   -0.49999E+08         0.81793E+03         0.00000E+00
    0.81793E+03        -0.49999E+08         0.00000E+00
    0.00000E+00         0.00000E+00        -0.50000E+08
 
   -0.49999E+08         0.83021E+03         0.00000E+00
    0.83021E+03        -0.49999E+08         0.00000E+00
    0.00000E+00         0.00000E+00        -0.50000E+08
 
   -0.49999E+08         0.84166E+03         0.00000E+00
    0.84166E+03        -0.49999E+08         0.00000E+00
    0.00000E+00         0.00000E+00        -0.50000E+08
 
   -0.49999E+08         0.85224E+03         0.00000E+00
    0.85224E+03        -0.49999E+08         0.00000E+00
    0.00000E+00         0.00000E+00        -0.50000E+08
 
   -0.49999E+08         0.86196E+03         0.00000E+00
    0.86196E+03        -0.49999E+08         0.00000E+00
    0.00000E+00         0.00000E+00        -0.50000E+08
 
   -0.49999E+08         0.87078E+03         0.00000E+00
    0.87078E+03        -0.49999E+08         0.00000E+00
    0.00000E+00         0.00000E+00        -0.50000E+08
 
   -0.49999E+08         0.87871E+03         0.00000E+00
    0.87871E+03        -0.49999E+08         0.00000E+00
    0.00000E+00         0.00000E+00        -0.50000E+08
 
   -0.49999E+08         0.88571E+03         0.00000E+00
    0.88571E+03        -0.49999E+08         0.00000E+00
    0.00000E+00         0.00000E+00        -0.50000E+08
 
   -0.49999E+08         0.89178E+03         0.00000E+00
    0.89178E+03        -0.49999E+08         0.00000E+00
    0.00000E+00         0.00000E+00        -0.50000E+08
 
   -0.50000E+08         0.89691E+03         0.00000E+00
    0.89691E+03        -0.49999E+08         0.00000E+00
    0.00000E+00         0.00000E+00        -0.50000E+08
 
   -0.50000E+08         0.90107E+03         0.00000E+00
    0.90107E+03        -0.49998E+08         0.00000E+00
    0.00000E+00         0.00000E+00        -0.50000E+08
 
   -0.50000E+08         0.90427E+03         0.00000E+00
    0.90427E+03        -0.49998E+08         0.00000E+00
    0.00000E+00         0.00000E+00        -0.50000E+08
 
   -0.50000E+08         0.90648E+03         0.00000E+00
    0.90648E+03        -0.49998E+08         0.00000E+00
    0.00000E+00         0.00000E+00        -0.50000E+08
 
   -0.50000E+08         0.90771E+03         0.00000E+00
    0.90771E+03        -0.49998E+08         0.00000E+00
    0.00000E+00         0.00000E+00        -0.50000E+08
 
   -0.49997E+08         0.16944E+02         0.00000E+00
    0.16944E+02        -0.50000E+08         0.00000E+00
    0.00000E+00         0.00000E+00        -0.50000E+08
 
   -0.49997E+08         0.51345E+02         0.00000E+00
    0.51345E+02        -0.50000E+08         0.00000E+00
    0.00000E+00         0.00000E+00        -0.50000E+08
 
   -0.49997E+08         0.85883E+02         0.00000E+00
    0.85883E+02        -0.50000E+08         0.00000E+00
    0.00000E+00         0.00000E+00        -0.50000E+08
 
   -0.49997E+08         0.12052E+03         0.00000E+00
    0.12052E+03        -0.50000E+08         0.00000E+00
    0.00000E+00         0.00000E+00        -0.50000E+08
 
   -0.49997E+08         0.15521E+03         0.00000E+00
    0.15521E+03        -0.50000E+08         0.00000E+00
    0.00000E+00         0.00000E+00        -0.50000E+08
 
   -0.49997E+08         0.18993E+03         0.00000E+00
    0.18993E+03        -0.50000E+08         0.00000E+00
    0.00000E+00         0.00000E+00        -0.50000E+08
 
   -0.49997E+08         0.22463E+03         0.00000E+00
    0.22463E+03        -0.50000E+08         0.00000E+00
    0.00000E+00         0.00000E+00        -0.50000E+08
 
   -0.49997E+08         0.25927E+03         0.00000E+00
    0.25927E+03        -0.50000E+08         0.00000E+00
    0.00000E+00         0.00000E+00        -0.50000E+08
 
   -0.49997E+08         0.29381E+03         0.00000E+00
    0.29381E+03        -0.50000E+08         0.00000E+00
    0.00000E+00         0.00000E+00        -0.50000E+08
 
   -0.49997E+08         0.32822E+03         0.00000E+00
    0.32822E+03        -0.50000E+08         0.00000E+00
    0.00000E+00         0.00000E+00        -0.50000E+08
 
   -0.49997E+08         0.36245E+03         0.00000E+00
    0.36245E+03        -0.50000E+08         0.00000E+00
    0.00000E+00         0.00000E+00        -0.50000E+08
 
   -0.49997E+08         0.39648E+03         0.00000E+00
    0.39648E+03        -0.50000E+08         0.00000E+00
    0.00000E+00         0.00000E+00        -0.50000E+08
 
   -0.49997E+08         0.43025E+03         0.00000E+00
    0.43025E+03        -0.50000E+08         0.00000E+00
    0.00000E+00         0.00000E+00        -0.50000E+08
 
   -0.49997E+08         0.46373E+03         0.00000E+00
    0.46373E+03        -0.50000E+08         0.00000E+00
    0.00000E+00         0.00000E+00        -0.50000E+08
 
   -0.49997E+08         0.49688E+03         0.00000E+00
    0.49688E+03        -0.50000E+08         0.00000E+00
    0.00000E+00         0.00000E+00        -0.50000E+08
 
   -0.49997E+08         0.52967E+03         0.00000E+00
    0.52967E+03        -0.50000E+08         0.00000E+00
    0.00000E+00         0.00000E+00        -0.50000E+08
 
   -0.49997E+08         0.56206E+03         0.00000E+00
    0.56206E+03        -0.50000E+08         0.00000E+00
    0.00000E+00         0.00000E+00        -0.50000E+08
 
   -0.49997E+08         0.59400E+03         0.00000E+00
    0.59400E+03        -0.50000E+08         0.00000E+00
    0.00000E+00         0.00000E+00        -0.50000E+08
 
   -0.49997E+08         0.62547E+03         0.00000E+00
    0.62547E+03        -0.50000E+08         0.00000E+00
    0.00000E+00         0.00000E+00        -0.50000E+08
 
   -0.49997E+08         0.65642E+03         0.00000E+00
    0.65642E+03        -0.50000E+08         0.00000E+00
    0.00000E+00         0.00000E+00        -0.50000E+08
 
   -0.49997E+08         0.68682E+03         0.00000E+00
    0.68682E+03        -0.50000E+08         0.00000E+00
    0.00000E+00         0.00000E+00        -0.50000E+08
 
   -0.49997E+08         0.71664E+03         0.00000E+00
    0.71664E+03        -0.50000E+08         0.00000E+00
    0.00000E+00         0.00000E+00        -0.50000E+08
 
   -0.49998E+08         0.74584E+03         0.00000E+00
    0.74584E+03        -0.50000E+08         0.00000E+00
    0.00000E+00         0.00000E+00        -0.50000E+08
 
   -0.49998E+08         0.77438E+03         0.00000E+00
    0.77438E+03        -0.50000E+08         0.00000E+00
    0.00000E+00         0.00000E+00        -0.50000E+08
 
   -0.49998E+08         0.80223E+03         0.00000E+00
    0.80223E+03        -0.50000E+08         0.00000E+00
    0.00000E+00         0.00000E+00        -0.50000E+08
 
   -0.49998E+08         0.82936E+03         0.00000E+00
    0.82936E+03        -0.49999E+08         0.00000E+00
    0.00000E+00         0.00000E+00        -0.50000E+08
 
   -0.49998E+08         0.85573E+03         0.00000E+00
    0.85573E+03        -0.49999E+08         0.00000E+00
    0.00000E+00         0.00000E+00        -0.50000E+08
 
   -0.49998E+08         0.88131E+03         0.00000E+00
    0.88131E+03        -0.49999E+08         0.00000E+00
    0.00000E+00         0.00000E+00        -0.50000E+08
 
   -0.49998E+08         0.90608E+03         0.00000E+00
    0.90608E+03        -0.49999E+08         0.00000E+00
    0.00000E+00         0.00000E+00        -0.50000E+08
 
   -0.49998E+08         0.92999E+03         0.00000E+00
    0.92999E+03        -0.49999E+08         0.00000E+00
    0.00000E+00         0.00000E+00        -0.50000E+08
 
   -0.49998E+08         0.95302E+03         0.00000E+00
    0.95302E+03        -0.49999E+08         0.00000E+00
    0.00000E+00         0.00000E+00        -0.50000E+08
 
   -0.49998E+08         0.97514E+03         0.00000E+00
    0.97514E+03        -0.49999E+08         0.00000E+00
    0.00000E+00         0.00000E+00        -0.50000E+08
 
   -0.49998E+08         0.99631E+03         0.00000E+00
    0.99631E+03        -0.49999E+08         0.00000E+00
    0.00000E+00         0.00000E+00        -0.50000E+08
 
   -0.49998E+08         0.10165E+04         0.00000E+00
    0.10165E+04        -0.49999E+08         0.00000E+00
    0.00000E+00         0.00000E+00        -0.50000E+08
 
   -0.49998E+08         0.10357E+04         0.00000E+00
    0.10357E+04        -0.49999E+08         0.00000E+00
    0.00000E+00         0.00000E+00        -0.50000E+08
 
   -0.49998E+08         0.10539E+04         0.00000E+00
    0.10539E+04        -0.49999E+08         0.00000E+00
    0.00000E+00         0.00000E+00        -0.50000E+08
 
   -0.49999E+08         0.10711E+04         0.00000E+00
    0.10711E+04        -0.49999E+08         0.00000E+00
    0.00000E+00         0.00000E+00        -0.50000E+08
 
   -0.49999E+08         0.10871E+04         0.00000E+00
    0.10871E+04        -0.49999E+08         0.00000E+00
    0.00000E+00         0.00000E+00        -0.50000E+08
 
   -0.49999E+08         0.11021E+04         0.00000E+00
    0.11021E+04        -0.49999E+08         0.00000E+00
    0.00000E+00         0.00000E+00        -0.50000E+08
 
   -0.49999E+08         0.11160E+04         0.00000E+00
    0.11160E+04        -0.49999E+08         0.00000E+00
    0.00000E+00         0.00000E+00        -0.50000E+08
 
   -0.49999E+08         0.11287E+04         0.00000E+00
    0.11287E+04        -0.49999E+08         0.00000E+00
    0.00000E+00         0.00000E+00        -0.50000E+08
 
   -0.49999E+08         0.11402E+04         0.00000E+00
    0.11402E+04        -0.49999E+08         0.00000E+00
    0.00000E+00         0.00000E+00        -0.50000E+08
 
   -0.49999E+08         0.11506E+04         0.00000E+00
    0.11506E+04        -0.49999E+08         0.00000E+00
    0.00000E+00         0.00000E+00        -0.50000E+08
 
   -0.49999E+08         0.11597E+04         0.00000E+00
    0.11597E+04        -0.49999E+08         0.00000E+00
    0.00000E+00         0.00000E+00        -0.50000E+08
 
   -0.49999E+08         0.11676E+04         0.00000E+00
    0.11676E+04        -0.49999E+08         0.00000E+00
    0.00000E+00         0.00000E+00        -0.50000E+08
 
   -0.49999E+08         0.11743E+04         0.00000E+00
    0.11743E+04        -0.49998E+08         0.00000E+00
    0.00000E+00         0.00000E+00        -0.50000E+08
 
   -0.50000E+08         0.11798E+04         0.00000E+00
    0.11798E+04        -0.49998E+08         0.00000E+00
    0.00000E+00         0.00000E+00        -0.50000E+08
 
   -0.50000E+08         0.11839E+04         0.00000E+00
    0.11839E+04        -0.49998E+08         0.00000E+00
    0.00000E+00         0.00000E+00        -0.50000E+08
 
   -0.50000E+08         0.11868E+04         0.00000E+00
    0.11868E+04        -0.49998E+08         0.00000E+00
    0.00000E+00         0.00000E+00        -0.50000E+08
 
   -0.50000E+08         0.11883E+04         0.00000E+00
    0.11883E+04        -0.49998E+08         0.00000E+00
    0.00000E+00         0.00000E+00        -0.50000E+08
 
   -0.49997E+08         0.21209E+02         0.00000E+00
    0.21209E+02        -0.50000E+08         0.00000E+00
    0.00000E+00         0.00000E+00        -0.50000E+08
 
   -0.49997E+08         0.64257E+02         0.00000E+00
    0.64257E+02        -0.50000E+08         0.00000E+00
    0.00000E+00         0.00000E+00        -0.50000E+08
 
   -0.49997E+08         0.10747E+03         0.00000E+00
    0.10747E+03        -0.50000E+08         0.00000E+00
    0.00000E+00         0.00000E+00        -0.50000E+08
 
   -0.49997E+08         0.15081E+03         0.00000E+00
    0.15081E+03        -0.50000E+08         0.00000E+00
    0.00000E+00         0.00000E+00        -0.50000E+08
 
   -0.49997E+08         0.19421E+03         0.00000E+00
    0.19421E+03        -0.50000E+08         0.00000E+00
    0.00000E+00         0.00000E+00        -0.50000E+08
 
   -0.49997E+08         0.23764E+03         0.00000E+00
    0.23764E+03        -0.50000E+08         0.00000E+00
    0.00000E+00         0.00000E+00        -0.50000E+08
 
   -0.49997E+08         0.28104E+03         0.00000E+00
    0.28104E+03        -0.50000E+08         0.00000E+00
    0.00000E+00         0.00000E+00        -0.50000E+08
 
   -0.49997E+08         0.32436E+03         0.00000E+00
    0.32436E+03        -0.50000E+08         0.00000E+00
    0.00000E+00         0.00000E+00        -0.50000E+08
 
   -0.49997E+08         0.36756E+03         0.00000E+00
    0.36756E+03        -0.50000E+08         0.00000E+00
    0.00000E+00         0.00000E+00        -0.50000E+08
 
   -0.49997E+08         0.41059E+03         0.00000E+00
    0.41059E+03        -0.50000E+08         0.00000E+00
    0.00000E+00         0.00000E+00        -0.50000E+08
 
   -0.49997E+08         0.45340E+03         0.00000E+00
    0.45340E+03        -0.50000E+08         0.00000E+00
    0.00000E+00         0.00000E+00        -0.50000E+08
 
   -0.49997E+08         0.49594E+03         0.00000E+00
    0.49594E+03        -0.50000E+08         0.00000E+00
    0.00000E+00         0.00000E+00        -0.50000E+08
 
   -0.49997E+08         0.53817E+03         0.00000E+00
    0.53817E+03        -0.50000E+08         0.00000E+00
    0.00000E+00         0.00000E+00        -0.50000E+08
 
   -0.49997E+08         0.58003E+03         0.00000E+00
    0.58003E+03        -0.50000E+08         0.00000E+00
    0.00000E+00         0.00000E+00        -0.50000E+08
 
   -0.49997E+08         0.62148E+03         0.00000E+00
    0.62148E+03        -0.50000E+08         0.00000E+00
    0.00000E+00         0.00000E+00        -0.50000E+08
 
   -0.49997E+08         0.66247E+03         0.00000E+00
    0.66247E+03        -0.50000E+08         0.00000E+00
    0.00000E+00         0.00000E+00        -0.50000E+08
 
   -0.49997E+08         0.70295E+03         0.00000E+00
    0.70295E+03        -0.50000E+08         0.00000E+00
    0.00000E+00         0.00000E+00        -0.50000E+08
 
   -0.49997E+08         0.74288E+03         0.00000E+00
    0.74288E+03        -0.50000E+08         0.00000E+00
    0.00000E+00         0.00000E+00        -0.50000E+08
 
   -0.49997E+08         0.78222E+03         0.00000E+00
    0.78222E+03        -0.50000E+08         0.00000E+00
    0.00000E+00         0.00000E+00        -0.50000E+08
 
   -0.49997E+08         0.82091E+03         0.00000E+00
    0.82091E+03        -0.50000E+08         0.00000E+00
    0.00000E+00         0.00000E+00        -0.50000E+08
 
   -0.49997E+08         0.85891E+03         0.00000E+00
    0.85891E+03        -0.50000E+08         0.00000E+00
    0.00000E+00         0.00000E+00        -0.50000E+08
 
   -0.49997E+08         0.89618E+03         0.00000E+00
    0.89618E+03        -0.50000E+08         0.00000E+00
    0.00000E+00         0.00000E+00        -0.50000E+08
 
   -0.49997E+08         0.93268E+03         0.00000E+00
    0.93268E+03        -0.50000E+08         0.00000E+00
    0.00000E+00         0.00000E+00        -0.50000E+08
 
   -0.49997E+08         0.96835E+03         0.00000E+00
    0.96835E+03        -0.50000E+08         0.00000E+00
    0.00000E+00         0.00000E+00        -0.50000E+08
 
   -0.49997E+08         0.10032E+04         0.00000E+00
    0.10032E+04        -0.49999E+08         0.00000E+00
    0.00000E+00         0.00000E+00        -0.50000E+08
 
   -0.49998E+08         0.10371E+04         0.00000E+00
    0.10371E+04        -0.49999E+08         0.00000E+00
    0.00000E+00         0.00000E+00        -0.50000E+08
 
   -0.49998E+08         0.10700E+04         0.00000E+00
    0.10700E+04        -0.49999E+08         0.00000E+00
    0.00000E+00         0.00000E+00        -0.50000E+08
 
   -0.49998E+08         0.11020E+04         0.00000E+00
    0.11020E+04        -0.49999E+08         0.00000E+00
    0.00000E+00         0.00000E+00        -0.50000E+08
 
   -0.49998E+08         0.11329E+04         0.00000E+00
    0.11329E+04        -0.49999E+08         0.00000E+00
    0.00000E+00         0.00000E+00        -0.50000E+08
 
   -0.49998E+08         0.11628E+04         0.00000E+00
    0.11628E+04        -0.49999E+08         0.00000E+00
    0.00000E+00         0.00000E+00        -0.50000E+08
 
   -0.49998E+08         0.11916E+04         0.00000E+00
    0.11916E+04        -0.49999E+08         0.00000E+00
    0.00000E+00         0.00000E+00        -0.50000E+08
 
   -0.49998E+08         0.12193E+04         0.00000E+00
    0.12193E+04        -0.49999E+08         0.00000E+00
    0.00000E+00         0.00000E+00        -0.50000E+08
 
   -0.49998E+08         0.12457E+04         0.00000E+00
    0.12457E+04        -0.49999E+08         0.00000E+00
    0.00000E+00         0.00000E+00        -0.50000E+08
 
   -0.49998E+08         0.12710E+04         0.00000E+00
    0.12710E+04        -0.49999E+08         0.00000E+00
    0.00000E+00         0.00000E+00        -0.50000E+08
 
   -0.49998E+08         0.12950E+04         0.00000E+00
    0.12950E+04        -0.49999E+08         0.00000E+00
    0.00000E+00         0.00000E+00        -0.50000E+08
 
   -0.49998E+08         0.13177E+04         0.00000E+00
    0.13177E+04        -0.49999E+08         0.00000E+00
    0.00000E+00         0.00000E+00        -0.50000E+08
 
   -0.49998E+08         0.13391E+04         0.00000E+00
    0.13391E+04        -0.49999E+08         0.00000E+00
    0.00000E+00         0.00000E+00        -0.50000E+08
 
   -0.49999E+08         0.13592E+04         0.00000E+00
    0.13592E+04        -0.49999E+08         0.00000E+00
    0.00000E+00         0.00000E+00        -0.50000E+08
 
   -0.49999E+08         0.13779E+04         0.00000E+00
    0.13779E+04        -0.49999E+08         0.00000E+00
    0.00000E+00         0.00000E+00        -0.50000E+08
 
   -0.49999E+08         0.13952E+04         0.00000E+00
    0.13952E+04        -0.49999E+08         0.00000E+00
    0.00000E+00         0.00000E+00        -0.50000E+08
 
   -0.49999E+08         0.14111E+04         0.00000E+00
    0.14111E+04        -0.49999E+08         0.00000E+00
    0.00000E+00         0.00000E+00        -0.50000E+08
 
   -0.49999E+08         0.14255E+04         0.00000E+00
    0.14255E+04        -0.49999E+08         0.00000E+00
    0.00000E+00         0.00000E+00        -0.50000E+08
 
   -0.49999E+08         0.14384E+04         0.00000E+00
    0.14384E+04        -0.49999E+08         0.00000E+00
    0.00000E+00         0.00000E+00        -0.50000E+08
 
   -0.49999E+08         0.14498E+04         0.00000E+00
    0.14498E+04        -0.49998E+08         0.00000E+00
    0.00000E+00         0.00000E+00        -0.50000E+08
 
   -0.49999E+08         0.14597E+04         0.00000E+00
    0.14597E+04        -0.49998E+08         0.00000E+00
    0.00000E+00         0.00000E+00        -0.50000E+08
 
   -0.49999E+08         0.14681E+04         0.00000E+00
    0.14681E+04        -0.49998E+08         0.00000E+00
    0.00000E+00         0.00000E+00        -0.50000E+08
 
   -0.50000E+08         0.14748E+04         0.00000E+00
    0.14748E+04        -0.49998E+08         0.00000E+00
    0.00000E+00         0.00000E+00        -0.50000E+08
 
   -0.50000E+08         0.14800E+04         0.00000E+00
    0.14800E+04        -0.49998E+08         0.00000E+00
    0.00000E+00         0.00000E+00        -0.50000E+08
 
   -0.50000E+08         0.14836E+04         0.00000E+00
    0.14836E+04        -0.49998E+08         0.00000E+00
    0.00000E+00         0.00000E+00        -0.50000E+08
 
   -0.50000E+08         0.14855E+04         0.00000E+00
    0.14855E+04        -0.49998E+08         0.00000E+00
    0.00000E+00         0.00000E+00        -0.50000E+08
 
   -0.49997E+08         0.25772E+02         0.00000E+00
    0.25772E+02        -0.50000E+08         0.00000E+00
    0.00000E+00         0.00000E+00        -0.50000E+08
 
   -0.49997E+08         0.78073E+02         0.00000E+00
    0.78073E+02        -0.50000E+08         0.00000E+00
    0.00000E+00         0.00000E+00        -0.50000E+08
 
   -0.49997E+08         0.13057E+03         0.00000E+00
    0.13057E+03        -0.50000E+08         0.00000E+00
    0.00000E+00         0.00000E+00        -0.50000E+08
 
   -0.49997E+08         0.18322E+03         0.00000E+00
    0.18322E+03        -0.50000E+08         0.00000E+00
    0.00000E+00         0.00000E+00        -0.50000E+08
 
   -0.49997E+08         0.23594E+03         0.00000E+00
    0.23594E+03        -0.50000E+08         0.00000E+00
    0.00000E+00         0.00000E+00        -0.50000E+08
 
   -0.49997E+08         0.28869E+03         0.00000E+00
    0.28869E+03        -0.50000E+08         0.00000E+00
    0.00000E+00         0.00000E+00        -0.50000E+08
 
   -0.49997E+08         0.34140E+03         0.00000E+00
    0.34140E+03        -0.50000E+08         0.00000E+00
    0.00000E+00         0.00000E+00        -0.50000E+08
 
   -0.49997E+08         0.39402E+03         0.00000E+00
    0.39402E+03        -0.50000E+08         0.00000E+00
    0.00000E+00         0.00000E+00        -0.50000E+08
 
   -0.49997E+08         0.44648E+03         0.00000E+00
    0.44648E+03        -0.50000E+08         0.00000E+00
    0.00000E+00         0.00000E+00        -0.50000E+08
 
   -0.49997E+08         0.49873E+03         0.00000E+00
    0.49873E+03        -0.50000E+08         0.00000E+00
    0.00000E+00         0.00000E+00        -0.50000E+08
 
   -0.49997E+08         0.55072E+03         0.00000E+00
    0.55072E+03        -0.50000E+08         0.00000E+00
    0.00000E+00         0.00000E+00        -0.50000E+08
 
   -0.49997E+08         0.60237E+03         0.00000E+00
    0.60237E+03        -0.50000E+08         0.00000E+00
    0.00000E+00         0.00000E+00        -0.50000E+08
 
   -0.49997E+08         0.65364E+03         0.00000E+00
    0.65364E+03        -0.50000E+08         0.00000E+00
    0.00000E+00         0.00000E+00        -0.50000E+08
 
   -0.49997E+08         0.70447E+03         0.00000E+00
    0.70447E+03        -0.50000E+08         0.00000E+00
    0.00000E+00         0.00000E+00        -0.50000E+08
 
   -0.49997E+08         0.75479E+03         0.00000E+00
    0.75479E+03        -0.50000E+08         0.00000E+00
    0.00000E+00         0.00000E+00        -0.50000E+08
 
   -0.49997E+08         0.80455E+03         0.00000E+00
    0.80455E+03        -0.50000E+08         0.00000E+00
    0.00000E+00         0.00000E+00        -0.50000E+08
 
   -0.49997E+08         0.85370E+03         0.00000E+00
    0.85370E+03        -0.50000E+08         0.00000E+00
    0.00000E+00         0.00000E+00        -0.50000E+08
 
   -0.49997E+08         0.90218E+03         0.00000E+00
    0.90218E+03        -0.50000E+08         0.00000E+00
    0.00000E+00         0.00000E+00        -0.50000E+08
 
   -0.49997E+08         0.94993E+03         0.00000E+00
    0.94993E+03        -0.50000E+08         0.00000E+00
    0.00000E+00         0.00000E+00        -0.50000E+08
 
   -0.49997E+08         0.99690E+03         0.00000E+00
    0.99690E+03        -0.50000E+08         0.00000E+00
    0.00000E+00         0.00000E+00        -0.50000E+08
 
   -0.49997E+08         0.10430E+04         0.00000E+00
    0.10430E+04        -0.50000E+08         0.00000E+00
    0.00000E+00         0.00000E+00        -0.50000E+08
 
   -0.49997E+08         0.10883E+04         0.00000E+00
    0.10883E+04        -0.50000E+08         0.00000E+00
    0.00000E+00         0.00000E+00        -0.50000E+08
 
   -0.49997E+08         0.11326E+04         0.00000E+00
    0.11326E+04        -0.50000E+08         0.00000E+00
    0.00000E+00         0.00000E+00        -0.50000E+08
 
   -0.49997E+08         0.11759E+04         0.00000E+00
    0.11759E+04        -0.49999E+08         0.00000E+00
    0.00000E+00         0.00000E+00        -0.50000E+08
 
   -0.49997E+08         0.12181E+04         0.00000E+00
    0.12181E+04        -0.49999E+08         0.00000E+00
    0.00000E+00         0.00000E+00        -0.50000E+08
 
   -0.49997E+08         0.12593E+04         0.00000E+00
    0.12593E+04        -0.49999E+08         0.00000E+00
    0.00000E+00         0.00000E+00        -0.50000E+08
 
   -0.49997E+08         0.12993E+04         0.00000E+00
    0.12993E+04        -0.49999E+08         0.00000E+00
    0.00000E+00         0.00000E+00        -0.50000E+08
 
   -0.49998E+08         0.13381E+04         0.00000E+00
    0.13381E+04        -0.49999E+08         0.00000E+00
    0.00000E+00         0.00000E+00        -0.50000E+08
 
   -0.49998E+08         0.13756E+04         0.00000E+00
    0.13756E+04        -0.49999E+08         0.00000E+00
    0.00000E+00         0.00000E+00        -0.50000E+08
 
   -0.49998E+08         0.14119E+04         0.00000E+00
    0.14119E+04        -0.49999E+08         0.00000E+00
    0.00000E+00         0.00000E+00        -0.50000E+08
 
   -0.49998E+08         0.14468E+04         0.00000E+00
    0.14468E+04        -0.49999E+08         0.00000E+00
    0.00000E+00         0.00000E+00        -0.50000E+08
 
   -0.49998E+08         0.14804E+04         0.00000E+00
    0.14804E+04        -0.49999E+08         0.00000E+00
    0.00000E+00         0.00000E+00        -0.50000E+08
 
   -0.49998E+08         0.15125E+04         0.00000E+00
    0.15125E+04        -0.49999E+08         0.00000E+00
    0.00000E+00         0.00000E+00        -0.50000E+08
 
   -0.49998E+08         0.15431E+04         0.00000E+00
    0.15431E+04        -0.49999E+08         0.00000E+00
    0.00000E+00         0.00000E+00        -0.50000E+08
 
   -0.49998E+08         0.15723E+04         0.00000E+00
    0.15723E+04        -0.49999E+08         0.00000E+00
    0.00000E+00         0.00000E+00        -0.50000E+08
 
   -0.49998E+08         0.15998E+04         0.00000E+00
    0.15998E+04        -0.49999E+08         0.00000E+00
    0.00000E+00         0.00000E+00        -0.50000E+08
 
   -0.49998E+08         0.16258E+04         0.00000E+00
    0.16258E+04        -0.49999E+08         0.00000E+00
    0.00000E+00         0.00000E+00        -0.50000E+08
 
   -0.49998E+08         0.16502E+04         0.00000E+00
    0.16502E+04        -0.49999E+08         0.00000E+00
    0.00000E+00         0.00000E+00        -0.50000E+08
 
   -0.49999E+08         0.16729E+04         0.00000E+00
    0.16729E+04        -0.49999E+08         0.00000E+00
    0.00000E+00         0.00000E+00        -0.50000E+08
 
   -0.49999E+08         0.16939E+04         0.00000E+00
    0.16939E+04        -0.49999E+08         0.00000E+00
    0.00000E+00         0.00000E+00        -0.50000E+08
 
   -0.49999E+08         0.17131E+04         0.00000E+00
    0.17131E+04        -0.49999E+08         0.00000E+00
    0.00000E+00         0.00000E+00        -0.50000E+08
 
   -0.49999E+08         0.17306E+04         0.00000E+00
    0.17306E+04        -0.49998E+08         0.00000E+00
    0.00000E+00         0.00000E+00        -0.50000E+08
 
   -0.49999E+08         0.17463E+04         0.00000E+00
    0.17463E+04        -0.49998E+08         0.00000E+00
    0.00000E+00         0.00000E+00        -0.50000E+08
 
   -0.49999E+08         0.17602E+04         0.00000E+00
    0.17602E+04        -0.49998E+08         0.00000E+00
    0.00000E+00         0.00000E+00        -0.50000E+08
 
   -0.49999E+08         0.17722E+04         0.00000E+00
    0.17722E+04        -0.49998E+08         0.00000E+00
    0.00000E+00         0.00000E+00        -0.50000E+08
 
   -0.49999E+08         0.17823E+04         0.00000E+00
    0.17823E+04        -0.49998E+08         0.00000E+00
    0.00000E+00         0.00000E+00        -0.50000E+08
 
   -0.50000E+08         0.17905E+04         0.00000E+00
    0.17905E+04        -0.49998E+08         0.00000E+00
    0.00000E+00         0.00000E+00        -0.50000E+08
 
   -0.50000E+08         0.17967E+04         0.00000E+00
    0.17967E+04        -0.49998E+08         0.00000E+00
    0.00000E+00         0.00000E+00        -0.50000E+08
 
   -0.50000E+08         0.18011E+04         0.00000E+00
    0.18011E+04        -0.49998E+08         0.00000E+00
    0.00000E+00         0.00000E+00        -0.50000E+08
 
   -0.50000E+08         0.18034E+04         0.00000E+00
    0.18034E+04        -0.49998E+08         0.00000E+00
    0.00000E+00         0.00000E+00        -0.50000E+08
 
   -0.49996E+08         0.30698E+02         0.00000E+00
    0.30698E+02        -0.50000E+08         0.00000E+00
    0.00000E+00         0.00000E+00        -0.50000E+08
 
   -0.49996E+08         0.92988E+02         0.00000E+00
    0.92988E+02        -0.50000E+08         0.00000E+00
    0.00000E+00         0.00000E+00        -0.50000E+08
 
   -0.49996E+08         0.15551E+03         0.00000E+00
    0.15551E+03        -0.50000E+08         0.00000E+00
    0.00000E+00         0.00000E+00        -0.50000E+08
 
   -0.49996E+08         0.21820E+03         0.00000E+00
    0.21820E+03        -0.50000E+08         0.00000E+00
    0.00000E+00         0.00000E+00        -0.50000E+08
 
   -0.49996E+08         0.28098E+03         0.00000E+00
    0.28098E+03        -0.50000E+08         0.00000E+00
    0.00000E+00         0.00000E+00        -0.50000E+08
 
   -0.49996E+08         0.34379E+03         0.00000E+00
    0.34379E+03        -0.50000E+08         0.00000E+00
    0.00000E+00         0.00000E+00        -0.50000E+08
 
   -0.49996E+08         0.40655E+03         0.00000E+00
    0.40655E+03        -0.50000E+08         0.00000E+00
    0.00000E+00         0.00000E+00        -0.50000E+08
 
   -0.49996E+08         0.46920E+03         0.00000E+00
    0.46920E+03        -0.50000E+08         0.00000E+00
    0.00000E+00         0.00000E+00        -0.50000E+08
 
   -0.49996E+08         0.53166E+03         0.00000E+00
    0.53166E+03        -0.50000E+08         0.00000E+00
    0.00000E+00         0.00000E+00        -0.50000E+08
 
   -0.49996E+08         0.59387E+03         0.00000E+00
    0.59387E+03        -0.50000E+08         0.00000E+00
    0.00000E+00         0.00000E+00        -0.50000E+08
 
   -0.49996E+08         0.65576E+03         0.00000E+00
    0.65576E+03        -0.50000E+08         0.00000E+00
    0.00000E+00         0.00000E+00        -0.50000E+08
 
   -0.49996E+08         0.71725E+03         0.00000E+00
    0.71725E+03        -0.50000E+08         0.00000E+00
    0.00000E+00         0.00000E+00        -0.50000E+08
 
   -0.49996E+08         0.77828E+03         0.00000E+00
    0.77828E+03        -0.50000E+08         0.00000E+00
    0.00000E+00         0.00000E+00        -0.50000E+08
 
   -0.49996E+08         0.83877E+03         0.00000E+00
    0.83877E+03        -0.50000E+08         0.00000E+00
    0.00000E+00         0.00000E+00        -0.50000E+08
 
   -0.49996E+08         0.89867E+03         0.00000E+00
    0.89867E+03        -0.50000E+08         0.00000E+00
    0.00000E+00         0.00000E+00        -0.50000E+08
 
   -0.49997E+08         0.95790E+03         0.00000E+00
    0.95790E+03        -0.50000E+08         0.00000E+00
    0.00000E+00         0.00000E+00        -0.50000E+08
 
   -0.49997E+08         0.10164E+04         0.00000E+00
    0.10164E+04        -0.50000E+08         0.00000E+00
    0.00000E+00         0.00000E+00        -0.50000E+08
 
   -0.49997E+08         0.10741E+04         0.00000E+00
    0.10741E+04        -0.50000E+08         0.00000E+00
    0.00000E+00         0.00000E+00        -0.50000E+08
 
   -0.49997E+08         0.11309E+04         0.00000E+00
    0.11309E+04        -0.50000E+08         0.00000E+00
    0.00000E+00         0.00000E+00        -0.50000E+08
 
   -0.49997E+08         0.11868E+04         0.00000E+00
    0.11868E+04        -0.50000E+08         0.00000E+00
    0.00000E+00         0.00000E+00        -0.50000E+08
 
   -0.49997E+08         0.12417E+04         0.00000E+00
    0.12417E+04        -0.50000E+08         0.00000E+00
    0.00000E+00         0.00000E+00        -0.50000E+08
 
   -0.49997E+08         0.12956E+04         0.00000E+00
    0.12956E+04        -0.50000E+08         0.00000E+00
    0.00000E+00         0.00000E+00        -0.50000E+08
 
   -0.49997E+08         0.13483E+04         0.00000E+00
    0.13483E+04        -0.49999E+08         0.00000E+00
    0.00000E+00         0.00000E+00        -0.50000E+08
 
   -0.49997E+08         0.13998E+04         0.00000E+00
    0.13998E+04        -0.49999E+08         0.00000E+00
    0.00000E+00         0.00000E+00        -0.50000E+08
 
   -0.49997E+08         0.14501E+04         0.00000E+00
    0.14501E+04        -0.49999E+08         0.00000E+00
    0.00000E+00         0.00000E+00        -0.50000E+08
 
   -0.49997E+08         0.14990E+04         0.00000E+00
    0.14990E+04        -0.49999E+08         0.00000E+00
    0.00000E+00         0.00000E+00        -0.50000E+08
 
   -0.49997E+08         0.15466E+04         0.00000E+00
    0.15466E+04        -0.49999E+08         0.00000E+00
    0.00000E+00         0.00000E+00        -0.50000E+08
 
   -0.49997E+08         0.15928E+04         0.00000E+00
    0.15928E+04        -0.49999E+08         0.00000E+00
    0.00000E+00         0.00000E+00        -0.50000E+08
 
   -0.49997E+08         0.16375E+04         0.00000E+00
    0.16375E+04        -0.49999E+08         0.00000E+00
    0.00000E+00         0.00000E+00        -0.50000E+08
 
   -0.49997E+08         0.16807E+04         0.00000E+00
    0.16807E+04        -0.49999E+08         0.00000E+00
    0.00000E+00         0.00000E+00        -0.50000E+08
 
   -0.49998E+08         0.17222E+04         0.00000E+00
    0.17222E+04        -0.49999E+08         0.00000E+00
    0.00000E+00         0.00000E+00        -0.50000E+08
 
   -0.49998E+08         0.17621E+04         0.00000E+00
    0.17621E+04        -0.49999E+08         0.00000E+00
    0.00000E+00         0.00000E+00        -0.50000E+08
 
   -0.49998E+08         0.18003E+04         0.00000E+00
    0.18003E+04        -0.49999E+08         0.00000E+00
    0.00000E+00         0.00000E+00        -0.50000E+08
 
   -0.49998E+08         0.18368E+04         0.00000E+00
    0.18368E+04        -0.49999E+08         0.00000E+00
    0.00000E+00         0.00000E+00        -0.50000E+08
 
   -0.49998E+08         0.18714E+04         0.00000E+00
    0.18714E+04        -0.49999E+08         0.00000E+00
    0.00000E+00         0.00000E+00        -0.50000E+08
 
   -0.49998E+08         0.19043E+04         0.00000E+00
    0.19043E+04        -0.49999E+08         0.00000E+00
    0.00000E+00         0.00000E+00        -0.50000E+08
 
   -0.49998E+08         0.19352E+04         0.00000E+00
    0.19352E+04        -0.49999E+08         0.00000E+00
    0.00000E+00         0.00000E+00        -0.50000E+08
 
   -0.49998E+08         0.19642E+04         0.00000E+00
    0.19642E+04        -0.49999E+08         0.00000E+00
    0.00000E+00         0.00000E+00        -0.50000E+08
 
   -0.49998E+08         0.19912E+04         0.00000E+00
    0.19912E+04        -0.49999E+08         0.00000E+00
    0.00000E+00         0.00000E+00        -0.50000E+08
 
   -0.49999E+08         0.20161E+04         0.00000E+00
    0.20161E+04        -0.49999E+08         0.00000E+00
    0.00000E+00         0.00000E+00        -0.50000E+08
 
   -0.49999E+08         0.20390E+04         0.00000E+00
    0.20390E+04        -0.49998E+08         0.00000E+00
    0.00000E+00         0.00000E+00        -0.50000E+08
 
   -0.49999E+08         0.20598E+04         0.00000E+00
    0.20598E+04        -0.49998E+08         0.00000E+00
    0.00000E+00         0.00000E+00        -0.50000E+08
 
   -0.49999E+08         0.20785E+04         0.00000E+00
    0.20785E+04        -0.49998E+08         0.00000E+00
    0.00000E+00         0.00000E+00        -0.50000E+08
 
   -0.49999E+08         0.20950E+04         0.00000E+00
    0.20950E+04        -0.49998E+08         0.00000E+00
    0.00000E+00         0.00000E+00        -0.50000E+08
 
   -0.49999E+08         0.21092E+04         0.00000E+00
    0.21092E+04        -0.49998E+08         0.00000E+00
    0.00000E+00         0.00000E+00        -0.50000E+08
 
   -0.49999E+08         0.21213E+04         0.00000E+00
    0.21213E+04        -0.49998E+08         0.00000E+00
    0.00000E+00         0.00000E+00        -0.50000E+08
 
   -0.50000E+08         0.21310E+04         0.00000E+00
    0.21310E+04        -0.49998E+08         0.00000E+00
    0.00000E+00         0.00000E+00        -0.50000E+08
 
   -0.50000E+08         0.21385E+04         0.00000E+00
    0.21385E+04        -0.49998E+08         0.00000E+00
    0.00000E+00         0.00000E+00        -0.50000E+08
 
   -0.50000E+08         0.21436E+04         0.00000E+00
    0.21436E+04        -0.49998E+08         0.00000E+00
    0.00000E+00         0.00000E+00        -0.50000E+08
 
   -0.50000E+08         0.21464E+04         0.00000E+00
    0.21464E+04        -0.49998E+08         0.00000E+00
    0.00000E+00         0.00000E+00        -0.50000E+08
 
   -0.49996E+08         0.36057E+02         0.00000E+00
    0.36057E+02        -0.50000E+08         0.00000E+00
    0.00000E+00         0.00000E+00        -0.50000E+08
 
   -0.49996E+08         0.10921E+03         0.00000E+00
    0.10921E+03        -0.50000E+08         0.00000E+00
    0.00000E+00         0.00000E+00        -0.50000E+08
 
   -0.49996E+08         0.18264E+03         0.00000E+00
    0.18264E+03        -0.50000E+08         0.00000E+00
    0.00000E+00         0.00000E+00        -0.50000E+08
 
   -0.49996E+08         0.25625E+03         0.00000E+00
    0.25625E+03        -0.50000E+08         0.00000E+00
    0.00000E+00         0.00000E+00        -0.50000E+08
 
   -0.49996E+08         0.32997E+03         0.00000E+00
    0.32997E+03        -0.50000E+08         0.00000E+00
    0.00000E+00         0.00000E+00        -0.50000E+08
 
   -0.49996E+08         0.40372E+03         0.00000E+00
    0.40372E+03        -0.50000E+08         0.00000E+00
    0.00000E+00         0.00000E+00        -0.50000E+08
 
   -0.49996E+08         0.47741E+03         0.00000E+00
    0.47741E+03        -0.50000E+08         0.00000E+00
    0.00000E+00         0.00000E+00        -0.50000E+08
 
   -0.49996E+08         0.55097E+03         0.00000E+00
    0.55097E+03        -0.50000E+08         0.00000E+00
    0.00000E+00         0.00000E+00        -0.50000E+08
 
   -0.49996E+08         0.62430E+03         0.00000E+00
    0.62430E+03        -0.50000E+08         0.00000E+00
    0.00000E+00         0.00000E+00        -0.50000E+08
 
   -0.49996E+08         0.69733E+03         0.00000E+00
    0.69733E+03        -0.50000E+08         0.00000E+00
    0.00000E+00         0.00000E+00        -0.50000E+08
 
   -0.49996E+08         0.76998E+03         0.00000E+00
    0.76998E+03        -0.50000E+08         0.00000E+00
    0.00000E+00         0.00000E+00        -0.50000E+08
 
   -0.49996E+08         0.84217E+03         0.00000E+00
    0.84217E+03        -0.50000E+08         0.00000E+00
    0.00000E+00         0.00000E+00        -0.50000E+08
 
   -0.49996E+08         0.91381E+03         0.00000E+00
    0.91381E+03        -0.50000E+08         0.00000E+00
    0.00000E+00         0.00000E+00        -0.50000E+08
 
   -0.49996E+08         0.98482E+03         0.00000E+00
    0.98482E+03        -0.50000E+08         0.00000E+00
    0.00000E+00         0.00000E+00        -0.50000E+08
 
   -0.49996E+08         0.10551E+04         0.00000E+00
    0.10551E+04        -0.50000E+08         0.00000E+00
    0.00000E+00         0.00000E+00        -0.50000E+08
 
   -0.49996E+08         0.11246E+04         0.00000E+00
    0.11246E+04        -0.50000E+08         0.00000E+00
    0.00000E+00         0.00000E+00        -0.50000E+08
 
   -0.49996E+08         0.11933E+04         0.00000E+00
    0.11933E+04        -0.50000E+08         0.00000E+00
    0.00000E+00         0.00000E+00        -0.50000E+08
 
   -0.49996E+08         0.12610E+04         0.00000E+00
    0.12610E+04        -0.50000E+08         0.00000E+00
    0.00000E+00         0.00000E+00        -0.50000E+08
 
   -0.49996E+08         0.13277E+04         0.00000E+00
    0.13277E+04        -0.50000E+08         0.00000E+00
    0.00000E+00         0.00000E+00        -0.50000E+08
 
   -0.49996E+08         0.13933E+04         0.00000E+00
    0.13933E+04        -0.50000E+08         0.00000E+00
    0.00000E+00         0.00000E+00        -0.50000E+08
 
   -0.49996E+08         0.14577E+04         0.00000E+00
    0.14577E+04        -0.50000E+08         0.00000E+00
    0.00000E+00         0.00000E+00        -0.50000E+08
 
   -0.49997E+08         0.15209E+04         0.00000E+00
    0.15209E+04        -0.49999E+08         0.00000E+00
    0.00000E+00         0.00000E+00        -0.50000E+08
 
   -0.49997E+08         0.15828E+04         0.00000E+00
    0.15828E+04        -0.49999E+08         0.00000E+00
    0.00000E+00         0.00000E+00        -0.50000E+08
 
   -0.49997E+08         0.16432E+04         0.00000E+00
    0.16432E+04        -0.49999E+08         0.00000E+00
    0.00000E+00         0.00000E+00        -0.50000E+08
 
   -0.49997E+08         0.17022E+04         0.00000E+00
    0.17022E+04        -0.49999E+08         0.00000E+00
    0.00000E+00         0.00000E+00        -0.50000E+08
 
   -0.49997E+08         0.17597E+04         0.00000E+00
    0.17597E+04        -0.49999E+08         0.00000E+00
    0.00000E+00         0.00000E+00        -0.50000E+08
 
   -0.49997E+08         0.18155E+04         0.00000E+00
    0.18155E+04        -0.49999E+08         0.00000E+00
    0.00000E+00         0.00000E+00        -0.50000E+08
 
   -0.49997E+08         0.18697E+04         0.00000E+00
    0.18697E+04        -0.49999E+08         0.00000E+00
    0.00000E+00         0.00000E+00        -0.50000E+08
 
   -0.49997E+08         0.19222E+04         0.00000E+00
    0.19222E+04        -0.49999E+08         0.00000E+00
    0.00000E+00         0.00000E+00        -0.50000E+08
 
   -0.49997E+08         0.19728E+04         0.00000E+00
    0.19728E+04        -0.49999E+08         0.00000E+00
    0.00000E+00         0.00000E+00        -0.50000E+08
 
   -0.49997E+08         0.20216E+04         0.00000E+00
    0.20216E+04        -0.49999E+08         0.00000E+00
    0.00000E+00         0.00000E+00        -0.50000E+08
 
   -0.49997E+08         0.20684E+04         0.00000E+00
    0.20684E+04        -0.49999E+08         0.00000E+00
    0.00000E+00         0.00000E+00        -0.50000E+08
 
   -0.49998E+08         0.21132E+04         0.00000E+00
    0.21132E+04        -0.49999E+08         0.00000E+00
    0.00000E+00         0.00000E+00        -0.50000E+08
 
   -0.49998E+08         0.21560E+04         0.00000E+00
    0.21560E+04        -0.49999E+08         0.00000E+00
    0.00000E+00         0.00000E+00        -0.50000E+08
 
   -0.49998E+08         0.21967E+04         0.00000E+00
    0.21967E+04        -0.49999E+08         0.00000E+00
    0.00000E+00         0.00000E+00        -0.50000E+08
 
   -0.49998E+08         0.22352E+04         0.00000E+00
    0.22352E+04        -0.49999E+08         0.00000E+00
    0.00000E+00         0.00000E+00        -0.50000E+08
 
   -0.49998E+08         0.22714E+04         0.00000E+00
    0.22714E+04        -0.49999E+08         0.00000E+00
    0.00000E+00         0.00000E+00        -0.50000E+08
 
   -0.49998E+08         0.23054E+04         0.00000E+00
    0.23054E+04        -0.49999E+08         0.00000E+00
    0.00000E+00         0.00000E+00        -0.50000E+08
 
   -0.49998E+08         0.23371E+04         0.00000E+00
    0.23371E+04        -0.49998E+08         0.00000E+00
    0.00000E+00         0.00000E+00        -0.50000E+08
 
   -0.49998E+08         0.23664E+04         0.00000E+00
    0.23664E+04        -0.49998E+08         0.00000E+00
    0.00000E+00         0.00000E+00        -0.50000E+08
 
   -0.49999E+08         0.23933E+04         0.00000E+00
    0.23933E+04        -0.49998E+08         0.00000E+00
    0.00000E+00         0.00000E+00        -0.50000E+08
 
   -0.49999E+08         0.24177E+04         0.00000E+00
    0.24177E+04        -0.49998E+08         0.00000E+00
    0.00000E+00         0.00000E+00        -0.50000E+08
 
   -0.49999E+08         0.24396E+04         0.00000E+00
    0.24396E+04        -0.49998E+08         0.00000E+00
    0.00000E+00         0.00000E+00        -0.50000E+08
 
   -0.49999E+08         0.24589E+04         0.00000E+00
    0.24589E+04        -0.49998E+08         0.00000E+00
    0.00000E+00         0.00000E+00        -0.50000E+08
 
   -0.49999E+08         0.24757E+04         0.00000E+00
    0.24757E+04        -0.49998E+08         0.00000E+00
    0.00000E+00         0.00000E+00        -0.50000E+08
 
   -0.49999E+08         0.24898E+04         0.00000E+00
    0.24898E+04        -0.49998E+08         0.00000E+00
    0.00000E+00         0.00000E+00        -0.50000E+08
 
   -0.49999E+08         0.25012E+04         0.00000E+00
    0.25012E+04        -0.49998E+08         0.00000E+00
    0.00000E+00         0.00000E+00        -0.50000E+08
 
   -0.50000E+08         0.25100E+04         0.00000E+00
    0.25100E+04        -0.49998E+08         0.00000E+00
    0.00000E+00         0.00000E+00        -0.50000E+08
 
   -0.50000E+08         0.25160E+04         0.00000E+00
    0.25160E+04        -0.49998E+08         0.00000E+00
    0.00000E+00         0.00000E+00        -0.50000E+08
 
   -0.50000E+08         0.25193E+04         0.00000E+00
    0.25193E+04        -0.49998E+08         0.00000E+00
    0.00000E+00         0.00000E+00        -0.50000E+08
 
   -0.49996E+08         0.41924E+02         0.00000E+00
    0.41924E+02        -0.50000E+08         0.00000E+00
    0.00000E+00         0.00000E+00        -0.50000E+08
 
   -0.49996E+08         0.12697E+03         0.00000E+00
    0.12697E+03        -0.50000E+08         0.00000E+00
    0.00000E+00         0.00000E+00        -0.50000E+08
 
   -0.49996E+08         0.21233E+03         0.00000E+00
    0.21233E+03        -0.50000E+08         0.00000E+00
    0.00000E+00         0.00000E+00        -0.50000E+08
 
   -0.49996E+08         0.29790E+03         0.00000E+00
    0.29790E+03        -0.50000E+08         0.00000E+00
    0.00000E+00         0.00000E+00        -0.50000E+08
 
   -0.49996E+08         0.38360E+03         0.00000E+00
    0.38360E+03        -0.50000E+08         0.00000E+00
    0.00000E+00         0.00000E+00        -0.50000E+08
 
   -0.49996E+08         0.46932E+03         0.00000E+00
    0.46932E+03        -0.50000E+08         0.00000E+00
    0.00000E+00         0.00000E+00        -0.50000E+08
 
   -0.49996E+08         0.55497E+03         0.00000E+00
    0.55497E+03        -0.50000E+08         0.00000E+00
    0.00000E+00         0.00000E+00        -0.50000E+08
 
   -0.49996E+08         0.64046E+03         0.00000E+00
    0.64046E+03        -0.50000E+08         0.00000E+00
    0.00000E+00         0.00000E+00        -0.50000E+08
 
   -0.49996E+08         0.72569E+03         0.00000E+00
    0.72569E+03        -0.50000E+08         0.00000E+00
    0.00000E+00         0.00000E+00        -0.50000E+08
 
   -0.49996E+08         0.81056E+03         0.00000E+00
    0.81056E+03        -0.50000E+08         0.00000E+00
    0.00000E+00         0.00000E+00        -0.50000E+08
 
   -0.49996E+08         0.89499E+03         0.00000E+00
    0.89499E+03        -0.50000E+08         0.00000E+00
    0.00000E+00         0.00000E+00        -0.50000E+08
 
   -0.49996E+08         0.97887E+03         0.00000E+00
    0.97887E+03        -0.50000E+08         0.00000E+00
    0.00000E+00         0.00000E+00        -0.50000E+08
 
   -0.49996E+08         0.10621E+04         0.00000E+00
    0.10621E+04        -0.50000E+08         0.00000E+00
    0.00000E+00         0.00000E+00        -0.50000E+08
 
   -0.49996E+08         0.11446E+04         0.00000E+00
    0.11446E+04        -0.50000E+08         0.00000E+00
    0.00000E+00         0.00000E+00        -0.50000E+08
 
   -0.49996E+08         0.12263E+04         0.00000E+00
    0.12263E+04        -0.50000E+08         0.00000E+00
    0.00000E+00         0.00000E+00        -0.50000E+08
 
   -0.49996E+08         0.13071E+04         0.00000E+00
    0.13071E+04        -0.50000E+08         0.00000E+00
    0.00000E+00         0.00000E+00        -0.50000E+08
 
   -0.49996E+08         0.13869E+04         0.00000E+00
    0.13869E+04        -0.50000E+08         0.00000E+00
    0.00000E+00         0.00000E+00        -0.50000E+08
 
   -0.49996E+08         0.14655E+04         0.00000E+00
    0.14655E+04        -0.50000E+08         0.00000E+00
    0.00000E+00         0.00000E+00        -0.50000E+08
 
   -0.49996E+08         0.15430E+04         0.00000E+00
    0.15430E+04        -0.50000E+08         0.00000E+00
    0.00000E+00         0.00000E+00        -0.50000E+08
 
   -0.49996E+08         0.16192E+04         0.00000E+00
    0.16192E+04        -0.50000E+08         0.00000E+00
    0.00000E+00         0.00000E+00        -0.50000E+08
 
   -0.49996E+08         0.16941E+04         0.00000E+00
    0.16941E+04        -0.49999E+08         0.00000E+00
    0.00000E+00         0.00000E+00        -0.50000E+08
 
   -0.49996E+08         0.17675E+04         0.00000E+00
    0.17675E+04        -0.49999E+08         0.00000E+00
    0.00000E+00         0.00000E+00        -0.50000E+08
 
   -0.49996E+08         0.18393E+04         0.00000E+00
    0.18393E+04        -0.49999E+08         0.00000E+00
    0.00000E+00         0.00000E+00        -0.50000E+08
 
   -0.49996E+08         0.19096E+04         0.00000E+00
    0.19096E+04        -0.49999E+08         0.00000E+00
    0.00000E+00         0.00000E+00        -0.50000E+08
 
   -0.49996E+08         0.19781E+04         0.00000E+00
    0.19781E+04        -0.49999E+08         0.00000E+00
    0.00000E+00         0.00000E+00        -0.50000E+08
 
   -0.49997E+08         0.20449E+04         0.00000E+00
    0.20449E+04        -0.49999E+08         0.00000E+00
    0.00000E+00         0.00000E+00        -0.50000E+08
 
   -0.49997E+08         0.21097E+04         0.00000E+00
    0.21097E+04        -0.49999E+08         0.00000E+00
    0.00000E+00         0.00000E+00        -0.50000E+08
 
   -0.49997E+08         0.21727E+04         0.00000E+00
    0.21727E+04        -0.49999E+08         0.00000E+00
    0.00000E+00         0.00000E+00        -0.50000E+08
 
   -0.49997E+08         0.22336E+04         0.00000E+00
    0.22336E+04        -0.49999E+08         0.00000E+00
    0.00000E+00         0.00000E+00        -0.50000E+08
 
   -0.49997E+08         0.22924E+04         0.00000E+00
    0.22924E+04        -0.49999E+08         0.00000E+00
    0.00000E+00         0.00000E+00        -0.50000E+08
 
   -0.49997E+08         0.23490E+04         0.00000E+00
    0.23490E+04        -0.49999E+08         0.00000E+00
    0.00000E+00         0.00000E+00        -0.50000E+08
 
   -0.49997E+08         0.24034E+04         0.00000E+00
    0.24034E+04        -0.49999E+08         0.00000E+00
    0.00000E+00         0.00000E+00        -0.50000E+08
 
   -0.49997E+08         0.24555E+04         0.00000E+00
    0.24555E+04        -0.49999E+08         0.00000E+00
    0.00000E+00         0.00000E+00        -0.50000E+08
 
   -0.49997E+08         0.25052E+04         0.00000E+00
    0.25052E+04        -0.49999E+08         0.00000E+00
    0.00000E+00         0.00000E+00        -0.50000E+08
 
   -0.49998E+08         0.25524E+04         0.00000E+00
    0.25524E+04        -0.49999E+08         0.00000E+00
    0.00000E+00         0.00000E+00        -0.50000E+08
 
   -0.49998E+08         0.25971E+04         0.00000E+00
    0.25971E+04        -0.49999E+08         0.00000E+00
    0.00000E+00         0.00000E+00        -0.50000E+08
 
   -0.49998E+08         0.26392E+04         0.00000E+00
    0.26392E+04        -0.49998E+08         0.00000E+00
    0.00000E+00         0.00000E+00        -0.50000E+08
 
   -0.49998E+08         0.26787E+04         0.00000E+00
    0.26787E+04        -0.49998E+08         0.00000E+00
    0.00000E+00         0.00000E+00        -0.50000E+08
 
   -0.49998E+08         0.27155E+04         0.00000E+00
    0.27155E+04        -0.49998E+08         0.00000E+00
    0.00000E+00         0.00000E+00        -0.50000E+08
 
   -0.49998E+08         0.27495E+04         0.00000E+00
    0.27495E+04        -0.49998E+08         0.00000E+00
    0.00000E+00         0.00000E+00        -0.50000E+08
 
   -0.49998E+08         0.27808E+04         0.00000E+00
    0.27808E+04        -0.49998E+08         0.00000E+00
    0.00000E+00         0.00000E+00        -0.50000E+08
 
   -0.49999E+08         0.28091E+04         0.00000E+00
    0.28091E+04        -0.49998E+08         0.00000E+00
    0.00000E+00         0.00000E+00        -0.50000E+08
 
   -0.49999E+08         0.28345E+04         0.00000E+00
    0.28345E+04        -0.49998E+08         0.00000E+00
    0.00000E+00         0.00000E+00        -0.50000E+08
 
   -0.49999E+08         0.28570E+04         0.00000E+00
    0.28570E+04        -0.49998E+08         0.00000E+00
    0.00000E+00         0.00000E+00        -0.50000E+08
 
   -0.49999E+08         0.28765E+04         0.00000E+00
    0.28765E+04        -0.49998E+08         0.00000E+00
    0.00000E+00         0.00000E+00        -0.50000E+08
 
   -0.49999E+08         0.28929E+04         0.00000E+00
    0.28929E+04        -0.49998E+08         0.00000E+00
    0.00000E+00         0.00000E+00        -0.50000E+08
 
   -0.49999E+08         0.29062E+04         0.00000E+00
    0.29062E+04        -0.49998E+08         0.00000E+00
    0.00000E+00         0.00000E+00        -0.50000E+08
 
   -0.50000E+08         0.29164E+04         0.00000E+00
    0.29164E+04        -0.49998E+08         0.00000E+00
    0.00000E+00         0.00000E+00        -0.50000E+08
 
   -0.50000E+08         0.29234E+04         0.00000E+00
    0.29234E+04        -0.49997E+08         0.00000E+00
    0.00000E+00         0.00000E+00        -0.50000E+08
 
   -0.50000E+08         0.29272E+04         0.00000E+00
    0.29272E+04        -0.49997E+08         0.00000E+00
    0.00000E+00         0.00000E+00        -0.50000E+08
 
   -0.49995E+08         0.48383E+02         0.00000E+00
    0.48383E+02        -0.50000E+08         0.00000E+00
    0.00000E+00         0.00000E+00        -0.50000E+08
 
   -0.49995E+08         0.14652E+03         0.00000E+00
    0.14652E+03        -0.50000E+08         0.00000E+00
    0.00000E+00         0.00000E+00        -0.50000E+08
 
   -0.49995E+08         0.24501E+03         0.00000E+00
    0.24501E+03        -0.50000E+08         0.00000E+00
    0.00000E+00         0.00000E+00        -0.50000E+08
 
   -0.49995E+08         0.34374E+03         0.00000E+00
    0.34374E+03        -0.50000E+08         0.00000E+00
    0.00000E+00         0.00000E+00        -0.50000E+08
 
   -0.49995E+08         0.44261E+03         0.00000E+00
    0.44261E+03        -0.50000E+08         0.00000E+00
    0.00000E+00         0.00000E+00        -0.50000E+08
 
   -0.49995E+08         0.54150E+03         0.00000E+00
    0.54150E+03        -0.50000E+08         0.00000E+00
    0.00000E+00         0.00000E+00        -0.50000E+08
 
   -0.49995E+08         0.64031E+03         0.00000E+00
    0.64031E+03        -0.50000E+08         0.00000E+00
    0.00000E+00         0.00000E+00        -0.50000E+08
 
   -0.49995E+08         0.73893E+03         0.00000E+00
    0.73893E+03        -0.50000E+08         0.00000E+00
    0.00000E+00         0.00000E+00        -0.50000E+08
 
   -0.49995E+08         0.83724E+03         0.00000E+00
    0.83724E+03        -0.50000E+08         0.00000E+00
    0.00000E+00         0.00000E+00        -0.50000E+08
 
   -0.49995E+08         0.93514E+03         0.00000E+00
    0.93514E+03        -0.50000E+08         0.00000E+00
    0.00000E+00         0.00000E+00        -0.50000E+08
 
   -0.49995E+08         0.10325E+04         0.00000E+00
    0.10325E+04        -0.50000E+08         0.00000E+00
    0.00000E+00         0.00000E+00        -0.50000E+08
 
   -0.49995E+08         0.11293E+04         0.00000E+00
    0.11293E+04        -0.50000E+08         0.00000E+00
    0.00000E+00         0.00000E+00        -0.50000E+08
 
   -0.49995E+08         0.12253E+04         0.00000E+00
    0.12253E+04        -0.50000E+08         0.00000E+00
    0.00000E+00         0.00000E+00        -0.50000E+08
 
   -0.49995E+08         0.13204E+04         0.00000E+00
    0.13204E+04        -0.50000E+08         0.00000E+00
    0.00000E+00         0.00000E+00        -0.50000E+08
 
   -0.49995E+08         0.14147E+04         0.00000E+00
    0.14147E+04        -0.50000E+08         0.00000E+00
    0.00000E+00         0.00000E+00        -0.50000E+08
 
   -0.49995E+08         0.15078E+04         0.00000E+00
    0.15078E+04        -0.50000E+08         0.00000E+00
    0.00000E+00         0.00000E+00        -0.50000E+08
 
   -0.49995E+08         0.15998E+04         0.00000E+00
    0.15998E+04        -0.50000E+08         0.00000E+00
    0.00000E+00         0.00000E+00        -0.50000E+08
 
   -0.49996E+08         0.16905E+04         0.00000E+00
    0.16905E+04        -0.50000E+08         0.00000E+00
    0.00000E+00         0.00000E+00        -0.50000E+08
 
   -0.49996E+08         0.17799E+04         0.00000E+00
    0.17799E+04        -0.50000E+08         0.00000E+00
    0.00000E+00         0.00000E+00        -0.50000E+08
 
   -0.49996E+08         0.18677E+04         0.00000E+00
    0.18677E+04        -0.49999E+08         0.00000E+00
    0.00000E+00         0.00000E+00        -0.50000E+08
 
   -0.49996E+08         0.19540E+04         0.00000E+00
    0.19540E+04        -0.49999E+08         0.00000E+00
    0.00000E+00         0.00000E+00        -0.50000E+08
 
   -0.49996E+08         0.20387E+04         0.00000E+00
    0.20387E+04        -0.49999E+08         0.00000E+00
    0.00000E+00         0.00000E+00        -0.50000E+08
 
   -0.49996E+08         0.21215E+04         0.00000E+00
    0.21215E+04        -0.49999E+08         0.00000E+00
    0.00000E+00         0.00000E+00        -0.50000E+08
 
   -0.49996E+08         0.22025E+04         0.00000E+00
    0.22025E+04        -0.49999E+08         0.00000E+00
    0.00000E+00         0.00000E+00        -0.50000E+08
 
   -0.49996E+08         0.22815E+04         0.00000E+00
    0.22815E+04        -0.49999E+08         0.00000E+00
    0.00000E+00         0.00000E+00        -0.50000E+08
 
   -0.49996E+08         0.23585E+04         0.00000E+00
    0.23585E+04        -0.49999E+08         0.00000E+00
    0.00000E+00         0.00000E+00        -0.50000E+08
 
   -0.49996E+08         0.24332E+04         0.00000E+00
    0.24332E+04        -0.49999E+08         0.00000E+00
    0.00000E+00         0.00000E+00        -0.50000E+08
 
   -0.49996E+08         0.25058E+04         0.00000E+00
    0.25058E+04        -0.49999E+08         0.00000E+00
    0.00000E+00         0.00000E+00        -0.50000E+08
 
   -0.49997E+08         0.25760E+04         0.00000E+00
    0.25760E+04        -0.49999E+08         0.00000E+00
    0.00000E+00         0.00000E+00        -0.50000E+08
 
   -0.49997E+08         0.26438E+04         0.00000E+00
    0.26438E+04        -0.49999E+08         0.00000E+00
    0.00000E+00         0.00000E+00        -0.50000E+08
 
   -0.49997E+08         0.27091E+04         0.00000E+00
    0.27091E+04        -0.49999E+08         0.00000E+00
    0.00000E+00         0.00000E+00        -0.50000E+08
 
   -0.49997E+08         0.27718E+04         0.00000E+00
    0.27718E+04        -0.49999E+08         0.00000E+00
    0.00000E+00         0.00000E+00        -0.50000E+08
 
   -0.49997E+08         0.28318E+04         0.00000E+00
    0.28318E+04        -0.49999E+08         0.00000E+00
    0.00000E+00         0.00000E+00        -0.50000E+08
 
   -0.49997E+08         0.28891E+04         0.00000E+00
    0.28891E+04        -0.49999E+08         0.00000E+00
    0.00000E+00         0.00000E+00        -0.50000E+08
 
   -0.49997E+08         0.29436E+04         0.00000E+00
    0.29436E+04        -0.49998E+08         0.00000E+00
    0.00000E+00         0.00000E+00        -0.50000E+08
 
   -0.49998E+08         0.29951E+04         0.00000E+00
    0.29951E+04        -0.49998E+08         0.00000E+00
    0.00000E+00         0.00000E+00        -0.50000E+08
 
   -0.49998E+08         0.30437E+04         0.00000E+00
    0.30437E+04        -0.49998E+08         0.00000E+00
    0.00000E+00         0.00000E+00        -0.50000E+08
 
   -0.49998E+08         0.30892E+04         0.00000E+00
    0.30892E+04        -0.49998E+08         0.00000E+00
    0.00000E+00         0.00000E+00        -0.50000E+08
 
   -0.49998E+08         0.31316E+04         0.00000E+00
    0.31316E+04        -0.49998E+08         0.00000E+00
    0.00000E+00         0.00000E+00        -0.50000E+08
 
   -0.49998E+08         0.31709E+04         0.00000E+00
    0.31709E+04        -0.49998E+08         0.00000E+00
    0.00000E+00         0.00000E+00        -0.50000E+08
 
   -0.49998E+08         0.32068E+04         0.00000E+00
    0.32068E+04        -0.49998E+08         0.00000E+00
    0.00000E+00         0.00000E+00        -0.50000E+08
 
   -0.49998E+08         0.32395E+04         0.00000E+00
    0.32395E+04        -0.49998E+08         0.00000E+00
    0.00000E+00         0.00000E+00        -0.50000E+08
 
   -0.49999E+08         0.32689E+04         0.00000E+00
    0.32689E+04        -0.49998E+08         0.00000E+00
    0.00000E+00         0.00000E+00        -0.50000E+08
 
   -0.49999E+08         0.32948E+04         0.00000E+00
    0.32948E+04        -0.49998E+08         0.00000E+00
    0.00000E+00         0.00000E+00        -0.50000E+08
 
   -0.49999E+08         0.33172E+04         0.00000E+00
    0.33172E+04        -0.49998E+08         0.00000E+00
    0.00000E+00         0.00000E+00        -0.50000E+08
 
   -0.49999E+08         0.33361E+04         0.00000E+00
    0.33361E+04        -0.49997E+08         0.00000E+00
    0.00000E+00         0.00000E+00        -0.50000E+08
 
   -0.49999E+08         0.33515E+04         0.00000E+00
    0.33515E+04        -0.49997E+08         0.00000E+00
    0.00000E+00         0.00000E+00        -0.50000E+08
 
   -0.50000E+08         0.33632E+04         0.00000E+00
    0.33632E+04        -0.49997E+08         0.00000E+00
    0.00000E+00         0.00000E+00        -0.50000E+08
 
   -0.50000E+08         0.33714E+04         0.00000E+00
    0.33714E+04        -0.49997E+08         0.00000E+00
    0.00000E+00         0.00000E+00        -0.50000E+08
 
   -0.50000E+08         0.33758E+04         0.00000E+00
    0.33758E+04        -0.49997E+08         0.00000E+00
    0.00000E+00         0.00000E+00        -0.50000E+08
 
   -0.49995E+08         0.55524E+02         0.00000E+00
    0.55524E+02        -0.50000E+08         0.00000E+00
    0.00000E+00         0.00000E+00        -0.50000E+08
 
   -0.49995E+08         0.16812E+03         0.00000E+00
    0.16812E+03        -0.50000E+08         0.00000E+00
    0.00000E+00         0.00000E+00        -0.50000E+08
 
   -0.49995E+08         0.28113E+03         0.00000E+00
    0.28113E+03        -0.50000E+08         0.00000E+00
    0.00000E+00         0.00000E+00        -0.50000E+08
 
   -0.49995E+08         0.39440E+03         0.00000E+00
    0.39440E+03        -0.50000E+08         0.00000E+00
    0.00000E+00         0.00000E+00        -0.50000E+08
 
   -0.49995E+08         0.50783E+03         0.00000E+00
    0.50783E+03        -0.50000E+08         0.00000E+00
    0.00000E+00         0.00000E+00        -0.50000E+08
 
   -0.49995E+08         0.62128E+03         0.00000E+00
    0.62128E+03        -0.50000E+08         0.00000E+00
    0.00000E+00         0.00000E+00        -0.50000E+08
 
   -0.49995E+08         0.73462E+03         0.00000E+00
    0.73462E+03        -0.50000E+08         0.00000E+00
    0.00000E+00         0.00000E+00        -0.50000E+08
 
   -0.49995E+08         0.84774E+03         0.00000E+00
    0.84774E+03        -0.50000E+08         0.00000E+00
    0.00000E+00         0.00000E+00        -0.50000E+08
 
   -0.49995E+08         0.96051E+03         0.00000E+00
    0.96051E+03        -0.50000E+08         0.00000E+00
    0.00000E+00         0.00000E+00        -0.50000E+08
 
   -0.49995E+08         0.10728E+04         0.00000E+00
    0.10728E+04        -0.50000E+08         0.00000E+00
    0.00000E+00         0.00000E+00        -0.50000E+08
 
   -0.49995E+08         0.11845E+04         0.00000E+00
    0.11845E+04        -0.50000E+08         0.00000E+00
    0.00000E+00         0.00000E+00        -0.50000E+08
 
   -0.49995E+08         0.12954E+04         0.00000E+00
    0.12954E+04        -0.50000E+08         0.00000E+00
    0.00000E+00         0.00000E+00        -0.50000E+08
 
   -0.49995E+08         0.14055E+04         0.00000E+00
    0.14055E+04        -0.50000E+08         0.00000E+00
    0.00000E+00         0.00000E+00        -0.50000E+08
 
   -0.49995E+08         0.15147E+04         0.00000E+00
    0.15147E+04        -0.50000E+08         0.00000E+00
    0.00000E+00         0.00000E+00        -0.50000E+08
 
   -0.49995E+08         0.16227E+04         0.00000E+00
    0.16227E+04        -0.50000E+08         0.00000E+00
    0.00000E+00         0.00000E+00        -0.50000E+08
 
   -0.49995E+08         0.17295E+04         0.00000E+00
    0.17295E+04        -0.50000E+08         0.00000E+00
    0.00000E+00         0.00000E+00        -0.50000E+08
 
   -0.49995E+08         0.18350E+04         0.00000E+00
    0.18350E+04        -0.50000E+08         0.00000E+00
    0.00000E+00         0.00000E+00        -0.50000E+08
 
   -0.49995E+08         0.19390E+04         0.00000E+00
    0.19390E+04        -0.50000E+08         0.00000E+00
    0.00000E+00         0.00000E+00        -0.50000E+08
 
   -0.49995E+08         0.20415E+04         0.00000E+00
    0.20415E+04        -0.49999E+08         0.00000E+00
    0.00000E+00         0.00000E+00        -0.50000E+08
 
   -0.49995E+08         0.21422E+04         0.00000E+00
    0.21422E+04        -0.49999E+08         0.00000E+00
    0.00000E+00         0.00000E+00        -0.50000E+08
 
   -0.49995E+08         0.22412E+04         0.00000E+00
    0.22412E+04        -0.49999E+08         0.00000E+00
    0.00000E+00         0.00000E+00        -0.50000E+08
 
   -0.49995E+08         0.23382E+04         0.00000E+00
    0.23382E+04        -0.49999E+08         0.00000E+00
    0.00000E+00         0.00000E+00        -0.50000E+08
 
   -0.49995E+08         0.24332E+04         0.00000E+00
    0.24332E+04        -0.49999E+08         0.00000E+00
    0.00000E+00         0.00000E+00        -0.50000E+08
 
   -0.49996E+08         0.25260E+04         0.00000E+00
    0.25260E+04        -0.49999E+08         0.00000E+00
    0.00000E+00         0.00000E+00        -0.50000E+08
 
   -0.49996E+08         0.26166E+04         0.00000E+00
    0.26166E+04        -0.49999E+08         0.00000E+00
    0.00000E+00         0.00000E+00        -0.50000E+08
 
   -0.49996E+08         0.27048E+04         0.00000E+00
    0.27048E+04        -0.49999E+08         0.00000E+00
    0.00000E+00         0.00000E+00        -0.50000E+08
 
   -0.49996E+08         0.27906E+04         0.00000E+00
    0.27906E+04        -0.49999E+08         0.00000E+00
    0.00000E+00         0.00000E+00        -0.50000E+08
 
   -0.49996E+08         0.28737E+04         0.00000E+00
    0.28737E+04        -0.49999E+08         0.00000E+00
    0.00000E+00         0.00000E+00        -0.50000E+08
 
   -0.49996E+08         0.29542E+04         0.00000E+00
    0.29542E+04        -0.49999E+08         0.00000E+00
    0.00000E+00         0.00000E+00        -0.50000E+08
 
   -0.49996E+08         0.30319E+04         0.00000E+00
    0.30319E+04        -0.49999E+08         0.00000E+00
    0.00000E+00         0.00000E+00        -0.50000E+08
 
   -0.49996E+08         0.31068E+04         0.00000E+00
    0.31068E+04        -0.49999E+08         0.00000E+00
    0.00000E+00         0.00000E+00        -0.50000E+08
 
   -0.49997E+08         0.31786E+04         0.00000E+00
    0.31786E+04        -0.49999E+08         0.00000E+00
    0.00000E+00         0.00000E+00        -0.50000E+08
 
   -0.49997E+08         0.32475E+04         0.00000E+00
    0.32475E+04        -0.49998E+08         0.00000E+00
    0.00000E+00         0.00000E+00        -0.50000E+08
 
   -0.49997E+08         0.33131E+04         0.00000E+00
    0.33131E+04        -0.49998E+08         0.00000E+00
    0.00000E+00         0.00000E+00        -0.50000E+08
 
   -0.49997E+08         0.33755E+04         0.00000E+00
    0.33755E+04        -0.49998E+08         0.00000E+00
    0.00000E+00         0.00000E+00        -0.50000E+08
 
   -0.49997E+08         0.34346E+04         0.00000E+00
    0.34346E+04        -0.49998E+08         0.00000E+00
    0.00000E+00         0.00000E+00        -0.50000E+08
 
   -0.49997E+08         0.34903E+04         0.00000E+00
    0.34903E+04        -0.49998E+08         0.00000E+00
    0.00000E+00         0.00000E+00        -0.50000E+08
 
   -0.49998E+08         0.35425E+04         0.00000E+00
    0.35425E+04        -0.49998E+08         0.00000E+00
    0.00000E+00         0.00000E+00        -0.50000E+08
 
   -0.49998E+08         0.35911E+04         0.00000E+00
    0.35911E+04        -0.49998E+08         0.00000E+00
    0.00000E+00         0.00000E+00        -0.50000E+08
 
   -0.49998E+08         0.36361E+04         0.00000E+00
    0.36361E+04        -0.49998E+08         0.00000E+00
    0.00000E+00         0.00000E+00        -0.50000E+08
 
   -0.49998E+08         0.36774E+04         0.00000E+00
    0.36774E+04        -0.49998E+08         0.00000E+00
    0.00000E+00         0.00000E+00        -0.50000E+08
 
   -0.49998E+08         0.37148E+04         0.00000E+00
    0.37148E+04        -0.49998E+08         0.00000E+00
    0.00000E+00         0.00000E+00        -0.50000E+08
 
   -0.49998E+08         0.37485E+04         0.00000E+00
    0.37485E+04        -0.49998E+08         0.00000E+00
    0.00000E+00         0.00000E+00        -0.50000E+08
 
   -0.49999E+08         0.37782E+04         0.00000E+00
    0.37782E+04        -0.49997E+08         0.00000E+00
    0.00000E+00         0.00000E+00        -0.50000E+08
 
   -0.49999E+08         0.38039E+04         0.00000E+00
    0.38039E+04        -0.49997E+08         0.00000E+00
    0.00000E+00         0.00000E+00        -0.50000E+08
 
   -0.49999E+08         0.38257E+04         0.00000E+00
    0.38257E+04        -0.49997E+08         0.00000E+00
    0.00000E+00         0.00000E+00        -0.50000E+08
 
   -0.49999E+08         0.38433E+04         0.00000E+00
    0.38433E+04        -0.49997E+08         0.00000E+00
    0.00000E+00         0.00000E+00        -0.50000E+08
 
   -0.49999E+08         0.38568E+04         0.00000E+00
    0.38568E+04        -0.49997E+08         0.00000E+00
    0.00000E+00         0.00000E+00        -0.50000E+08
 
   -0.50000E+08         0.38661E+04         0.00000E+00
    0.38661E+04        -0.49997E+08         0.00000E+00
    0.00000E+00         0.00000E+00        -0.50000E+08
 
   -0.50000E+08         0.38712E+04         0.00000E+00
    0.38712E+04        -0.49997E+08         0.00000E+00
    0.00000E+00         0.00000E+00        -0.50000E+08
 
   -0.49994E+08         0.63448E+02         0.00000E+00
    0.63448E+02        -0.50000E+08         0.00000E+00
    0.00000E+00         0.00000E+00        -0.50000E+08
 
   -0.49994E+08         0.19210E+03         0.00000E+00
    0.19210E+03        -0.50000E+08         0.00000E+00
    0.00000E+00         0.00000E+00        -0.50000E+08
 
   -0.49994E+08         0.32119E+03         0.00000E+00
    0.32119E+03        -0.50000E+08         0.00000E+00
    0.00000E+00         0.00000E+00        -0.50000E+08
 
   -0.49994E+08         0.45060E+03         0.00000E+00
    0.45060E+03        -0.50000E+08         0.00000E+00
    0.00000E+00         0.00000E+00        -0.50000E+08
 
   -0.49994E+08         0.58017E+03         0.00000E+00
    0.58017E+03        -0.50000E+08         0.00000E+00
    0.00000E+00         0.00000E+00        -0.50000E+08
 
   -0.49994E+08         0.70976E+03         0.00000E+00
    0.70976E+03        -0.50000E+08         0.00000E+00
    0.00000E+00         0.00000E+00        -0.50000E+08
 
   -0.49994E+08         0.83922E+03         0.00000E+00
    0.83922E+03        -0.50000E+08         0.00000E+00
    0.00000E+00         0.00000E+00        -0.50000E+08
 
   -0.49994E+08         0.96842E+03         0.00000E+00
    0.96842E+03        -0.50000E+08         0.00000E+00
    0.00000E+00         0.00000E+00        -0.50000E+08
 
   -0.49994E+08         0.10972E+04         0.00000E+00
    0.10972E+04        -0.50000E+08         0.00000E+00
    0.00000E+00         0.00000E+00        -0.50000E+08
 
   -0.49994E+08         0.12254E+04         0.00000E+00
    0.12254E+04        -0.50000E+08         0.00000E+00
    0.00000E+00         0.00000E+00        -0.50000E+08
 
   -0.49994E+08         0.13530E+04         0.00000E+00
    0.13530E+04        -0.50000E+08         0.00000E+00
    0.00000E+00         0.00000E+00        -0.50000E+08
 
   -0.49994E+08         0.14797E+04         0.00000E+00
    0.14797E+04        -0.50000E+08         0.00000E+00
    0.00000E+00         0.00000E+00        -0.50000E+08
 
   -0.49994E+08         0.16054E+04         0.00000E+00
    0.16054E+04        -0.50000E+08         0.00000E+00
    0.00000E+00         0.00000E+00        -0.50000E+08
 
   -0.49994E+08         0.17300E+04         0.00000E+00
    0.17300E+04        -0.50000E+08         0.00000E+00
    0.00000E+00         0.00000E+00        -0.50000E+08
 
   -0.49994E+08         0.18534E+04         0.00000E+00
    0.18534E+04        -0.50000E+08         0.00000E+00
    0.00000E+00         0.00000E+00        -0.50000E+08
 
   -0.49994E+08         0.19753E+04         0.00000E+00
    0.19753E+04        -0.50000E+08         0.00000E+00
    0.00000E+00         0.00000E+00        -0.50000E+08
 
   -0.49994E+08         0.20958E+04         0.00000E+00
    0.20958E+04        -0.50000E+08         0.00000E+00
    0.00000E+00         0.00000E+00        -0.50000E+08
 
   -0.49994E+08         0.22145E+04         0.00000E+00
    0.22145E+04        -0.49999E+08         0.00000E+00
    0.00000E+00         0.00000E+00        -0.50000E+08
 
   -0.49995E+08         0.23315E+04         0.00000E+00
    0.23315E+04        -0.49999E+08         0.00000E+00
    0.00000E+00         0.00000E+00        -0.50000E+08
 
   -0.49995E+08         0.24465E+04         0.00000E+00
    0.24465E+04        -0.49999E+08         0.00000E+00
    0.00000E+00         0.00000E+00        -0.50000E+08
 
   -0.49995E+08         0.25595E+04         0.00000E+00
    0.25595E+04        -0.49999E+08         0.00000E+00
    0.00000E+00         0.00000E+00        -0.50000E+08
 
   -0.49995E+08         0.26702E+04         0.00000E+00
    0.26702E+04        -0.49999E+08         0.00000E+00
    0.00000E+00         0.00000E+00        -0.50000E+08
 
   -0.49995E+08         0.27786E+04         0.00000E+00
    0.27786E+04        -0.49999E+08         0.00000E+00
    0.00000E+00         0.00000E+00        -0.50000E+08
 
   -0.49995E+08         0.28846E+04         0.00000E+00
    0.28846E+04        -0.49999E+08         0.00000E+00
    0.00000E+00         0.00000E+00        -0.50000E+08
 
   -0.49995E+08         0.29880E+04         0.00000E+00
    0.29880E+04        -0.49999E+08         0.00000E+00
    0.00000E+00         0.00000E+00        -0.50000E+08
 
   -0.49995E+08         0.30887E+04         0.00000E+00
    0.30887E+04        -0.49999E+08         0.00000E+00
    0.00000E+00         0.00000E+00        -0.50000E+08
 
   -0.49995E+08         0.31866E+04         0.00000E+00
    0.31866E+04        -0.49999E+08         0.00000E+00
    0.00000E+00         0.00000E+00        -0.50000E+08
 
   -0.49996E+08         0.32815E+04         0.00000E+00
    0.32815E+04        -0.49999E+08         0.00000E+00
    0.00000E+00         0.00000E+00        -0.50000E+08
 
   -0.49996E+08         0.33734E+04         0.00000E+00
    0.33734E+04        -0.49999E+08         0.00000E+00
    0.00000E+00         0.00000E+00        -0.50000E+08
 
   -0.49996E+08         0.34621E+04         0.00000E+00
    0.34621E+04        -0.49999E+08         0.00000E+00
    0.00000E+00         0.00000E+00        -0.50000E+08
 
   -0.49996E+08         0.35475E+04         0.00000E+00
    0.35475E+04        -0.49998E+08         0.00000E+00
    0.00000E+00         0.00000E+00        -0.50000E+08
 
   -0.49996E+08         0.36295E+04         0.00000E+00
    0.36295E+04        -0.49998E+08         0.00000E+00
    0.00000E+00         0.00000E+00        -0.50000E+08
 
   -0.49996E+08         0.37081E+04         0.00000E+00
    0.37081E+04        -0.49998E+08         0.00000E+00
    0.00000E+00         0.00000E+00        -0.50000E+08
 
   -0.49997E+08         0.37830E+04         0.00000E+00
    0.37830E+04        -0.49998E+08         0.00000E+00
    0.00000E+00         0.00000E+00        -0.50000E+08
 
   -0.49997E+08         0.38542E+04         0.00000E+00
    0.38542E+04        -0.49998E+08         0.00000E+00
    0.00000E+00         0.00000E+00        -0.50000E+08
 
   -0.49997E+08         0.39217E+04         0.00000E+00
    0.39217E+04        -0.49998E+08         0.00000E+00
    0.00000E+00         0.00000E+00        -0.50000E+08
 
   -0.49997E+08         0.39852E+04         0.00000E+00
    0.39852E+04        -0.49998E+08         0.00000E+00
    0.00000E+00         0.00000E+00        -0.50000E+08
 
   -0.49997E+08         0.40448E+04         0.00000E+00
    0.40448E+04        -0.49998E+08         0.00000E+00
    0.00000E+00         0.00000E+00        -0.50000E+08
 
   -0.49997E+08         0.41003E+04         0.00000E+00
    0.41003E+04        -0.49998E+08         0.00000E+00
    0.00000E+00         0.00000E+00        -0.50000E+08
 
   -0.49998E+08         0.41517E+04         0.00000E+00
    0.41517E+04        -0.49998E+08         0.00000E+00
    0.00000E+00         0.00000E+00        -0.50000E+08
 
   -0.49998E+08         0.41988E+04         0.00000E+00
    0.41988E+04        -0.49997E+08         0.00000E+00
    0.00000E+00         0.00000E+00        -0.50000E+08
 
   -0.49998E+08         0.42416E+04         0.00000E+00
    0.42416E+04        -0.49997E+08         0.00000E+00
    0.00000E+00         0.00000E+00        -0.50000E+08
 
   -0.49998E+08         0.42800E+04         0.00000E+00
    0.42800E+04        -0.49997E+08         0.00000E+00
    0.00000E+00         0.00000E+00        -0.50000E+08
 
   -0.49999E+08         0.43139E+04         0.00000E+00
    0.43139E+04        -0.49997E+08         0.00000E+00
    0.00000E+00         0.00000E+00        -0.50000E+08
 
   -0.49999E+08         0.43433E+04         0.00000E+00
    0.43433E+04        -0.49997E+08         0.00000E+00
    0.00000E+00         0.00000E+00        -0.50000E+08
 
   -0.49999E+08         0.43682E+04         0.00000E+00
    0.43682E+04        -0.49997E+08         0.00000E+00
    0.00000E+00         0.00000E+00        -0.50000E+08
 
   -0.49999E+08         0.43883E+04         0.00000E+00
    0.43883E+04        -0.49997E+08         0.00000E+00
    0.00000E+00         0.00000E+00        -0.50000E+08
 
   -0.49999E+08         0.44038E+04         0.00000E+00
    0.44038E+04        -0.49997E+08         0.00000E+00
    0.00000E+00         0.00000E+00        -0.50000E+08
 
   -0.50000E+08         0.44144E+04         0.00000E+00
    0.44144E+04        -0.49997E+08         0.00000E+00
    0.00000E+00         0.00000E+00        -0.50000E+08
 
   -0.50000E+08         0.44203E+04         0.00000E+00
    0.44203E+04        -0.49996E+08         0.00000E+00
    0.00000E+00         0.00000E+00        -0.50000E+08
 
   -0.49993E+08         0.72266E+02         0.00000E+00
    0.72266E+02        -0.50000E+08         0.00000E+00
    0.00000E+00         0.00000E+00        -0.50000E+08
 
   -0.49993E+08         0.21877E+03         0.00000E+00
    0.21877E+03        -0.50000E+08         0.00000E+00
    0.00000E+00         0.00000E+00        -0.50000E+08
 
   -0.49993E+08         0.36577E+03         0.00000E+00
    0.36577E+03        -0.50000E+08         0.00000E+00
    0.00000E+00         0.00000E+00        -0.50000E+08
 
   -0.49993E+08         0.51312E+03         0.00000E+00
    0.51312E+03        -0.50000E+08         0.00000E+00
    0.00000E+00         0.00000E+00        -0.50000E+08
 
   -0.49993E+08         0.66064E+03         0.00000E+00
    0.66064E+03        -0.50000E+08         0.00000E+00
    0.00000E+00         0.00000E+00        -0.50000E+08
 
   -0.49993E+08         0.80817E+03         0.00000E+00
    0.80817E+03        -0.50000E+08         0.00000E+00
    0.00000E+00         0.00000E+00        -0.50000E+08
 
   -0.49993E+08         0.95556E+03         0.00000E+00
    0.95556E+03        -0.50000E+08         0.00000E+00
    0.00000E+00         0.00000E+00        -0.50000E+08
 
   -0.49993E+08         0.11026E+04         0.00000E+00
    0.11026E+04        -0.50000E+08         0.00000E+00
    0.00000E+00         0.00000E+00        -0.50000E+08
 
   -0.49993E+08         0.12492E+04         0.00000E+00
    0.12492E+04        -0.50000E+08         0.00000E+00
    0.00000E+00         0.00000E+00        -0.50000E+08
 
   -0.49993E+08         0.13952E+04         0.00000E+00
    0.13952E+04        -0.50000E+08         0.00000E+00
    0.00000E+00         0.00000E+00        -0.50000E+08
 
   -0.49993E+08         0.15404E+04         0.00000E+00
    0.15404E+04        -0.50000E+08         0.00000E+00
    0.00000E+00         0.00000E+00        -0.50000E+08
 
   -0.49993E+08         0.16846E+04         0.00000E+00
    0.16846E+04        -0.50000E+08         0.00000E+00
    0.00000E+00         0.00000E+00        -0.50000E+08
 
   -0.49993E+08         0.18277E+04         0.00000E+00
    0.18277E+04        -0.50000E+08         0.00000E+00
    0.00000E+00         0.00000E+00        -0.50000E+08
 
   -0.49994E+08         0.19695E+04         0.00000E+00
    0.19695E+04        -0.50000E+08         0.00000E+00
    0.00000E+00         0.00000E+00        -0.50000E+08
 
   -0.49994E+08         0.21099E+04         0.00000E+00
    0.21099E+04        -0.50000E+08         0.00000E+00
    0.00000E+00         0.00000E+00        -0.50000E+08
 
   -0.49994E+08         0.22487E+04         0.00000E+00
    0.22487E+04        -0.50000E+08         0.00000E+00
    0.00000E+00         0.00000E+00        -0.50000E+08
 
   -0.49994E+08         0.23857E+04         0.00000E+00
    0.23857E+04        -0.49999E+08         0.00000E+00
    0.00000E+00         0.00000E+00        -0.50000E+08
 
   -0.49994E+08         0.25208E+04         0.00000E+00
    0.25208E+04        -0.49999E+08         0.00000E+00
    0.00000E+00         0.00000E+00        -0.50000E+08
 
   -0.49994E+08         0.26539E+04         0.00000E+00
    0.26539E+04        -0.49999E+08         0.00000E+00
    0.00000E+00         0.00000E+00        -0.50000E+08
 
   -0.49994E+08         0.27848E+04         0.00000E+00
    0.27848E+04        -0.49999E+08         0.00000E+00
    0.00000E+00         0.00000E+00        -0.50000E+08
 
   -0.49994E+08         0.29133E+04         0.00000E+00
    0.29133E+04        -0.49999E+08         0.00000E+00
    0.00000E+00         0.00000E+00        -0.50000E+08
 
   -0.49994E+08         0.30393E+04         0.00000E+00
    0.30393E+04        -0.49999E+08         0.00000E+00
    0.00000E+00         0.00000E+00        -0.50000E+08
 
   -0.49994E+08         0.31626E+04         0.00000E+00
    0.31626E+04        -0.49999E+08         0.00000E+00
    0.00000E+00         0.00000E+00        -0.50000E+08
 
   -0.49995E+08         0.32832E+04         0.00000E+00
    0.32832E+04        -0.49999E+08         0.00000E+00
    0.00000E+00         0.00000E+00        -0.50000E+08
 
   -0.49995E+08         0.34008E+04         0.00000E+00
    0.34008E+04        -0.49999E+08         0.00000E+00
    0.00000E+00         0.00000E+00        -0.50000E+08
 
   -0.49995E+08         0.35154E+04         0.00000E+00
    0.35154E+04        -0.49999E+08         0.00000E+00
    0.00000E+00         0.00000E+00        -0.50000E+08
 
   -0.49995E+08         0.36267E+04         0.00000E+00
    0.36267E+04        -0.49999E+08         0.00000E+00
    0.00000E+00         0.00000E+00        -0.50000E+08
 
   -0.49995E+08         0.37347E+04         0.00000E+00
    0.37347E+04        -0.49999E+08         0.00000E+00
    0.00000E+00         0.00000E+00        -0.50000E+08
 
   -0.49995E+08         0.38392E+04         0.00000E+00
    0.38392E+04        -0.49999E+08         0.00000E+00
    0.00000E+00         0.00000E+00        -0.50000E+08
 
   -0.49995E+08         0.39401E+04         0.00000E+00
    0.39401E+04        -0.49998E+08         0.00000E+00
    0.00000E+00         0.00000E+00        -0.50000E+08
 
   -0.49996E+08         0.40373E+04         0.00000E+00
    0.40373E+04        -0.49998E+08         0.00000E+00
    0.00000E+00         0.00000E+00        -0.50000E+08
 
   -0.49996E+08         0.41306E+04         0.00000E+00
    0.41306E+04        -0.49998E+08         0.00000E+00
    0.00000E+00         0.00000E+00        -0.50000E+08
 
   -0.49996E+08         0.42199E+04         0.00000E+00
    0.42199E+04        -0.49998E+08         0.00000E+00
    0.00000E+00         0.00000E+00        -0.50000E+08
 
   -0.49996E+08         0.43052E+04         0.00000E+00
    0.43052E+04        -0.49998E+08         0.00000E+00
    0.00000E+00         0.00000E+00        -0.50000E+08
 
   -0.49996E+08         0.43862E+04         0.00000E+00
    0.43862E+04        -0.49998E+08         0.00000E+00
    0.00000E+00         0.00000E+00        -0.50000E+08
 
   -0.49997E+08         0.44630E+04         0.00000E+00
    0.44630E+04        -0.49998E+08         0.00000E+00
    0.00000E+00         0.00000E+00        -0.50000E+08
 
   -0.49997E+08         0.45353E+04         0.00000E+00
    0.45353E+04        -0.49998E+08         0.00000E+00
    0.00000E+00         0.00000E+00        -0.50000E+08
 
   -0.49997E+08         0.46030E+04         0.00000E+00
    0.46030E+04        -0.49998E+08         0.00000E+00
    0.00000E+00         0.00000E+00        -0.50000E+08
 
   -0.49997E+08         0.46662E+04         0.00000E+00
    0.46662E+04        -0.49997E+08         0.00000E+00
    0.00000E+00         0.00000E+00        -0.50000E+08
 
   -0.49997E+08         0.47246E+04         0.00000E+00
    0.47246E+04        -0.49997E+08         0.00000E+00
    0.00000E+00         0.00000E+00        -0.50000E+08
 
   -0.49998E+08         0.47782E+04         0.00000E+00
    0.47782E+04        -0.49997E+08         0.00000E+00
    0.00000E+00         0.00000E+00        -0.50000E+08
 
   -0.49998E+08         0.48269E+04         0.00000E+00
    0.48269E+04        -0.49997E+08         0.00000E+00
    0.00000E+00         0.00000E+00        -0.50000E+08
 
   -0.49998E+08         0.48707E+04         0.00000E+00
    0.48707E+04        -0.49997E+08         0.00000E+00
    0.00000E+00         0.00000E+00        -0.50000E+08
 
   -0.49998E+08         0.49093E+04         0.00000E+00
    0.49093E+04        -0.49997E+08         0.00000E+00
    0.00000E+00         0.00000E+00        -0.50000E+08
 
   -0.49999E+08         0.49428E+04         0.00000E+00
    0.49428E+04        -0.49997E+08         0.00000E+00
    0.00000E+00         0.00000E+00        -0.50000E+08
 
   -0.49999E+08         0.49711E+04         0.00000E+00
    0.49711E+04        -0.49997E+08         0.00000E+00
    0.00000E+00         0.00000E+00        -0.50000E+08
 
   -0.49999E+08         0.49940E+04         0.00000E+00
    0.49940E+04        -0.49996E+08         0.00000E+00
    0.00000E+00         0.00000E+00        -0.50000E+08
 
   -0.49999E+08         0.50117E+04         0.00000E+00
    0.50117E+04        -0.49996E+08         0.00000E+00
    0.00000E+00         0.00000E+00        -0.50000E+08
 
   -0.50000E+08         0.50239E+04         0.00000E+00
    0.50239E+04        -0.49996E+08         0.00000E+00
    0.00000E+00         0.00000E+00        -0.50000E+08
 
   -0.50000E+08         0.50306E+04         0.00000E+00
    0.50306E+04        -0.49996E+08         0.00000E+00
    0.00000E+00         0.00000E+00        -0.50000E+08
 
   -0.49993E+08         0.82102E+02         0.00000E+00
    0.82102E+02        -0.50000E+08         0.00000E+00
    0.00000E+00         0.00000E+00        -0.50000E+08
 
   -0.49993E+08         0.24851E+03         0.00000E+00
    0.24851E+03        -0.50000E+08         0.00000E+00
    0.00000E+00         0.00000E+00        -0.50000E+08
 
   -0.49992E+08         0.41548E+03         0.00000E+00
    0.41548E+03        -0.50000E+08         0.00000E+00
    0.00000E+00         0.00000E+00        -0.50000E+08
 
   -0.49992E+08         0.58282E+03         0.00000E+00
    0.58282E+03        -0.50000E+08         0.00000E+00
    0.00000E+00         0.00000E+00        -0.50000E+08
 
   -0.49992E+08         0.75036E+03         0.00000E+00
    0.75036E+03        -0.50000E+08         0.00000E+00
    0.00000E+00         0.00000E+00        -0.50000E+08
 
   -0.49992E+08         0.91790E+03         0.00000E+00
    0.91790E+03        -0.50000E+08         0.00000E+00
    0.00000E+00         0.00000E+00        -0.50000E+08
 
   -0.49992E+08         0.10853E+04         0.00000E+00
    0.10853E+04        -0.50000E+08         0.00000E+00
    0.00000E+00         0.00000E+00        -0.50000E+08
 
   -0.49992E+08         0.12523E+04         0.00000E+00
    0.12523E+04        -0.50000E+08         0.00000E+00
    0.00000E+00         0.00000E+00        -0.50000E+08
 
   -0.49993E+08         0.14187E+04         0.00000E+00
    0.14187E+04        -0.50000E+08         0.00000E+00
    0.00000E+00         0.00000E+00        -0.50000E+08
 
   -0.49993E+08         0.15844E+04         0.00000E+00
    0.15844E+04        -0.50000E+08         0.00000E+00
    0.00000E+00         0.00000E+00        -0.50000E+08
 
   -0.49993E+08         0.17492E+04         0.00000E+00
    0.17492E+04        -0.50000E+08         0.00000E+00
    0.00000E+00         0.00000E+00        -0.50000E+08
 
   -0.49993E+08         0.19129E+04         0.00000E+00
    0.19129E+04        -0.50000E+08         0.00000E+00
    0.00000E+00         0.00000E+00        -0.50000E+08
 
   -0.49993E+08         0.20754E+04         0.00000E+00
    0.20754E+04        -0.50000E+08         0.00000E+00
    0.00000E+00         0.00000E+00        -0.50000E+08
 
   -0.49993E+08         0.22364E+04         0.00000E+00
    0.22364E+04        -0.50000E+08         0.00000E+00
    0.00000E+00         0.00000E+00        -0.50000E+08
 
   -0.49993E+08         0.23957E+04         0.00000E+00
    0.23957E+04        -0.50000E+08         0.00000E+00
    0.00000E+00         0.00000E+00        -0.50000E+08
 
   -0.49993E+08         0.25532E+04         0.00000E+00
    0.25532E+04        -0.49999E+08         0.00000E+00
    0.00000E+00         0.00000E+00        -0.50000E+08
 
   -0.49993E+08         0.27087E+04         0.00000E+00
    0.27087E+04        -0.49999E+08         0.00000E+00
    0.00000E+00         0.00000E+00        -0.50000E+08
 
   -0.49993E+08         0.28621E+04         0.00000E+00
    0.28621E+04        -0.49999E+08         0.00000E+00
    0.00000E+00         0.00000E+00        -0.50000E+08
 
   -0.49993E+08         0.30131E+04         0.00000E+00
    0.30131E+04        -0.49999E+08         0.00000E+00
    0.00000E+00         0.00000E+00        -0.50000E+08
 
   -0.49993E+08         0.31616E+04         0.00000E+00
    0.31616E+04        -0.49999E+08         0.00000E+00
    0.00000E+00         0.00000E+00        -0.50000E+08
 
   -0.49993E+08         0.33075E+04         0.00000E+00
    0.33075E+04        -0.49999E+08         0.00000E+00
    0.00000E+00         0.00000E+00        -0.50000E+08
 
   -0.49994E+08         0.34504E+04         0.00000E+00
    0.34504E+04        -0.49999E+08         0.00000E+00
    0.00000E+00         0.00000E+00        -0.50000E+08
 
   -0.49994E+08         0.35904E+04         0.00000E+00
    0.35904E+04        -0.49999E+08         0.00000E+00
    0.00000E+00         0.00000E+00        -0.50000E+08
 
   -0.49994E+08         0.37272E+04         0.00000E+00
    0.37272E+04        -0.49999E+08         0.00000E+00
    0.00000E+00         0.00000E+00        -0.50000E+08
 
   -0.49994E+08         0.38607E+04         0.00000E+00
    0.38607E+04        -0.49999E+08         0.00000E+00
    0.00000E+00         0.00000E+00        -0.50000E+08
 
   -0.49994E+08         0.39907E+04         0.00000E+00
    0.39907E+04        -0.49999E+08         0.00000E+00
    0.00000E+00         0.00000E+00        -0.50000E+08
 
   -0.49994E+08         0.41170E+04         0.00000E+00
    0.41170E+04        -0.49999E+08         0.00000E+00
    0.00000E+00         0.00000E+00        -0.50000E+08
 
   -0.49995E+08         0.42395E+04         0.00000E+00
    0.42395E+04        -0.49998E+08         0.00000E+00
    0.00000E+00         0.00000E+00        -0.50000E+08
 
   -0.49995E+08         0.43581E+04         0.00000E+00
    0.43581E+04        -0.49998E+08         0.00000E+00
    0.00000E+00         0.00000E+00        -0.50000E+08
 
   -0.49995E+08         0.44726E+04         0.00000E+00
    0.44726E+04        -0.49998E+08         0.00000E+00
    0.00000E+00         0.00000E+00        -0.50000E+08
 
   -0.49995E+08         0.45828E+04         0.00000E+00
    0.45828E+04        -0.49998E+08         0.00000E+00
    0.00000E+00         0.00000E+00        -0.50000E+08
 
   -0.49995E+08         0.46887E+04         0.00000E+00
    0.46887E+04        -0.49998E+08         0.00000E+00
    0.00000E+00         0.00000E+00        -0.50000E+08
 
   -0.49996E+08         0.47901E+04         0.00000E+00
    0.47901E+04        -0.49998E+08         0.00000E+00
    0.00000E+00         0.00000E+00        -0.50000E+08
 
   -0.49996E+08         0.48868E+04         0.00000E+00
    0.48868E+04        -0.49998E+08         0.00000E+00
    0.00000E+00         0.00000E+00        -0.50000E+08
 
   -0.49996E+08         0.49788E+04         0.00000E+00
    0.49788E+04        -0.49998E+08         0.00000E+00
    0.00000E+00         0.00000E+00        -0.50000E+08
 
   -0.49996E+08         0.50658E+04         0.00000E+00
    0.50658E+04        -0.49998E+08         0.00000E+00
    0.00000E+00         0.00000E+00        -0.50000E+08
 
   -0.49996E+08         0.51479E+04         0.00000E+00
    0.51479E+04        -0.49997E+08         0.00000E+00
    0.00000E+00         0.00000E+00        -0.50000E+08
 
   -0.49997E+08         0.52248E+04         0.00000E+00
    0.52248E+04        -0.49997E+08         0.00000E+00
    0.00000E+00         0.00000E+00        -0.50000E+08
 
   -0.49997E+08         0.52964E+04         0.00000E+00
    0.52964E+04        -0.49997E+08         0.00000E+00
    0.00000E+00         0.00000E+00        -0.50000E+08
 
   -0.49997E+08         0.53628E+04         0.00000E+00
    0.53628E+04        -0.49997E+08         0.00000E+00
    0.00000E+00         0.00000E+00        -0.50000E+08
 
   -0.49997E+08         0.54236E+04         0.00000E+00
    0.54236E+04        -0.49997E+08         0.00000E+00
    0.00000E+00         0.00000E+00        -0.50000E+08
 
   -0.49998E+08         0.54789E+04         0.00000E+00
    0.54789E+04        -0.49997E+08         0.00000E+00
    0.00000E+00         0.00000E+00        -0.50000E+08
 
   -0.49998E+08         0.55285E+04         0.00000E+00
    0.55285E+04        -0.49997E+08         0.00000E+00
    0.00000E+00         0.00000E+00        -0.50000E+08
 
   -0.49998E+08         0.55724E+04         0.00000E+00
    0.55724E+04        -0.49996E+08         0.00000E+00
    0.00000E+00         0.00000E+00        -0.50000E+08
 
   -0.49998E+08         0.56105E+04         0.00000E+00
    0.56105E+04        -0.49996E+08         0.00000E+00
    0.00000E+00         0.00000E+00        -0.50000E+08
 
   -0.49999E+08         0.56426E+04         0.00000E+00
    0.56426E+04        -0.49996E+08         0.00000E+00
    0.00000E+00         0.00000E+00        -0.50000E+08
 
   -0.49999E+08         0.56687E+04         0.00000E+00
    0.56687E+04        -0.49996E+08         0.00000E+00
    0.00000E+00         0.00000E+00        -0.50000E+08
 
   -0.49999E+08         0.56888E+04         0.00000E+00
    0.56888E+04        -0.49996E+08         0.00000E+00
    0.00000E+00         0.00000E+00        -0.50000E+08
 
   -0.50000E+08         0.57027E+04         0.00000E+00
    0.57027E+04        -0.49996E+08         0.00000E+00
    0.00000E+00         0.00000E+00        -0.50000E+08
 
   -0.50000E+08         0.57104E+04         0.00000E+00
    0.57104E+04        -0.49996E+08         0.00000E+00
    0.00000E+00         0.00000E+00        -0.50000E+08
 
   -0.49992E+08         0.93094E+02         0.00000E+00
    0.93094E+02        -0.50000E+08         0.00000E+00
    0.00000E+00         0.00000E+00        -0.50000E+08
 
   -0.49992E+08         0.28174E+03         0.00000E+00
    0.28174E+03        -0.50000E+08         0.00000E+00
    0.00000E+00         0.00000E+00        -0.50000E+08
 
   -0.49992E+08         0.47101E+03         0.00000E+00
    0.47101E+03        -0.50000E+08         0.00000E+00
    0.00000E+00         0.00000E+00        -0.50000E+08
 
   -0.49992E+08         0.66069E+03         0.00000E+00
    0.66069E+03        -0.50000E+08         0.00000E+00
    0.00000E+00         0.00000E+00        -0.50000E+08
 
   -0.49992E+08         0.85058E+03         0.00000E+00
    0.85058E+03        -0.50000E+08         0.00000E+00
    0.00000E+00         0.00000E+00        -0.50000E+08
 
   -0.49992E+08         0.10405E+04         0.00000E+00
    0.10405E+04        -0.50000E+08         0.00000E+00
    0.00000E+00         0.00000E+00        -0.50000E+08
 
   -0.49992E+08         0.12301E+04         0.00000E+00
    0.12301E+04        -0.50000E+08         0.00000E+00
    0.00000E+00         0.00000E+00        -0.50000E+08
 
   -0.49992E+08         0.14194E+04         0.00000E+00
    0.14194E+04        -0.50000E+08         0.00000E+00
    0.00000E+00         0.00000E+00        -0.50000E+08
 
   -0.49992E+08         0.16080E+04         0.00000E+00
    0.16080E+04        -0.50000E+08         0.00000E+00
    0.00000E+00         0.00000E+00        -0.50000E+08
 
   -0.49992E+08         0.17957E+04         0.00000E+00
    0.17957E+04        -0.50000E+08         0.00000E+00
    0.00000E+00         0.00000E+00        -0.50000E+08
 
   -0.49992E+08         0.19825E+04         0.00000E+00
    0.19825E+04        -0.50000E+08         0.00000E+00
    0.00000E+00         0.00000E+00        -0.50000E+08
 
   -0.49992E+08         0.21679E+04         0.00000E+00
    0.21679E+04        -0.50000E+08         0.00000E+00
    0.00000E+00         0.00000E+00        -0.50000E+08
 
   -0.49992E+08         0.23519E+04         0.00000E+00
    0.23519E+04        -0.50000E+08         0.00000E+00
    0.00000E+00         0.00000E+00        -0.50000E+08
 
   -0.49992E+08         0.25343E+04         0.00000E+00
    0.25343E+04        -0.50000E+08         0.00000E+00
    0.00000E+00         0.00000E+00        -0.50000E+08
 
   -0.49992E+08         0.27148E+04         0.00000E+00
    0.27148E+04        -0.50000E+08         0.00000E+00
    0.00000E+00         0.00000E+00        -0.50000E+08
 
   -0.49992E+08         0.28932E+04         0.00000E+00
    0.28932E+04        -0.49999E+08         0.00000E+00
    0.00000E+00         0.00000E+00        -0.50000E+08
 
   -0.49992E+08         0.30694E+04         0.00000E+00
    0.30694E+04        -0.49999E+08         0.00000E+00
    0.00000E+00         0.00000E+00        -0.50000E+08
 
   -0.49992E+08         0.32431E+04         0.00000E+00
    0.32431E+04        -0.49999E+08         0.00000E+00
    0.00000E+00         0.00000E+00        -0.50000E+08
 
   -0.49992E+08         0.34141E+04         0.00000E+00
    0.34141E+04        -0.49999E+08         0.00000E+00
    0.00000E+00         0.00000E+00        -0.50000E+08
 
   -0.49993E+08         0.35823E+04         0.00000E+00
    0.35823E+04        -0.49999E+08         0.00000E+00
    0.00000E+00         0.00000E+00        -0.50000E+08
 
   -0.49993E+08         0.37474E+04         0.00000E+00
    0.37474E+04        -0.49999E+08         0.00000E+00
    0.00000E+00         0.00000E+00        -0.50000E+08
 
   -0.49993E+08         0.39094E+04         0.00000E+00
    0.39094E+04        -0.49999E+08         0.00000E+00
    0.00000E+00         0.00000E+00        -0.50000E+08
 
   -0.49993E+08         0.40679E+04         0.00000E+00
    0.40679E+04        -0.49999E+08         0.00000E+00
    0.00000E+00         0.00000E+00        -0.50000E+08
 
   -0.49993E+08         0.42228E+04         0.00000E+00
    0.42228E+04        -0.49999E+08         0.00000E+00
    0.00000E+00         0.00000E+00        -0.50000E+08
 
   -0.49993E+08         0.43739E+04         0.00000E+00
    0.43739E+04        -0.49999E+08         0.00000E+00
    0.00000E+00         0.00000E+00        -0.50000E+08
 
   -0.49994E+08         0.45211E+04         0.00000E+00
    0.45211E+04        -0.49999E+08         0.00000E+00
    0.00000E+00         0.00000E+00        -0.50000E+08
 
   -0.49994E+08         0.46641E+04         0.00000E+00
    0.46641E+04        -0.49998E+08         0.00000E+00
    0.00000E+00         0.00000E+00        -0.50000E+08
 
   -0.49994E+08         0.48028E+04         0.00000E+00
    0.48028E+04        -0.49998E+08         0.00000E+00
    0.00000E+00         0.00000E+00        -0.50000E+08
 
   -0.49994E+08         0.49371E+04         0.00000E+00
    0.49371E+04        -0.49998E+08         0.00000E+00
    0.00000E+00         0.00000E+00        -0.50000E+08
 
   -0.49994E+08         0.50667E+04         0.00000E+00
    0.50667E+04        -0.49998E+08         0.00000E+00
    0.00000E+00         0.00000E+00        -0.50000E+08
 
   -0.49995E+08         0.51916E+04         0.00000E+00
    0.51916E+04        -0.49998E+08         0.00000E+00
    0.00000E+00         0.00000E+00        -0.50000E+08
 
   -0.49995E+08         0.53114E+04         0.00000E+00
    0.53114E+04        -0.49998E+08         0.00000E+00
    0.00000E+00         0.00000E+00        -0.50000E+08
 
   -0.49995E+08         0.54262E+04         0.00000E+00
    0.54262E+04        -0.49998E+08         0.00000E+00
    0.00000E+00         0.00000E+00        -0.50000E+08
 
   -0.49995E+08         0.55357E+04         0.00000E+00
    0.55357E+04        -0.49998E+08         0.00000E+00
    0.00000E+00         0.00000E+00        -0.50000E+08
 
   -0.49995E+08         0.56399E+04         0.00000E+00
    0.56399E+04        -0.49997E+08         0.00000E+00
    0.00000E+00         0.00000E+00        -0.50000E+08
 
   -0.49996E+08         0.57385E+04         0.00000E+00
    0.57385E+04        -0.49997E+08         0.00000E+00
    0.00000E+00         0.00000E+00        -0.50000E+08
 
   -0.49996E+08         0.58314E+04         0.00000E+00
    0.58314E+04        -0.49997E+08         0.00000E+00
    0.00000E+00         0.00000E+00        -0.50000E+08
 
   -0.49996E+08         0.59185E+04         0.00000E+00
    0.59185E+04        -0.49997E+08         0.00000E+00
    0.00000E+00         0.00000E+00        -0.50000E+08
 
   -0.49997E+08         0.59996E+04         0.00000E+00
    0.59996E+04        -0.49997E+08         0.00000E+00
    0.00000E+00         0.00000E+00        -0.50000E+08
 
   -0.49997E+08         0.60747E+04         0.00000E+00
    0.60747E+04        -0.49997E+08         0.00000E+00
    0.00000E+00         0.00000E+00        -0.50000E+08
 
   -0.49997E+08         0.61437E+04         0.00000E+00
    0.61437E+04        -0.49996E+08         0.00000E+00
    0.00000E+00         0.00000E+00        -0.50000E+08
 
   -0.49997E+08         0.62063E+04         0.00000E+00
    0.62063E+04        -0.49996E+08         0.00000E+00
    0.00000E+00         0.00000E+00        -0.50000E+08
 
   -0.49998E+08         0.62625E+04         0.00000E+00
    0.62625E+04        -0.49996E+08         0.00000E+00
    0.00000E+00         0.00000E+00        -0.50000E+08
 
   -0.49998E+08         0.63123E+04         0.00000E+00
    0.63123E+04        -0.49996E+08         0.00000E+00
    0.00000E+00         0.00000E+00        -0.50000E+08
 
   -0.49998E+08         0.63554E+04         0.00000E+00
    0.63554E+04        -0.49996E+08         0.00000E+00
    0.00000E+00         0.00000E+00        -0.50000E+08
 
   -0.49999E+08         0.63919E+04         0.00000E+00
    0.63919E+04        -0.49996E+08         0.00000E+00
    0.00000E+00         0.00000E+00        -0.50000E+08
 
   -0.49999E+08         0.64215E+04         0.00000E+00
    0.64215E+04        -0.49996E+08         0.00000E+00
    0.00000E+00         0.00000E+00        -0.50000E+08
 
   -0.49999E+08         0.64443E+04         0.00000E+00
    0.64443E+04        -0.49995E+08         0.00000E+00
    0.00000E+00         0.00000E+00        -0.50000E+08
 
   -0.49999E+08         0.64602E+04         0.00000E+00
    0.64602E+04        -0.49995E+08         0.00000E+00
    0.00000E+00         0.00000E+00        -0.50000E+08
 
   -0.50000E+08         0.64690E+04         0.00000E+00
    0.64690E+04        -0.49995E+08         0.00000E+00
    0.00000E+00         0.00000E+00        -0.50000E+08
 
   -0.49991E+08         0.10540E+03         0.00000E+00
    0.10540E+03        -0.50000E+08         0.00000E+00
    0.00000E+00         0.00000E+00        -0.50000E+08
 
   -0.49991E+08         0.31893E+03         0.00000E+00
    0.31893E+03        -0.50000E+08         0.00000E+00
    0.00000E+00         0.00000E+00        -0.50000E+08
 
   -0.49991E+08         0.53314E+03         0.00000E+00
    0.53314E+03        -0.50000E+08         0.00000E+00
    0.00000E+00         0.00000E+00        -0.50000E+08
 
   -0.49991E+08         0.74781E+03         0.00000E+00
    0.74781E+03        -0.50000E+08         0.00000E+00
    0.00000E+00         0.00000E+00        -0.50000E+08
 
   -0.49991E+08         0.96268E+03         0.00000E+00
    0.96268E+03        -0.50000E+08         0.00000E+00
    0.00000E+00         0.00000E+00        -0.50000E+08
 
   -0.49991E+08         0.11775E+04         0.00000E+00
    0.11775E+04        -0.50000E+08         0.00000E+00
    0.00000E+00         0.00000E+00        -0.50000E+08
 
   -0.49991E+08         0.13921E+04         0.00000E+00
    0.13921E+04        -0.50000E+08         0.00000E+00
    0.00000E+00         0.00000E+00        -0.50000E+08
 
   -0.49991E+08         0.16062E+04         0.00000E+00
    0.16062E+04        -0.50000E+08         0.00000E+00
    0.00000E+00         0.00000E+00        -0.50000E+08
 
   -0.49991E+08         0.18196E+04         0.00000E+00
    0.18196E+04        -0.50000E+08         0.00000E+00
    0.00000E+00         0.00000E+00        -0.50000E+08
 
   -0.49991E+08         0.20320E+04         0.00000E+00
    0.20320E+04        -0.50000E+08         0.00000E+00
    0.00000E+00         0.00000E+00        -0.50000E+08
 
   -0.49991E+08         0.22432E+04         0.00000E+00
    0.22432E+04        -0.50000E+08         0.00000E+00
    0.00000E+00         0.00000E+00        -0.50000E+08
 
   -0.49991E+08         0.24530E+04         0.00000E+00
    0.24530E+04        -0.50000E+08         0.00000E+00
    0.00000E+00         0.00000E+00        -0.50000E+08
 
   -0.49991E+08         0.26612E+04         0.00000E+00
    0.26612E+04        -0.50000E+08         0.00000E+00
    0.00000E+00         0.00000E+00        -0.50000E+08
 
   -0.49991E+08         0.28674E+04         0.00000E+00
    0.28674E+04        -0.50000E+08         0.00000E+00
    0.00000E+00         0.00000E+00        -0.50000E+08
 
   -0.49991E+08         0.30715E+04         0.00000E+00
    0.30715E+04        -0.49999E+08         0.00000E+00
    0.00000E+00         0.00000E+00        -0.50000E+08
 
   -0.49991E+08         0.32733E+04         0.00000E+00
    0.32733E+04        -0.49999E+08         0.00000E+00
    0.00000E+00         0.00000E+00        -0.50000E+08
 
   -0.49991E+08         0.34725E+04         0.00000E+00
    0.34725E+04        -0.49999E+08         0.00000E+00
    0.00000E+00         0.00000E+00        -0.50000E+08
 
   -0.49991E+08         0.36689E+04         0.00000E+00
    0.36689E+04        -0.49999E+08         0.00000E+00
    0.00000E+00         0.00000E+00        -0.50000E+08
 
   -0.49992E+08         0.38623E+04         0.00000E+00
    0.38623E+04        -0.49999E+08         0.00000E+00
    0.00000E+00         0.00000E+00        -0.50000E+08
 
   -0.49992E+08         0.40525E+04         0.00000E+00
    0.40525E+04        -0.49999E+08         0.00000E+00
    0.00000E+00         0.00000E+00        -0.50000E+08
 
   -0.49992E+08         0.42392E+04         0.00000E+00
    0.42392E+04        -0.49999E+08         0.00000E+00
    0.00000E+00         0.00000E+00        -0.50000E+08
 
   -0.49992E+08         0.44222E+04         0.00000E+00
    0.44222E+04        -0.49999E+08         0.00000E+00
    0.00000E+00         0.00000E+00        -0.50000E+08
 
   -0.49992E+08         0.46014E+04         0.00000E+00
    0.46014E+04        -0.49999E+08         0.00000E+00
    0.00000E+00         0.00000E+00        -0.50000E+08
 
   -0.49992E+08         0.47766E+04         0.00000E+00
    0.47766E+04        -0.49999E+08         0.00000E+00
    0.00000E+00         0.00000E+00        -0.50000E+08
 
   -0.49993E+08         0.49474E+04         0.00000E+00
    0.49474E+04        -0.49998E+08         0.00000E+00
    0.00000E+00         0.00000E+00        -0.50000E+08
 
   -0.49993E+08         0.51138E+04         0.00000E+00
    0.51138E+04        -0.49998E+08         0.00000E+00
    0.00000E+00         0.00000E+00        -0.50000E+08
 
   -0.49993E+08         0.52755E+04         0.00000E+00
    0.52755E+04        -0.49998E+08         0.00000E+00
    0.00000E+00         0.00000E+00        -0.50000E+08
 
   -0.49993E+08         0.54323E+04         0.00000E+00
    0.54323E+04        -0.49998E+08         0.00000E+00
    0.00000E+00         0.00000E+00        -0.50000E+08
 
   -0.49993E+08         0.55841E+04         0.00000E+00
    0.55841E+04        -0.49998E+08         0.00000E+00
    0.00000E+00         0.00000E+00        -0.50000E+08
 
   -0.49994E+08         0.57306E+04         0.00000E+00
    0.57306E+04        -0.49998E+08         0.00000E+00
    0.00000E+00         0.00000E+00        -0.50000E+08
 
   -0.49994E+08         0.58717E+04         0.00000E+00
    0.58717E+04        -0.49998E+08         0.00000E+00
    0.00000E+00         0.00000E+00        -0.50000E+08
 
   -0.49994E+08         0.60073E+04         0.00000E+00
    0.60073E+04        -0.49998E+08         0.00000E+00
    0.00000E+00         0.00000E+00        -0.50000E+08
 
   -0.49994E+08         0.61370E+04         0.00000E+00
    0.61370E+04        -0.49997E+08         0.00000E+00
    0.00000E+00         0.00000E+00        -0.50000E+08
 
   -0.49995E+08         0.62608E+04         0.00000E+00
    0.62608E+04        -0.49997E+08         0.00000E+00
    0.00000E+00         0.00000E+00        -0.50000E+08
 
   -0.49995E+08         0.63785E+04         0.00000E+00
    0.63785E+04        -0.49997E+08         0.00000E+00
    0.00000E+00         0.00000E+00        -0.50000E+08
 
   -0.49995E+08         0.64900E+04         0.00000E+00
    0.64900E+04        -0.49997E+08         0.00000E+00
    0.00000E+00         0.00000E+00        -0.50000E+08
 
   -0.49996E+08         0.65950E+04         0.00000E+00
    0.65950E+04        -0.49997E+08         0.00000E+00
    0.00000E+00         0.00000E+00        -0.50000E+08
 
   -0.49996E+08         0.66935E+04         0.00000E+00
    0.66935E+04        -0.49997E+08         0.00000E+00
    0.00000E+00         0.00000E+00        -0.50000E+08
 
   -0.49996E+08         0.67853E+04         0.00000E+00
    0.67853E+04        -0.49996E+08         0.00000E+00
    0.00000E+00         0.00000E+00        -0.50000E+08
 
   -0.49996E+08         0.68702E+04         0.00000E+00
    0.68702E+04        -0.49996E+08         0.00000E+00
    0.00000E+00         0.00000E+00        -0.50000E+08
 
   -0.49997E+08         0.69482E+04         0.00000E+00
    0.69482E+04        -0.49996E+08         0.00000E+00
    0.00000E+00         0.00000E+00        -0.50000E+08
 
   -0.49997E+08         0.70190E+04         0.00000E+00
    0.70190E+04        -0.49996E+08         0.00000E+00
    0.00000E+00         0.00000E+00        -0.50000E+08
 
   -0.49997E+08         0.70826E+04         0.00000E+00
    0.70826E+04        -0.49996E+08         0.00000E+00
    0.00000E+00         0.00000E+00        -0.50000E+08
 
   -0.49998E+08         0.71389E+04         0.00000E+00
    0.71389E+04        -0.49996E+08         0.00000E+00
    0.00000E+00         0.00000E+00        -0.50000E+08
 
   -0.49998E+08         0.71878E+04         0.00000E+00
    0.71878E+04        -0.49995E+08         0.00000E+00
    0.00000E+00         0.00000E+00        -0.50000E+08
 
   -0.49998E+08         0.72290E+04         0.00000E+00
    0.72290E+04        -0.49995E+08         0.00000E+00
    0.00000E+00         0.00000E+00        -0.50000E+08
 
   -0.49999E+08         0.72627E+04         0.00000E+00
    0.72627E+04        -0.49995E+08         0.00000E+00
    0.00000E+00         0.00000E+00        -0.50000E+08
 
   -0.49999E+08         0.72885E+04         0.00000E+00
    0.72885E+04        -0.49995E+08         0.00000E+00
    0.00000E+00         0.00000E+00        -0.50000E+08
 
   -0.49999E+08         0.73066E+04         0.00000E+00
    0.73066E+04        -0.49995E+08         0.00000E+00
    0.00000E+00         0.00000E+00        -0.50000E+08
 
   -0.50000E+08         0.73167E+04         0.00000E+00
    0.73167E+04        -0.49994E+08         0.00000E+00
    0.00000E+00         0.00000E+00        -0.50000E+08
 
   -0.49990E+08         0.11918E+03         0.00000E+00
    0.11918E+03        -0.50000E+08         0.00000E+00
    0.00000E+00         0.00000E+00        -0.50000E+08
 
   -0.49989E+08         0.36058E+03         0.00000E+00
    0.36058E+03        -0.50000E+08         0.00000E+00
    0.00000E+00         0.00000E+00        -0.50000E+08
 
   -0.49989E+08         0.60273E+03         0.00000E+00
    0.60273E+03        -0.50000E+08         0.00000E+00
    0.00000E+00         0.00000E+00        -0.50000E+08
 
   -0.49989E+08         0.84537E+03         0.00000E+00
    0.84537E+03        -0.50000E+08         0.00000E+00
    0.00000E+00         0.00000E+00        -0.50000E+08
 
   -0.49989E+08         0.10882E+04         0.00000E+00
    0.10882E+04        -0.50000E+08         0.00000E+00
    0.00000E+00         0.00000E+00        -0.50000E+08
 
   -0.49989E+08         0.13310E+04         0.00000E+00
    0.13310E+04        -0.50000E+08         0.00000E+00
    0.00000E+00         0.00000E+00        -0.50000E+08
 
   -0.49989E+08         0.15736E+04         0.00000E+00
    0.15736E+04        -0.50000E+08         0.00000E+00
    0.00000E+00         0.00000E+00        -0.50000E+08
 
   -0.49989E+08         0.18155E+04         0.00000E+00
    0.18155E+04        -0.50000E+08         0.00000E+00
    0.00000E+00         0.00000E+00        -0.50000E+08
 
   -0.49990E+08         0.20566E+04         0.00000E+00
    0.20566E+04        -0.50000E+08         0.00000E+00
    0.00000E+00         0.00000E+00        -0.50000E+08
 
   -0.49990E+08         0.22966E+04         0.00000E+00
    0.22966E+04        -0.50000E+08         0.00000E+00
    0.00000E+00         0.00000E+00        -0.50000E+08
 
   -0.49990E+08         0.25352E+04         0.00000E+00
    0.25352E+04        -0.50000E+08         0.00000E+00
    0.00000E+00         0.00000E+00        -0.50000E+08
 
   -0.49990E+08         0.27722E+04         0.00000E+00
    0.27722E+04        -0.50000E+08         0.00000E+00
    0.00000E+00         0.00000E+00        -0.50000E+08
 
   -0.49990E+08         0.30073E+04         0.00000E+00
    0.30073E+04        -0.50000E+08         0.00000E+00
    0.00000E+00         0.00000E+00        -0.50000E+08
 
   -0.49990E+08         0.32402E+04         0.00000E+00
    0.32402E+04        -0.49999E+08         0.00000E+00
    0.00000E+00         0.00000E+00        -0.50000E+08
 
   -0.49990E+08         0.34708E+04         0.00000E+00
    0.34708E+04        -0.49999E+08         0.00000E+00
    0.00000E+00         0.00000E+00        -0.50000E+08
 
   -0.49990E+08         0.36986E+04         0.00000E+00
    0.36986E+04        -0.49999E+08         0.00000E+00
    0.00000E+00         0.00000E+00        -0.50000E+08
 
   -0.49990E+08         0.39236E+04         0.00000E+00
    0.39236E+04        -0.49999E+08         0.00000E+00
    0.00000E+00         0.00000E+00        -0.50000E+08
 
   -0.49990E+08         0.41454E+04         0.00000E+00
    0.41454E+04        -0.49999E+08         0.00000E+00
    0.00000E+00         0.00000E+00        -0.50000E+08
 
   -0.49991E+08         0.43638E+04         0.00000E+00
    0.43638E+04        -0.49999E+08         0.00000E+00
    0.00000E+00         0.00000E+00        -0.50000E+08
 
   -0.49991E+08         0.45785E+04         0.00000E+00
    0.45785E+04        -0.49999E+08         0.00000E+00
    0.00000E+00         0.00000E+00        -0.50000E+08
 
   -0.49991E+08         0.47894E+04         0.00000E+00
    0.47894E+04        -0.49999E+08         0.00000E+00
    0.00000E+00         0.00000E+00        -0.50000E+08
 
   -0.49991E+08         0.49961E+04         0.00000E+00
    0.49961E+04        -0.49999E+08         0.00000E+00
    0.00000E+00         0.00000E+00        -0.50000E+08
 
   -0.49991E+08         0.51984E+04         0.00000E+00
    0.51984E+04        -0.49999E+08         0.00000E+00
    0.00000E+00         0.00000E+00        -0.50000E+08
 
   -0.49991E+08         0.53961E+04         0.00000E+00
    0.53961E+04        -0.49998E+08         0.00000E+00
    0.00000E+00         0.00000E+00        -0.50000E+08
 
   -0.49992E+08         0.55890E+04         0.00000E+00
    0.55890E+04        -0.49998E+08         0.00000E+00
    0.00000E+00         0.00000E+00        -0.50000E+08
 
   -0.49992E+08         0.57769E+04         0.00000E+00
    0.57769E+04        -0.49998E+08         0.00000E+00
    0.00000E+00         0.00000E+00        -0.50000E+08
 
   -0.49992E+08         0.59594E+04         0.00000E+00
    0.59594E+04        -0.49998E+08         0.00000E+00
    0.00000E+00         0.00000E+00        -0.50000E+08
 
   -0.49992E+08         0.61365E+04         0.00000E+00
    0.61365E+04        -0.49998E+08         0.00000E+00
    0.00000E+00         0.00000E+00        -0.50000E+08
 
   -0.49993E+08         0.63078E+04         0.00000E+00
    0.63078E+04        -0.49998E+08         0.00000E+00
    0.00000E+00         0.00000E+00        -0.50000E+08
 
   -0.49993E+08         0.64733E+04         0.00000E+00
    0.64733E+04        -0.49998E+08         0.00000E+00
    0.00000E+00         0.00000E+00        -0.50000E+08
 
   -0.49993E+08         0.66326E+04         0.00000E+00
    0.66326E+04        -0.49997E+08         0.00000E+00
    0.00000E+00         0.00000E+00        -0.50000E+08
 
   -0.49993E+08         0.67856E+04         0.00000E+00
    0.67856E+04        -0.49997E+08         0.00000E+00
    0.00000E+00         0.00000E+00        -0.50000E+08
 
   -0.49994E+08         0.69320E+04         0.00000E+00
    0.69320E+04        -0.49997E+08         0.00000E+00
    0.00000E+00         0.00000E+00        -0.50000E+08
 
   -0.49994E+08         0.70718E+04         0.00000E+00
    0.70718E+04        -0.49997E+08         0.00000E+00
    0.00000E+00         0.00000E+00        -0.50000E+08
 
   -0.49994E+08         0.72047E+04         0.00000E+00
    0.72047E+04        -0.49997E+08         0.00000E+00
    0.00000E+00         0.00000E+00        -0.50000E+08
 
   -0.49995E+08         0.73306E+04         0.00000E+00
    0.73306E+04        -0.49997E+08         0.00000E+00
    0.00000E+00         0.00000E+00        -0.50000E+08
 
   -0.49995E+08         0.74492E+04         0.00000E+00
    0.74492E+04        -0.49996E+08         0.00000E+00
    0.00000E+00         0.00000E+00        -0.50000E+08
 
   -0.49995E+08         0.75604E+04         0.00000E+00
    0.75604E+04        -0.49996E+08         0.00000E+00
    0.00000E+00         0.00000E+00        -0.50000E+08
 
   -0.49996E+08         0.76640E+04         0.00000E+00
    0.76640E+04        -0.49996E+08         0.00000E+00
    0.00000E+00         0.00000E+00        -0.50000E+08
 
   -0.49996E+08         0.77599E+04         0.00000E+00
    0.77599E+04        -0.49996E+08         0.00000E+00
    0.00000E+00         0.00000E+00        -0.50000E+08
 
   -0.49996E+08         0.78480E+04         0.00000E+00
    0.78480E+04        -0.49996E+08         0.00000E+00
    0.00000E+00         0.00000E+00        -0.50000E+08
 
   -0.49997E+08         0.79280E+04         0.00000E+00
    0.79280E+04        -0.49995E+08         0.00000E+00
    0.00000E+00         0.00000E+00        -0.50000E+08
 
   -0.49997E+08         0.79999E+04         0.00000E+00
    0.79999E+04        -0.49995E+08         0.00000E+00
    0.00000E+00         0.00000E+00        -0.50000E+08
 
   -0.49997E+08         0.80635E+04         0.00000E+00
    0.80635E+04        -0.49995E+08         0.00000E+00
    0.00000E+00         0.00000E+00        -0.50000E+08
 
   -0.49998E+08         0.81187E+04         0.00000E+00
    0.81187E+04        -0.49995E+08         0.00000E+00
    0.00000E+00         0.00000E+00        -0.50000E+08
 
   -0.49998E+08         0.81654E+04         0.00000E+00
    0.81654E+04        -0.49995E+08         0.00000E+00
    0.00000E+00         0.00000E+00        -0.50000E+08
 
   -0.49999E+08         0.82035E+04         0.00000E+00
    0.82035E+04        -0.49994E+08         0.00000E+00
    0.00000E+00         0.00000E+00        -0.50000E+08
 
   -0.49999E+08         0.82328E+04         0.00000E+00
    0.82328E+04        -0.49994E+08         0.00000E+00
    0.00000E+00         0.00000E+00        -0.50000E+08
 
   -0.49999E+08         0.82533E+04         0.00000E+00
    0.82533E+04        -0.49994E+08         0.00000E+00
    0.00000E+00         0.00000E+00        -0.50000E+08
 
   -0.50000E+08         0.82649E+04         0.00000E+00
    0.82649E+04        -0.49994E+08         0.00000E+00
    0.00000E+00         0.00000E+00        -0.50000E+08
 
   -0.49988E+08         0.13464E+03         0.00000E+00
    0.13464E+03        -0.50000E+08         0.00000E+00
    0.00000E+00         0.00000E+00        -0.50000E+08
 
   -0.49988E+08         0.40728E+03         0.00000E+00
    0.40728E+03        -0.50000E+08         0.00000E+00
    0.00000E+00         0.00000E+00        -0.50000E+08
 
   -0.49988E+08         0.68074E+03         0.00000E+00
    0.68074E+03        -0.50000E+08         0.00000E+00
    0.00000E+00         0.00000E+00        -0.50000E+08
 
   -0.49988E+08         0.95473E+03         0.00000E+00
    0.95473E+03        -0.50000E+08         0.00000E+00
    0.00000E+00         0.00000E+00        -0.50000E+08
 
   -0.49988E+08         0.12289E+04         0.00000E+00
    0.12289E+04        -0.50000E+08         0.00000E+00
    0.00000E+00         0.00000E+00        -0.50000E+08
 
   -0.49988E+08         0.15031E+04         0.00000E+00
    0.15031E+04        -0.50000E+08         0.00000E+00
    0.00000E+00         0.00000E+00        -0.50000E+08
 
   -0.49988E+08         0.17769E+04         0.00000E+00
    0.17769E+04        -0.50000E+08         0.00000E+00
    0.00000E+00         0.00000E+00        -0.50000E+08
 
   -0.49988E+08         0.20500E+04         0.00000E+00
    0.20500E+04        -0.50000E+08         0.00000E+00
    0.00000E+00         0.00000E+00        -0.50000E+08
 
   -0.49988E+08         0.23221E+04         0.00000E+00
    0.23221E+04        -0.50000E+08         0.00000E+00
    0.00000E+00         0.00000E+00        -0.50000E+08
 
   -0.49988E+08         0.25929E+04         0.00000E+00
    0.25929E+04        -0.50000E+08         0.00000E+00
    0.00000E+00         0.00000E+00        -0.50000E+08
 
   -0.49988E+08         0.28623E+04         0.00000E+00
    0.28623E+04        -0.50000E+08         0.00000E+00
    0.00000E+00         0.00000E+00        -0.50000E+08
 
   -0.49988E+08         0.31297E+04         0.00000E+00
    0.31297E+04        -0.50000E+08         0.00000E+00
    0.00000E+00         0.00000E+00        -0.50000E+08
 
   -0.49989E+08         0.33950E+04         0.00000E+00
    0.33950E+04        -0.49999E+08         0.00000E+00
    0.00000E+00         0.00000E+00        -0.50000E+08
 
   -0.49989E+08         0.36578E+04         0.00000E+00
    0.36578E+04        -0.49999E+08         0.00000E+00
    0.00000E+00         0.00000E+00        -0.50000E+08
 
   -0.49989E+08         0.39180E+04         0.00000E+00
    0.39180E+04        -0.49999E+08         0.00000E+00
    0.00000E+00         0.00000E+00        -0.50000E+08
 
   -0.49989E+08         0.41751E+04         0.00000E+00
    0.41751E+04        -0.49999E+08         0.00000E+00
    0.00000E+00         0.00000E+00        -0.50000E+08
 
   -0.49989E+08         0.44289E+04         0.00000E+00
    0.44289E+04        -0.49999E+08         0.00000E+00
    0.00000E+00         0.00000E+00        -0.50000E+08
 
   -0.49989E+08         0.46791E+04         0.00000E+00
    0.46791E+04        -0.49999E+08         0.00000E+00
    0.00000E+00         0.00000E+00        -0.50000E+08
 
   -0.49989E+08         0.49255E+04         0.00000E+00
    0.49255E+04        -0.49999E+08         0.00000E+00
    0.00000E+00         0.00000E+00        -0.50000E+08
 
   -0.49990E+08         0.51677E+04         0.00000E+00
    0.51677E+04        -0.49999E+08         0.00000E+00
    0.00000E+00         0.00000E+00        -0.50000E+08
 
   -0.49990E+08         0.54055E+04         0.00000E+00
    0.54055E+04        -0.49999E+08         0.00000E+00
    0.00000E+00         0.00000E+00        -0.50000E+08
 
   -0.49990E+08         0.56387E+04         0.00000E+00
    0.56387E+04        -0.49998E+08         0.00000E+00
    0.00000E+00         0.00000E+00        -0.50000E+08
 
   -0.49990E+08         0.58669E+04         0.00000E+00
    0.58669E+04        -0.49998E+08         0.00000E+00
    0.00000E+00         0.00000E+00        -0.50000E+08
 
   -0.49990E+08         0.60899E+04         0.00000E+00
    0.60899E+04        -0.49998E+08         0.00000E+00
    0.00000E+00         0.00000E+00        -0.50000E+08
 
   -0.49991E+08         0.63074E+04         0.00000E+00
    0.63074E+04        -0.49998E+08         0.00000E+00
    0.00000E+00         0.00000E+00        -0.50000E+08
 
   -0.49991E+08         0.65193E+04         0.00000E+00
    0.65193E+04        -0.49998E+08         0.00000E+00
    0.00000E+00         0.00000E+00        -0.50000E+08
 
   -0.49991E+08         0.67251E+04         0.00000E+00
    0.67251E+04        -0.49998E+08         0.00000E+00
    0.00000E+00         0.00000E+00        -0.50000E+08
 
   -0.49991E+08         0.69248E+04         0.00000E+00
    0.69248E+04        -0.49998E+08         0.00000E+00
    0.00000E+00         0.00000E+00        -0.50000E+08
 
   -0.49992E+08         0.71180E+04         0.00000E+00
    0.71180E+04        -0.49997E+08         0.00000E+00
    0.00000E+00         0.00000E+00        -0.50000E+08
 
   -0.49992E+08         0.73046E+04         0.00000E+00
    0.73046E+04        -0.49997E+08         0.00000E+00
    0.00000E+00         0.00000E+00        -0.50000E+08
 
   -0.49992E+08         0.74843E+04         0.00000E+00
    0.74843E+04        -0.49997E+08         0.00000E+00
    0.00000E+00         0.00000E+00        -0.50000E+08
 
   -0.49993E+08         0.76568E+04         0.00000E+00
    0.76568E+04        -0.49997E+08         0.00000E+00
    0.00000E+00         0.00000E+00        -0.50000E+08
 
   -0.49993E+08         0.78220E+04         0.00000E+00
    0.78220E+04        -0.49997E+08         0.00000E+00
    0.00000E+00         0.00000E+00        -0.50000E+08
 
   -0.49993E+08         0.79796E+04         0.00000E+00
    0.79796E+04        -0.49997E+08         0.00000E+00
    0.00000E+00         0.00000E+00        -0.50000E+08
 
   -0.49994E+08         0.81295E+04         0.00000E+00
    0.81295E+04        -0.49996E+08         0.00000E+00
    0.00000E+00         0.00000E+00        -0.50000E+08
 
   -0.49994E+08         0.82714E+04         0.00000E+00
    0.82714E+04        -0.49996E+08         0.00000E+00
    0.00000E+00         0.00000E+00        -0.50000E+08
 
   -0.49994E+08         0.84052E+04         0.00000E+00
    0.84052E+04        -0.49996E+08         0.00000E+00
    0.00000E+00         0.00000E+00        -0.50000E+08
 
   -0.49995E+08         0.85307E+04         0.00000E+00
    0.85307E+04        -0.49996E+08         0.00000E+00
    0.00000E+00         0.00000E+00        -0.50000E+08
 
   -0.49995E+08         0.86476E+04         0.00000E+00
    0.86476E+04        -0.49996E+08         0.00000E+00
    0.00000E+00         0.00000E+00        -0.50000E+08
 
   -0.49995E+08         0.87558E+04         0.00000E+00
    0.87558E+04        -0.49995E+08         0.00000E+00
    0.00000E+00         0.00000E+00        -0.50000E+08
 
   -0.49996E+08         0.88552E+04         0.00000E+00
    0.88552E+04        -0.49995E+08         0.00000E+00
    0.00000E+00         0.00000E+00        -0.50000E+08
 
   -0.49996E+08         0.89455E+04         0.00000E+00
    0.89455E+04        -0.49995E+08         0.00000E+00
    0.00000E+00         0.00000E+00        -0.50000E+08
 
   -0.49997E+08         0.90267E+04         0.00000E+00
    0.90267E+04        -0.49995E+08         0.00000E+00
    0.00000E+00         0.00000E+00        -0.50000E+08
 
   -0.49997E+08         0.90985E+04         0.00000E+00
    0.90985E+04        -0.49994E+08         0.00000E+00
    0.00000E+00         0.00000E+00        -0.50000E+08
 
   -0.49998E+08         0.91609E+04         0.00000E+00
    0.91609E+04        -0.49994E+08         0.00000E+00
    0.00000E+00         0.00000E+00        -0.50000E+08
 
   -0.49998E+08         0.92137E+04         0.00000E+00
    0.92137E+04        -0.49994E+08         0.00000E+00
    0.00000E+00         0.00000E+00        -0.50000E+08
 
   -0.49998E+08         0.92567E+04         0.00000E+00
    0.92567E+04        -0.49994E+08         0.00000E+00
    0.00000E+00         0.00000E+00        -0.50000E+08
 
   -0.49999E+08         0.92899E+04         0.00000E+00
    0.92899E+04        -0.49994E+08         0.00000E+00
    0.00000E+00         0.00000E+00        -0.50000E+08
 
   -0.49999E+08         0.93132E+04         0.00000E+00
    0.93132E+04        -0.49993E+08         0.00000E+00
    0.00000E+00         0.00000E+00        -0.50000E+08
 
   -0.50000E+08         0.93265E+04         0.00000E+00
    0.93265E+04        -0.49993E+08         0.00000E+00
    0.00000E+00         0.00000E+00        -0.50000E+08
 
   -0.49987E+08         0.15199E+03         0.00000E+00
    0.15199E+03        -0.50000E+08         0.00000E+00
    0.00000E+00         0.00000E+00        -0.50000E+08
 
   -0.49987E+08         0.45967E+03         0.00000E+00
    0.45967E+03        -0.50000E+08         0.00000E+00
    0.00000E+00         0.00000E+00        -0.50000E+08
 
   -0.49987E+08         0.76825E+03         0.00000E+00
    0.76825E+03        -0.50000E+08         0.00000E+00
    0.00000E+00         0.00000E+00        -0.50000E+08
 
   -0.49987E+08         0.10774E+04         0.00000E+00
    0.10774E+04        -0.50000E+08         0.00000E+00
    0.00000E+00         0.00000E+00        -0.50000E+08
 
   -0.49987E+08         0.13868E+04         0.00000E+00
    0.13868E+04        -0.50000E+08         0.00000E+00
    0.00000E+00         0.00000E+00        -0.50000E+08
 
   -0.49987E+08         0.16960E+04         0.00000E+00
    0.16960E+04        -0.50000E+08         0.00000E+00
    0.00000E+00         0.00000E+00        -0.50000E+08
 
   -0.49987E+08         0.20048E+04         0.00000E+00
    0.20048E+04        -0.50000E+08         0.00000E+00
    0.00000E+00         0.00000E+00        -0.50000E+08
 
   -0.49987E+08         0.23129E+04         0.00000E+00
    0.23129E+04        -0.50000E+08         0.00000E+00
    0.00000E+00         0.00000E+00        -0.50000E+08
 
   -0.49987E+08         0.26198E+04         0.00000E+00
    0.26198E+04        -0.50000E+08         0.00000E+00
    0.00000E+00         0.00000E+00        -0.50000E+08
 
   -0.49987E+08         0.29253E+04         0.00000E+00
    0.29253E+04        -0.50000E+08         0.00000E+00
    0.00000E+00         0.00000E+00        -0.50000E+08
 
   -0.49987E+08         0.32289E+04         0.00000E+00
    0.32289E+04        -0.50000E+08         0.00000E+00
    0.00000E+00         0.00000E+00        -0.50000E+08
 
   -0.49987E+08         0.35305E+04         0.00000E+00
    0.35305E+04        -0.50000E+08         0.00000E+00
    0.00000E+00         0.00000E+00        -0.50000E+08
 
   -0.49987E+08         0.38296E+04         0.00000E+00
    0.38296E+04        -0.49999E+08         0.00000E+00
    0.00000E+00         0.00000E+00        -0.50000E+08
 
   -0.49987E+08         0.41260E+04         0.00000E+00
    0.41260E+04        -0.49999E+08         0.00000E+00
    0.00000E+00         0.00000E+00        -0.50000E+08
 
   -0.49987E+08         0.44192E+04         0.00000E+00
    0.44192E+04        -0.49999E+08         0.00000E+00
    0.00000E+00         0.00000E+00        -0.50000E+08
 
   -0.49988E+08         0.47090E+04         0.00000E+00
    0.47090E+04        -0.49999E+08         0.00000E+00
    0.00000E+00         0.00000E+00        -0.50000E+08
 
   -0.49988E+08         0.49951E+04         0.00000E+00
    0.49951E+04        -0.49999E+08         0.00000E+00
    0.00000E+00         0.00000E+00        -0.50000E+08
 
   -0.49988E+08         0.52772E+04         0.00000E+00
    0.52772E+04        -0.49999E+08         0.00000E+00
    0.00000E+00         0.00000E+00        -0.50000E+08
 
   -0.49988E+08         0.55549E+04         0.00000E+00
    0.55549E+04        -0.49999E+08         0.00000E+00
    0.00000E+00         0.00000E+00        -0.50000E+08
 
   -0.49988E+08         0.58279E+04         0.00000E+00
    0.58279E+04        -0.49999E+08         0.00000E+00
    0.00000E+00         0.00000E+00        -0.50000E+08
 
   -0.49988E+08         0.60959E+04         0.00000E+00
    0.60959E+04        -0.49998E+08         0.00000E+00
    0.00000E+00         0.00000E+00        -0.50000E+08
 
   -0.49989E+08         0.63586E+04         0.00000E+00
    0.63586E+04        -0.49998E+08         0.00000E+00
    0.00000E+00         0.00000E+00        -0.50000E+08
 
   -0.49989E+08         0.66158E+04         0.00000E+00
    0.66158E+04        -0.49998E+08         0.00000E+00
    0.00000E+00         0.00000E+00        -0.50000E+08
 
   -0.49989E+08         0.68671E+04         0.00000E+00
    0.68671E+04        -0.49998E+08         0.00000E+00
    0.00000E+00         0.00000E+00        -0.50000E+08
 
   -0.49990E+08         0.71122E+04         0.00000E+00
    0.71122E+04        -0.49998E+08         0.00000E+00
    0.00000E+00         0.00000E+00        -0.50000E+08
 
   -0.49990E+08         0.73509E+04         0.00000E+00
    0.73509E+04        -0.49998E+08         0.00000E+00
    0.00000E+00         0.00000E+00        -0.50000E+08
 
   -0.49990E+08         0.75829E+04         0.00000E+00
    0.75829E+04        -0.49997E+08         0.00000E+00
    0.00000E+00         0.00000E+00        -0.50000E+08
 
   -0.49990E+08         0.78079E+04         0.00000E+00
    0.78079E+04        -0.49997E+08         0.00000E+00
    0.00000E+00         0.00000E+00        -0.50000E+08
 
   -0.49991E+08         0.80256E+04         0.00000E+00
    0.80256E+04        -0.49997E+08         0.00000E+00
    0.00000E+00         0.00000E+00        -0.50000E+08
 
   -0.49991E+08         0.82358E+04         0.00000E+00
    0.82358E+04        -0.49997E+08         0.00000E+00
    0.00000E+00         0.00000E+00        -0.50000E+08
 
   -0.49991E+08         0.84383E+04         0.00000E+00
    0.84383E+04        -0.49997E+08         0.00000E+00
    0.00000E+00         0.00000E+00        -0.50000E+08
 
   -0.49992E+08         0.86327E+04         0.00000E+00
    0.86327E+04        -0.49997E+08         0.00000E+00
    0.00000E+00         0.00000E+00        -0.50000E+08
 
   -0.49992E+08         0.88188E+04         0.00000E+00
    0.88188E+04        -0.49996E+08         0.00000E+00
    0.00000E+00         0.00000E+00        -0.50000E+08
 
   -0.49992E+08         0.89964E+04         0.00000E+00
    0.89964E+04        -0.49996E+08         0.00000E+00
    0.00000E+00         0.00000E+00        -0.50000E+08
 
   -0.49993E+08         0.91653E+04         0.00000E+00
    0.91653E+04        -0.49996E+08         0.00000E+00
    0.00000E+00         0.00000E+00        -0.50000E+08
 
   -0.49993E+08         0.93253E+04         0.00000E+00
    0.93253E+04        -0.49996E+08         0.00000E+00
    0.00000E+00         0.00000E+00        -0.50000E+08
 
   -0.49994E+08         0.94760E+04         0.00000E+00
    0.94760E+04        -0.49995E+08         0.00000E+00
    0.00000E+00         0.00000E+00        -0.50000E+08
 
   -0.49994E+08         0.96174E+04         0.00000E+00
    0.96174E+04        -0.49995E+08         0.00000E+00
    0.00000E+00         0.00000E+00        -0.50000E+08
 
   -0.49995E+08         0.97492E+04         0.00000E+00
    0.97492E+04        -0.49995E+08         0.00000E+00
    0.00000E+00         0.00000E+00        -0.50000E+08
 
   -0.49995E+08         0.98712E+04         0.00000E+00
    0.98712E+04        -0.49995E+08         0.00000E+00
    0.00000E+00         0.00000E+00        -0.50000E+08
 
   -0.49995E+08         0.99832E+04         0.00000E+00
    0.99832E+04        -0.49994E+08         0.00000E+00
    0.00000E+00         0.00000E+00        -0.50000E+08
 
   -0.49996E+08         0.10085E+05         0.00000E+00
    0.10085E+05        -0.49994E+08         0.00000E+00
    0.00000E+00         0.00000E+00        -0.50000E+08
 
   -0.49996E+08         0.10177E+05         0.00000E+00
    0.10177E+05        -0.49994E+08         0.00000E+00
    0.00000E+00         0.00000E+00        -0.50000E+08
 
   -0.49997E+08         0.10258E+05         0.00000E+00
    0.10258E+05        -0.49994E+08         0.00000E+00
    0.00000E+00         0.00000E+00        -0.50000E+08
 
   -0.49997E+08         0.10328E+05         0.00000E+00
    0.10328E+05        -0.49994E+08         0.00000E+00
    0.00000E+00         0.00000E+00        -0.50000E+08
 
   -0.49998E+08         0.10388E+05         0.00000E+00
    0.10388E+05        -0.49993E+08         0.00000E+00
    0.00000E+00         0.00000E+00        -0.50000E+08
 
   -0.49998E+08         0.10436E+05         0.00000E+00
    0.10436E+05        -0.49993E+08         0.00000E+00
    0.00000E+00         0.00000E+00        -0.50000E+08
 
   -0.49999E+08         0.10474E+05         0.00000E+00
    0.10474E+05        -0.49993E+08         0.00000E+00
    0.00000E+00         0.00000E+00        -0.50000E+08
 
   -0.49999E+08         0.10500E+05         0.00000E+00
    0.10500E+05        -0.49993E+08         0.00000E+00
    0.00000E+00         0.00000E+00        -0.50000E+08
 
   -0.50000E+08         0.10516E+05         0.00000E+00
    0.10516E+05        -0.49992E+08         0.00000E+00
    0.00000E+00         0.00000E+00        -0.50000E+08
 
   -0.49985E+08         0.17147E+03         0.00000E+00
    0.17147E+03        -0.50000E+08         0.00000E+00
    0.00000E+00         0.00000E+00        -0.50000E+08
 
   -0.49985E+08         0.51848E+03         0.00000E+00
    0.51848E+03        -0.50000E+08         0.00000E+00
    0.00000E+00         0.00000E+00        -0.50000E+08
 
   -0.49985E+08         0.86646E+03         0.00000E+00
    0.86646E+03        -0.50000E+08         0.00000E+00
    0.00000E+00         0.00000E+00        -0.50000E+08
 
   -0.49985E+08         0.12151E+04         0.00000E+00
    0.12151E+04        -0.50000E+08         0.00000E+00
    0.00000E+00         0.00000E+00        -0.50000E+08
 
   -0.49985E+08         0.15639E+04         0.00000E+00
    0.15639E+04        -0.50000E+08         0.00000E+00
    0.00000E+00         0.00000E+00        -0.50000E+08
 
   -0.49985E+08         0.19125E+04         0.00000E+00
    0.19125E+04        -0.50000E+08         0.00000E+00
    0.00000E+00         0.00000E+00        -0.50000E+08
 
   -0.49985E+08         0.22606E+04         0.00000E+00
    0.22606E+04        -0.50000E+08         0.00000E+00
    0.00000E+00         0.00000E+00        -0.50000E+08
 
   -0.49985E+08         0.26078E+04         0.00000E+00
    0.26078E+04        -0.50000E+08         0.00000E+00
    0.00000E+00         0.00000E+00        -0.50000E+08
 
   -0.49985E+08         0.29538E+04         0.00000E+00
    0.29538E+04        -0.50000E+08         0.00000E+00
    0.00000E+00         0.00000E+00        -0.50000E+08
 
   -0.49985E+08         0.32980E+04         0.00000E+00
    0.32980E+04        -0.50000E+08         0.00000E+00
    0.00000E+00         0.00000E+00        -0.50000E+08
 
   -0.49985E+08         0.36402E+04         0.00000E+00
    0.36402E+04        -0.50000E+08         0.00000E+00
    0.00000E+00         0.00000E+00        -0.50000E+08
 
   -0.49985E+08         0.39800E+04         0.00000E+00
    0.39800E+04        -0.49999E+08         0.00000E+00
    0.00000E+00         0.00000E+00        -0.50000E+08
 
   -0.49986E+08         0.43170E+04         0.00000E+00
    0.43170E+04        -0.49999E+08         0.00000E+00
    0.00000E+00         0.00000E+00        -0.50000E+08
 
   -0.49986E+08         0.46509E+04         0.00000E+00
    0.46509E+04        -0.49999E+08         0.00000E+00
    0.00000E+00         0.00000E+00        -0.50000E+08
 
   -0.49986E+08         0.49813E+04         0.00000E+00
    0.49813E+04        -0.49999E+08         0.00000E+00
    0.00000E+00         0.00000E+00        -0.50000E+08
 
   -0.49986E+08         0.53078E+04         0.00000E+00
    0.53078E+04        -0.49999E+08         0.00000E+00
    0.00000E+00         0.00000E+00        -0.50000E+08
 
   -0.49986E+08         0.56300E+04         0.00000E+00
    0.56300E+04        -0.49999E+08         0.00000E+00
    0.00000E+00         0.00000E+00        -0.50000E+08
 
   -0.49986E+08         0.59477E+04         0.00000E+00
    0.59477E+04        -0.49999E+08         0.00000E+00
    0.00000E+00         0.00000E+00        -0.50000E+08
 
   -0.49987E+08         0.62605E+04         0.00000E+00
    0.62605E+04        -0.49999E+08         0.00000E+00
    0.00000E+00         0.00000E+00        -0.50000E+08
 
   -0.49987E+08         0.65679E+04         0.00000E+00
    0.65679E+04        -0.49998E+08         0.00000E+00
    0.00000E+00         0.00000E+00        -0.50000E+08
 
   -0.49987E+08         0.68698E+04         0.00000E+00
    0.68698E+04        -0.49998E+08         0.00000E+00
    0.00000E+00         0.00000E+00        -0.50000E+08
 
   -0.49987E+08         0.71656E+04         0.00000E+00
    0.71656E+04        -0.49998E+08         0.00000E+00
    0.00000E+00         0.00000E+00        -0.50000E+08
 
   -0.49988E+08         0.74552E+04         0.00000E+00
    0.74552E+04        -0.49998E+08         0.00000E+00
    0.00000E+00         0.00000E+00        -0.50000E+08
 
   -0.49988E+08         0.77382E+04         0.00000E+00
    0.77382E+04        -0.49998E+08         0.00000E+00
    0.00000E+00         0.00000E+00        -0.50000E+08
 
   -0.49988E+08         0.80142E+04         0.00000E+00
    0.80142E+04        -0.49998E+08         0.00000E+00
    0.00000E+00         0.00000E+00        -0.50000E+08
 
   -0.49989E+08         0.82830E+04         0.00000E+00
    0.82830E+04        -0.49997E+08         0.00000E+00
    0.00000E+00         0.00000E+00        -0.50000E+08
 
   -0.49989E+08         0.85442E+04         0.00000E+00
    0.85442E+04        -0.49997E+08         0.00000E+00
    0.00000E+00         0.00000E+00        -0.50000E+08
 
   -0.49989E+08         0.87975E+04         0.00000E+00
    0.87975E+04        -0.49997E+08         0.00000E+00
    0.00000E+00         0.00000E+00        -0.50000E+08
 
   -0.49990E+08         0.90427E+04         0.00000E+00
    0.90427E+04        -0.49997E+08         0.00000E+00
    0.00000E+00         0.00000E+00        -0.50000E+08
 
   -0.49990E+08         0.92794E+04         0.00000E+00
    0.92794E+04        -0.49997E+08         0.00000E+00
    0.00000E+00         0.00000E+00        -0.50000E+08
 
   -0.49990E+08         0.95073E+04         0.00000E+00
    0.95073E+04        -0.49996E+08         0.00000E+00
    0.00000E+00         0.00000E+00        -0.50000E+08
 
   -0.49991E+08         0.97262E+04         0.00000E+00
    0.97262E+04        -0.49996E+08         0.00000E+00
    0.00000E+00         0.00000E+00        -0.50000E+08
 
   -0.49991E+08         0.99358E+04         0.00000E+00
    0.99358E+04        -0.49996E+08         0.00000E+00
    0.00000E+00         0.00000E+00        -0.50000E+08
 
   -0.49992E+08         0.10136E+05         0.00000E+00
    0.10136E+05        -0.49996E+08         0.00000E+00
    0.00000E+00         0.00000E+00        -0.50000E+08
 
   -0.49992E+08         0.10326E+05         0.00000E+00
    0.10326E+05        -0.49995E+08         0.00000E+00
    0.00000E+00         0.00000E+00        -0.50000E+08
 
   -0.49992E+08         0.10506E+05         0.00000E+00
    0.10506E+05        -0.49995E+08         0.00000E+00
    0.00000E+00         0.00000E+00        -0.50000E+08
 
   -0.49993E+08         0.10676E+05         0.00000E+00
    0.10676E+05        -0.49995E+08         0.00000E+00
    0.00000E+00         0.00000E+00        -0.50000E+08
 
   -0.49993E+08         0.10835E+05         0.00000E+00
    0.10835E+05        -0.49995E+08         0.00000E+00
    0.00000E+00         0.00000E+00        -0.50000E+08
 
   -0.49994E+08         0.10984E+05         0.00000E+00
    0.10984E+05        -0.49994E+08         0.00000E+00
    0.00000E+00         0.00000E+00        -0.50000E+08
 
   -0.49994E+08         0.11121E+05         0.00000E+00
    0.11121E+05        -0.49994E+08         0.00000E+00
    0.00000E+00         0.00000E+00        -0.50000E+08
 
   -0.49995E+08         0.11247E+05         0.00000E+00
    0.11247E+05        -0.49994E+08         0.00000E+00
    0.00000E+00         0.00000E+00        -0.50000E+08
 
   -0.49995E+08         0.11362E+05         0.00000E+00
    0.11362E+05        -0.49994E+08         0.00000E+00
    0.00000E+00         0.00000E+00        -0.50000E+08
 
   -0.49996E+08         0.11465E+05         0.00000E+00
    0.11465E+05        -0.49993E+08         0.00000E+00
    0.00000E+00         0.00000E+00        -0.50000E+08
 
   -0.49996E+08         0.11557E+05         0.00000E+00
    0.11557E+05        -0.49993E+08         0.00000E+00
    0.00000E+00         0.00000E+00        -0.50000E+08
 
   -0.49997E+08         0.11636E+05         0.00000E+00
    0.11636E+05        -0.49993E+08         0.00000E+00
    0.00000E+00         0.00000E+00        -0.50000E+08
 
   -0.49997E+08         0.11703E+05         0.00000E+00
    0.11703E+05        -0.49992E+08         0.00000E+00
    0.00000E+00         0.00000E+00        -0.50000E+08
 
   -0.49998E+08         0.11758E+05         0.00000E+00
    0.11758E+05        -0.49992E+08         0.00000E+00
    0.00000E+00         0.00000E+00        -0.50000E+08
 
   -0.49998E+08         0.11801E+05         0.00000E+00
    0.11801E+05        -0.49992E+08         0.00000E+00
    0.00000E+00         0.00000E+00        -0.50000E+08
 
   -0.49999E+08         0.11831E+05         0.00000E+00
    0.11831E+05        -0.49992E+08         0.00000E+00
    0.00000E+00         0.00000E+00        -0.50000E+08
 
   -0.50000E+08         0.11848E+05         0.00000E+00
    0.11848E+05        -0.49991E+08         0.00000E+00
    0.00000E+00         0.00000E+00        -0.50000E+08
 
   -0.49983E+08         0.19335E+03         0.00000E+00
    0.19335E+03        -0.50000E+08         0.00000E+00
    0.00000E+00         0.00000E+00        -0.50000E+08
 
   -0.49983E+08         0.58451E+03         0.00000E+00
    0.58451E+03        -0.50000E+08         0.00000E+00
    0.00000E+00         0.00000E+00        -0.50000E+08
 
   -0.49983E+08         0.97674E+03         0.00000E+00
    0.97674E+03        -0.50000E+08         0.00000E+00
    0.00000E+00         0.00000E+00        -0.50000E+08
 
   -0.49983E+08         0.13696E+04         0.00000E+00
    0.13696E+04        -0.50000E+08         0.00000E+00
    0.00000E+00         0.00000E+00        -0.50000E+08
 
   -0.49983E+08         0.17627E+04         0.00000E+00
    0.17627E+04        -0.50000E+08         0.00000E+00
    0.00000E+00         0.00000E+00        -0.50000E+08
 
   -0.49983E+08         0.21555E+04         0.00000E+00
    0.21555E+04        -0.50000E+08         0.00000E+00
    0.00000E+00         0.00000E+00        -0.50000E+08
 
   -0.49983E+08         0.25477E+04         0.00000E+00
    0.25477E+04        -0.50000E+08         0.00000E+00
    0.00000E+00         0.00000E+00        -0.50000E+08
 
   -0.49983E+08         0.29389E+04         0.00000E+00
    0.29389E+04        -0.50000E+08         0.00000E+00
    0.00000E+00         0.00000E+00        -0.50000E+08
 
   -0.49983E+08         0.33285E+04         0.00000E+00
    0.33285E+04        -0.50000E+08         0.00000E+00
    0.00000E+00         0.00000E+00        -0.50000E+08
 
   -0.49983E+08         0.37162E+04         0.00000E+00
    0.37162E+04        -0.50000E+08         0.00000E+00
    0.00000E+00         0.00000E+00        -0.50000E+08
 
   -0.49984E+08         0.41017E+04         0.00000E+00
    0.41017E+04        -0.49999E+08         0.00000E+00
    0.00000E+00         0.00000E+00        -0.50000E+08
 
   -0.49984E+08         0.44843E+04         0.00000E+00
    0.44843E+04        -0.49999E+08         0.00000E+00
    0.00000E+00         0.00000E+00        -0.50000E+08
 
   -0.49984E+08         0.48638E+04         0.00000E+00
    0.48638E+04        -0.49999E+08         0.00000E+00
    0.00000E+00         0.00000E+00        -0.50000E+08
 
   -0.49984E+08         0.52398E+04         0.00000E+00
    0.52398E+04        -0.49999E+08         0.00000E+00
    0.00000E+00         0.00000E+00        -0.50000E+08
 
   -0.49984E+08         0.56117E+04         0.00000E+00
    0.56117E+04        -0.49999E+08         0.00000E+00
    0.00000E+00         0.00000E+00        -0.50000E+08
 
   -0.49984E+08         0.59793E+04         0.00000E+00
    0.59793E+04        -0.49999E+08         0.00000E+00
    0.00000E+00         0.00000E+00        -0.50000E+08
 
   -0.49984E+08         0.63421E+04         0.00000E+00
    0.63421E+04        -0.49999E+08         0.00000E+00
    0.00000E+00         0.00000E+00        -0.50000E+08
 
   -0.49985E+08         0.66997E+04         0.00000E+00
    0.66997E+04        -0.49999E+08         0.00000E+00
    0.00000E+00         0.00000E+00        -0.50000E+08
 
   -0.49985E+08         0.70517E+04         0.00000E+00
    0.70517E+04        -0.49998E+08         0.00000E+00
    0.00000E+00         0.00000E+00        -0.50000E+08
 
   -0.49985E+08         0.73978E+04         0.00000E+00
    0.73978E+04        -0.49998E+08         0.00000E+00
    0.00000E+00         0.00000E+00        -0.50000E+08
 
   -0.49985E+08         0.77375E+04         0.00000E+00
    0.77375E+04        -0.49998E+08         0.00000E+00
    0.00000E+00         0.00000E+00        -0.50000E+08
 
   -0.49986E+08         0.80705E+04         0.00000E+00
    0.80705E+04        -0.49998E+08         0.00000E+00
    0.00000E+00         0.00000E+00        -0.50000E+08
 
   -0.49986E+08         0.83964E+04         0.00000E+00
    0.83964E+04        -0.49998E+08         0.00000E+00
    0.00000E+00         0.00000E+00        -0.50000E+08
 
   -0.49986E+08         0.87149E+04         0.00000E+00
    0.87149E+04        -0.49997E+08         0.00000E+00
    0.00000E+00         0.00000E+00        -0.50000E+08
 
   -0.49987E+08         0.90255E+04         0.00000E+00
    0.90255E+04        -0.49997E+08         0.00000E+00
    0.00000E+00         0.00000E+00        -0.50000E+08
 
   -0.49987E+08         0.93280E+04         0.00000E+00
    0.93280E+04        -0.49997E+08         0.00000E+00
    0.00000E+00         0.00000E+00        -0.50000E+08
 
   -0.49988E+08         0.96219E+04         0.00000E+00
    0.96219E+04        -0.49997E+08         0.00000E+00
    0.00000E+00         0.00000E+00        -0.50000E+08
 
   -0.49988E+08         0.99069E+04         0.00000E+00
    0.99069E+04        -0.49997E+08         0.00000E+00
    0.00000E+00         0.00000E+00        -0.50000E+08
 
   -0.49988E+08         0.10183E+05         0.00000E+00
    0.10183E+05        -0.49996E+08         0.00000E+00
    0.00000E+00         0.00000E+00        -0.50000E+08
 
   -0.49989E+08         0.10449E+05         0.00000E+00
    0.10449E+05        -0.49996E+08         0.00000E+00
    0.00000E+00         0.00000E+00        -0.50000E+08
 
   -0.49989E+08         0.10706E+05         0.00000E+00
    0.10706E+05        -0.49996E+08         0.00000E+00
    0.00000E+00         0.00000E+00        -0.50000E+08
 
   -0.49990E+08         0.10952E+05         0.00000E+00
    0.10952E+05        -0.49996E+08         0.00000E+00
    0.00000E+00         0.00000E+00        -0.50000E+08
 
   -0.49990E+08         0.11188E+05         0.00000E+00
    0.11188E+05        -0.49995E+08         0.00000E+00
    0.00000E+00         0.00000E+00        -0.50000E+08
 
   -0.49991E+08         0.11413E+05         0.00000E+00
    0.11413E+05        -0.49995E+08         0.00000E+00
    0.00000E+00         0.00000E+00        -0.50000E+08
 
   -0.49991E+08         0.11627E+05         0.00000E+00
    0.11627E+05        -0.49995E+08         0.00000E+00
    0.00000E+00         0.00000E+00        -0.50000E+08
 
   -0.49992E+08         0.11829E+05         0.00000E+00
    0.11829E+05        -0.49995E+08         0.00000E+00
    0.00000E+00         0.00000E+00        -0.50000E+08
 
   -0.49992E+08         0.12021E+05         0.00000E+00
    0.12021E+05        -0.49994E+08         0.00000E+00
    0.00000E+00         0.00000E+00        -0.50000E+08
 
   -0.49993E+08         0.12200E+05         0.00000E+00
    0.12200E+05        -0.49994E+08         0.00000E+00
    0.00000E+00         0.00000E+00        -0.50000E+08
 
   -0.49993E+08         0.12367E+05         0.00000E+00
    0.12367E+05        -0.49994E+08         0.00000E+00
    0.00000E+00         0.00000E+00        -0.50000E+08
 
   -0.49994E+08         0.12522E+05         0.00000E+00
    0.12522E+05        -0.49993E+08         0.00000E+00
    0.00000E+00         0.00000E+00        -0.50000E+08
 
   -0.49994E+08         0.12664E+05         0.00000E+00
    0.12664E+05        -0.49993E+08         0.00000E+00
    0.00000E+00         0.00000E+00        -0.50000E+08
 
   -0.49995E+08         0.12793E+05         0.00000E+00
    0.12793E+05        -0.49993E+08         0.00000E+00
    0.00000E+00         0.00000E+00        -0.50000E+08
 
   -0.49995E+08         0.12909E+05         0.00000E+00
    0.12909E+05        -0.49992E+08         0.00000E+00
    0.00000E+00         0.00000E+00        -0.50000E+08
 
   -0.49996E+08         0.13012E+05         0.00000E+00
    0.13012E+05        -0.49992E+08         0.00000E+00
    0.00000E+00         0.00000E+00        -0.50000E+08
 
   -0.49996E+08         0.13102E+05         0.00000E+00
    0.13102E+05        -0.49992E+08         0.00000E+00
    0.00000E+00         0.00000E+00        -0.50000E+08
 
   -0.49997E+08         0.13178E+05         0.00000E+00
    0.13178E+05        -0.49992E+08         0.00000E+00
    0.00000E+00         0.00000E+00        -0.50000E+08
 
   -0.49998E+08         0.13240E+05         0.00000E+00
    0.13240E+05        -0.49991E+08         0.00000E+00
    0.00000E+00         0.00000E+00        -0.50000E+08
 
   -0.49998E+08         0.13288E+05         0.00000E+00
    0.13288E+05        -0.49991E+08         0.00000E+00
    0.00000E+00         0.00000E+00        -0.50000E+08
 
   -0.49999E+08         0.13322E+05         0.00000E+00
    0.13322E+05        -0.49991E+08         0.00000E+00
    0.00000E+00         0.00000E+00        -0.50000E+08
 
   -0.50000E+08         0.13342E+05         0.00000E+00
    0.13342E+05        -0.49990E+08         0.00000E+00
    0.00000E+00         0.00000E+00        -0.50000E+08
 
   -0.49981E+08         0.21794E+03         0.00000E+00
    0.21794E+03        -0.50000E+08         0.00000E+00
    0.00000E+00         0.00000E+00        -0.50000E+08
 
   -0.49981E+08         0.65868E+03         0.00000E+00
    0.65868E+03        -0.50000E+08         0.00000E+00
    0.00000E+00         0.00000E+00        -0.50000E+08
 
   -0.49981E+08         0.11006E+04         0.00000E+00
    0.11006E+04        -0.50000E+08         0.00000E+00
    0.00000E+00         0.00000E+00        -0.50000E+08
 
   -0.49981E+08         0.15431E+04         0.00000E+00
    0.15431E+04        -0.50000E+08         0.00000E+00
    0.00000E+00         0.00000E+00        -0.50000E+08
 
   -0.49981E+08         0.19859E+04         0.00000E+00
    0.19859E+04        -0.50000E+08         0.00000E+00
    0.00000E+00         0.00000E+00        -0.50000E+08
 
   -0.49981E+08         0.24283E+04         0.00000E+00
    0.24283E+04        -0.50000E+08         0.00000E+00
    0.00000E+00         0.00000E+00        -0.50000E+08
 
   -0.49981E+08         0.28700E+04         0.00000E+00
    0.28700E+04        -0.50000E+08         0.00000E+00
    0.00000E+00         0.00000E+00        -0.50000E+08
 
   -0.49981E+08         0.33104E+04         0.00000E+00
    0.33104E+04        -0.50000E+08         0.00000E+00
    0.00000E+00         0.00000E+00        -0.50000E+08
 
   -0.49981E+08         0.37491E+04         0.00000E+00
    0.37491E+04        -0.50000E+08         0.00000E+00
    0.00000E+00         0.00000E+00        -0.50000E+08
 
   -0.49981E+08         0.41856E+04         0.00000E+00
    0.41856E+04        -0.50000E+08         0.00000E+00
    0.00000E+00         0.00000E+00        -0.50000E+08
 
   -0.49981E+08         0.46195E+04         0.00000E+00
    0.46195E+04        -0.49999E+08         0.00000E+00
    0.00000E+00         0.00000E+00        -0.50000E+08
 
   -0.49982E+08         0.50502E+04         0.00000E+00
    0.50502E+04        -0.49999E+08         0.00000E+00
    0.00000E+00         0.00000E+00        -0.50000E+08
 
   -0.49982E+08         0.54774E+04         0.00000E+00
    0.54774E+04        -0.49999E+08         0.00000E+00
    0.00000E+00         0.00000E+00        -0.50000E+08
 
   -0.49982E+08         0.59005E+04         0.00000E+00
    0.59005E+04        -0.49999E+08         0.00000E+00
    0.00000E+00         0.00000E+00        -0.50000E+08
 
   -0.49982E+08         0.63190E+04         0.00000E+00
    0.63190E+04        -0.49999E+08         0.00000E+00
    0.00000E+00         0.00000E+00        -0.50000E+08
 
   -0.49982E+08         0.67327E+04         0.00000E+00
    0.67327E+04        -0.49999E+08         0.00000E+00
    0.00000E+00         0.00000E+00        -0.50000E+08
 
   -0.49983E+08         0.71409E+04         0.00000E+00
    0.71409E+04        -0.49999E+08         0.00000E+00
    0.00000E+00         0.00000E+00        -0.50000E+08
 
   -0.49983E+08         0.75432E+04         0.00000E+00
    0.75432E+04        -0.49998E+08         0.00000E+00
    0.00000E+00         0.00000E+00        -0.50000E+08
 
   -0.49983E+08         0.79393E+04         0.00000E+00
    0.79393E+04        -0.49998E+08         0.00000E+00
    0.00000E+00         0.00000E+00        -0.50000E+08
 
   -0.49983E+08         0.83286E+04         0.00000E+00
    0.83286E+04        -0.49998E+08         0.00000E+00
    0.00000E+00         0.00000E+00        -0.50000E+08
 
   -0.49984E+08         0.87107E+04         0.00000E+00
    0.87107E+04        -0.49998E+08         0.00000E+00
    0.00000E+00         0.00000E+00        -0.50000E+08
 
   -0.49984E+08         0.90853E+04         0.00000E+00
    0.90853E+04        -0.49998E+08         0.00000E+00
    0.00000E+00         0.00000E+00        -0.50000E+08
 
   -0.49984E+08         0.94519E+04         0.00000E+00
    0.94519E+04        -0.49997E+08         0.00000E+00
    0.00000E+00         0.00000E+00        -0.50000E+08
 
   -0.49985E+08         0.98101E+04         0.00000E+00
    0.98101E+04        -0.49997E+08         0.00000E+00
    0.00000E+00         0.00000E+00        -0.50000E+08
 
   -0.49985E+08         0.10159E+05         0.00000E+00
    0.10159E+05        -0.49997E+08         0.00000E+00
    0.00000E+00         0.00000E+00        -0.50000E+08
 
   -0.49986E+08         0.10500E+05         0.00000E+00
    0.10500E+05        -0.49997E+08         0.00000E+00
    0.00000E+00         0.00000E+00        -0.50000E+08
 
   -0.49986E+08         0.10830E+05         0.00000E+00
    0.10830E+05        -0.49996E+08         0.00000E+00
    0.00000E+00         0.00000E+00        -0.50000E+08
 
   -0.49986E+08         0.11151E+05         0.00000E+00
    0.11151E+05        -0.49996E+08         0.00000E+00
    0.00000E+00         0.00000E+00        -0.50000E+08
 
   -0.49987E+08         0.11461E+05         0.00000E+00
    0.11461E+05        -0.49996E+08         0.00000E+00
    0.00000E+00         0.00000E+00        -0.50000E+08
 
   -0.49987E+08         0.11760E+05         0.00000E+00
    0.11760E+05        -0.49996E+08         0.00000E+00
    0.00000E+00         0.00000E+00        -0.50000E+08
 
   -0.49988E+08         0.12049E+05         0.00000E+00
    0.12049E+05        -0.49995E+08         0.00000E+00
    0.00000E+00         0.00000E+00        -0.50000E+08
 
   -0.49988E+08         0.12326E+05         0.00000E+00
    0.12326E+05        -0.49995E+08         0.00000E+00
    0.00000E+00         0.00000E+00        -0.50000E+08
 
   -0.49989E+08         0.12591E+05         0.00000E+00
    0.12591E+05        -0.49995E+08         0.00000E+00
    0.00000E+00         0.00000E+00        -0.50000E+08
 
   -0.49989E+08         0.12844E+05         0.00000E+00
    0.12844E+05        -0.49994E+08         0.00000E+00
    0.00000E+00         0.00000E+00        -0.50000E+08
 
   -0.49990E+08         0.13085E+05         0.00000E+00
    0.13085E+05        -0.49994E+08         0.00000E+00
    0.00000E+00         0.00000E+00        -0.50000E+08
 
   -0.49990E+08         0.13313E+05         0.00000E+00
    0.13313E+05        -0.49994E+08         0.00000E+00
    0.00000E+00         0.00000E+00        -0.50000E+08
 
   -0.49991E+08         0.13528E+05         0.00000E+00
    0.13528E+05        -0.49994E+08         0.00000E+00
    0.00000E+00         0.00000E+00        -0.50000E+08
 
   -0.49992E+08         0.13730E+05         0.00000E+00
    0.13730E+05        -0.49993E+08         0.00000E+00
    0.00000E+00         0.00000E+00        -0.50000E+08
 
   -0.49992E+08         0.13918E+05         0.00000E+00
    0.13918E+05        -0.49993E+08         0.00000E+00
    0.00000E+00         0.00000E+00        -0.50000E+08
 
   -0.49993E+08         0.14092E+05         0.00000E+00
    0.14092E+05        -0.49993E+08         0.00000E+00
    0.00000E+00         0.00000E+00        -0.50000E+08
 
   -0.49993E+08         0.14252E+05         0.00000E+00
    0.14252E+05        -0.49992E+08         0.00000E+00
    0.00000E+00         0.00000E+00        -0.50000E+08
 
   -0.49994E+08         0.14397E+05         0.00000E+00
    0.14397E+05        -0.49992E+08         0.00000E+00
    0.00000E+00         0.00000E+00        -0.50000E+08
 
   -0.49995E+08         0.14528E+05         0.00000E+00
    0.14528E+05        -0.49992E+08         0.00000E+00
    0.00000E+00         0.00000E+00        -0.50000E+08
 
   -0.49995E+08         0.14644E+05         0.00000E+00
    0.14644E+05        -0.49991E+08         0.00000E+00
    0.00000E+00         0.00000E+00        -0.50000E+08
 
   -0.49996E+08         0.14745E+05         0.00000E+00
    0.14745E+05        -0.49991E+08         0.00000E+00
    0.00000E+00         0.00000E+00        -0.50000E+08
 
   -0.49997E+08         0.14831E+05         0.00000E+00
    0.14831E+05        -0.49991E+08         0.00000E+00
    0.00000E+00         0.00000E+00        -0.50000E+08
 
   -0.49997E+08         0.14901E+05         0.00000E+00
    0.14901E+05        -0.49990E+08         0.00000E+00
    0.00000E+00         0.00000E+00        -0.50000E+08
 
   -0.49998E+08         0.14956E+05         0.00000E+00
    0.14956E+05        -0.49990E+08         0.00000E+00
    0.00000E+00         0.00000E+00        -0.50000E+08
 
   -0.49999E+08         0.14995E+05         0.00000E+00
    0.14995E+05        -0.49989E+08         0.00000E+00
    0.00000E+00         0.00000E+00        -0.50000E+08
 
   -0.49999E+08         0.15017E+05         0.00000E+00
    0.15017E+05        -0.49989E+08         0.00000E+00
    0.00000E+00         0.00000E+00        -0.50000E+08
 
   -0.49979E+08         0.24557E+03         0.00000E+00
    0.24557E+03        -0.50000E+08         0.00000E+00
    0.00000E+00         0.00000E+00        -0.50000E+08
 
   -0.49979E+08         0.74201E+03         0.00000E+00
    0.74201E+03        -0.50000E+08         0.00000E+00
    0.00000E+00         0.00000E+00        -0.50000E+08
 
   -0.49979E+08         0.12397E+04         0.00000E+00
    0.12397E+04        -0.50000E+08         0.00000E+00
    0.00000E+00         0.00000E+00        -0.50000E+08
 
   -0.49979E+08         0.17380E+04         0.00000E+00
    0.17380E+04        -0.50000E+08         0.00000E+00
    0.00000E+00         0.00000E+00        -0.50000E+08
 
   -0.49979E+08         0.22365E+04         0.00000E+00
    0.22365E+04        -0.50000E+08         0.00000E+00
    0.00000E+00         0.00000E+00        -0.50000E+08
 
   -0.49979E+08         0.27346E+04         0.00000E+00
    0.27346E+04        -0.50000E+08         0.00000E+00
    0.00000E+00         0.00000E+00        -0.50000E+08
 
   -0.49979E+08         0.32318E+04         0.00000E+00
    0.32318E+04        -0.50000E+08         0.00000E+00
    0.00000E+00         0.00000E+00        -0.50000E+08
 
   -0.49979E+08         0.37275E+04         0.00000E+00
    0.37275E+04        -0.50000E+08         0.00000E+00
    0.00000E+00         0.00000E+00        -0.50000E+08
 
   -0.49979E+08         0.42213E+04         0.00000E+00
    0.42213E+04        -0.50000E+08         0.00000E+00
    0.00000E+00         0.00000E+00        -0.50000E+08
 
   -0.49979E+08         0.47125E+04         0.00000E+00
    0.47125E+04        -0.49999E+08         0.00000E+00
    0.00000E+00         0.00000E+00        -0.50000E+08
 
   -0.49979E+08         0.52007E+04         0.00000E+00
    0.52007E+04        -0.49999E+08         0.00000E+00
    0.00000E+00         0.00000E+00        -0.50000E+08
 
   -0.49979E+08         0.56853E+04         0.00000E+00
    0.56853E+04        -0.49999E+08         0.00000E+00
    0.00000E+00         0.00000E+00        -0.50000E+08
 
   -0.49980E+08         0.61659E+04         0.00000E+00
    0.61659E+04        -0.49999E+08         0.00000E+00
    0.00000E+00         0.00000E+00        -0.50000E+08
 
   -0.49980E+08         0.66418E+04         0.00000E+00
    0.66418E+04        -0.49999E+08         0.00000E+00
    0.00000E+00         0.00000E+00        -0.50000E+08
 
   -0.49980E+08         0.71127E+04         0.00000E+00
    0.71127E+04        -0.49999E+08         0.00000E+00
    0.00000E+00         0.00000E+00        -0.50000E+08
 
   -0.49980E+08         0.75779E+04         0.00000E+00
    0.75779E+04        -0.49999E+08         0.00000E+00
    0.00000E+00         0.00000E+00        -0.50000E+08
 
   -0.49980E+08         0.80370E+04         0.00000E+00
    0.80370E+04        -0.49998E+08         0.00000E+00
    0.00000E+00         0.00000E+00        -0.50000E+08
 
   -0.49981E+08         0.84895E+04         0.00000E+00
    0.84895E+04        -0.49998E+08         0.00000E+00
    0.00000E+00         0.00000E+00        -0.50000E+08
 
   -0.49981E+08         0.89348E+04         0.00000E+00
    0.89348E+04        -0.49998E+08         0.00000E+00
    0.00000E+00         0.00000E+00        -0.50000E+08
 
   -0.49981E+08         0.93726E+04         0.00000E+00
    0.93726E+04        -0.49998E+08         0.00000E+00
    0.00000E+00         0.00000E+00        -0.50000E+08
 
   -0.49982E+08         0.98023E+04         0.00000E+00
    0.98023E+04        -0.49998E+08         0.00000E+00
    0.00000E+00         0.00000E+00        -0.50000E+08
 
   -0.49982E+08         0.10223E+05         0.00000E+00
    0.10223E+05        -0.49997E+08         0.00000E+00
    0.00000E+00         0.00000E+00        -0.50000E+08
 
   -0.49982E+08         0.10636E+05         0.00000E+00
    0.10636E+05        -0.49997E+08         0.00000E+00
    0.00000E+00         0.00000E+00        -0.50000E+08
 
   -0.49983E+08         0.11038E+05         0.00000E+00
    0.11038E+05        -0.49997E+08         0.00000E+00
    0.00000E+00         0.00000E+00        -0.50000E+08
 
   -0.49983E+08         0.11431E+05         0.00000E+00
    0.11431E+05        -0.49997E+08         0.00000E+00
    0.00000E+00         0.00000E+00        -0.50000E+08
 
   -0.49984E+08         0.11813E+05         0.00000E+00
    0.11813E+05        -0.49996E+08         0.00000E+00
    0.00000E+00         0.00000E+00        -0.50000E+08
 
   -0.49984E+08         0.12185E+05         0.00000E+00
    0.12185E+05        -0.49996E+08         0.00000E+00
    0.00000E+00         0.00000E+00        -0.50000E+08
 
   -0.49985E+08         0.12545E+05         0.00000E+00
    0.12545E+05        -0.49996E+08         0.00000E+00
    0.00000E+00         0.00000E+00        -0.50000E+08
 
   -0.49985E+08         0.12894E+05         0.00000E+00
    0.12894E+05        -0.49995E+08         0.00000E+00
    0.00000E+00         0.00000E+00        -0.50000E+08
 
   -0.49986E+08         0.13231E+05         0.00000E+00
    0.13231E+05        -0.49995E+08         0.00000E+00
    0.00000E+00         0.00000E+00        -0.50000E+08
 
   -0.49986E+08         0.13555E+05         0.00000E+00
    0.13555E+05        -0.49995E+08         0.00000E+00
    0.00000E+00         0.00000E+00        -0.50000E+08
 
   -0.49987E+08         0.13866E+05         0.00000E+00
    0.13866E+05        -0.49994E+08         0.00000E+00
    0.00000E+00         0.00000E+00        -0.50000E+08
 
   -0.49987E+08         0.14165E+05         0.00000E+00
    0.14165E+05        -0.49994E+08         0.00000E+00
    0.00000E+00         0.00000E+00        -0.50000E+08
 
   -0.49988E+08         0.14449E+05         0.00000E+00
    0.14449E+05        -0.49994E+08         0.00000E+00
    0.00000E+00         0.00000E+00        -0.50000E+08
 
   -0.49989E+08         0.14720E+05         0.00000E+00
    0.14720E+05        -0.49993E+08         0.00000E+00
    0.00000E+00         0.00000E+00        -0.50000E+08
 
   -0.49989E+08         0.14976E+05         0.00000E+00
    0.14976E+05        -0.49993E+08         0.00000E+00
    0.00000E+00         0.00000E+00        -0.50000E+08
 
   -0.49990E+08         0.15218E+05         0.00000E+00
    0.15218E+05        -0.49993E+08         0.00000E+00
    0.00000E+00         0.00000E+00        -0.50000E+08
 
   -0.49991E+08         0.15445E+05         0.00000E+00
    0.15445E+05        -0.49992E+08         0.00000E+00
    0.00000E+00         0.00000E+00        -0.50000E+08
 
   -0.49991E+08         0.15656E+05         0.00000E+00
    0.15656E+05        -0.49992E+08         0.00000E+00
    0.00000E+00         0.00000E+00        -0.50000E+08
 
   -0.49992E+08         0.15852E+05         0.00000E+00
    0.15852E+05        -0.49992E+08         0.00000E+00
    0.00000E+00         0.00000E+00        -0.50000E+08
 
   -0.49993E+08         0.16032E+05         0.00000E+00
    0.16032E+05        -0.49991E+08         0.00000E+00
    0.00000E+00         0.00000E+00        -0.50000E+08
 
   -0.49993E+08         0.16196E+05         0.00000E+00
    0.16196E+05        -0.49991E+08         0.00000E+00
    0.00000E+00         0.00000E+00        -0.50000E+08
 
   -0.49994E+08         0.16343E+05         0.00000E+00
    0.16343E+05        -0.49991E+08         0.00000E+00
    0.00000E+00         0.00000E+00        -0.50000E+08
 
   -0.49995E+08         0.16474E+05         0.00000E+00
    0.16474E+05        -0.49990E+08         0.00000E+00
    0.00000E+00         0.00000E+00        -0.50000E+08
 
   -0.49996E+08         0.16588E+05         0.00000E+00
    0.16588E+05        -0.49990E+08         0.00000E+00
    0.00000E+00         0.00000E+00        -0.50000E+08
 
   -0.49996E+08         0.16684E+05         0.00000E+00
    0.16684E+05        -0.49989E+08         0.00000E+00
    0.00000E+00         0.00000E+00        -0.50000E+08
 
   -0.49997E+08         0.16764E+05         0.00000E+00
    0.16764E+05        -0.49989E+08         0.00000E+00
    0.00000E+00         0.00000E+00        -0.50000E+08
 
   -0.49998E+08         0.16825E+05         0.00000E+00
    0.16825E+05        -0.49989E+08         0.00000E+00
    0.00000E+00         0.00000E+00        -0.50000E+08
 
   -0.49999E+08         0.16869E+05         0.00000E+00
    0.16869E+05        -0.49988E+08         0.00000E+00
    0.00000E+00         0.00000E+00        -0.50000E+08
 
   -0.49999E+08         0.16895E+05         0.00000E+00
    0.16895E+05        -0.49988E+08         0.00000E+00
    0.00000E+00         0.00000E+00        -0.50000E+08
 
   -0.49976E+08         0.27662E+03         0.00000E+00
    0.27662E+03        -0.50000E+08         0.00000E+00
    0.00000E+00         0.00000E+00        -0.50000E+08
 
   -0.49976E+08         0.83562E+03         0.00000E+00
    0.83562E+03        -0.50000E+08         0.00000E+00
    0.00000E+00         0.00000E+00        -0.50000E+08
 
   -0.49976E+08         0.13959E+04         0.00000E+00
    0.13959E+04        -0.50000E+08         0.00000E+00
    0.00000E+00         0.00000E+00        -0.50000E+08
 
   -0.49976E+08         0.19569E+04         0.00000E+00
    0.19569E+04        -0.50000E+08         0.00000E+00
    0.00000E+00         0.00000E+00        -0.50000E+08
 
   -0.49976E+08         0.25180E+04         0.00000E+00
    0.25180E+04        -0.50000E+08         0.00000E+00
    0.00000E+00         0.00000E+00        -0.50000E+08
 
   -0.49976E+08         0.30786E+04         0.00000E+00
    0.30786E+04        -0.50000E+08         0.00000E+00
    0.00000E+00         0.00000E+00        -0.50000E+08
 
   -0.49976E+08         0.36381E+04         0.00000E+00
    0.36381E+04        -0.50000E+08         0.00000E+00
    0.00000E+00         0.00000E+00        -0.50000E+08
 
   -0.49976E+08         0.41959E+04         0.00000E+00
    0.41959E+04        -0.50000E+08         0.00000E+00
    0.00000E+00         0.00000E+00        -0.50000E+08
 
   -0.49976E+08         0.47514E+04         0.00000E+00
    0.47514E+04        -0.50000E+08         0.00000E+00
    0.00000E+00         0.00000E+00        -0.50000E+08
 
   -0.49976E+08         0.53040E+04         0.00000E+00
    0.53040E+04        -0.49999E+08         0.00000E+00
    0.00000E+00         0.00000E+00        -0.50000E+08
 
   -0.49977E+08         0.58531E+04         0.00000E+00
    0.58531E+04        -0.49999E+08         0.00000E+00
    0.00000E+00         0.00000E+00        -0.50000E+08
 
   -0.49977E+08         0.63981E+04         0.00000E+00
    0.63981E+04        -0.49999E+08         0.00000E+00
    0.00000E+00         0.00000E+00        -0.50000E+08
 
   -0.49977E+08         0.69386E+04         0.00000E+00
    0.69386E+04        -0.49999E+08         0.00000E+00
    0.00000E+00         0.00000E+00        -0.50000E+08
 
   -0.49977E+08         0.74738E+04         0.00000E+00
    0.74738E+04        -0.49999E+08         0.00000E+00
    0.00000E+00         0.00000E+00        -0.50000E+08
 
   -0.49977E+08         0.80032E+04         0.00000E+00
    0.80032E+04        -0.49999E+08         0.00000E+00
    0.00000E+00         0.00000E+00        -0.50000E+08
 
   -0.49978E+08         0.85262E+04         0.00000E+00
    0.85262E+04        -0.49998E+08         0.00000E+00
    0.00000E+00         0.00000E+00        -0.50000E+08
 
   -0.49978E+08         0.90423E+04         0.00000E+00
    0.90423E+04        -0.49998E+08         0.00000E+00
    0.00000E+00         0.00000E+00        -0.50000E+08
 
   -0.49978E+08         0.95510E+04         0.00000E+00
    0.95510E+04        -0.49998E+08         0.00000E+00
    0.00000E+00         0.00000E+00        -0.50000E+08
 
   -0.49979E+08         0.10052E+05         0.00000E+00
    0.10052E+05        -0.49998E+08         0.00000E+00
    0.00000E+00         0.00000E+00        -0.50000E+08
 
   -0.49979E+08         0.10544E+05         0.00000E+00
    0.10544E+05        -0.49998E+08         0.00000E+00
    0.00000E+00         0.00000E+00        -0.50000E+08
 
   -0.49979E+08         0.11027E+05         0.00000E+00
    0.11027E+05        -0.49997E+08         0.00000E+00
    0.00000E+00         0.00000E+00        -0.50000E+08
 
   -0.49980E+08         0.11500E+05         0.00000E+00
    0.11500E+05        -0.49997E+08         0.00000E+00
    0.00000E+00         0.00000E+00        -0.50000E+08
 
   -0.49980E+08         0.11963E+05         0.00000E+00
    0.11963E+05        -0.49997E+08         0.00000E+00
    0.00000E+00         0.00000E+00        -0.50000E+08
 
   -0.49981E+08         0.12416E+05         0.00000E+00
    0.12416E+05        -0.49996E+08         0.00000E+00
    0.00000E+00         0.00000E+00        -0.50000E+08
 
   -0.49981E+08         0.12857E+05         0.00000E+00
    0.12857E+05        -0.49996E+08         0.00000E+00
    0.00000E+00         0.00000E+00        -0.50000E+08
 
   -0.49982E+08         0.13287E+05         0.00000E+00
    0.13287E+05        -0.49996E+08         0.00000E+00
    0.00000E+00         0.00000E+00        -0.50000E+08
 
   -0.49982E+08         0.13704E+05         0.00000E+00
    0.13704E+05        -0.49996E+08         0.00000E+00
    0.00000E+00         0.00000E+00        -0.50000E+08
 
   -0.49983E+08         0.14109E+05         0.00000E+00
    0.14109E+05        -0.49995E+08         0.00000E+00
    0.00000E+00         0.00000E+00        -0.50000E+08
 
   -0.49983E+08         0.14501E+05         0.00000E+00
    0.14501E+05        -0.49995E+08         0.00000E+00
    0.00000E+00         0.00000E+00        -0.50000E+08
 
   -0.49984E+08         0.14879E+05         0.00000E+00
    0.14879E+05        -0.49995E+08         0.00000E+00
    0.00000E+00         0.00000E+00        -0.50000E+08
 
   -0.49985E+08         0.15244E+05         0.00000E+00
    0.15244E+05        -0.49994E+08         0.00000E+00
    0.00000E+00         0.00000E+00        -0.50000E+08
 
   -0.49985E+08         0.15594E+05         0.00000E+00
    0.15594E+05        -0.49994E+08         0.00000E+00
    0.00000E+00         0.00000E+00        -0.50000E+08
 
   -0.49986E+08         0.15929E+05         0.00000E+00
    0.15929E+05        -0.49993E+08         0.00000E+00
    0.00000E+00         0.00000E+00        -0.50000E+08
 
   -0.49987E+08         0.16248E+05         0.00000E+00
    0.16248E+05        -0.49993E+08         0.00000E+00
    0.00000E+00         0.00000E+00        -0.50000E+08
 
   -0.49987E+08         0.16553E+05         0.00000E+00
    0.16553E+05        -0.49993E+08         0.00000E+00
    0.00000E+00         0.00000E+00        -0.50000E+08
 
   -0.49988E+08         0.16841E+05         0.00000E+00
    0.16841E+05        -0.49992E+08         0.00000E+00
    0.00000E+00         0.00000E+00        -0.50000E+08
 
   -0.49989E+08         0.17112E+05         0.00000E+00
    0.17112E+05        -0.49992E+08         0.00000E+00
    0.00000E+00         0.00000E+00        -0.50000E+08
 
   -0.49989E+08         0.17367E+05         0.00000E+00
    0.17367E+05        -0.49991E+08         0.00000E+00
    0.00000E+00         0.00000E+00        -0.50000E+08
 
   -0.49990E+08         0.17605E+05         0.00000E+00
    0.17605E+05        -0.49991E+08         0.00000E+00
    0.00000E+00         0.00000E+00        -0.50000E+08
 
   -0.49991E+08         0.17825E+05         0.00000E+00
    0.17825E+05        -0.49991E+08         0.00000E+00
    0.00000E+00         0.00000E+00        -0.50000E+08
 
   -0.49992E+08         0.18028E+05         0.00000E+00
    0.18028E+05        -0.49990E+08         0.00000E+00
    0.00000E+00         0.00000E+00        -0.50000E+08
 
   -0.49993E+08         0.18212E+05         0.00000E+00
    0.18212E+05        -0.49990E+08         0.00000E+00
    0.00000E+00         0.00000E+00        -0.50000E+08
 
   -0.49993E+08         0.18378E+05         0.00000E+00
    0.18378E+05        -0.49989E+08         0.00000E+00
    0.00000E+00         0.00000E+00        -0.50000E+08
 
   -0.49994E+08         0.18525E+05         0.00000E+00
    0.18525E+05        -0.49989E+08         0.00000E+00
    0.00000E+00         0.00000E+00        -0.50000E+08
 
   -0.49995E+08         0.18653E+05         0.00000E+00
    0.18653E+05        -0.49989E+08         0.00000E+00
    0.00000E+00         0.00000E+00        -0.50000E+08
 
   -0.49996E+08         0.18762E+05         0.00000E+00
    0.18762E+05        -0.49988E+08         0.00000E+00
    0.00000E+00         0.00000E+00        -0.50000E+08
 
   -0.49997E+08         0.18852E+05         0.00000E+00
    0.18852E+05        -0.49988E+08         0.00000E+00
    0.00000E+00         0.00000E+00        -0.50000E+08
 
   -0.49998E+08         0.18922E+05         0.00000E+00
    0.18922E+05        -0.49987E+08         0.00000E+00
    0.00000E+00         0.00000E+00        -0.50000E+08
 
   -0.49998E+08         0.18972E+05         0.00000E+00
    0.18972E+05        -0.49987E+08         0.00000E+00
    0.00000E+00         0.00000E+00        -0.50000E+08
 
   -0.49999E+08         0.19001E+05         0.00000E+00
    0.19001E+05        -0.49986E+08         0.00000E+00
    0.00000E+00         0.00000E+00        -0.50000E+08
 
   -0.49973E+08         0.31152E+03         0.00000E+00
    0.31152E+03        -0.50000E+08         0.00000E+00
    0.00000E+00         0.00000E+00        -0.50000E+08
 
   -0.49973E+08         0.94079E+03         0.00000E+00
    0.94079E+03        -0.50000E+08         0.00000E+00
    0.00000E+00         0.00000E+00        -0.50000E+08
 
   -0.49973E+08         0.15714E+04         0.00000E+00
    0.15714E+04        -0.50000E+08         0.00000E+00
    0.00000E+00         0.00000E+00        -0.50000E+08
 
   -0.49973E+08         0.22028E+04         0.00000E+00
    0.22028E+04        -0.50000E+08         0.00000E+00
    0.00000E+00         0.00000E+00        -0.50000E+08
 
   -0.49973E+08         0.28341E+04         0.00000E+00
    0.28341E+04        -0.50000E+08         0.00000E+00
    0.00000E+00         0.00000E+00        -0.50000E+08
 
   -0.49973E+08         0.34648E+04         0.00000E+00
    0.34648E+04        -0.50000E+08         0.00000E+00
    0.00000E+00         0.00000E+00        -0.50000E+08
 
   -0.49973E+08         0.40942E+04         0.00000E+00
    0.40942E+04        -0.50000E+08         0.00000E+00
    0.00000E+00         0.00000E+00        -0.50000E+08
 
   -0.49973E+08         0.47216E+04         0.00000E+00
    0.47216E+04        -0.50000E+08         0.00000E+00
    0.00000E+00         0.00000E+00        -0.50000E+08
 
   -0.49973E+08         0.53464E+04         0.00000E+00
    0.53464E+04        -0.49999E+08         0.00000E+00
    0.00000E+00         0.00000E+00        -0.50000E+08
 
   -0.49974E+08         0.59678E+04         0.00000E+00
    0.59678E+04        -0.49999E+08         0.00000E+00
    0.00000E+00         0.00000E+00        -0.50000E+08
 
   -0.49974E+08         0.65853E+04         0.00000E+00
    0.65853E+04        -0.49999E+08         0.00000E+00
    0.00000E+00         0.00000E+00        -0.50000E+08
 
   -0.49974E+08         0.71981E+04         0.00000E+00
    0.71981E+04        -0.49999E+08         0.00000E+00
    0.00000E+00         0.00000E+00        -0.50000E+08
 
   -0.49974E+08         0.78057E+04         0.00000E+00
    0.78057E+04        -0.49999E+08         0.00000E+00
    0.00000E+00         0.00000E+00        -0.50000E+08
 
   -0.49974E+08         0.84073E+04         0.00000E+00
    0.84073E+04        -0.49999E+08         0.00000E+00
    0.00000E+00         0.00000E+00        -0.50000E+08
 
   -0.49975E+08         0.90023E+04         0.00000E+00
    0.90023E+04        -0.49998E+08         0.00000E+00
    0.00000E+00         0.00000E+00        -0.50000E+08
 
   -0.49975E+08         0.95902E+04         0.00000E+00
    0.95902E+04        -0.49998E+08         0.00000E+00
    0.00000E+00         0.00000E+00        -0.50000E+08
 
   -0.49975E+08         0.10170E+05         0.00000E+00
    0.10170E+05        -0.49998E+08         0.00000E+00
    0.00000E+00         0.00000E+00        -0.50000E+08
 
   -0.49976E+08         0.10742E+05         0.00000E+00
    0.10742E+05        -0.49998E+08         0.00000E+00
    0.00000E+00         0.00000E+00        -0.50000E+08
 
   -0.49976E+08         0.11304E+05         0.00000E+00
    0.11304E+05        -0.49997E+08         0.00000E+00
    0.00000E+00         0.00000E+00        -0.50000E+08
 
   -0.49976E+08         0.11857E+05         0.00000E+00
    0.11857E+05        -0.49997E+08         0.00000E+00
    0.00000E+00         0.00000E+00        -0.50000E+08
 
   -0.49977E+08         0.12400E+05         0.00000E+00
    0.12400E+05        -0.49997E+08         0.00000E+00
    0.00000E+00         0.00000E+00        -0.50000E+08
 
   -0.49977E+08         0.12932E+05         0.00000E+00
    0.12932E+05        -0.49997E+08         0.00000E+00
    0.00000E+00         0.00000E+00        -0.50000E+08
 
   -0.49978E+08         0.13452E+05         0.00000E+00
    0.13452E+05        -0.49996E+08         0.00000E+00
    0.00000E+00         0.00000E+00        -0.50000E+08
 
   -0.49978E+08         0.13960E+05         0.00000E+00
    0.13960E+05        -0.49996E+08         0.00000E+00
    0.00000E+00         0.00000E+00        -0.50000E+08
 
   -0.49979E+08         0.14456E+05         0.00000E+00
    0.14456E+05        -0.49996E+08         0.00000E+00
    0.00000E+00         0.00000E+00        -0.50000E+08
 
   -0.49980E+08         0.14939E+05         0.00000E+00
    0.14939E+05        -0.49995E+08         0.00000E+00
    0.00000E+00         0.00000E+00        -0.50000E+08
 
   -0.49980E+08         0.15408E+05         0.00000E+00
    0.15408E+05        -0.49995E+08         0.00000E+00
    0.00000E+00         0.00000E+00        -0.50000E+08
 
   -0.49981E+08         0.15862E+05         0.00000E+00
    0.15862E+05        -0.49995E+08         0.00000E+00
    0.00000E+00         0.00000E+00        -0.50000E+08
 
   -0.49981E+08         0.16303E+05         0.00000E+00
    0.16303E+05        -0.49994E+08         0.00000E+00
    0.00000E+00         0.00000E+00        -0.50000E+08
 
   -0.49982E+08         0.16727E+05         0.00000E+00
    0.16727E+05        -0.49994E+08         0.00000E+00
    0.00000E+00         0.00000E+00        -0.50000E+08
 
   -0.49983E+08         0.17137E+05         0.00000E+00
    0.17137E+05        -0.49993E+08         0.00000E+00
    0.00000E+00         0.00000E+00        -0.50000E+08
 
   -0.49983E+08         0.17530E+05         0.00000E+00
    0.17530E+05        -0.49993E+08         0.00000E+00
    0.00000E+00         0.00000E+00        -0.50000E+08
 
   -0.49984E+08         0.17906E+05         0.00000E+00
    0.17906E+05        -0.49993E+08         0.00000E+00
    0.00000E+00         0.00000E+00        -0.50000E+08
 
   -0.49985E+08         0.18265E+05         0.00000E+00
    0.18265E+05        -0.49992E+08         0.00000E+00
    0.00000E+00         0.00000E+00        -0.50000E+08
 
   -0.49986E+08         0.18607E+05         0.00000E+00
    0.18607E+05        -0.49992E+08         0.00000E+00
    0.00000E+00         0.00000E+00        -0.50000E+08
 
   -0.49986E+08         0.18931E+05         0.00000E+00
    0.18931E+05        -0.49991E+08         0.00000E+00
    0.00000E+00         0.00000E+00        -0.50000E+08
 
   -0.49987E+08         0.19236E+05         0.00000E+00
    0.19236E+05        -0.49991E+08         0.00000E+00
    0.00000E+00         0.00000E+00        -0.50000E+08
 
   -0.49988E+08         0.19522E+05         0.00000E+00
    0.19522E+05        -0.49990E+08         0.00000E+00
    0.00000E+00         0.00000E+00        -0.50000E+08
 
   -0.49989E+08         0.19789E+05         0.00000E+00
    0.19789E+05        -0.49990E+08         0.00000E+00
    0.00000E+00         0.00000E+00        -0.50000E+08
 
   -0.49990E+08         0.20037E+05         0.00000E+00
    0.20037E+05        -0.49990E+08         0.00000E+00
    0.00000E+00         0.00000E+00        -0.50000E+08
 
   -0.49991E+08         0.20265E+05         0.00000E+00
    0.20265E+05        -0.49989E+08         0.00000E+00
    0.00000E+00         0.00000E+00        -0.50000E+08
 
   -0.49992E+08         0.20472E+05         0.00000E+00
    0.20472E+05        -0.49989E+08         0.00000E+00
    0.00000E+00         0.00000E+00        -0.50000E+08
 
   -0.49993E+08         0.20659E+05         0.00000E+00
    0.20659E+05        -0.49988E+08         0.00000E+00
    0.00000E+00         0.00000E+00        -0.50000E+08
 
   -0.49993E+08         0.20824E+05         0.00000E+00
    0.20824E+05        -0.49988E+08         0.00000E+00
    0.00000E+00         0.00000E+00        -0.50000E+08
 
   -0.49994E+08         0.20969E+05         0.00000E+00
    0.20969E+05        -0.49987E+08         0.00000E+00
    0.00000E+00         0.00000E+00        -0.50000E+08
 
   -0.49995E+08         0.21092E+05         0.00000E+00
    0.21092E+05        -0.49987E+08         0.00000E+00
    0.00000E+00         0.00000E+00        -0.50000E+08
 
   -0.49996E+08         0.21193E+05         0.00000E+00
    0.21193E+05        -0.49986E+08         0.00000E+00
    0.00000E+00         0.00000E+00        -0.50000E+08
 
   -0.49997E+08         0.21272E+05         0.00000E+00
    0.21272E+05        -0.49986E+08         0.00000E+00
    0.00000E+00         0.00000E+00        -0.50000E+08
 
   -0.49998E+08         0.21329E+05         0.00000E+00
    0.21329E+05        -0.49985E+08         0.00000E+00
    0.00000E+00         0.00000E+00        -0.50000E+08
 
   -0.49999E+08         0.21363E+05         0.00000E+00
    0.21363E+05        -0.49985E+08         0.00000E+00
    0.00000E+00         0.00000E+00        -0.50000E+08
 
   -0.49970E+08         0.35075E+03         0.00000E+00
    0.35075E+03        -0.50000E+08         0.00000E+00
    0.00000E+00         0.00000E+00        -0.50000E+08
 
   -0.49970E+08         0.10589E+04         0.00000E+00
    0.10589E+04        -0.50000E+08         0.00000E+00
    0.00000E+00         0.00000E+00        -0.50000E+08
 
   -0.49970E+08         0.17686E+04         0.00000E+00
    0.17686E+04        -0.50000E+08         0.00000E+00
    0.00000E+00         0.00000E+00        -0.50000E+08
 
   -0.49970E+08         0.24789E+04         0.00000E+00
    0.24789E+04        -0.50000E+08         0.00000E+00
    0.00000E+00         0.00000E+00        -0.50000E+08
 
   -0.49970E+08         0.31891E+04         0.00000E+00
    0.31891E+04        -0.50000E+08         0.00000E+00
    0.00000E+00         0.00000E+00        -0.50000E+08
 
   -0.49970E+08         0.38986E+04         0.00000E+00
    0.38986E+04        -0.50000E+08         0.00000E+00
    0.00000E+00         0.00000E+00        -0.50000E+08
 
   -0.49970E+08         0.46064E+04         0.00000E+00
    0.46064E+04        -0.50000E+08         0.00000E+00
    0.00000E+00         0.00000E+00        -0.50000E+08
 
   -0.49970E+08         0.53119E+04         0.00000E+00
    0.53119E+04        -0.50000E+08         0.00000E+00
    0.00000E+00         0.00000E+00        -0.50000E+08
 
   -0.49970E+08         0.60143E+04         0.00000E+00
    0.60143E+04        -0.49999E+08         0.00000E+00
    0.00000E+00         0.00000E+00        -0.50000E+08
 
   -0.49970E+08         0.67130E+04         0.00000E+00
    0.67130E+04        -0.49999E+08         0.00000E+00
    0.00000E+00         0.00000E+00        -0.50000E+08
 
   -0.49970E+08         0.74070E+04         0.00000E+00
    0.74070E+04        -0.49999E+08         0.00000E+00
    0.00000E+00         0.00000E+00        -0.50000E+08
 
   -0.49971E+08         0.80958E+04         0.00000E+00
    0.80958E+04        -0.49999E+08         0.00000E+00
    0.00000E+00         0.00000E+00        -0.50000E+08
 
   -0.49971E+08         0.87786E+04         0.00000E+00
    0.87786E+04        -0.49999E+08         0.00000E+00
    0.00000E+00         0.00000E+00        -0.50000E+08
 
   -0.49971E+08         0.94547E+04         0.00000E+00
    0.94547E+04        -0.49998E+08         0.00000E+00
    0.00000E+00         0.00000E+00        -0.50000E+08
 
   -0.49972E+08         0.10123E+05         0.00000E+00
    0.10123E+05        -0.49998E+08         0.00000E+00
    0.00000E+00         0.00000E+00        -0.50000E+08
 
   -0.49972E+08         0.10784E+05         0.00000E+00
    0.10784E+05        -0.49998E+08         0.00000E+00
    0.00000E+00         0.00000E+00        -0.50000E+08
 
   -0.49972E+08         0.11435E+05         0.00000E+00
    0.11435E+05        -0.49998E+08         0.00000E+00
    0.00000E+00         0.00000E+00        -0.50000E+08
 
   -0.49973E+08         0.12077E+05         0.00000E+00
    0.12077E+05        -0.49997E+08         0.00000E+00
    0.00000E+00         0.00000E+00        -0.50000E+08
 
   -0.49973E+08         0.12709E+05         0.00000E+00
    0.12709E+05        -0.49997E+08         0.00000E+00
    0.00000E+00         0.00000E+00        -0.50000E+08
 
   -0.49974E+08         0.13330E+05         0.00000E+00
    0.13330E+05        -0.49997E+08         0.00000E+00
    0.00000E+00         0.00000E+00        -0.50000E+08
 
   -0.49974E+08         0.13940E+05         0.00000E+00
    0.13940E+05        -0.49997E+08         0.00000E+00
    0.00000E+00         0.00000E+00        -0.50000E+08
 
   -0.49975E+08         0.14537E+05         0.00000E+00
    0.14537E+05        -0.49996E+08         0.00000E+00
    0.00000E+00         0.00000E+00        -0.50000E+08
 
   -0.49975E+08         0.15121E+05         0.00000E+00
    0.15121E+05        -0.49996E+08         0.00000E+00
    0.00000E+00         0.00000E+00        -0.50000E+08
 
   -0.49976E+08         0.15692E+05         0.00000E+00
    0.15692E+05        -0.49996E+08         0.00000E+00
    0.00000E+00         0.00000E+00        -0.50000E+08
 
   -0.49976E+08         0.16249E+05         0.00000E+00
    0.16249E+05        -0.49995E+08         0.00000E+00
    0.00000E+00         0.00000E+00        -0.50000E+08
 
   -0.49977E+08         0.16791E+05         0.00000E+00
    0.16791E+05        -0.49995E+08         0.00000E+00
    0.00000E+00         0.00000E+00        -0.50000E+08
 
   -0.49978E+08         0.17317E+05         0.00000E+00
    0.17317E+05        -0.49994E+08         0.00000E+00
    0.00000E+00         0.00000E+00        -0.50000E+08
 
   -0.49978E+08         0.17828E+05         0.00000E+00
    0.17828E+05        -0.49994E+08         0.00000E+00
    0.00000E+00         0.00000E+00        -0.50000E+08
 
   -0.49979E+08         0.18322E+05         0.00000E+00
    0.18322E+05        -0.49994E+08         0.00000E+00
    0.00000E+00         0.00000E+00        -0.50000E+08
 
   -0.49980E+08         0.18799E+05         0.00000E+00
    0.18799E+05        -0.49993E+08         0.00000E+00
    0.00000E+00         0.00000E+00        -0.50000E+08
 
   -0.49981E+08         0.19259E+05         0.00000E+00
    0.19259E+05        -0.49993E+08         0.00000E+00
    0.00000E+00         0.00000E+00        -0.50000E+08
 
   -0.49981E+08         0.19700E+05         0.00000E+00
    0.19700E+05        -0.49992E+08         0.00000E+00
    0.00000E+00         0.00000E+00        -0.50000E+08
 
   -0.49982E+08         0.20122E+05         0.00000E+00
    0.20122E+05        -0.49992E+08         0.00000E+00
    0.00000E+00         0.00000E+00        -0.50000E+08
 
   -0.49983E+08         0.20526E+05         0.00000E+00
    0.20526E+05        -0.49991E+08         0.00000E+00
    0.00000E+00         0.00000E+00        -0.50000E+08
 
   -0.49984E+08         0.20909E+05         0.00000E+00
    0.20909E+05        -0.49991E+08         0.00000E+00
    0.00000E+00         0.00000E+00        -0.50000E+08
 
   -0.49985E+08         0.21273E+05         0.00000E+00
    0.21273E+05        -0.49990E+08         0.00000E+00
    0.00000E+00         0.00000E+00        -0.50000E+08
 
   -0.49986E+08         0.21616E+05         0.00000E+00
    0.21616E+05        -0.49990E+08         0.00000E+00
    0.00000E+00         0.00000E+00        -0.50000E+08
 
   -0.49987E+08         0.21937E+05         0.00000E+00
    0.21937E+05        -0.49989E+08         0.00000E+00
    0.00000E+00         0.00000E+00        -0.50000E+08
 
   -0.49988E+08         0.22238E+05         0.00000E+00
    0.22238E+05        -0.49989E+08         0.00000E+00
    0.00000E+00         0.00000E+00        -0.50000E+08
 
   -0.49989E+08         0.22516E+05         0.00000E+00
    0.22516E+05        -0.49988E+08         0.00000E+00
    0.00000E+00         0.00000E+00        -0.50000E+08
 
   -0.49990E+08         0.22772E+05         0.00000E+00
    0.22772E+05        -0.49988E+08         0.00000E+00
    0.00000E+00         0.00000E+00        -0.50000E+08
 
   -0.49991E+08         0.23005E+05         0.00000E+00
    0.23005E+05        -0.49987E+08         0.00000E+00
    0.00000E+00         0.00000E+00        -0.50000E+08
 
   -0.49992E+08         0.23215E+05         0.00000E+00
    0.23215E+05        -0.49987E+08         0.00000E+00
    0.00000E+00         0.00000E+00        -0.50000E+08
 
   -0.49993E+08         0.23401E+05         0.00000E+00
    0.23401E+05        -0.49986E+08         0.00000E+00
    0.00000E+00         0.00000E+00        -0.50000E+08
 
   -0.49994E+08         0.23564E+05         0.00000E+00
    0.23564E+05        -0.49986E+08         0.00000E+00
    0.00000E+00         0.00000E+00        -0.50000E+08
 
   -0.49995E+08         0.23703E+05         0.00000E+00
    0.23703E+05        -0.49985E+08         0.00000E+00
    0.00000E+00         0.00000E+00        -0.50000E+08
 
   -0.49996E+08         0.23817E+05         0.00000E+00
    0.23817E+05        -0.49984E+08         0.00000E+00
    0.00000E+00         0.00000E+00        -0.50000E+08
 
   -0.49997E+08         0.23906E+05         0.00000E+00
    0.23906E+05        -0.49984E+08         0.00000E+00
    0.00000E+00         0.00000E+00        -0.50000E+08
 
   -0.49998E+08         0.23971E+05         0.00000E+00
    0.23971E+05        -0.49983E+08         0.00000E+00
    0.00000E+00         0.00000E+00        -0.50000E+08
 
   -0.49999E+08         0.24010E+05         0.00000E+00
    0.24010E+05        -0.49983E+08         0.00000E+00
    0.00000E+00         0.00000E+00        -0.50000E+08
 
   -0.49966E+08         0.39484E+03         0.00000E+00
    0.39484E+03        -0.50000E+08         0.00000E+00
    0.00000E+00         0.00000E+00        -0.50000E+08
 
   -0.49966E+08         0.11917E+04         0.00000E+00
    0.11917E+04        -0.50000E+08         0.00000E+00
    0.00000E+00         0.00000E+00        -0.50000E+08
 
   -0.49966E+08         0.19900E+04         0.00000E+00
    0.19900E+04        -0.50000E+08         0.00000E+00
    0.00000E+00         0.00000E+00        -0.50000E+08
 
   -0.49966E+08         0.27890E+04         0.00000E+00
    0.27890E+04        -0.50000E+08         0.00000E+00
    0.00000E+00         0.00000E+00        -0.50000E+08
 
   -0.49966E+08         0.35878E+04         0.00000E+00
    0.35878E+04        -0.50000E+08         0.00000E+00
    0.00000E+00         0.00000E+00        -0.50000E+08
 
   -0.49966E+08         0.43855E+04         0.00000E+00
    0.43855E+04        -0.50000E+08         0.00000E+00
    0.00000E+00         0.00000E+00        -0.50000E+08
 
   -0.49966E+08         0.51813E+04         0.00000E+00
    0.51813E+04        -0.50000E+08         0.00000E+00
    0.00000E+00         0.00000E+00        -0.50000E+08
 
   -0.49966E+08         0.59745E+04         0.00000E+00
    0.59745E+04        -0.49999E+08         0.00000E+00
    0.00000E+00         0.00000E+00        -0.50000E+08
 
   -0.49966E+08         0.67640E+04         0.00000E+00
    0.67640E+04        -0.49999E+08         0.00000E+00
    0.00000E+00         0.00000E+00        -0.50000E+08
 
   -0.49967E+08         0.75492E+04         0.00000E+00
    0.75492E+04        -0.49999E+08         0.00000E+00
    0.00000E+00         0.00000E+00        -0.50000E+08
 
   -0.49967E+08         0.83292E+04         0.00000E+00
    0.83292E+04        -0.49999E+08         0.00000E+00
    0.00000E+00         0.00000E+00        -0.50000E+08
 
   -0.49967E+08         0.91031E+04         0.00000E+00
    0.91031E+04        -0.49999E+08         0.00000E+00
    0.00000E+00         0.00000E+00        -0.50000E+08
 
   -0.49967E+08         0.98702E+04         0.00000E+00
    0.98702E+04        -0.49999E+08         0.00000E+00
    0.00000E+00         0.00000E+00        -0.50000E+08
 
   -0.49968E+08         0.10630E+05         0.00000E+00
    0.10630E+05        -0.49998E+08         0.00000E+00
    0.00000E+00         0.00000E+00        -0.50000E+08
 
   -0.49968E+08         0.11381E+05         0.00000E+00
    0.11381E+05        -0.49998E+08         0.00000E+00
    0.00000E+00         0.00000E+00        -0.50000E+08
 
   -0.49968E+08         0.12123E+05         0.00000E+00
    0.12123E+05        -0.49998E+08         0.00000E+00
    0.00000E+00         0.00000E+00        -0.50000E+08
 
   -0.49969E+08         0.12854E+05         0.00000E+00
    0.12854E+05        -0.49997E+08         0.00000E+00
    0.00000E+00         0.00000E+00        -0.50000E+08
 
   -0.49969E+08         0.13575E+05         0.00000E+00
    0.13575E+05        -0.49997E+08         0.00000E+00
    0.00000E+00         0.00000E+00        -0.50000E+08
 
   -0.49970E+08         0.14285E+05         0.00000E+00
    0.14285E+05        -0.49997E+08         0.00000E+00
    0.00000E+00         0.00000E+00        -0.50000E+08
 
   -0.49970E+08         0.14982E+05         0.00000E+00
    0.14982E+05        -0.49997E+08         0.00000E+00
    0.00000E+00         0.00000E+00        -0.50000E+08
 
   -0.49971E+08         0.15666E+05         0.00000E+00
    0.15666E+05        -0.49996E+08         0.00000E+00
    0.00000E+00         0.00000E+00        -0.50000E+08
 
   -0.49971E+08         0.16337E+05         0.00000E+00
    0.16337E+05        -0.49996E+08         0.00000E+00
    0.00000E+00         0.00000E+00        -0.50000E+08
 
   -0.49972E+08         0.16993E+05         0.00000E+00
    0.16993E+05        -0.49995E+08         0.00000E+00
    0.00000E+00         0.00000E+00        -0.50000E+08
 
   -0.49973E+08         0.17633E+05         0.00000E+00
    0.17633E+05        -0.49995E+08         0.00000E+00
    0.00000E+00         0.00000E+00        -0.50000E+08
 
   -0.49973E+08         0.18258E+05         0.00000E+00
    0.18258E+05        -0.49995E+08         0.00000E+00
    0.00000E+00         0.00000E+00        -0.50000E+08
 
   -0.49974E+08         0.18867E+05         0.00000E+00
    0.18867E+05        -0.49994E+08         0.00000E+00
    0.00000E+00         0.00000E+00        -0.50000E+08
 
   -0.49975E+08         0.19458E+05         0.00000E+00
    0.19458E+05        -0.49994E+08         0.00000E+00
    0.00000E+00         0.00000E+00        -0.50000E+08
 
   -0.49976E+08         0.20031E+05         0.00000E+00
    0.20031E+05        -0.49993E+08         0.00000E+00
    0.00000E+00         0.00000E+00        -0.50000E+08
 
   -0.49977E+08         0.20585E+05         0.00000E+00
    0.20585E+05        -0.49993E+08         0.00000E+00
    0.00000E+00         0.00000E+00        -0.50000E+08
 
   -0.49977E+08         0.21121E+05         0.00000E+00
    0.21121E+05        -0.49992E+08         0.00000E+00
    0.00000E+00         0.00000E+00        -0.50000E+08
 
   -0.49978E+08         0.21637E+05         0.00000E+00
    0.21637E+05        -0.49992E+08         0.00000E+00
    0.00000E+00         0.00000E+00        -0.50000E+08
 
   -0.49979E+08         0.22132E+05         0.00000E+00
    0.22132E+05        -0.49991E+08         0.00000E+00
    0.00000E+00         0.00000E+00        -0.50000E+08
 
   -0.49980E+08         0.22606E+05         0.00000E+00
    0.22606E+05        -0.49991E+08         0.00000E+00
    0.00000E+00         0.00000E+00        -0.50000E+08
 
   -0.49981E+08         0.23059E+05         0.00000E+00
    0.23059E+05        -0.49990E+08         0.00000E+00
    0.00000E+00         0.00000E+00        -0.50000E+08
 
   -0.49982E+08         0.23490E+05         0.00000E+00
    0.23490E+05        -0.49990E+08         0.00000E+00
    0.00000E+00         0.00000E+00        -0.50000E+08
 
   -0.49983E+08         0.23898E+05         0.00000E+00
    0.23898E+05        -0.49989E+08         0.00000E+00
    0.00000E+00         0.00000E+00        -0.50000E+08
 
   -0.49984E+08         0.24283E+05         0.00000E+00
    0.24283E+05        -0.49989E+08         0.00000E+00
    0.00000E+00         0.00000E+00        -0.50000E+08
 
   -0.49985E+08         0.24644E+05         0.00000E+00
    0.24644E+05        -0.49988E+08         0.00000E+00
    0.00000E+00         0.00000E+00        -0.50000E+08
 
   -0.49986E+08         0.24981E+05         0.00000E+00
    0.24981E+05        -0.49987E+08         0.00000E+00
    0.00000E+00         0.00000E+00        -0.50000E+08
 
   -0.49987E+08         0.25294E+05         0.00000E+00
    0.25294E+05        -0.49987E+08         0.00000E+00
    0.00000E+00         0.00000E+00        -0.50000E+08
 
   -0.49988E+08         0.25581E+05         0.00000E+00
    0.25581E+05        -0.49986E+08         0.00000E+00
    0.00000E+00         0.00000E+00        -0.50000E+08
 
   -0.49989E+08         0.25843E+05         0.00000E+00
    0.25843E+05        -0.49986E+08         0.00000E+00
    0.00000E+00         0.00000E+00        -0.50000E+08
 
   -0.49991E+08         0.26080E+05         0.00000E+00
    0.26080E+05        -0.49985E+08         0.00000E+00
    0.00000E+00         0.00000E+00        -0.50000E+08
 
   -0.49992E+08         0.26289E+05         0.00000E+00
    0.26289E+05        -0.49984E+08         0.00000E+00
    0.00000E+00         0.00000E+00        -0.50000E+08
 
   -0.49993E+08         0.26473E+05         0.00000E+00
    0.26473E+05        -0.49984E+08         0.00000E+00
    0.00000E+00         0.00000E+00        -0.50000E+08
 
   -0.49994E+08         0.26629E+05         0.00000E+00
    0.26629E+05        -0.49983E+08         0.00000E+00
    0.00000E+00         0.00000E+00        -0.50000E+08
 
   -0.49995E+08         0.26758E+05         0.00000E+00
    0.26758E+05        -0.49983E+08         0.00000E+00
    0.00000E+00         0.00000E+00        -0.50000E+08
 
   -0.49996E+08         0.26859E+05         0.00000E+00
    0.26859E+05        -0.49982E+08         0.00000E+00
    0.00000E+00         0.00000E+00        -0.50000E+08
 
   -0.49998E+08         0.26932E+05         0.00000E+00
    0.26932E+05        -0.49981E+08         0.00000E+00
    0.00000E+00         0.00000E+00        -0.50000E+08
 
   -0.49999E+08         0.26977E+05         0.00000E+00
    0.26977E+05        -0.49981E+08         0.00000E+00
    0.00000E+00         0.00000E+00        -0.50000E+08
 
   -0.49962E+08         0.44439E+03         0.00000E+00
    0.44439E+03        -0.50000E+08         0.00000E+00
    0.00000E+00         0.00000E+00        -0.49999E+08
 
   -0.49962E+08         0.13408E+04         0.00000E+00
    0.13408E+04        -0.50000E+08         0.00000E+00
    0.00000E+00         0.00000E+00        -0.49999E+08
 
   -0.49962E+08         0.22387E+04         0.00000E+00
    0.22387E+04        -0.50000E+08         0.00000E+00
    0.00000E+00         0.00000E+00        -0.49999E+08
 
   -0.49962E+08         0.31372E+04         0.00000E+00
    0.31372E+04        -0.50000E+08         0.00000E+00
    0.00000E+00         0.00000E+00        -0.49999E+08
 
   -0.49962E+08         0.40353E+04         0.00000E+00
    0.40353E+04        -0.50000E+08         0.00000E+00
    0.00000E+00         0.00000E+00        -0.49999E+08
 
   -0.49962E+08         0.49321E+04         0.00000E+00
    0.49321E+04        -0.50000E+08         0.00000E+00
    0.00000E+00         0.00000E+00        -0.49999E+08
 
   -0.49962E+08         0.58267E+04         0.00000E+00
    0.58267E+04        -0.50000E+08         0.00000E+00
    0.00000E+00         0.00000E+00        -0.49999E+08
 
   -0.49962E+08         0.67181E+04         0.00000E+00
    0.67181E+04        -0.49999E+08         0.00000E+00
    0.00000E+00         0.00000E+00        -0.49999E+08
 
   -0.49962E+08         0.76053E+04         0.00000E+00
    0.76053E+04        -0.49999E+08         0.00000E+00
    0.00000E+00         0.00000E+00        -0.49999E+08
 
   -0.49962E+08         0.84875E+04         0.00000E+00
    0.84875E+04        -0.49999E+08         0.00000E+00
    0.00000E+00         0.00000E+00        -0.49999E+08
 
   -0.49963E+08         0.93638E+04         0.00000E+00
    0.93638E+04        -0.49999E+08         0.00000E+00
    0.00000E+00         0.00000E+00        -0.49999E+08
 
   -0.49963E+08         0.10233E+05         0.00000E+00
    0.10233E+05        -0.49999E+08         0.00000E+00
    0.00000E+00         0.00000E+00        -0.49999E+08
 
   -0.49963E+08         0.11095E+05         0.00000E+00
    0.11095E+05        -0.49998E+08         0.00000E+00
    0.00000E+00         0.00000E+00        -0.49999E+08
 
   -0.49964E+08         0.11948E+05         0.00000E+00
    0.11948E+05        -0.49998E+08         0.00000E+00
    0.00000E+00         0.00000E+00        -0.49999E+08
 
   -0.49964E+08         0.12791E+05         0.00000E+00
    0.12791E+05        -0.49998E+08         0.00000E+00
    0.00000E+00         0.00000E+00        -0.49999E+08
 
   -0.49964E+08         0.13624E+05         0.00000E+00
    0.13624E+05        -0.49997E+08         0.00000E+00
    0.00000E+00         0.00000E+00        -0.49999E+08
 
   -0.49965E+08         0.14446E+05         0.00000E+00
    0.14446E+05        -0.49997E+08         0.00000E+00
    0.00000E+00         0.00000E+00        -0.49999E+08
 
   -0.49965E+08         0.15255E+05         0.00000E+00
    0.15255E+05        -0.49997E+08         0.00000E+00
    0.00000E+00         0.00000E+00        -0.49999E+08
 
   -0.49966E+08         0.16051E+05         0.00000E+00
    0.16051E+05        -0.49996E+08         0.00000E+00
    0.00000E+00         0.00000E+00        -0.49999E+08
 
   -0.49967E+08         0.16834E+05         0.00000E+00
    0.16834E+05        -0.49996E+08         0.00000E+00
    0.00000E+00         0.00000E+00        -0.49999E+08
 
   -0.49967E+08         0.17602E+05         0.00000E+00
    0.17602E+05        -0.49996E+08         0.00000E+00
    0.00000E+00         0.00000E+00        -0.49999E+08
 
   -0.49968E+08         0.18354E+05         0.00000E+00
    0.18354E+05        -0.49995E+08         0.00000E+00
    0.00000E+00         0.00000E+00        -0.49999E+08
 
   -0.49969E+08         0.19090E+05         0.00000E+00
    0.19090E+05        -0.49995E+08         0.00000E+00
    0.00000E+00         0.00000E+00        -0.49999E+08
 
   -0.49969E+08         0.19809E+05         0.00000E+00
    0.19809E+05        -0.49994E+08         0.00000E+00
    0.00000E+00         0.00000E+00        -0.49999E+08
 
   -0.49970E+08         0.20511E+05         0.00000E+00
    0.20511E+05        -0.49994E+08         0.00000E+00
    0.00000E+00         0.00000E+00        -0.49999E+08
 
   -0.49971E+08         0.21193E+05         0.00000E+00
    0.21193E+05        -0.49993E+08         0.00000E+00
    0.00000E+00         0.00000E+00        -0.49999E+08
 
   -0.49972E+08         0.21856E+05         0.00000E+00
    0.21856E+05        -0.49993E+08         0.00000E+00
    0.00000E+00         0.00000E+00        -0.49999E+08
 
   -0.49973E+08         0.22499E+05         0.00000E+00
    0.22499E+05        -0.49992E+08         0.00000E+00
    0.00000E+00         0.00000E+00        -0.49999E+08
 
   -0.49974E+08         0.23122E+05         0.00000E+00
    0.23122E+05        -0.49992E+08         0.00000E+00
    0.00000E+00         0.00000E+00        -0.49999E+08
 
   -0.49975E+08         0.23722E+05         0.00000E+00
    0.23722E+05        -0.49991E+08         0.00000E+00
    0.00000E+00         0.00000E+00        -0.49999E+08
 
   -0.49976E+08         0.24301E+05         0.00000E+00
    0.24301E+05        -0.49991E+08         0.00000E+00
    0.00000E+00         0.00000E+00        -0.49999E+08
 
   -0.49977E+08         0.24857E+05         0.00000E+00
    0.24857E+05        -0.49990E+08         0.00000E+00
    0.00000E+00         0.00000E+00        -0.49999E+08
 
   -0.49978E+08         0.25389E+05         0.00000E+00
    0.25389E+05        -0.49990E+08         0.00000E+00
    0.00000E+00         0.00000E+00        -0.49999E+08
 
   -0.49979E+08         0.25897E+05         0.00000E+00
    0.25897E+05        -0.49989E+08         0.00000E+00
    0.00000E+00         0.00000E+00        -0.49999E+08
 
   -0.49980E+08         0.26380E+05         0.00000E+00
    0.26380E+05        -0.49988E+08         0.00000E+00
    0.00000E+00         0.00000E+00        -0.49999E+08
 
   -0.49981E+08         0.26838E+05         0.00000E+00
    0.26838E+05        -0.49988E+08         0.00000E+00
    0.00000E+00         0.00000E+00        -0.49999E+08
 
   -0.49982E+08         0.27271E+05         0.00000E+00
    0.27271E+05        -0.49987E+08         0.00000E+00
    0.00000E+00         0.00000E+00        -0.49999E+08
 
   -0.49983E+08         0.27676E+05         0.00000E+00
    0.27676E+05        -0.49987E+08         0.00000E+00
    0.00000E+00         0.00000E+00        -0.49999E+08
 
   -0.49984E+08         0.28055E+05         0.00000E+00
    0.28055E+05        -0.49986E+08         0.00000E+00
    0.00000E+00         0.00000E+00        -0.49999E+08
 
   -0.49986E+08         0.28406E+05         0.00000E+00
    0.28406E+05        -0.49985E+08         0.00000E+00
    0.00000E+00         0.00000E+00        -0.49999E+08
 
   -0.49987E+08         0.28729E+05         0.00000E+00
    0.28729E+05        -0.49985E+08         0.00000E+00
    0.00000E+00         0.00000E+00        -0.49999E+08
 
   -0.49988E+08         0.29023E+05         0.00000E+00
    0.29023E+05        -0.49984E+08         0.00000E+00
    0.00000E+00         0.00000E+00        -0.49999E+08
 
   -0.49989E+08         0.29289E+05         0.00000E+00
    0.29289E+05        -0.49983E+08         0.00000E+00
    0.00000E+00         0.00000E+00        -0.49999E+08
 
   -0.49991E+08         0.29525E+05         0.00000E+00
    0.29525E+05        -0.49983E+08         0.00000E+00
    0.00000E+00         0.00000E+00        -0.49999E+08
 
   -0.49992E+08         0.29732E+05         0.00000E+00
    0.29732E+05        -0.49982E+08         0.00000E+00
    0.00000E+00         0.00000E+00        -0.49999E+08
 
   -0.49993E+08         0.29908E+05         0.00000E+00
    0.29908E+05        -0.49981E+08         0.00000E+00
    0.00000E+00         0.00000E+00        -0.49999E+08
 
   -0.49995E+08         0.30053E+05         0.00000E+00
    0.30053E+05        -0.49980E+08         0.00000E+00
    0.00000E+00         0.00000E+00        -0.49999E+08
 
   -0.49996E+08         0.30168E+05         0.00000E+00
    0.30168E+05        -0.49980E+08         0.00000E+00
    0.00000E+00         0.00000E+00        -0.49999E+08
 
   -0.49997E+08         0.30251E+05         0.00000E+00
    0.30251E+05        -0.49979E+08         0.00000E+00
    0.00000E+00         0.00000E+00        -0.49999E+08
 
   -0.49999E+08         0.30303E+05         0.00000E+00
    0.30303E+05        -0.49978E+08         0.00000E+00
    0.00000E+00         0.00000E+00        -0.49999E+08
 
   -0.49957E+08         0.50007E+03         0.00000E+00
    0.50007E+03        -0.50000E+08         0.00000E+00
    0.00000E+00         0.00000E+00        -0.49999E+08
 
   -0.49957E+08         0.15083E+04         0.00000E+00
    0.15083E+04        -0.50000E+08         0.00000E+00
    0.00000E+00         0.00000E+00        -0.49999E+08
 
   -0.49957E+08         0.25180E+04         0.00000E+00
    0.25180E+04        -0.50000E+08         0.00000E+00
    0.00000E+00         0.00000E+00        -0.49999E+08
 
   -0.49957E+08         0.35282E+04         0.00000E+00
    0.35282E+04        -0.50000E+08         0.00000E+00
    0.00000E+00         0.00000E+00        -0.49999E+08
 
   -0.49957E+08         0.45377E+04         0.00000E+00
    0.45377E+04        -0.50000E+08         0.00000E+00
    0.00000E+00         0.00000E+00        -0.49999E+08
 
   -0.49957E+08         0.55457E+04         0.00000E+00
    0.55457E+04        -0.50000E+08         0.00000E+00
    0.00000E+00         0.00000E+00        -0.49999E+08
 
   -0.49957E+08         0.65510E+04         0.00000E+00
    0.65510E+04        -0.49999E+08         0.00000E+00
    0.00000E+00         0.00000E+00        -0.49999E+08
 
   -0.49957E+08         0.75525E+04         0.00000E+00
    0.75525E+04        -0.49999E+08         0.00000E+00
    0.00000E+00         0.00000E+00        -0.49999E+08
 
   -0.49957E+08         0.85492E+04         0.00000E+00
    0.85492E+04        -0.49999E+08         0.00000E+00
    0.00000E+00         0.00000E+00        -0.49999E+08
 
   -0.49958E+08         0.95402E+04         0.00000E+00
    0.95402E+04        -0.49999E+08         0.00000E+00
    0.00000E+00         0.00000E+00        -0.49999E+08
 
   -0.49958E+08         0.10524E+05         0.00000E+00
    0.10524E+05        -0.49999E+08         0.00000E+00
    0.00000E+00         0.00000E+00        -0.49999E+08
 
   -0.49958E+08         0.11501E+05         0.00000E+00
    0.11501E+05        -0.49998E+08         0.00000E+00
    0.00000E+00         0.00000E+00        -0.49999E+08
 
   -0.49959E+08         0.12468E+05         0.00000E+00
    0.12468E+05        -0.49998E+08         0.00000E+00
    0.00000E+00         0.00000E+00        -0.49999E+08
 
   -0.49959E+08         0.13426E+05         0.00000E+00
    0.13426E+05        -0.49998E+08         0.00000E+00
    0.00000E+00         0.00000E+00        -0.49999E+08
 
   -0.49960E+08         0.14372E+05         0.00000E+00
    0.14372E+05        -0.49998E+08         0.00000E+00
    0.00000E+00         0.00000E+00        -0.49999E+08
 
   -0.49960E+08         0.15307E+05         0.00000E+00
    0.15307E+05        -0.49997E+08         0.00000E+00
    0.00000E+00         0.00000E+00        -0.49999E+08
 
   -0.49961E+08         0.16229E+05         0.00000E+00
    0.16229E+05        -0.49997E+08         0.00000E+00
    0.00000E+00         0.00000E+00        -0.49999E+08
 
   -0.49961E+08         0.17138E+05         0.00000E+00
    0.17138E+05        -0.49996E+08         0.00000E+00
    0.00000E+00         0.00000E+00        -0.49999E+08
 
   -0.49962E+08         0.18031E+05         0.00000E+00
    0.18031E+05        -0.49996E+08         0.00000E+00
    0.00000E+00         0.00000E+00        -0.49999E+08
 
   -0.49963E+08         0.18910E+05         0.00000E+00
    0.18910E+05        -0.49996E+08         0.00000E+00
    0.00000E+00         0.00000E+00        -0.49999E+08
 
   -0.49963E+08         0.19771E+05         0.00000E+00
    0.19771E+05        -0.49995E+08         0.00000E+00
    0.00000E+00         0.00000E+00        -0.49999E+08
 
   -0.49964E+08         0.20615E+05         0.00000E+00
    0.20615E+05        -0.49995E+08         0.00000E+00
    0.00000E+00         0.00000E+00        -0.49999E+08
 
   -0.49965E+08         0.21441E+05         0.00000E+00
    0.21441E+05        -0.49994E+08         0.00000E+00
    0.00000E+00         0.00000E+00        -0.49999E+08
 
   -0.49966E+08         0.22248E+05         0.00000E+00
    0.22248E+05        -0.49994E+08         0.00000E+00
    0.00000E+00         0.00000E+00        -0.49999E+08
 
   -0.49967E+08         0.23034E+05         0.00000E+00
    0.23034E+05        -0.49993E+08         0.00000E+00
    0.00000E+00         0.00000E+00        -0.49999E+08
 
   -0.49967E+08         0.23800E+05         0.00000E+00
    0.23800E+05        -0.49993E+08         0.00000E+00
    0.00000E+00         0.00000E+00        -0.49999E+08
 
   -0.49968E+08         0.24543E+05         0.00000E+00
    0.24543E+05        -0.49992E+08         0.00000E+00
    0.00000E+00         0.00000E+00        -0.49999E+08
 
   -0.49969E+08         0.25265E+05         0.00000E+00
    0.25265E+05        -0.49991E+08         0.00000E+00
    0.00000E+00         0.00000E+00        -0.49999E+08
 
   -0.49970E+08         0.25963E+05         0.00000E+00
    0.25963E+05        -0.49991E+08         0.00000E+00
    0.00000E+00         0.00000E+00        -0.49999E+08
 
   -0.49971E+08         0.26637E+05         0.00000E+00
    0.26637E+05        -0.49990E+08         0.00000E+00
    0.00000E+00         0.00000E+00        -0.49999E+08
 
   -0.49973E+08         0.27286E+05         0.00000E+00
    0.27286E+05        -0.49990E+08         0.00000E+00
    0.00000E+00         0.00000E+00        -0.49999E+08
 
   -0.49974E+08         0.27909E+05         0.00000E+00
    0.27909E+05        -0.49989E+08         0.00000E+00
    0.00000E+00         0.00000E+00        -0.49999E+08
 
   -0.49975E+08         0.28506E+05         0.00000E+00
    0.28506E+05        -0.49988E+08         0.00000E+00
    0.00000E+00         0.00000E+00        -0.49999E+08
 
   -0.49976E+08         0.29076E+05         0.00000E+00
    0.29076E+05        -0.49988E+08         0.00000E+00
    0.00000E+00         0.00000E+00        -0.49999E+08
 
   -0.49977E+08         0.29618E+05         0.00000E+00
    0.29618E+05        -0.49987E+08         0.00000E+00
    0.00000E+00         0.00000E+00        -0.49999E+08
 
   -0.49978E+08         0.30132E+05         0.00000E+00
    0.30132E+05        -0.49986E+08         0.00000E+00
    0.00000E+00         0.00000E+00        -0.49999E+08
 
   -0.49980E+08         0.30617E+05         0.00000E+00
    0.30617E+05        -0.49986E+08         0.00000E+00
    0.00000E+00         0.00000E+00        -0.49999E+08
 
   -0.49981E+08         0.31072E+05         0.00000E+00
    0.31072E+05        -0.49985E+08         0.00000E+00
    0.00000E+00         0.00000E+00        -0.49999E+08
 
   -0.49982E+08         0.31497E+05         0.00000E+00
    0.31497E+05        -0.49984E+08         0.00000E+00
    0.00000E+00         0.00000E+00        -0.49999E+08
 
   -0.49984E+08         0.31891E+05         0.00000E+00
    0.31891E+05        -0.49983E+08         0.00000E+00
    0.00000E+00         0.00000E+00        -0.49999E+08
 
   -0.49985E+08         0.32254E+05         0.00000E+00
    0.32254E+05        -0.49983E+08         0.00000E+00
    0.00000E+00         0.00000E+00        -0.49999E+08
 
   -0.49987E+08         0.32585E+05         0.00000E+00
    0.32585E+05        -0.49982E+08         0.00000E+00
    0.00000E+00         0.00000E+00        -0.49999E+08
 
   -0.49988E+08         0.32884E+05         0.00000E+00
    0.32884E+05        -0.49981E+08         0.00000E+00
    0.00000E+00         0.00000E+00        -0.49999E+08
 
   -0.49989E+08         0.33150E+05         0.00000E+00
    0.33150E+05        -0.49980E+08         0.00000E+00
    0.00000E+00         0.00000E+00        -0.49999E+08
 
   -0.49991E+08         0.33382E+05         0.00000E+00
    0.33382E+05        -0.49980E+08         0.00000E+00
    0.00000E+00         0.00000E+00        -0.49999E+08
 
   -0.49992E+08         0.33580E+05         0.00000E+00
    0.33580E+05        -0.49979E+08         0.00000E+00
    0.00000E+00         0.00000E+00        -0.49999E+08
 
   -0.49994E+08         0.33745E+05         0.00000E+00
    0.33745E+05        -0.49978E+08         0.00000E+00
    0.00000E+00         0.00000E+00        -0.49999E+08
 
   -0.49995E+08         0.33875E+05         0.00000E+00
    0.33875E+05        -0.49977E+08         0.00000E+00
    0.00000E+00         0.00000E+00        -0.49999E+08
 
   -0.49997E+08         0.33969E+05         0.00000E+00
    0.33969E+05        -0.49977E+08         0.00000E+00
    0.00000E+00         0.00000E+00        -0.49999E+08
 
   -0.49999E+08         0.34029E+05         0.00000E+00
    0.34029E+05        -0.49976E+08         0.00000E+00
    0.00000E+00         0.00000E+00        -0.49999E+08
 
   -0.49952E+08         0.56262E+03         0.00000E+00
    0.56262E+03        -0.50000E+08         0.00000E+00
    0.00000E+00         0.00000E+00        -0.49999E+08
 
   -0.49952E+08         0.16963E+04         0.00000E+00
    0.16963E+04        -0.50000E+08         0.00000E+00
    0.00000E+00         0.00000E+00        -0.49999E+08
 
   -0.49952E+08         0.28315E+04         0.00000E+00
    0.28315E+04        -0.50000E+08         0.00000E+00
    0.00000E+00         0.00000E+00        -0.49999E+08
 
   -0.49952E+08         0.39670E+04         0.00000E+00
    0.39670E+04        -0.50000E+08         0.00000E+00
    0.00000E+00         0.00000E+00        -0.49999E+08
 
   -0.49952E+08         0.51016E+04         0.00000E+00
    0.51016E+04        -0.50000E+08         0.00000E+00
    0.00000E+00         0.00000E+00        -0.49999E+08
 
   -0.49952E+08         0.62342E+04         0.00000E+00
    0.62342E+04        -0.50000E+08         0.00000E+00
    0.00000E+00         0.00000E+00        -0.49999E+08
 
   -0.49952E+08         0.73636E+04         0.00000E+00
    0.73636E+04        -0.49999E+08         0.00000E+00
    0.00000E+00         0.00000E+00        -0.49999E+08
 
   -0.49952E+08         0.84886E+04         0.00000E+00
    0.84886E+04        -0.49999E+08         0.00000E+00
    0.00000E+00         0.00000E+00        -0.49999E+08
 
   -0.49952E+08         0.96080E+04         0.00000E+00
    0.96080E+04        -0.49999E+08         0.00000E+00
    0.00000E+00         0.00000E+00        -0.49999E+08
 
   -0.49952E+08         0.10721E+05         0.00000E+00
    0.10721E+05        -0.49999E+08         0.00000E+00
    0.00000E+00         0.00000E+00        -0.49999E+08
 
   -0.49953E+08         0.11826E+05         0.00000E+00
    0.11826E+05        -0.49999E+08         0.00000E+00
    0.00000E+00         0.00000E+00        -0.49999E+08
 
   -0.49953E+08         0.12922E+05         0.00000E+00
    0.12922E+05        -0.49998E+08         0.00000E+00
    0.00000E+00         0.00000E+00        -0.49999E+08
 
   -0.49954E+08         0.14008E+05         0.00000E+00
    0.14008E+05        -0.49998E+08         0.00000E+00
    0.00000E+00         0.00000E+00        -0.49999E+08
 
   -0.49954E+08         0.15082E+05         0.00000E+00
    0.15082E+05        -0.49998E+08         0.00000E+00
    0.00000E+00         0.00000E+00        -0.49999E+08
 
   -0.49955E+08         0.16145E+05         0.00000E+00
    0.16145E+05        -0.49997E+08         0.00000E+00
    0.00000E+00         0.00000E+00        -0.49999E+08
 
   -0.49955E+08         0.17194E+05         0.00000E+00
    0.17194E+05        -0.49997E+08         0.00000E+00
    0.00000E+00         0.00000E+00        -0.49999E+08
 
   -0.49956E+08         0.18229E+05         0.00000E+00
    0.18229E+05        -0.49996E+08         0.00000E+00
    0.00000E+00         0.00000E+00        -0.49999E+08
 
   -0.49956E+08         0.19248E+05         0.00000E+00
    0.19248E+05        -0.49996E+08         0.00000E+00
    0.00000E+00         0.00000E+00        -0.49999E+08
 
   -0.49957E+08         0.20250E+05         0.00000E+00
    0.20250E+05        -0.49996E+08         0.00000E+00
    0.00000E+00         0.00000E+00        -0.49999E+08
 
   -0.49958E+08         0.21235E+05         0.00000E+00
    0.21235E+05        -0.49995E+08         0.00000E+00
    0.00000E+00         0.00000E+00        -0.49999E+08
 
   -0.49959E+08         0.22201E+05         0.00000E+00
    0.22201E+05        -0.49995E+08         0.00000E+00
    0.00000E+00         0.00000E+00        -0.49999E+08
 
   -0.49960E+08         0.23148E+05         0.00000E+00
    0.23148E+05        -0.49994E+08         0.00000E+00
    0.00000E+00         0.00000E+00        -0.49999E+08
 
   -0.49960E+08         0.24074E+05         0.00000E+00
    0.24074E+05        -0.49993E+08         0.00000E+00
    0.00000E+00         0.00000E+00        -0.49999E+08
 
   -0.49961E+08         0.24979E+05         0.00000E+00
    0.24979E+05        -0.49993E+08         0.00000E+00
    0.00000E+00         0.00000E+00        -0.49999E+08
 
   -0.49962E+08         0.25861E+05         0.00000E+00
    0.25861E+05        -0.49992E+08         0.00000E+00
    0.00000E+00         0.00000E+00        -0.49999E+08
 
   -0.49963E+08         0.26719E+05         0.00000E+00
    0.26719E+05        -0.49992E+08         0.00000E+00
    0.00000E+00         0.00000E+00        -0.49999E+08
 
   -0.49964E+08         0.27553E+05         0.00000E+00
    0.27553E+05        -0.49991E+08         0.00000E+00
    0.00000E+00         0.00000E+00        -0.49999E+08
 
   -0.49966E+08         0.28362E+05         0.00000E+00
    0.28362E+05        -0.49990E+08         0.00000E+00
    0.00000E+00         0.00000E+00        -0.49999E+08
 
   -0.49967E+08         0.29144E+05         0.00000E+00
    0.29144E+05        -0.49990E+08         0.00000E+00
    0.00000E+00         0.00000E+00        -0.49999E+08
 
   -0.49968E+08         0.29900E+05         0.00000E+00
    0.29900E+05        -0.49989E+08         0.00000E+00
    0.00000E+00         0.00000E+00        -0.49999E+08
 
   -0.49969E+08         0.30628E+05         0.00000E+00
    0.30628E+05        -0.49988E+08         0.00000E+00
    0.00000E+00         0.00000E+00        -0.49999E+08
 
   -0.49970E+08         0.31327E+05         0.00000E+00
    0.31327E+05        -0.49988E+08         0.00000E+00
    0.00000E+00         0.00000E+00        -0.49999E+08
 
   -0.49972E+08         0.31996E+05         0.00000E+00
    0.31996E+05        -0.49987E+08         0.00000E+00
    0.00000E+00         0.00000E+00        -0.49999E+08
 
   -0.49973E+08         0.32635E+05         0.00000E+00
    0.32635E+05        -0.49986E+08         0.00000E+00
    0.00000E+00         0.00000E+00        -0.49999E+08
 
   -0.49974E+08         0.33243E+05         0.00000E+00
    0.33243E+05        -0.49985E+08         0.00000E+00
    0.00000E+00         0.00000E+00        -0.49999E+08
 
   -0.49976E+08         0.33820E+05         0.00000E+00
    0.33820E+05        -0.49985E+08         0.00000E+00
    0.00000E+00         0.00000E+00        -0.49999E+08
 
   -0.49977E+08         0.34364E+05         0.00000E+00
    0.34364E+05        -0.49984E+08         0.00000E+00
    0.00000E+00         0.00000E+00        -0.49999E+08
 
   -0.49979E+08         0.34874E+05         0.00000E+00
    0.34874E+05        -0.49983E+08         0.00000E+00
    0.00000E+00         0.00000E+00        -0.49999E+08
 
   -0.49980E+08         0.35351E+05         0.00000E+00
    0.35351E+05        -0.49982E+08         0.00000E+00
    0.00000E+00         0.00000E+00        -0.49999E+08
 
   -0.49982E+08         0.35794E+05         0.00000E+00
    0.35794E+05        -0.49981E+08         0.00000E+00
    0.00000E+00         0.00000E+00        -0.49999E+08
 
   -0.49983E+08         0.36202E+05         0.00000E+00
    0.36202E+05        -0.49981E+08         0.00000E+00
    0.00000E+00         0.00000E+00        -0.49999E+08
 
   -0.49985E+08         0.36573E+05         0.00000E+00
    0.36573E+05        -0.49980E+08         0.00000E+00
    0.00000E+00         0.00000E+00        -0.49999E+08
 
   -0.49987E+08         0.36909E+05         0.00000E+00
    0.36909E+05        -0.49979E+08         0.00000E+00
    0.00000E+00         0.00000E+00        -0.49999E+08
 
   -0.49988E+08         0.37208E+05         0.00000E+00
    0.37208E+05        -0.49978E+08         0.00000E+00
    0.00000E+00         0.00000E+00        -0.49999E+08
 
   -0.49990E+08         0.37469E+05         0.00000E+00
    0.37469E+05        -0.49977E+08         0.00000E+00
    0.00000E+00         0.00000E+00        -0.49999E+08
 
   -0.49991E+08         0.37693E+05         0.00000E+00
    0.37693E+05        -0.49976E+08         0.00000E+00
    0.00000E+00         0.00000E+00        -0.49999E+08
 
   -0.49993E+08         0.37879E+05         0.00000E+00
    0.37879E+05        -0.49976E+08         0.00000E+00
    0.00000E+00         0.00000E+00        -0.49999E+08
 
   -0.49995E+08         0.38026E+05         0.00000E+00
    0.38026E+05        -0.49975E+08         0.00000E+00
    0.00000E+00         0.00000E+00        -0.49999E+08
 
   -0.49997E+08         0.38134E+05         0.00000E+00
    0.38134E+05        -0.49974E+08         0.00000E+00
    0.00000E+00         0.00000E+00        -0.49999E+08
 
   -0.49998E+08         0.38203E+05         0.00000E+00
    0.38203E+05        -0.49973E+08         0.00000E+00
    0.00000E+00         0.00000E+00        -0.49999E+08
 
   -0.49946E+08         0.63289E+03         0.00000E+00
    0.63289E+03        -0.50000E+08         0.00000E+00
    0.00000E+00         0.00000E+00        -0.49999E+08
 
   -0.49946E+08         0.19074E+04         0.00000E+00
    0.19074E+04        -0.50000E+08         0.00000E+00
    0.00000E+00         0.00000E+00        -0.49999E+08
 
   -0.49946E+08         0.31834E+04         0.00000E+00
    0.31834E+04        -0.50000E+08         0.00000E+00
    0.00000E+00         0.00000E+00        -0.49999E+08
 
   -0.49946E+08         0.44594E+04         0.00000E+00
    0.44594E+04        -0.50000E+08         0.00000E+00
    0.00000E+00         0.00000E+00        -0.49999E+08
 
   -0.49946E+08         0.57343E+04         0.00000E+00
    0.57343E+04        -0.50000E+08         0.00000E+00
    0.00000E+00         0.00000E+00        -0.49999E+08
 
   -0.49946E+08         0.70066E+04         0.00000E+00
    0.70066E+04        -0.50000E+08         0.00000E+00
    0.00000E+00         0.00000E+00        -0.49999E+08
 
   -0.49946E+08         0.82751E+04         0.00000E+00
    0.82751E+04        -0.49999E+08         0.00000E+00
    0.00000E+00         0.00000E+00        -0.49999E+08
 
   -0.49946E+08         0.95385E+04         0.00000E+00
    0.95385E+04        -0.49999E+08         0.00000E+00
    0.00000E+00         0.00000E+00        -0.49999E+08
 
   -0.49946E+08         0.10795E+05         0.00000E+00
    0.10795E+05        -0.49999E+08         0.00000E+00
    0.00000E+00         0.00000E+00        -0.49999E+08
 
   -0.49947E+08         0.12045E+05         0.00000E+00
    0.12045E+05        -0.49999E+08         0.00000E+00
    0.00000E+00         0.00000E+00        -0.49999E+08
 
   -0.49947E+08         0.13285E+05         0.00000E+00
    0.13285E+05        -0.49998E+08         0.00000E+00
    0.00000E+00         0.00000E+00        -0.49999E+08
 
   -0.49947E+08         0.14515E+05         0.00000E+00
    0.14515E+05        -0.49998E+08         0.00000E+00
    0.00000E+00         0.00000E+00        -0.49999E+08
 
   -0.49948E+08         0.15734E+05         0.00000E+00
    0.15734E+05        -0.49998E+08         0.00000E+00
    0.00000E+00         0.00000E+00        -0.49999E+08
 
   -0.49948E+08         0.16940E+05         0.00000E+00
    0.16940E+05        -0.49997E+08         0.00000E+00
    0.00000E+00         0.00000E+00        -0.49999E+08
 
   -0.49949E+08         0.18131E+05         0.00000E+00
    0.18131E+05        -0.49997E+08         0.00000E+00
    0.00000E+00         0.00000E+00        -0.49999E+08
 
   -0.49950E+08         0.19308E+05         0.00000E+00
    0.19308E+05        -0.49996E+08         0.00000E+00
    0.00000E+00         0.00000E+00        -0.49999E+08
 
   -0.49950E+08         0.20469E+05         0.00000E+00
    0.20469E+05        -0.49996E+08         0.00000E+00
    0.00000E+00         0.00000E+00        -0.49999E+08
 
   -0.49951E+08         0.21612E+05         0.00000E+00
    0.21612E+05        -0.49996E+08         0.00000E+00
    0.00000E+00         0.00000E+00        -0.49999E+08
 
   -0.49952E+08         0.22736E+05         0.00000E+00
    0.22736E+05        -0.49995E+08         0.00000E+00
    0.00000E+00         0.00000E+00        -0.49999E+08
 
   -0.49953E+08         0.23840E+05         0.00000E+00
    0.23840E+05        -0.49994E+08         0.00000E+00
    0.00000E+00         0.00000E+00        -0.49999E+08
 
   -0.49954E+08         0.24924E+05         0.00000E+00
    0.24924E+05        -0.49994E+08         0.00000E+00
    0.00000E+00         0.00000E+00        -0.49999E+08
 
   -0.49955E+08         0.25985E+05         0.00000E+00
    0.25985E+05        -0.49993E+08         0.00000E+00
    0.00000E+00         0.00000E+00        -0.49999E+08
 
   -0.49956E+08         0.27023E+05         0.00000E+00
    0.27023E+05        -0.49993E+08         0.00000E+00
    0.00000E+00         0.00000E+00        -0.49999E+08
 
   -0.49957E+08         0.28037E+05         0.00000E+00
    0.28037E+05        -0.49992E+08         0.00000E+00
    0.00000E+00         0.00000E+00        -0.49999E+08
 
   -0.49958E+08         0.29026E+05         0.00000E+00
    0.29026E+05        -0.49991E+08         0.00000E+00
    0.00000E+00         0.00000E+00        -0.49999E+08
 
   -0.49959E+08         0.29988E+05         0.00000E+00
    0.29988E+05        -0.49991E+08         0.00000E+00
    0.00000E+00         0.00000E+00        -0.49999E+08
 
   -0.49960E+08         0.30923E+05         0.00000E+00
    0.30923E+05        -0.49990E+08         0.00000E+00
    0.00000E+00         0.00000E+00        -0.49999E+08
 
   -0.49961E+08         0.31829E+05         0.00000E+00
    0.31829E+05        -0.49989E+08         0.00000E+00
    0.00000E+00         0.00000E+00        -0.49999E+08
 
   -0.49963E+08         0.32706E+05         0.00000E+00
    0.32706E+05        -0.49989E+08         0.00000E+00
    0.00000E+00         0.00000E+00        -0.49999E+08
 
   -0.49964E+08         0.33553E+05         0.00000E+00
    0.33553E+05        -0.49988E+08         0.00000E+00
    0.00000E+00         0.00000E+00        -0.49999E+08
 
   -0.49965E+08         0.34369E+05         0.00000E+00
    0.34369E+05        -0.49987E+08         0.00000E+00
    0.00000E+00         0.00000E+00        -0.49999E+08
 
   -0.49967E+08         0.35152E+05         0.00000E+00
    0.35152E+05        -0.49986E+08         0.00000E+00
    0.00000E+00         0.00000E+00        -0.49999E+08
 
   -0.49968E+08         0.35903E+05         0.00000E+00
    0.35903E+05        -0.49985E+08         0.00000E+00
    0.00000E+00         0.00000E+00        -0.49999E+08
 
   -0.49970E+08         0.36619E+05         0.00000E+00
    0.36619E+05        -0.49985E+08         0.00000E+00
    0.00000E+00         0.00000E+00        -0.49999E+08
 
   -0.49971E+08         0.37301E+05         0.00000E+00
    0.37301E+05        -0.49984E+08         0.00000E+00
    0.00000E+00         0.00000E+00        -0.49999E+08
 
   -0.49973E+08         0.37947E+05         0.00000E+00
    0.37947E+05        -0.49983E+08         0.00000E+00
    0.00000E+00         0.00000E+00        -0.49999E+08
 
   -0.49974E+08         0.38557E+05         0.00000E+00
    0.38557E+05        -0.49982E+08         0.00000E+00
    0.00000E+00         0.00000E+00        -0.49999E+08
 
   -0.49976E+08         0.39130E+05         0.00000E+00
    0.39130E+05        -0.49981E+08         0.00000E+00
    0.00000E+00         0.00000E+00        -0.49999E+08
 
   -0.49978E+08         0.39665E+05         0.00000E+00
    0.39665E+05        -0.49980E+08         0.00000E+00
    0.00000E+00         0.00000E+00        -0.49999E+08
 
   -0.49980E+08         0.40162E+05         0.00000E+00
    0.40162E+05        -0.49979E+08         0.00000E+00
    0.00000E+00         0.00000E+00        -0.49999E+08
 
   -0.49981E+08         0.40620E+05         0.00000E+00
    0.40620E+05        -0.49978E+08         0.00000E+00
    0.00000E+00         0.00000E+00        -0.49999E+08
 
   -0.49983E+08         0.41037E+05         0.00000E+00
    0.41037E+05        -0.49977E+08         0.00000E+00
    0.00000E+00         0.00000E+00        -0.49999E+08
 
   -0.49985E+08         0.41414E+05         0.00000E+00
    0.41414E+05        -0.49976E+08         0.00000E+00
    0.00000E+00         0.00000E+00        -0.49999E+08
 
   -0.49987E+08         0.41751E+05         0.00000E+00
    0.41751E+05        -0.49975E+08         0.00000E+00
    0.00000E+00         0.00000E+00        -0.49999E+08
 
   -0.49989E+08         0.42045E+05         0.00000E+00
    0.42045E+05        -0.49975E+08         0.00000E+00
    0.00000E+00         0.00000E+00        -0.49999E+08
 
   -0.49990E+08         0.42298E+05         0.00000E+00
    0.42298E+05        -0.49974E+08         0.00000E+00
    0.00000E+00         0.00000E+00        -0.49999E+08
 
   -0.49992E+08         0.42507E+05         0.00000E+00
    0.42507E+05        -0.49973E+08         0.00000E+00
    0.00000E+00         0.00000E+00        -0.49999E+08
 
   -0.49994E+08         0.42674E+05         0.00000E+00
    0.42674E+05        -0.49972E+08         0.00000E+00
    0.00000E+00         0.00000E+00        -0.49999E+08
 
   -0.49996E+08         0.42797E+05         0.00000E+00
    0.42797E+05        -0.49971E+08         0.00000E+00
    0.00000E+00         0.00000E+00        -0.49999E+08
 
   -0.49998E+08         0.42876E+05         0.00000E+00
    0.42876E+05        -0.49970E+08         0.00000E+00
    0.00000E+00         0.00000E+00        -0.49999E+08
 
   -0.49939E+08         0.71180E+03         0.00000E+00
    0.71180E+03        -0.50000E+08         0.00000E+00
    0.00000E+00         0.00000E+00        -0.49999E+08
 
   -0.49939E+08         0.21444E+04         0.00000E+00
    0.21444E+04        -0.50000E+08         0.00000E+00
    0.00000E+00         0.00000E+00        -0.49999E+08
 
   -0.49939E+08         0.35782E+04         0.00000E+00
    0.35782E+04        -0.50000E+08         0.00000E+00
    0.00000E+00         0.00000E+00        -0.49999E+08
 
   -0.49939E+08         0.50119E+04         0.00000E+00
    0.50119E+04        -0.50000E+08         0.00000E+00
    0.00000E+00         0.00000E+00        -0.49999E+08
 
   -0.49939E+08         0.64439E+04         0.00000E+00
    0.64439E+04        -0.50000E+08         0.00000E+00
    0.00000E+00         0.00000E+00        -0.49999E+08
 
   -0.49939E+08         0.78729E+04         0.00000E+00
    0.78729E+04        -0.49999E+08         0.00000E+00
    0.00000E+00         0.00000E+00        -0.49999E+08
 
   -0.49939E+08         0.92973E+04         0.00000E+00
    0.92973E+04        -0.49999E+08         0.00000E+00
    0.00000E+00         0.00000E+00        -0.49999E+08
 
   -0.49939E+08         0.10716E+05         0.00000E+00
    0.10716E+05        -0.49999E+08         0.00000E+00
    0.00000E+00         0.00000E+00        -0.49999E+08
 
   -0.49940E+08         0.12127E+05         0.00000E+00
    0.12127E+05        -0.49999E+08         0.00000E+00
    0.00000E+00         0.00000E+00        -0.49999E+08
 
   -0.49940E+08         0.13529E+05         0.00000E+00
    0.13529E+05        -0.49998E+08         0.00000E+00
    0.00000E+00         0.00000E+00        -0.49999E+08
 
   -0.49940E+08         0.14920E+05         0.00000E+00
    0.14920E+05        -0.49998E+08         0.00000E+00
    0.00000E+00         0.00000E+00        -0.49999E+08
 
   -0.49941E+08         0.16300E+05         0.00000E+00
    0.16300E+05        -0.49998E+08         0.00000E+00
    0.00000E+00         0.00000E+00        -0.49999E+08
 
   -0.49941E+08         0.17668E+05         0.00000E+00
    0.17668E+05        -0.49997E+08         0.00000E+00
    0.00000E+00         0.00000E+00        -0.49999E+08
 
   -0.49942E+08         0.19020E+05         0.00000E+00
    0.19020E+05        -0.49997E+08         0.00000E+00
    0.00000E+00         0.00000E+00        -0.49999E+08
 
   -0.49943E+08         0.20357E+05         0.00000E+00
    0.20357E+05        -0.49997E+08         0.00000E+00
    0.00000E+00         0.00000E+00        -0.49999E+08
 
   -0.49943E+08         0.21677E+05         0.00000E+00
    0.21677E+05        -0.49996E+08         0.00000E+00
    0.00000E+00         0.00000E+00        -0.49999E+08
 
   -0.49944E+08         0.22978E+05         0.00000E+00
    0.22978E+05        -0.49996E+08         0.00000E+00
    0.00000E+00         0.00000E+00        -0.49999E+08
 
   -0.49945E+08         0.24259E+05         0.00000E+00
    0.24259E+05        -0.49995E+08         0.00000E+00
    0.00000E+00         0.00000E+00        -0.49999E+08
 
   -0.49946E+08         0.25519E+05         0.00000E+00
    0.25519E+05        -0.49994E+08         0.00000E+00
    0.00000E+00         0.00000E+00        -0.49999E+08
 
   -0.49947E+08         0.26757E+05         0.00000E+00
    0.26757E+05        -0.49994E+08         0.00000E+00
    0.00000E+00         0.00000E+00        -0.49999E+08
 
   -0.49948E+08         0.27972E+05         0.00000E+00
    0.27972E+05        -0.49993E+08         0.00000E+00
    0.00000E+00         0.00000E+00        -0.49999E+08
 
   -0.49949E+08         0.29161E+05         0.00000E+00
    0.29161E+05        -0.49993E+08         0.00000E+00
    0.00000E+00         0.00000E+00        -0.49999E+08
 
   -0.49950E+08         0.30324E+05         0.00000E+00
    0.30324E+05        -0.49992E+08         0.00000E+00
    0.00000E+00         0.00000E+00        -0.49999E+08
 
   -0.49951E+08         0.31461E+05         0.00000E+00
    0.31461E+05        -0.49991E+08         0.00000E+00
    0.00000E+00         0.00000E+00        -0.49999E+08
 
   -0.49953E+08         0.32568E+05         0.00000E+00
    0.32568E+05        -0.49990E+08         0.00000E+00
    0.00000E+00         0.00000E+00        -0.49999E+08
 
   -0.49954E+08         0.33646E+05         0.00000E+00
    0.33646E+05        -0.49990E+08         0.00000E+00
    0.00000E+00         0.00000E+00        -0.49999E+08
 
   -0.49955E+08         0.34694E+05         0.00000E+00
    0.34694E+05        -0.49989E+08         0.00000E+00
    0.00000E+00         0.00000E+00        -0.49999E+08
 
   -0.49957E+08         0.35709E+05         0.00000E+00
    0.35709E+05        -0.49988E+08         0.00000E+00
    0.00000E+00         0.00000E+00        -0.49999E+08
 
   -0.49958E+08         0.36692E+05         0.00000E+00
    0.36692E+05        -0.49987E+08         0.00000E+00
    0.00000E+00         0.00000E+00        -0.49999E+08
 
   -0.49960E+08         0.37641E+05         0.00000E+00
    0.37641E+05        -0.49986E+08         0.00000E+00
    0.00000E+00         0.00000E+00        -0.49999E+08
 
   -0.49961E+08         0.38555E+05         0.00000E+00
    0.38555E+05        -0.49985E+08         0.00000E+00
    0.00000E+00         0.00000E+00        -0.49999E+08
 
   -0.49963E+08         0.39433E+05         0.00000E+00
    0.39433E+05        -0.49985E+08         0.00000E+00
    0.00000E+00         0.00000E+00        -0.49999E+08
 
   -0.49964E+08         0.40274E+05         0.00000E+00
    0.40274E+05        -0.49984E+08         0.00000E+00
    0.00000E+00         0.00000E+00        -0.49999E+08
 
   -0.49966E+08         0.41077E+05         0.00000E+00
    0.41077E+05        -0.49983E+08         0.00000E+00
    0.00000E+00         0.00000E+00        -0.49999E+08
 
   -0.49968E+08         0.41841E+05         0.00000E+00
    0.41841E+05        -0.49982E+08         0.00000E+00
    0.00000E+00         0.00000E+00        -0.49999E+08
 
   -0.49970E+08         0.42565E+05         0.00000E+00
    0.42565E+05        -0.49981E+08         0.00000E+00
    0.00000E+00         0.00000E+00        -0.49999E+08
 
   -0.49971E+08         0.43249E+05         0.00000E+00
    0.43249E+05        -0.49980E+08         0.00000E+00
    0.00000E+00         0.00000E+00        -0.49999E+08
 
   -0.49973E+08         0.43892E+05         0.00000E+00
    0.43892E+05        -0.49979E+08         0.00000E+00
    0.00000E+00         0.00000E+00        -0.49999E+08
 
   -0.49975E+08         0.44492E+05         0.00000E+00
    0.44492E+05        -0.49978E+08         0.00000E+00
    0.00000E+00         0.00000E+00        -0.49999E+08
 
   -0.49977E+08         0.45049E+05         0.00000E+00
    0.45049E+05        -0.49977E+08         0.00000E+00
    0.00000E+00         0.00000E+00        -0.49999E+08
 
   -0.49979E+08         0.45563E+05         0.00000E+00
    0.45563E+05        -0.49976E+08         0.00000E+00
    0.00000E+00         0.00000E+00        -0.49999E+08
 
   -0.49981E+08         0.46032E+05         0.00000E+00
    0.46032E+05        -0.49975E+08         0.00000E+00
    0.00000E+00         0.00000E+00        -0.49999E+08
 
   -0.49983E+08         0.46456E+05         0.00000E+00
    0.46456E+05        -0.49974E+08         0.00000E+00
    0.00000E+00         0.00000E+00        -0.49999E+08
 
   -0.49985E+08         0.46834E+05         0.00000E+00
    0.46834E+05        -0.49973E+08         0.00000E+00
    0.00000E+00         0.00000E+00        -0.49999E+08
 
   -0.49987E+08         0.47166E+05         0.00000E+00
    0.47166E+05        -0.49971E+08         0.00000E+00
    0.00000E+00         0.00000E+00        -0.49999E+08
 
   -0.49989E+08         0.47450E+05         0.00000E+00
    0.47450E+05        -0.49970E+08         0.00000E+00
    0.00000E+00         0.00000E+00        -0.49999E+08
 
   -0.49991E+08         0.47687E+05         0.00000E+00
    0.47687E+05        -0.49969E+08         0.00000E+00
    0.00000E+00         0.00000E+00        -0.49999E+08
 
   -0.49993E+08         0.47876E+05         0.00000E+00
    0.47876E+05        -0.49968E+08         0.00000E+00
    0.00000E+00         0.00000E+00        -0.49999E+08
 
   -0.49996E+08         0.48016E+05         0.00000E+00
    0.48016E+05        -0.49967E+08         0.00000E+00
    0.00000E+00         0.00000E+00        -0.49999E+08
 
   -0.49998E+08         0.48107E+05         0.00000E+00
    0.48107E+05        -0.49966E+08         0.00000E+00
    0.00000E+00         0.00000E+00        -0.49999E+08
 
   -0.49932E+08         0.80040E+03         0.00000E+00
    0.80040E+03        -0.50000E+08         0.00000E+00
    0.00000E+00         0.00000E+00        -0.49999E+08
 
   -0.49931E+08         0.24102E+04         0.00000E+00
    0.24102E+04        -0.50000E+08         0.00000E+00
    0.00000E+00         0.00000E+00        -0.49999E+08
 
   -0.49931E+08         0.40212E+04         0.00000E+00
    0.40212E+04        -0.50000E+08         0.00000E+00
    0.00000E+00         0.00000E+00        -0.49999E+08
 
   -0.49931E+08         0.56315E+04         0.00000E+00
    0.56315E+04        -0.50000E+08         0.00000E+00
    0.00000E+00         0.00000E+00        -0.49999E+08
 
   -0.49931E+08         0.72398E+04         0.00000E+00
    0.72398E+04        -0.50000E+08         0.00000E+00
    0.00000E+00         0.00000E+00        -0.49999E+08
 
   -0.49931E+08         0.88442E+04         0.00000E+00
    0.88442E+04        -0.49999E+08         0.00000E+00
    0.00000E+00         0.00000E+00        -0.49999E+08
 
   -0.49932E+08         0.10443E+05         0.00000E+00
    0.10443E+05        -0.49999E+08         0.00000E+00
    0.00000E+00         0.00000E+00        -0.49999E+08
 
   -0.49932E+08         0.12035E+05         0.00000E+00
    0.12035E+05        -0.49999E+08         0.00000E+00
    0.00000E+00         0.00000E+00        -0.49999E+08
 
   -0.49932E+08         0.13618E+05         0.00000E+00
    0.13618E+05        -0.49999E+08         0.00000E+00
    0.00000E+00         0.00000E+00        -0.49999E+08
 
   -0.49933E+08         0.15191E+05         0.00000E+00
    0.15191E+05        -0.49998E+08         0.00000E+00
    0.00000E+00         0.00000E+00        -0.49999E+08
 
   -0.49933E+08         0.16753E+05         0.00000E+00
    0.16753E+05        -0.49998E+08         0.00000E+00
    0.00000E+00         0.00000E+00        -0.49999E+08
 
   -0.49934E+08         0.18301E+05         0.00000E+00
    0.18301E+05        -0.49998E+08         0.00000E+00
    0.00000E+00         0.00000E+00        -0.49999E+08
 
   -0.49934E+08         0.19834E+05         0.00000E+00
    0.19834E+05        -0.49997E+08         0.00000E+00
    0.00000E+00         0.00000E+00        -0.49999E+08
 
   -0.49935E+08         0.21350E+05         0.00000E+00
    0.21350E+05        -0.49997E+08         0.00000E+00
    0.00000E+00         0.00000E+00        -0.49999E+08
 
   -0.49936E+08         0.22849E+05         0.00000E+00
    0.22849E+05        -0.49996E+08         0.00000E+00
    0.00000E+00         0.00000E+00        -0.49999E+08
 
   -0.49937E+08         0.24328E+05         0.00000E+00
    0.24328E+05        -0.49996E+08         0.00000E+00
    0.00000E+00         0.00000E+00        -0.49999E+08
 
   -0.49937E+08         0.25787E+05         0.00000E+00
    0.25787E+05        -0.49995E+08         0.00000E+00
    0.00000E+00         0.00000E+00        -0.49999E+08
 
   -0.49938E+08         0.27223E+05         0.00000E+00
    0.27223E+05        -0.49994E+08         0.00000E+00
    0.00000E+00         0.00000E+00        -0.49999E+08
 
   -0.49939E+08         0.28635E+05         0.00000E+00
    0.28635E+05        -0.49994E+08         0.00000E+00
    0.00000E+00         0.00000E+00        -0.49999E+08
 
   -0.49940E+08         0.30022E+05         0.00000E+00
    0.30022E+05        -0.49993E+08         0.00000E+00
    0.00000E+00         0.00000E+00        -0.49999E+08
 
   -0.49942E+08         0.31383E+05         0.00000E+00
    0.31383E+05        -0.49992E+08         0.00000E+00
    0.00000E+00         0.00000E+00        -0.49999E+08
 
   -0.49943E+08         0.32715E+05         0.00000E+00
    0.32715E+05        -0.49992E+08         0.00000E+00
    0.00000E+00         0.00000E+00        -0.49999E+08
 
   -0.49944E+08         0.34019E+05         0.00000E+00
    0.34019E+05        -0.49991E+08         0.00000E+00
    0.00000E+00         0.00000E+00        -0.49999E+08
 
   -0.49945E+08         0.35291E+05         0.00000E+00
    0.35291E+05        -0.49990E+08         0.00000E+00
    0.00000E+00         0.00000E+00        -0.49999E+08
 
   -0.49947E+08         0.36532E+05         0.00000E+00
    0.36532E+05        -0.49989E+08         0.00000E+00
    0.00000E+00         0.00000E+00        -0.49999E+08
 
   -0.49948E+08         0.37740E+05         0.00000E+00
    0.37740E+05        -0.49988E+08         0.00000E+00
    0.00000E+00         0.00000E+00        -0.49999E+08
 
   -0.49950E+08         0.38913E+05         0.00000E+00
    0.38913E+05        -0.49988E+08         0.00000E+00
    0.00000E+00         0.00000E+00        -0.49999E+08
 
   -0.49951E+08         0.40050E+05         0.00000E+00
    0.40050E+05        -0.49987E+08         0.00000E+00
    0.00000E+00         0.00000E+00        -0.49999E+08
 
   -0.49953E+08         0.41151E+05         0.00000E+00
    0.41151E+05        -0.49986E+08         0.00000E+00
    0.00000E+00         0.00000E+00        -0.49999E+08
 
   -0.49955E+08         0.42214E+05         0.00000E+00
    0.42214E+05        -0.49985E+08         0.00000E+00
    0.00000E+00         0.00000E+00        -0.49999E+08
 
   -0.49956E+08         0.43237E+05         0.00000E+00
    0.43237E+05        -0.49984E+08         0.00000E+00
    0.00000E+00         0.00000E+00        -0.49999E+08
 
   -0.49958E+08         0.44221E+05         0.00000E+00
    0.44221E+05        -0.49983E+08         0.00000E+00
    0.00000E+00         0.00000E+00        -0.49999E+08
 
   -0.49960E+08         0.45163E+05         0.00000E+00
    0.45163E+05        -0.49982E+08         0.00000E+00
    0.00000E+00         0.00000E+00        -0.49999E+08
 
   -0.49962E+08         0.46062E+05         0.00000E+00
    0.46062E+05        -0.49981E+08         0.00000E+00
    0.00000E+00         0.00000E+00        -0.49999E+08
 
   -0.49964E+08         0.46918E+05         0.00000E+00
    0.46918E+05        -0.49980E+08         0.00000E+00
    0.00000E+00         0.00000E+00        -0.49999E+08
 
   -0.49966E+08         0.47730E+05         0.00000E+00
    0.47730E+05        -0.49979E+08         0.00000E+00
    0.00000E+00         0.00000E+00        -0.49999E+08
 
   -0.49968E+08         0.48497E+05         0.00000E+00
    0.48497E+05        -0.49977E+08         0.00000E+00
    0.00000E+00         0.00000E+00        -0.49999E+08
 
   -0.49970E+08         0.49217E+05         0.00000E+00
    0.49217E+05        -0.49976E+08         0.00000E+00
    0.00000E+00         0.00000E+00        -0.49999E+08
 
   -0.49972E+08         0.49890E+05         0.00000E+00
    0.49890E+05        -0.49975E+08         0.00000E+00
    0.00000E+00         0.00000E+00        -0.49999E+08
 
   -0.49974E+08         0.50515E+05         0.00000E+00
    0.50515E+05        -0.49974E+08         0.00000E+00
    0.00000E+00         0.00000E+00        -0.49999E+08
 
   -0.49976E+08         0.51092E+05         0.00000E+00
    0.51092E+05        -0.49973E+08         0.00000E+00
    0.00000E+00         0.00000E+00        -0.49999E+08
 
   -0.49979E+08         0.51618E+05         0.00000E+00
    0.51618E+05        -0.49972E+08         0.00000E+00
    0.00000E+00         0.00000E+00        -0.49999E+08
 
   -0.49981E+08         0.52094E+05         0.00000E+00
    0.52094E+05        -0.49971E+08         0.00000E+00
    0.00000E+00         0.00000E+00        -0.49999E+08
 
   -0.49983E+08         0.52520E+05         0.00000E+00
    0.52520E+05        -0.49969E+08         0.00000E+00
    0.00000E+00         0.00000E+00        -0.49999E+08
 
   -0.49985E+08         0.52893E+05         0.00000E+00
    0.52893E+05        -0.49968E+08         0.00000E+00
    0.00000E+00         0.00000E+00        -0.49999E+08
 
   -0.49988E+08         0.53214E+05         0.00000E+00
    0.53214E+05        -0.49967E+08         0.00000E+00
    0.00000E+00         0.00000E+00        -0.49999E+08
 
   -0.49990E+08         0.53482E+05         0.00000E+00
    0.53482E+05        -0.49966E+08         0.00000E+00
    0.00000E+00         0.00000E+00        -0.49999E+08
 
   -0.49993E+08         0.53696E+05         0.00000E+00
    0.53696E+05        -0.49964E+08         0.00000E+00
    0.00000E+00         0.00000E+00        -0.49999E+08
 
   -0.49995E+08         0.53856E+05         0.00000E+00
    0.53856E+05        -0.49963E+08         0.00000E+00
    0.00000E+00         0.00000E+00        -0.49999E+08
 
   -0.49997E+08         0.53961E+05         0.00000E+00
    0.53961E+05        -0.49962E+08         0.00000E+00
    0.00000E+00         0.00000E+00        -0.49999E+08
 
   -0.49923E+08         0.89984E+03         0.00000E+00
    0.89984E+03        -0.50000E+08         0.00000E+00
    0.00000E+00         0.00000E+00        -0.49998E+08
 
   -0.49923E+08         0.27085E+04         0.00000E+00
    0.27085E+04        -0.50000E+08         0.00000E+00
    0.00000E+00         0.00000E+00        -0.49998E+08
 
   -0.49923E+08         0.45179E+04         0.00000E+00
    0.45179E+04        -0.50000E+08         0.00000E+00
    0.00000E+00         0.00000E+00        -0.49998E+08
 
   -0.49923E+08         0.63263E+04         0.00000E+00
    0.63263E+04        -0.50000E+08         0.00000E+00
    0.00000E+00         0.00000E+00        -0.49998E+08
 
   -0.49923E+08         0.81319E+04         0.00000E+00
    0.81319E+04        -0.50000E+08         0.00000E+00
    0.00000E+00         0.00000E+00        -0.49998E+08
 
   -0.49923E+08         0.99328E+04         0.00000E+00
    0.99328E+04        -0.49999E+08         0.00000E+00
    0.00000E+00         0.00000E+00        -0.49998E+08
 
   -0.49923E+08         0.11727E+05         0.00000E+00
    0.11727E+05        -0.49999E+08         0.00000E+00
    0.00000E+00         0.00000E+00        -0.49998E+08
 
   -0.49923E+08         0.13513E+05         0.00000E+00
    0.13513E+05        -0.49999E+08         0.00000E+00
    0.00000E+00         0.00000E+00        -0.49998E+08
 
   -0.49924E+08         0.15290E+05         0.00000E+00
    0.15290E+05        -0.49998E+08         0.00000E+00
    0.00000E+00         0.00000E+00        -0.49998E+08
 
   -0.49924E+08         0.17054E+05         0.00000E+00
    0.17054E+05        -0.49998E+08         0.00000E+00
    0.00000E+00         0.00000E+00        -0.49998E+08
 
   -0.49925E+08         0.18805E+05         0.00000E+00
    0.18805E+05        -0.49998E+08         0.00000E+00
    0.00000E+00         0.00000E+00        -0.49998E+08
 
   -0.49925E+08         0.20540E+05         0.00000E+00
    0.20540E+05        -0.49997E+08         0.00000E+00
    0.00000E+00         0.00000E+00        -0.49998E+08
 
   -0.49926E+08         0.22259E+05         0.00000E+00
    0.22259E+05        -0.49997E+08         0.00000E+00
    0.00000E+00         0.00000E+00        -0.49998E+08
 
   -0.49927E+08         0.23959E+05         0.00000E+00
    0.23959E+05        -0.49996E+08         0.00000E+00
    0.00000E+00         0.00000E+00        -0.49998E+08
 
   -0.49928E+08         0.25639E+05         0.00000E+00
    0.25639E+05        -0.49996E+08         0.00000E+00
    0.00000E+00         0.00000E+00        -0.49998E+08
 
   -0.49929E+08         0.27296E+05         0.00000E+00
    0.27296E+05        -0.49995E+08         0.00000E+00
    0.00000E+00         0.00000E+00        -0.49998E+08
 
   -0.49930E+08         0.28931E+05         0.00000E+00
    0.28931E+05        -0.49994E+08         0.00000E+00
    0.00000E+00         0.00000E+00        -0.49998E+08
 
   -0.49931E+08         0.30539E+05         0.00000E+00
    0.30539E+05        -0.49994E+08         0.00000E+00
    0.00000E+00         0.00000E+00        -0.49998E+08
 
   -0.49932E+08         0.32121E+05         0.00000E+00
    0.32121E+05        -0.49993E+08         0.00000E+00
    0.00000E+00         0.00000E+00        -0.49998E+08
 
   -0.49933E+08         0.33675E+05         0.00000E+00
    0.33675E+05        -0.49992E+08         0.00000E+00
    0.00000E+00         0.00000E+00        -0.49998E+08
 
   -0.49934E+08         0.35199E+05         0.00000E+00
    0.35199E+05        -0.49991E+08         0.00000E+00
    0.00000E+00         0.00000E+00        -0.49998E+08
 
   -0.49936E+08         0.36691E+05         0.00000E+00
    0.36691E+05        -0.49991E+08         0.00000E+00
    0.00000E+00         0.00000E+00        -0.49998E+08
 
   -0.49937E+08         0.38151E+05         0.00000E+00
    0.38151E+05        -0.49990E+08         0.00000E+00
    0.00000E+00         0.00000E+00        -0.49998E+08
 
   -0.49939E+08         0.39576E+05         0.00000E+00
    0.39576E+05        -0.49989E+08         0.00000E+00
    0.00000E+00         0.00000E+00        -0.49998E+08
 
   -0.49940E+08         0.40965E+05         0.00000E+00
    0.40965E+05        -0.49988E+08         0.00000E+00
    0.00000E+00         0.00000E+00        -0.49998E+08
 
   -0.49942E+08         0.42317E+05         0.00000E+00
    0.42317E+05        -0.49987E+08         0.00000E+00
    0.00000E+00         0.00000E+00        -0.49998E+08
 
   -0.49944E+08         0.43630E+05         0.00000E+00
    0.43630E+05        -0.49986E+08         0.00000E+00
    0.00000E+00         0.00000E+00        -0.49998E+08
 
   -0.49945E+08         0.44904E+05         0.00000E+00
    0.44904E+05        -0.49985E+08         0.00000E+00
    0.00000E+00         0.00000E+00        -0.49998E+08
 
   -0.49947E+08         0.46136E+05         0.00000E+00
    0.46136E+05        -0.49984E+08         0.00000E+00
    0.00000E+00         0.00000E+00        -0.49998E+08
 
   -0.49949E+08         0.47326E+05         0.00000E+00
    0.47326E+05        -0.49983E+08         0.00000E+00
    0.00000E+00         0.00000E+00        -0.49998E+08
 
   -0.49951E+08         0.48472E+05         0.00000E+00
    0.48472E+05        -0.49982E+08         0.00000E+00
    0.00000E+00         0.00000E+00        -0.49998E+08
 
   -0.49953E+08         0.49573E+05         0.00000E+00
    0.49573E+05        -0.49981E+08         0.00000E+00
    0.00000E+00         0.00000E+00        -0.49998E+08
 
   -0.49955E+08         0.50628E+05         0.00000E+00
    0.50628E+05        -0.49980E+08         0.00000E+00
    0.00000E+00         0.00000E+00        -0.49998E+08
 
   -0.49957E+08         0.51635E+05         0.00000E+00
    0.51635E+05        -0.49978E+08         0.00000E+00
    0.00000E+00         0.00000E+00        -0.49998E+08
 
   -0.49959E+08         0.52594E+05         0.00000E+00
    0.52594E+05        -0.49977E+08         0.00000E+00
    0.00000E+00         0.00000E+00        -0.49998E+08
 
   -0.49962E+08         0.53504E+05         0.00000E+00
    0.53504E+05        -0.49976E+08         0.00000E+00
    0.00000E+00         0.00000E+00        -0.49998E+08
 
   -0.49964E+08         0.54363E+05         0.00000E+00
    0.54363E+05        -0.49975E+08         0.00000E+00
    0.00000E+00         0.00000E+00        -0.49998E+08
 
   -0.49966E+08         0.55170E+05         0.00000E+00
    0.55170E+05        -0.49974E+08         0.00000E+00
    0.00000E+00         0.00000E+00        -0.49998E+08
 
   -0.49969E+08         0.55925E+05         0.00000E+00
    0.55925E+05        -0.49972E+08         0.00000E+00
    0.00000E+00         0.00000E+00        -0.49998E+08
 
   -0.49971E+08         0.56626E+05         0.00000E+00
    0.56626E+05        -0.49971E+08         0.00000E+00
    0.00000E+00         0.00000E+00        -0.49998E+08
 
   -0.49973E+08         0.57272E+05         0.00000E+00
    0.57272E+05        -0.49970E+08         0.00000E+00
    0.00000E+00         0.00000E+00        -0.49998E+08
 
   -0.49976E+08         0.57863E+05         0.00000E+00
    0.57863E+05        -0.49968E+08         0.00000E+00
    0.00000E+00         0.00000E+00        -0.49998E+08
 
   -0.49978E+08         0.58398E+05         0.00000E+00
    0.58398E+05        -0.49967E+08         0.00000E+00
    0.00000E+00         0.00000E+00        -0.49998E+08
 
   -0.49981E+08         0.58876E+05         0.00000E+00
    0.58876E+05        -0.49966E+08         0.00000E+00
    0.00000E+00         0.00000E+00        -0.49998E+08
 
   -0.49984E+08         0.59297E+05         0.00000E+00
    0.59297E+05        -0.49964E+08         0.00000E+00
    0.00000E+00         0.00000E+00        -0.49998E+08
 
   -0.49986E+08         0.59658E+05         0.00000E+00
    0.59658E+05        -0.49963E+08         0.00000E+00
    0.00000E+00         0.00000E+00        -0.49998E+08
 
   -0.49989E+08         0.59961E+05         0.00000E+00
    0.59961E+05        -0.49962E+08         0.00000E+00
    0.00000E+00         0.00000E+00        -0.49998E+08
 
   -0.49992E+08         0.60204E+05         0.00000E+00
    0.60204E+05        -0.49960E+08         0.00000E+00
    0.00000E+00         0.00000E+00        -0.49998E+08
 
   -0.49994E+08         0.60386E+05         0.00000E+00
    0.60386E+05        -0.49959E+08         0.00000E+00
    0.00000E+00         0.00000E+00        -0.49998E+08
 
   -0.49997E+08         0.60508E+05         0.00000E+00
    0.60508E+05        -0.49957E+08         0.00000E+00
    0.00000E+00         0.00000E+00        -0.49998E+08
 
   -0.49913E+08         0.10114E+04         0.00000E+00
    0.10114E+04        -0.50000E+08         0.00000E+00
    0.00000E+00         0.00000E+00        -0.49998E+08
 
   -0.49913E+08         0.30429E+04         0.00000E+00
    0.30429E+04        -0.50000E+08         0.00000E+00
    0.00000E+00         0.00000E+00        -0.49998E+08
 
   -0.49913E+08         0.50747E+04         0.00000E+00
    0.50747E+04        -0.50000E+08         0.00000E+00
    0.00000E+00         0.00000E+00        -0.49998E+08
 
   -0.49913E+08         0.71050E+04         0.00000E+00
    0.71050E+04        -0.50000E+08         0.00000E+00
    0.00000E+00         0.00000E+00        -0.49998E+08
 
   -0.49913E+08         0.91315E+04         0.00000E+00
    0.91315E+04        -0.50000E+08         0.00000E+00
    0.00000E+00         0.00000E+00        -0.49998E+08
 
   -0.49913E+08         0.11152E+05         0.00000E+00
    0.11152E+05        -0.49999E+08         0.00000E+00
    0.00000E+00         0.00000E+00        -0.49998E+08
 
   -0.49914E+08         0.13166E+05         0.00000E+00
    0.13166E+05        -0.49999E+08         0.00000E+00
    0.00000E+00         0.00000E+00        -0.49998E+08
 
   -0.49914E+08         0.15169E+05         0.00000E+00
    0.15169E+05        -0.49999E+08         0.00000E+00
    0.00000E+00         0.00000E+00        -0.49998E+08
 
   -0.49914E+08         0.17161E+05         0.00000E+00
    0.17161E+05        -0.49998E+08         0.00000E+00
    0.00000E+00         0.00000E+00        -0.49998E+08
 
   -0.49915E+08         0.19139E+05         0.00000E+00
    0.19139E+05        -0.49998E+08         0.00000E+00
    0.00000E+00         0.00000E+00        -0.49998E+08
 
   -0.49916E+08         0.21102E+05         0.00000E+00
    0.21102E+05        -0.49997E+08         0.00000E+00
    0.00000E+00         0.00000E+00        -0.49998E+08
 
   -0.49916E+08         0.23048E+05         0.00000E+00
    0.23048E+05        -0.49997E+08         0.00000E+00
    0.00000E+00         0.00000E+00        -0.49998E+08
 
   -0.49917E+08         0.24974E+05         0.00000E+00
    0.24974E+05        -0.49996E+08         0.00000E+00
    0.00000E+00         0.00000E+00        -0.49998E+08
 
   -0.49918E+08         0.26879E+05         0.00000E+00
    0.26879E+05        -0.49996E+08         0.00000E+00
    0.00000E+00         0.00000E+00        -0.49998E+08
 
   -0.49919E+08         0.28760E+05         0.00000E+00
    0.28760E+05        -0.49995E+08         0.00000E+00
    0.00000E+00         0.00000E+00        -0.49998E+08
 
   -0.49920E+08         0.30617E+05         0.00000E+00
    0.30617E+05        -0.49994E+08         0.00000E+00
    0.00000E+00         0.00000E+00        -0.49998E+08
 
   -0.49921E+08         0.32447E+05         0.00000E+00
    0.32447E+05        -0.49994E+08         0.00000E+00
    0.00000E+00         0.00000E+00        -0.49998E+08
 
   -0.49922E+08         0.34249E+05         0.00000E+00
    0.34249E+05        -0.49993E+08         0.00000E+00
    0.00000E+00         0.00000E+00        -0.49998E+08
 
   -0.49924E+08         0.36021E+05         0.00000E+00
    0.36021E+05        -0.49992E+08         0.00000E+00
    0.00000E+00         0.00000E+00        -0.49998E+08
 
   -0.49925E+08         0.37760E+05         0.00000E+00
    0.37760E+05        -0.49991E+08         0.00000E+00
    0.00000E+00         0.00000E+00        -0.49998E+08
 
   -0.49927E+08         0.39466E+05         0.00000E+00
    0.39466E+05        -0.49990E+08         0.00000E+00
    0.00000E+00         0.00000E+00        -0.49998E+08
 
   -0.49928E+08         0.41137E+05         0.00000E+00
    0.41137E+05        -0.49990E+08         0.00000E+00
    0.00000E+00         0.00000E+00        -0.49998E+08
 
   -0.49930E+08         0.42770E+05         0.00000E+00
    0.42770E+05        -0.49989E+08         0.00000E+00
    0.00000E+00         0.00000E+00        -0.49998E+08
 
   -0.49931E+08         0.44365E+05         0.00000E+00
    0.44365E+05        -0.49988E+08         0.00000E+00
    0.00000E+00         0.00000E+00        -0.49998E+08
 
   -0.49933E+08         0.45920E+05         0.00000E+00
    0.45920E+05        -0.49987E+08         0.00000E+00
    0.00000E+00         0.00000E+00        -0.49998E+08
 
   -0.49935E+08         0.47433E+05         0.00000E+00
    0.47433E+05        -0.49985E+08         0.00000E+00
    0.00000E+00         0.00000E+00        -0.49998E+08
 
   -0.49937E+08         0.48903E+05         0.00000E+00
    0.48903E+05        -0.49984E+08         0.00000E+00
    0.00000E+00         0.00000E+00        -0.49998E+08
 
   -0.49939E+08         0.50329E+05         0.00000E+00
    0.50329E+05        -0.49983E+08         0.00000E+00
    0.00000E+00         0.00000E+00        -0.49998E+08
 
   -0.49941E+08         0.51708E+05         0.00000E+00
    0.51708E+05        -0.49982E+08         0.00000E+00
    0.00000E+00         0.00000E+00        -0.49998E+08
 
   -0.49943E+08         0.53039E+05         0.00000E+00
    0.53039E+05        -0.49981E+08         0.00000E+00
    0.00000E+00         0.00000E+00        -0.49998E+08
 
   -0.49945E+08         0.54322E+05         0.00000E+00
    0.54322E+05        -0.49980E+08         0.00000E+00
    0.00000E+00         0.00000E+00        -0.49998E+08
 
   -0.49947E+08         0.55554E+05         0.00000E+00
    0.55554E+05        -0.49978E+08         0.00000E+00
    0.00000E+00         0.00000E+00        -0.49998E+08
 
   -0.49950E+08         0.56735E+05         0.00000E+00
    0.56735E+05        -0.49977E+08         0.00000E+00
    0.00000E+00         0.00000E+00        -0.49998E+08
 
   -0.49952E+08         0.57863E+05         0.00000E+00
    0.57863E+05        -0.49976E+08         0.00000E+00
    0.00000E+00         0.00000E+00        -0.49998E+08
 
   -0.49954E+08         0.58936E+05         0.00000E+00
    0.58936E+05        -0.49974E+08         0.00000E+00
    0.00000E+00         0.00000E+00        -0.49998E+08
 
   -0.49957E+08         0.59955E+05         0.00000E+00
    0.59955E+05        -0.49973E+08         0.00000E+00
    0.00000E+00         0.00000E+00        -0.49998E+08
 
   -0.49959E+08         0.60917E+05         0.00000E+00
    0.60917E+05        -0.49972E+08         0.00000E+00
    0.00000E+00         0.00000E+00        -0.49998E+08
 
   -0.49962E+08         0.61821E+05         0.00000E+00
    0.61821E+05        -0.49970E+08         0.00000E+00
    0.00000E+00         0.00000E+00        -0.49998E+08
 
   -0.49965E+08         0.62667E+05         0.00000E+00
    0.62667E+05        -0.49969E+08         0.00000E+00
    0.00000E+00         0.00000E+00        -0.49998E+08
 
   -0.49967E+08         0.63453E+05         0.00000E+00
    0.63453E+05        -0.49968E+08         0.00000E+00
    0.00000E+00         0.00000E+00        -0.49998E+08
 
   -0.49970E+08         0.64178E+05         0.00000E+00
    0.64178E+05        -0.49966E+08         0.00000E+00
    0.00000E+00         0.00000E+00        -0.49998E+08
 
   -0.49973E+08         0.64842E+05         0.00000E+00
    0.64842E+05        -0.49965E+08         0.00000E+00
    0.00000E+00         0.00000E+00        -0.49998E+08
 
   -0.49976E+08         0.65443E+05         0.00000E+00
    0.65443E+05        -0.49963E+08         0.00000E+00
    0.00000E+00         0.00000E+00        -0.49998E+08
 
   -0.49979E+08         0.65980E+05         0.00000E+00
    0.65980E+05        -0.49962E+08         0.00000E+00
    0.00000E+00         0.00000E+00        -0.49998E+08
 
   -0.49981E+08         0.66453E+05         0.00000E+00
    0.66453E+05        -0.49960E+08         0.00000E+00
    0.00000E+00         0.00000E+00        -0.49998E+08
 
   -0.49984E+08         0.66861E+05         0.00000E+00
    0.66861E+05        -0.49959E+08         0.00000E+00
    0.00000E+00         0.00000E+00        -0.49998E+08
 
   -0.49987E+08         0.67203E+05         0.00000E+00
    0.67203E+05        -0.49957E+08         0.00000E+00
    0.00000E+00         0.00000E+00        -0.49998E+08
 
   -0.49990E+08         0.67479E+05         0.00000E+00
    0.67479E+05        -0.49956E+08         0.00000E+00
    0.00000E+00         0.00000E+00        -0.49998E+08
 
   -0.49993E+08         0.67687E+05         0.00000E+00
    0.67687E+05        -0.49954E+08         0.00000E+00
    0.00000E+00         0.00000E+00        -0.49998E+08
 
   -0.49997E+08         0.67827E+05         0.00000E+00
    0.67827E+05        -0.49952E+08         0.00000E+00
    0.00000E+00         0.00000E+00        -0.49998E+08
 
   -0.49903E+08         0.11366E+04         0.00000E+00
    0.11366E+04        -0.50000E+08         0.00000E+00
    0.00000E+00         0.00000E+00        -0.49998E+08
 
   -0.49902E+08         0.34177E+04         0.00000E+00
    0.34177E+04        -0.50000E+08         0.00000E+00
    0.00000E+00         0.00000E+00        -0.49998E+08
 
   -0.49902E+08         0.56987E+04         0.00000E+00
    0.56987E+04        -0.50000E+08         0.00000E+00
    0.00000E+00         0.00000E+00        -0.49998E+08
 
   -0.49902E+08         0.79773E+04         0.00000E+00
    0.79773E+04        -0.50000E+08         0.00000E+00
    0.00000E+00         0.00000E+00        -0.49998E+08
 
   -0.49903E+08         0.10251E+05         0.00000E+00
    0.10251E+05        -0.49999E+08         0.00000E+00
    0.00000E+00         0.00000E+00        -0.49998E+08
 
   -0.49903E+08         0.12518E+05         0.00000E+00
    0.12518E+05        -0.49999E+08         0.00000E+00
    0.00000E+00         0.00000E+00        -0.49998E+08
 
   -0.49903E+08         0.14776E+05         0.00000E+00
    0.14776E+05        -0.49999E+08         0.00000E+00
    0.00000E+00         0.00000E+00        -0.49998E+08
 
   -0.49903E+08         0.17023E+05         0.00000E+00
    0.17023E+05        -0.49999E+08         0.00000E+00
    0.00000E+00         0.00000E+00        -0.49998E+08
 
   -0.49904E+08         0.19256E+05         0.00000E+00
    0.19256E+05        -0.49998E+08         0.00000E+00
    0.00000E+00         0.00000E+00        -0.49998E+08
 
   -0.49905E+08         0.21473E+05         0.00000E+00
    0.21473E+05        -0.49998E+08         0.00000E+00
    0.00000E+00         0.00000E+00        -0.49998E+08
 
   -0.49905E+08         0.23673E+05         0.00000E+00
    0.23673E+05        -0.49997E+08         0.00000E+00
    0.00000E+00         0.00000E+00        -0.49998E+08
 
   -0.49906E+08         0.25853E+05         0.00000E+00
    0.25853E+05        -0.49997E+08         0.00000E+00
    0.00000E+00         0.00000E+00        -0.49998E+08
 
   -0.49907E+08         0.28010E+05         0.00000E+00
    0.28010E+05        -0.49996E+08         0.00000E+00
    0.00000E+00         0.00000E+00        -0.49998E+08
 
   -0.49908E+08         0.30144E+05         0.00000E+00
    0.30144E+05        -0.49995E+08         0.00000E+00
    0.00000E+00         0.00000E+00        -0.49998E+08
 
   -0.49909E+08         0.32251E+05         0.00000E+00
    0.32251E+05        -0.49995E+08         0.00000E+00
    0.00000E+00         0.00000E+00        -0.49998E+08
 
   -0.49910E+08         0.34331E+05         0.00000E+00
    0.34331E+05        -0.49994E+08         0.00000E+00
    0.00000E+00         0.00000E+00        -0.49998E+08
 
   -0.49912E+08         0.36380E+05         0.00000E+00
    0.36380E+05        -0.49993E+08         0.00000E+00
    0.00000E+00         0.00000E+00        -0.49998E+08
 
   -0.49913E+08         0.38396E+05         0.00000E+00
    0.38396E+05        -0.49992E+08         0.00000E+00
    0.00000E+00         0.00000E+00        -0.49998E+08
 
   -0.49914E+08         0.40379E+05         0.00000E+00
    0.40379E+05        -0.49991E+08         0.00000E+00
    0.00000E+00         0.00000E+00        -0.49998E+08
 
   -0.49916E+08         0.42326E+05         0.00000E+00
    0.42326E+05        -0.49990E+08         0.00000E+00
    0.00000E+00         0.00000E+00        -0.49998E+08
 
   -0.49918E+08         0.44235E+05         0.00000E+00
    0.44235E+05        -0.49989E+08         0.00000E+00
    0.00000E+00         0.00000E+00        -0.49998E+08
 
   -0.49919E+08         0.46104E+05         0.00000E+00
    0.46104E+05        -0.49988E+08         0.00000E+00
    0.00000E+00         0.00000E+00        -0.49998E+08
 
   -0.49921E+08         0.47932E+05         0.00000E+00
    0.47932E+05        -0.49987E+08         0.00000E+00
    0.00000E+00         0.00000E+00        -0.49998E+08
 
   -0.49923E+08         0.49717E+05         0.00000E+00
    0.49717E+05        -0.49986E+08         0.00000E+00
    0.00000E+00         0.00000E+00        -0.49998E+08
 
   -0.49925E+08         0.51456E+05         0.00000E+00
    0.51456E+05        -0.49985E+08         0.00000E+00
    0.00000E+00         0.00000E+00        -0.49998E+08
 
   -0.49927E+08         0.53149E+05         0.00000E+00
    0.53149E+05        -0.49984E+08         0.00000E+00
    0.00000E+00         0.00000E+00        -0.49998E+08
 
   -0.49929E+08         0.54794E+05         0.00000E+00
    0.54794E+05        -0.49983E+08         0.00000E+00
    0.00000E+00         0.00000E+00        -0.49998E+08
 
   -0.49931E+08         0.56388E+05         0.00000E+00
    0.56388E+05        -0.49981E+08         0.00000E+00
    0.00000E+00         0.00000E+00        -0.49998E+08
 
   -0.49934E+08         0.57931E+05         0.00000E+00
    0.57931E+05        -0.49980E+08         0.00000E+00
    0.00000E+00         0.00000E+00        -0.49998E+08
 
   -0.49936E+08         0.59420E+05         0.00000E+00
    0.59420E+05        -0.49979E+08         0.00000E+00
    0.00000E+00         0.00000E+00        -0.49998E+08
 
   -0.49938E+08         0.60855E+05         0.00000E+00
    0.60855E+05        -0.49977E+08         0.00000E+00
    0.00000E+00         0.00000E+00        -0.49998E+08
 
   -0.49941E+08         0.62234E+05         0.00000E+00
    0.62234E+05        -0.49976E+08         0.00000E+00
    0.00000E+00         0.00000E+00        -0.49998E+08
 
   -0.49944E+08         0.63555E+05         0.00000E+00
    0.63555E+05        -0.49974E+08         0.00000E+00
    0.00000E+00         0.00000E+00        -0.49998E+08
 
   -0.49946E+08         0.64817E+05         0.00000E+00
    0.64817E+05        -0.49973E+08         0.00000E+00
    0.00000E+00         0.00000E+00        -0.49998E+08
 
   -0.49949E+08         0.66019E+05         0.00000E+00
    0.66019E+05        -0.49972E+08         0.00000E+00
    0.00000E+00         0.00000E+00        -0.49998E+08
 
   -0.49952E+08         0.67159E+05         0.00000E+00
    0.67159E+05        -0.49970E+08         0.00000E+00
    0.00000E+00         0.00000E+00        -0.49998E+08
 
   -0.49955E+08         0.68236E+05         0.00000E+00
    0.68236E+05        -0.49968E+08         0.00000E+00
    0.00000E+00         0.00000E+00        -0.49998E+08
 
   -0.49957E+08         0.69249E+05         0.00000E+00
    0.69249E+05        -0.49967E+08         0.00000E+00
    0.00000E+00         0.00000E+00        -0.49998E+08
 
   -0.49960E+08         0.70196E+05         0.00000E+00
    0.70196E+05        -0.49965E+08         0.00000E+00
    0.00000E+00         0.00000E+00        -0.49998E+08
 
   -0.49963E+08         0.71077E+05         0.00000E+00
    0.71077E+05        -0.49964E+08         0.00000E+00
    0.00000E+00         0.00000E+00        -0.49998E+08
 
   -0.49966E+08         0.71891E+05         0.00000E+00
    0.71891E+05        -0.49962E+08         0.00000E+00
    0.00000E+00         0.00000E+00        -0.49998E+08
 
   -0.49970E+08         0.72635E+05         0.00000E+00
    0.72635E+05        -0.49960E+08         0.00000E+00
    0.00000E+00         0.00000E+00        -0.49998E+08
 
   -0.49973E+08         0.73310E+05         0.00000E+00
    0.73310E+05        -0.49959E+08         0.00000E+00
    0.00000E+00         0.00000E+00        -0.49998E+08
 
   -0.49976E+08         0.73914E+05         0.00000E+00
    0.73914E+05        -0.49957E+08         0.00000E+00
    0.00000E+00         0.00000E+00        -0.49998E+08
 
   -0.49979E+08         0.74447E+05         0.00000E+00
    0.74447E+05        -0.49955E+08         0.00000E+00
    0.00000E+00         0.00000E+00        -0.49998E+08
 
   -0.49982E+08         0.74907E+05         0.00000E+00
    0.74907E+05        -0.49954E+08         0.00000E+00
    0.00000E+00         0.00000E+00        -0.49998E+08
 
   -0.49986E+08         0.75294E+05         0.00000E+00
    0.75294E+05        -0.49952E+08         0.00000E+00
    0.00000E+00         0.00000E+00        -0.49998E+08
 
   -0.49989E+08         0.75607E+05         0.00000E+00
    0.75607E+05        -0.49950E+08         0.00000E+00
    0.00000E+00         0.00000E+00        -0.49998E+08
 
   -0.49993E+08         0.75845E+05         0.00000E+00
    0.75845E+05        -0.49949E+08         0.00000E+00
    0.00000E+00         0.00000E+00        -0.49998E+08
 
   -0.49996E+08         0.76007E+05         0.00000E+00
    0.76007E+05        -0.49947E+08         0.00000E+00
    0.00000E+00         0.00000E+00        -0.49998E+08
 
   -0.49891E+08         0.12769E+04         0.00000E+00
    0.12769E+04        -0.50000E+08         0.00000E+00
    0.00000E+00         0.00000E+00        -0.49997E+08
 
   -0.49890E+08         0.38377E+04         0.00000E+00
    0.38377E+04        -0.50000E+08         0.00000E+00
    0.00000E+00         0.00000E+00        -0.49997E+08
 
   -0.49890E+08         0.63977E+04         0.00000E+00
    0.63977E+04        -0.50000E+08         0.00000E+00
    0.00000E+00         0.00000E+00        -0.49997E+08
 
   -0.49890E+08         0.89542E+04         0.00000E+00
    0.89542E+04        -0.50000E+08         0.00000E+00
    0.00000E+00         0.00000E+00        -0.49997E+08
 
   -0.49890E+08         0.11505E+05         0.00000E+00
    0.11505E+05        -0.49999E+08         0.00000E+00
    0.00000E+00         0.00000E+00        -0.49997E+08
 
   -0.49891E+08         0.14047E+05         0.00000E+00
    0.14047E+05        -0.49999E+08         0.00000E+00
    0.00000E+00         0.00000E+00        -0.49997E+08
 
   -0.49891E+08         0.16579E+05         0.00000E+00
    0.16579E+05        -0.49999E+08         0.00000E+00
    0.00000E+00         0.00000E+00        -0.49997E+08
 
   -0.49892E+08         0.19097E+05         0.00000E+00
    0.19097E+05        -0.49998E+08         0.00000E+00
    0.00000E+00         0.00000E+00        -0.49997E+08
 
   -0.49892E+08         0.21600E+05         0.00000E+00
    0.21600E+05        -0.49998E+08         0.00000E+00
    0.00000E+00         0.00000E+00        -0.49997E+08
 
   -0.49893E+08         0.24084E+05         0.00000E+00
    0.24084E+05        -0.49997E+08         0.00000E+00
    0.00000E+00         0.00000E+00        -0.49997E+08
 
   -0.49894E+08         0.26548E+05         0.00000E+00
    0.26548E+05        -0.49997E+08         0.00000E+00
    0.00000E+00         0.00000E+00        -0.49997E+08
 
   -0.49895E+08         0.28990E+05         0.00000E+00
    0.28990E+05        -0.49996E+08         0.00000E+00
    0.00000E+00         0.00000E+00        -0.49997E+08
 
   -0.49896E+08         0.31406E+05         0.00000E+00
    0.31406E+05        -0.49995E+08         0.00000E+00
    0.00000E+00         0.00000E+00        -0.49997E+08
 
   -0.49897E+08         0.33794E+05         0.00000E+00
    0.33794E+05        -0.49995E+08         0.00000E+00
    0.00000E+00         0.00000E+00        -0.49997E+08
 
   -0.49898E+08         0.36154E+05         0.00000E+00
    0.36154E+05        -0.49994E+08         0.00000E+00
    0.00000E+00         0.00000E+00        -0.49997E+08
 
   -0.49899E+08         0.38481E+05         0.00000E+00
    0.38481E+05        -0.49993E+08         0.00000E+00
    0.00000E+00         0.00000E+00        -0.49997E+08
 
   -0.49901E+08         0.40774E+05         0.00000E+00
    0.40774E+05        -0.49992E+08         0.00000E+00
    0.00000E+00         0.00000E+00        -0.49997E+08
 
   -0.49902E+08         0.43031E+05         0.00000E+00
    0.43031E+05        -0.49991E+08         0.00000E+00
    0.00000E+00         0.00000E+00        -0.49997E+08
 
   -0.49904E+08         0.45249E+05         0.00000E+00
    0.45249E+05        -0.49990E+08         0.00000E+00
    0.00000E+00         0.00000E+00        -0.49997E+08
 
   -0.49906E+08         0.47427E+05         0.00000E+00
    0.47427E+05        -0.49989E+08         0.00000E+00
    0.00000E+00         0.00000E+00        -0.49997E+08
 
   -0.49908E+08         0.49562E+05         0.00000E+00
    0.49562E+05        -0.49988E+08         0.00000E+00
    0.00000E+00         0.00000E+00        -0.49997E+08
 
   -0.49910E+08         0.51653E+05         0.00000E+00
    0.51653E+05        -0.49987E+08         0.00000E+00
    0.00000E+00         0.00000E+00        -0.49997E+08
 
   -0.49912E+08         0.53697E+05         0.00000E+00
    0.53697E+05        -0.49986E+08         0.00000E+00
    0.00000E+00         0.00000E+00        -0.49997E+08
 
   -0.49914E+08         0.55693E+05         0.00000E+00
    0.55693E+05        -0.49984E+08         0.00000E+00
    0.00000E+00         0.00000E+00        -0.49997E+08
 
   -0.49916E+08         0.57638E+05         0.00000E+00
    0.57638E+05        -0.49983E+08         0.00000E+00
    0.00000E+00         0.00000E+00        -0.49997E+08
 
   -0.49918E+08         0.59531E+05         0.00000E+00
    0.59531E+05        -0.49982E+08         0.00000E+00
    0.00000E+00         0.00000E+00        -0.49997E+08
 
   -0.49921E+08         0.61370E+05         0.00000E+00
    0.61370E+05        -0.49980E+08         0.00000E+00
    0.00000E+00         0.00000E+00        -0.49997E+08
 
   -0.49923E+08         0.63153E+05         0.00000E+00
    0.63153E+05        -0.49979E+08         0.00000E+00
    0.00000E+00         0.00000E+00        -0.49997E+08
 
   -0.49926E+08         0.64878E+05         0.00000E+00
    0.64878E+05        -0.49978E+08         0.00000E+00
    0.00000E+00         0.00000E+00        -0.49997E+08
 
   -0.49928E+08         0.66544E+05         0.00000E+00
    0.66544E+05        -0.49976E+08         0.00000E+00
    0.00000E+00         0.00000E+00        -0.49997E+08
 
   -0.49931E+08         0.68148E+05         0.00000E+00
    0.68148E+05        -0.49975E+08         0.00000E+00
    0.00000E+00         0.00000E+00        -0.49997E+08
 
   -0.49934E+08         0.69690E+05         0.00000E+00
    0.69690E+05        -0.49973E+08         0.00000E+00
    0.00000E+00         0.00000E+00        -0.49997E+08
 
   -0.49937E+08         0.71168E+05         0.00000E+00
    0.71168E+05        -0.49971E+08         0.00000E+00
    0.00000E+00         0.00000E+00        -0.49997E+08
 
   -0.49940E+08         0.72580E+05         0.00000E+00
    0.72580E+05        -0.49970E+08         0.00000E+00
    0.00000E+00         0.00000E+00        -0.49997E+08
 
   -0.49943E+08         0.73924E+05         0.00000E+00
    0.73924E+05        -0.49968E+08         0.00000E+00
    0.00000E+00         0.00000E+00        -0.49997E+08
 
   -0.49946E+08         0.75200E+05         0.00000E+00
    0.75200E+05        -0.49966E+08         0.00000E+00
    0.00000E+00         0.00000E+00        -0.49997E+08
 
   -0.49949E+08         0.76405E+05         0.00000E+00
    0.76405E+05        -0.49965E+08         0.00000E+00
    0.00000E+00         0.00000E+00        -0.49997E+08
 
   -0.49952E+08         0.77539E+05         0.00000E+00
    0.77539E+05        -0.49963E+08         0.00000E+00
    0.00000E+00         0.00000E+00        -0.49997E+08
 
   -0.49956E+08         0.78601E+05         0.00000E+00
    0.78601E+05        -0.49961E+08         0.00000E+00
    0.00000E+00         0.00000E+00        -0.49997E+08
 
   -0.49959E+08         0.79588E+05         0.00000E+00
    0.79588E+05        -0.49960E+08         0.00000E+00
    0.00000E+00         0.00000E+00        -0.49997E+08
 
   -0.49962E+08         0.80500E+05         0.00000E+00
    0.80500E+05        -0.49958E+08         0.00000E+00
    0.00000E+00         0.00000E+00        -0.49997E+08
 
   -0.49966E+08         0.81335E+05         0.00000E+00
    0.81335E+05        -0.49956E+08         0.00000E+00
    0.00000E+00         0.00000E+00        -0.49997E+08
 
   -0.49969E+08         0.82093E+05         0.00000E+00
    0.82093E+05        -0.49954E+08         0.00000E+00
    0.00000E+00         0.00000E+00        -0.49997E+08
 
   -0.49973E+08         0.82772E+05         0.00000E+00
    0.82772E+05        -0.49952E+08         0.00000E+00
    0.00000E+00         0.00000E+00        -0.49997E+08
 
   -0.49977E+08         0.83372E+05         0.00000E+00
    0.83372E+05        -0.49950E+08         0.00000E+00
    0.00000E+00         0.00000E+00        -0.49997E+08
 
   -0.49980E+08         0.83891E+05         0.00000E+00
    0.83891E+05        -0.49948E+08         0.00000E+00
    0.00000E+00         0.00000E+00        -0.49997E+08
 
   -0.49984E+08         0.84328E+05         0.00000E+00
    0.84328E+05        -0.49946E+08         0.00000E+00
    0.00000E+00         0.00000E+00        -0.49997E+08
 
   -0.49988E+08         0.84683E+05         0.00000E+00
    0.84683E+05        -0.49945E+08         0.00000E+00
    0.00000E+00         0.00000E+00        -0.49997E+08
 
   -0.49991E+08         0.84955E+05         0.00000E+00
    0.84955E+05        -0.49943E+08         0.00000E+00
    0.00000E+00         0.00000E+00        -0.49997E+08
 
   -0.49995E+08         0.85143E+05         0.00000E+00
    0.85143E+05        -0.49941E+08         0.00000E+00
    0.00000E+00         0.00000E+00        -0.49997E+08
 
   -0.49877E+08         0.14342E+04         0.00000E+00
    0.14342E+04        -0.50000E+08         0.00000E+00
    0.00000E+00         0.00000E+00        -0.49997E+08
 
   -0.49877E+08         0.43081E+04         0.00000E+00
    0.43081E+04        -0.50000E+08         0.00000E+00
    0.00000E+00         0.00000E+00        -0.49997E+08
 
   -0.49877E+08         0.71802E+04         0.00000E+00
    0.71802E+04        -0.50000E+08         0.00000E+00
    0.00000E+00         0.00000E+00        -0.49997E+08
 
   -0.49877E+08         0.10048E+05         0.00000E+00
    0.10048E+05        -0.50000E+08         0.00000E+00
    0.00000E+00         0.00000E+00        -0.49997E+08
 
   -0.49877E+08         0.12908E+05         0.00000E+00
    0.12908E+05        -0.49999E+08         0.00000E+00
    0.00000E+00         0.00000E+00        -0.49997E+08
 
   -0.49877E+08         0.15758E+05         0.00000E+00
    0.15758E+05        -0.49999E+08         0.00000E+00
    0.00000E+00         0.00000E+00        -0.49997E+08
 
   -0.49878E+08         0.18595E+05         0.00000E+00
    0.18595E+05        -0.49999E+08         0.00000E+00
    0.00000E+00         0.00000E+00        -0.49997E+08
 
   -0.49878E+08         0.21417E+05         0.00000E+00
    0.21417E+05        -0.49998E+08         0.00000E+00
    0.00000E+00         0.00000E+00        -0.49997E+08
 
   -0.49879E+08         0.24221E+05         0.00000E+00
    0.24221E+05        -0.49998E+08         0.00000E+00
    0.00000E+00         0.00000E+00        -0.49997E+08
 
   -0.49880E+08         0.27003E+05         0.00000E+00
    0.27003E+05        -0.49997E+08         0.00000E+00
    0.00000E+00         0.00000E+00        -0.49997E+08
 
   -0.49881E+08         0.29762E+05         0.00000E+00
    0.29762E+05        -0.49996E+08         0.00000E+00
    0.00000E+00         0.00000E+00        -0.49997E+08
 
   -0.49882E+08         0.32496E+05         0.00000E+00
    0.32496E+05        -0.49996E+08         0.00000E+00
    0.00000E+00         0.00000E+00        -0.49997E+08
 
   -0.49883E+08         0.35200E+05         0.00000E+00
    0.35200E+05        -0.49995E+08         0.00000E+00
    0.00000E+00         0.00000E+00        -0.49997E+08
 
   -0.49884E+08         0.37873E+05         0.00000E+00
    0.37873E+05        -0.49994E+08         0.00000E+00
    0.00000E+00         0.00000E+00        -0.49997E+08
 
   -0.49886E+08         0.40513E+05         0.00000E+00
    0.40513E+05        -0.49993E+08         0.00000E+00
    0.00000E+00         0.00000E+00        -0.49997E+08
 
   -0.49887E+08         0.43117E+05         0.00000E+00
    0.43117E+05        -0.49992E+08         0.00000E+00
    0.00000E+00         0.00000E+00        -0.49997E+08
 
   -0.49889E+08         0.45682E+05         0.00000E+00
    0.45682E+05        -0.49991E+08         0.00000E+00
    0.00000E+00         0.00000E+00        -0.49997E+08
 
   -0.49890E+08         0.48206E+05         0.00000E+00
    0.48206E+05        -0.49990E+08         0.00000E+00
    0.00000E+00         0.00000E+00        -0.49997E+08
 
   -0.49892E+08         0.50687E+05         0.00000E+00
    0.50687E+05        -0.49989E+08         0.00000E+00
    0.00000E+00         0.00000E+00        -0.49997E+08
 
   -0.49894E+08         0.53122E+05         0.00000E+00
    0.53122E+05        -0.49988E+08         0.00000E+00
    0.00000E+00         0.00000E+00        -0.49997E+08
 
   -0.49896E+08         0.55510E+05         0.00000E+00
    0.55510E+05        -0.49987E+08         0.00000E+00
    0.00000E+00         0.00000E+00        -0.49997E+08
 
   -0.49899E+08         0.57847E+05         0.00000E+00
    0.57847E+05        -0.49985E+08         0.00000E+00
    0.00000E+00         0.00000E+00        -0.49997E+08
 
   -0.49901E+08         0.60132E+05         0.00000E+00
    0.60132E+05        -0.49984E+08         0.00000E+00
    0.00000E+00         0.00000E+00        -0.49997E+08
 
   -0.49903E+08         0.62363E+05         0.00000E+00
    0.62363E+05        -0.49983E+08         0.00000E+00
    0.00000E+00         0.00000E+00        -0.49997E+08
 
   -0.49906E+08         0.64537E+05         0.00000E+00
    0.64537E+05        -0.49981E+08         0.00000E+00
    0.00000E+00         0.00000E+00        -0.49997E+08
 
   -0.49908E+08         0.66653E+05         0.00000E+00
    0.66653E+05        -0.49980E+08         0.00000E+00
    0.00000E+00         0.00000E+00        -0.49997E+08
 
   -0.49911E+08         0.68708E+05         0.00000E+00
    0.68708E+05        -0.49978E+08         0.00000E+00
    0.00000E+00         0.00000E+00        -0.49997E+08
 
   -0.49914E+08         0.70701E+05         0.00000E+00
    0.70701E+05        -0.49977E+08         0.00000E+00
    0.00000E+00         0.00000E+00        -0.49997E+08
 
   -0.49917E+08         0.72629E+05         0.00000E+00
    0.72629E+05        -0.49975E+08         0.00000E+00
    0.00000E+00         0.00000E+00        -0.49997E+08
 
   -0.49920E+08         0.74490E+05         0.00000E+00
    0.74490E+05        -0.49973E+08         0.00000E+00
    0.00000E+00         0.00000E+00        -0.49997E+08
 
   -0.49923E+08         0.76284E+05         0.00000E+00
    0.76284E+05        -0.49972E+08         0.00000E+00
    0.00000E+00         0.00000E+00        -0.49997E+08
 
   -0.49926E+08         0.78008E+05         0.00000E+00
    0.78008E+05        -0.49970E+08         0.00000E+00
    0.00000E+00         0.00000E+00        -0.49997E+08
 
   -0.49929E+08         0.79660E+05         0.00000E+00
    0.79660E+05        -0.49968E+08         0.00000E+00
    0.00000E+00         0.00000E+00        -0.49997E+08
 
   -0.49932E+08         0.81238E+05         0.00000E+00
    0.81238E+05        -0.49966E+08         0.00000E+00
    0.00000E+00         0.00000E+00        -0.49997E+08
 
   -0.49936E+08         0.82742E+05         0.00000E+00
    0.82742E+05        -0.49964E+08         0.00000E+00
    0.00000E+00         0.00000E+00        -0.49997E+08
 
   -0.49939E+08         0.84169E+05         0.00000E+00
    0.84169E+05        -0.49963E+08         0.00000E+00
    0.00000E+00         0.00000E+00        -0.49997E+08
 
   -0.49943E+08         0.85518E+05         0.00000E+00
    0.85518E+05        -0.49961E+08         0.00000E+00
    0.00000E+00         0.00000E+00        -0.49997E+08
 
   -0.49946E+08         0.86787E+05         0.00000E+00
    0.86787E+05        -0.49959E+08         0.00000E+00
    0.00000E+00         0.00000E+00        -0.49997E+08
 
   -0.49950E+08         0.87975E+05         0.00000E+00
    0.87975E+05        -0.49957E+08         0.00000E+00
    0.00000E+00         0.00000E+00        -0.49997E+08
 
   -0.49954E+08         0.89081E+05         0.00000E+00
    0.89081E+05        -0.49955E+08         0.00000E+00
    0.00000E+00         0.00000E+00        -0.49997E+08
 
   -0.49958E+08         0.90103E+05         0.00000E+00
    0.90103E+05        -0.49953E+08         0.00000E+00
    0.00000E+00         0.00000E+00        -0.49997E+08
 
   -0.49962E+08         0.91040E+05         0.00000E+00
    0.91040E+05        -0.49951E+08         0.00000E+00
    0.00000E+00         0.00000E+00        -0.49997E+08
 
   -0.49966E+08         0.91891E+05         0.00000E+00
    0.91891E+05        -0.49949E+08         0.00000E+00
    0.00000E+00         0.00000E+00        -0.49997E+08
 
   -0.49970E+08         0.92655E+05         0.00000E+00
    0.92655E+05        -0.49947E+08         0.00000E+00
    0.00000E+00         0.00000E+00        -0.49997E+08
 
   -0.49974E+08         0.93330E+05         0.00000E+00
    0.93330E+05        -0.49945E+08         0.00000E+00
    0.00000E+00         0.00000E+00        -0.49997E+08
 
   -0.49978E+08         0.93915E+05         0.00000E+00
    0.93915E+05        -0.49942E+08         0.00000E+00
    0.00000E+00         0.00000E+00        -0.49997E+08
 
   -0.49982E+08         0.94410E+05         0.00000E+00
    0.94410E+05        -0.49940E+08         0.00000E+00
    0.00000E+00         0.00000E+00        -0.49997E+08
 
   -0.49986E+08         0.94813E+05         0.00000E+00
    0.94813E+05        -0.49938E+08         0.00000E+00
    0.00000E+00         0.00000E+00        -0.49997E+08
 
   -0.49990E+08         0.95124E+05         0.00000E+00
    0.95124E+05        -0.49936E+08         0.00000E+00
    0.00000E+00         0.00000E+00        -0.49997E+08
 
   -0.49994E+08         0.95342E+05         0.00000E+00
    0.95342E+05        -0.49934E+08         0.00000E+00
    0.00000E+00         0.00000E+00        -0.49997E+08
 
   -0.49862E+08         0.16104E+04         0.00000E+00
    0.16104E+04        -0.50000E+08         0.00000E+00
    0.00000E+00         0.00000E+00        -0.49996E+08
 
   -0.49862E+08         0.48346E+04         0.00000E+00
    0.48346E+04        -0.50000E+08         0.00000E+00
    0.00000E+00         0.00000E+00        -0.49996E+08
 
   -0.49862E+08         0.80558E+04         0.00000E+00
    0.80558E+04        -0.50000E+08         0.00000E+00
    0.00000E+00         0.00000E+00        -0.49996E+08
 
   -0.49862E+08         0.11271E+05         0.00000E+00
    0.11271E+05        -0.50000E+08         0.00000E+00
    0.00000E+00         0.00000E+00        -0.49996E+08
 
   -0.49862E+08         0.14477E+05         0.00000E+00
    0.14477E+05        -0.49999E+08         0.00000E+00
    0.00000E+00         0.00000E+00        -0.49996E+08
 
   -0.49862E+08         0.17671E+05         0.00000E+00
    0.17671E+05        -0.49999E+08         0.00000E+00
    0.00000E+00         0.00000E+00        -0.49996E+08
 
   -0.49863E+08         0.20850E+05         0.00000E+00
    0.20850E+05        -0.49998E+08         0.00000E+00
    0.00000E+00         0.00000E+00        -0.49996E+08
 
   -0.49863E+08         0.24010E+05         0.00000E+00
    0.24010E+05        -0.49998E+08         0.00000E+00
    0.00000E+00         0.00000E+00        -0.49996E+08
 
   -0.49864E+08         0.27149E+05         0.00000E+00
    0.27149E+05        -0.49997E+08         0.00000E+00
    0.00000E+00         0.00000E+00        -0.49996E+08
 
   -0.49865E+08         0.30265E+05         0.00000E+00
    0.30265E+05        -0.49997E+08         0.00000E+00
    0.00000E+00         0.00000E+00        -0.49996E+08
 
   -0.49866E+08         0.33353E+05         0.00000E+00
    0.33353E+05        -0.49996E+08         0.00000E+00
    0.00000E+00         0.00000E+00        -0.49996E+08
 
   -0.49867E+08         0.36412E+05         0.00000E+00
    0.36412E+05        -0.49995E+08         0.00000E+00
    0.00000E+00         0.00000E+00        -0.49996E+08
 
   -0.49869E+08         0.39438E+05         0.00000E+00
    0.39438E+05        -0.49994E+08         0.00000E+00
    0.00000E+00         0.00000E+00        -0.49996E+08
 
   -0.49870E+08         0.42428E+05         0.00000E+00
    0.42428E+05        -0.49993E+08         0.00000E+00
    0.00000E+00         0.00000E+00        -0.49996E+08
 
   -0.49872E+08         0.45381E+05         0.00000E+00
    0.45381E+05        -0.49992E+08         0.00000E+00
    0.00000E+00         0.00000E+00        -0.49996E+08
 
   -0.49873E+08         0.48292E+05         0.00000E+00
    0.48292E+05        -0.49991E+08         0.00000E+00
    0.00000E+00         0.00000E+00        -0.49996E+08
 
   -0.49875E+08         0.51160E+05         0.00000E+00
    0.51160E+05        -0.49990E+08         0.00000E+00
    0.00000E+00         0.00000E+00        -0.49996E+08
 
   -0.49877E+08         0.53982E+05         0.00000E+00
    0.53982E+05        -0.49989E+08         0.00000E+00
    0.00000E+00         0.00000E+00        -0.49996E+08
 
   -0.49879E+08         0.56755E+05         0.00000E+00
    0.56755E+05        -0.49988E+08         0.00000E+00
    0.00000E+00         0.00000E+00        -0.49996E+08
 
   -0.49882E+08         0.59477E+05         0.00000E+00
    0.59477E+05        -0.49986E+08         0.00000E+00
    0.00000E+00         0.00000E+00        -0.49996E+08
 
   -0.49884E+08         0.62145E+05         0.00000E+00
    0.62145E+05        -0.49985E+08         0.00000E+00
    0.00000E+00         0.00000E+00        -0.49996E+08
 
   -0.49886E+08         0.64757E+05         0.00000E+00
    0.64757E+05        -0.49984E+08         0.00000E+00
    0.00000E+00         0.00000E+00        -0.49996E+08
 
   -0.49889E+08         0.67310E+05         0.00000E+00
    0.67310E+05        -0.49982E+08         0.00000E+00
    0.00000E+00         0.00000E+00        -0.49996E+08
 
   -0.49892E+08         0.69802E+05         0.00000E+00
    0.69802E+05        -0.49981E+08         0.00000E+00
    0.00000E+00         0.00000E+00        -0.49996E+08
 
   -0.49894E+08         0.72231E+05         0.00000E+00
    0.72231E+05        -0.49979E+08         0.00000E+00
    0.00000E+00         0.00000E+00        -0.49996E+08
 
   -0.49897E+08         0.74595E+05         0.00000E+00
    0.74595E+05        -0.49977E+08         0.00000E+00
    0.00000E+00         0.00000E+00        -0.49996E+08
 
   -0.49900E+08         0.76891E+05         0.00000E+00
    0.76891E+05        -0.49976E+08         0.00000E+00
    0.00000E+00         0.00000E+00        -0.49996E+08
 
   -0.49903E+08         0.79117E+05         0.00000E+00
    0.79117E+05        -0.49974E+08         0.00000E+00
    0.00000E+00         0.00000E+00        -0.49996E+08
 
   -0.49907E+08         0.81271E+05         0.00000E+00
    0.81271E+05        -0.49972E+08         0.00000E+00
    0.00000E+00         0.00000E+00        -0.49996E+08
 
   -0.49910E+08         0.83351E+05         0.00000E+00
    0.83351E+05        -0.49970E+08         0.00000E+00
    0.00000E+00         0.00000E+00        -0.49996E+08
 
   -0.49913E+08         0.85354E+05         0.00000E+00
    0.85354E+05        -0.49968E+08         0.00000E+00
    0.00000E+00         0.00000E+00        -0.49996E+08
 
   -0.49917E+08         0.87280E+05         0.00000E+00
    0.87280E+05        -0.49966E+08         0.00000E+00
    0.00000E+00         0.00000E+00        -0.49996E+08
 
   -0.49921E+08         0.89126E+05         0.00000E+00
    0.89126E+05        -0.49964E+08         0.00000E+00
    0.00000E+00         0.00000E+00        -0.49996E+08
 
   -0.49924E+08         0.90891E+05         0.00000E+00
    0.90891E+05        -0.49962E+08         0.00000E+00
    0.00000E+00         0.00000E+00        -0.49996E+08
 
   -0.49928E+08         0.92571E+05         0.00000E+00
    0.92571E+05        -0.49960E+08         0.00000E+00
    0.00000E+00         0.00000E+00        -0.49996E+08
 
   -0.49932E+08         0.94167E+05         0.00000E+00
    0.94167E+05        -0.49958E+08         0.00000E+00
    0.00000E+00         0.00000E+00        -0.49996E+08
 
   -0.49936E+08         0.95676E+05         0.00000E+00
    0.95676E+05        -0.49956E+08         0.00000E+00
    0.00000E+00         0.00000E+00        -0.49996E+08
 
   -0.49940E+08         0.97096E+05         0.00000E+00
    0.97096E+05        -0.49954E+08         0.00000E+00
    0.00000E+00         0.00000E+00        -0.49996E+08
 
   -0.49944E+08         0.98426E+05         0.00000E+00
    0.98426E+05        -0.49952E+08         0.00000E+00
    0.00000E+00         0.00000E+00        -0.49996E+08
 
   -0.49948E+08         0.99664E+05         0.00000E+00
    0.99664E+05        -0.49950E+08         0.00000E+00
    0.00000E+00         0.00000E+00        -0.49996E+08
 
   -0.49953E+08         0.10081E+06         0.00000E+00
    0.10081E+06        -0.49947E+08         0.00000E+00
    0.00000E+00         0.00000E+00        -0.49996E+08
 
   -0.49957E+08         0.10186E+06         0.00000E+00
    0.10186E+06        -0.49945E+08         0.00000E+00
    0.00000E+00         0.00000E+00        -0.49996E+08
 
   -0.49961E+08         0.10282E+06         0.00000E+00
    0.10282E+06        -0.49943E+08         0.00000E+00
    0.00000E+00         0.00000E+00        -0.49996E+08
 
   -0.49966E+08         0.10367E+06         0.00000E+00
    0.10367E+06        -0.49940E+08         0.00000E+00
    0.00000E+00         0.00000E+00        -0.49996E+08
 
   -0.49970E+08         0.10443E+06         0.00000E+00
    0.10443E+06        -0.49938E+08         0.00000E+00
    0.00000E+00         0.00000E+00        -0.49996E+08
 
   -0.49975E+08         0.10509E+06         0.00000E+00
    0.10509E+06        -0.49936E+08         0.00000E+00
    0.00000E+00         0.00000E+00        -0.49996E+08
 
   -0.49979E+08         0.10565E+06         0.00000E+00
    0.10565E+06        -0.49933E+08         0.00000E+00
    0.00000E+00         0.00000E+00        -0.49996E+08
 
   -0.49984E+08         0.10611E+06         0.00000E+00
    0.10611E+06        -0.49931E+08         0.00000E+00
    0.00000E+00         0.00000E+00        -0.49996E+08
 
   -0.49989E+08         0.10647E+06         0.00000E+00
    0.10647E+06        -0.49929E+08         0.00000E+00
    0.00000E+00         0.00000E+00        -0.49996E+08
 
   -0.49994E+08         0.10672E+06         0.00000E+00
    0.10672E+06        -0.49926E+08         0.00000E+00
    0.00000E+00         0.00000E+00        -0.49996E+08
 
   -0.49845E+08         0.18078E+04         0.00000E+00
    0.18078E+04        -0.50000E+08         0.00000E+00
    0.00000E+00         0.00000E+00        -0.49995E+08
 
   -0.49845E+08         0.54237E+04         0.00000E+00
    0.54237E+04        -0.50000E+08         0.00000E+00
    0.00000E+00         0.00000E+00        -0.49995E+08
 
   -0.49844E+08         0.90351E+04         0.00000E+00
    0.90351E+04        -0.50000E+08         0.00000E+00
    0.00000E+00         0.00000E+00        -0.49995E+08
 
   -0.49845E+08         0.12639E+05         0.00000E+00
    0.12639E+05        -0.49999E+08         0.00000E+00
    0.00000E+00         0.00000E+00        -0.49995E+08
 
   -0.49845E+08         0.16231E+05         0.00000E+00
    0.16231E+05        -0.49999E+08         0.00000E+00
    0.00000E+00         0.00000E+00        -0.49995E+08
 
   -0.49845E+08         0.19809E+05         0.00000E+00
    0.19809E+05        -0.49999E+08         0.00000E+00
    0.00000E+00         0.00000E+00        -0.49995E+08
 
   -0.49846E+08         0.23369E+05         0.00000E+00
    0.23369E+05        -0.49998E+08         0.00000E+00
    0.00000E+00         0.00000E+00        -0.49995E+08
 
   -0.49847E+08         0.26907E+05         0.00000E+00
    0.26907E+05        -0.49998E+08         0.00000E+00
    0.00000E+00         0.00000E+00        -0.49995E+08
 
   -0.49848E+08         0.30421E+05         0.00000E+00
    0.30421E+05        -0.49997E+08         0.00000E+00
    0.00000E+00         0.00000E+00        -0.49995E+08
 
   -0.49849E+08         0.33907E+05         0.00000E+00
    0.33907E+05        -0.49996E+08         0.00000E+00
    0.00000E+00         0.00000E+00        -0.49995E+08
 
   -0.49850E+08         0.37362E+05         0.00000E+00
    0.37362E+05        -0.49995E+08         0.00000E+00
    0.00000E+00         0.00000E+00        -0.49995E+08
 
   -0.49851E+08         0.40784E+05         0.00000E+00
    0.40784E+05        -0.49995E+08         0.00000E+00
    0.00000E+00         0.00000E+00        -0.49995E+08
 
   -0.49853E+08         0.44168E+05         0.00000E+00
    0.44168E+05        -0.49994E+08         0.00000E+00
    0.00000E+00         0.00000E+00        -0.49995E+08
 
   -0.49854E+08         0.47511E+05         0.00000E+00
    0.47511E+05        -0.49993E+08         0.00000E+00
    0.00000E+00         0.00000E+00        -0.49995E+08
 
   -0.49856E+08         0.50812E+05         0.00000E+00
    0.50812E+05        -0.49991E+08         0.00000E+00
    0.00000E+00         0.00000E+00        -0.49995E+08
 
   -0.49858E+08         0.54066E+05         0.00000E+00
    0.54066E+05        -0.49990E+08         0.00000E+00
    0.00000E+00         0.00000E+00        -0.49995E+08
 
   -0.49860E+08         0.57271E+05         0.00000E+00
    0.57271E+05        -0.49989E+08         0.00000E+00
    0.00000E+00         0.00000E+00        -0.49995E+08
 
   -0.49862E+08         0.60424E+05         0.00000E+00
    0.60424E+05        -0.49988E+08         0.00000E+00
    0.00000E+00         0.00000E+00        -0.49995E+08
 
   -0.49865E+08         0.63522E+05         0.00000E+00
    0.63522E+05        -0.49986E+08         0.00000E+00
    0.00000E+00         0.00000E+00        -0.49995E+08
 
   -0.49867E+08         0.66563E+05         0.00000E+00
    0.66563E+05        -0.49985E+08         0.00000E+00
    0.00000E+00         0.00000E+00        -0.49995E+08
 
   -0.49870E+08         0.69543E+05         0.00000E+00
    0.69543E+05        -0.49983E+08         0.00000E+00
    0.00000E+00         0.00000E+00        -0.49995E+08
 
   -0.49873E+08         0.72460E+05         0.00000E+00
    0.72460E+05        -0.49982E+08         0.00000E+00
    0.00000E+00         0.00000E+00        -0.49995E+08
 
   -0.49876E+08         0.75311E+05         0.00000E+00
    0.75311E+05        -0.49980E+08         0.00000E+00
    0.00000E+00         0.00000E+00        -0.49995E+08
 
   -0.49879E+08         0.78094E+05         0.00000E+00
    0.78094E+05        -0.49978E+08         0.00000E+00
    0.00000E+00         0.00000E+00        -0.49995E+08
 
   -0.49882E+08         0.80806E+05         0.00000E+00
    0.80806E+05        -0.49977E+08         0.00000E+00
    0.00000E+00         0.00000E+00        -0.49995E+08
 
   -0.49885E+08         0.83446E+05         0.00000E+00
    0.83446E+05        -0.49975E+08         0.00000E+00
    0.00000E+00         0.00000E+00        -0.49995E+08
 
   -0.49888E+08         0.86009E+05         0.00000E+00
    0.86009E+05        -0.49973E+08         0.00000E+00
    0.00000E+00         0.00000E+00        -0.49995E+08
 
   -0.49892E+08         0.88494E+05         0.00000E+00
    0.88494E+05        -0.49971E+08         0.00000E+00
    0.00000E+00         0.00000E+00        -0.49995E+08
 
   -0.49895E+08         0.90899E+05         0.00000E+00
    0.90899E+05        -0.49969E+08         0.00000E+00
    0.00000E+00         0.00000E+00        -0.49995E+08
 
   -0.49899E+08         0.93222E+05         0.00000E+00
    0.93222E+05        -0.49967E+08         0.00000E+00
    0.00000E+00         0.00000E+00        -0.49995E+08
 
   -0.49903E+08         0.95460E+05         0.00000E+00
    0.95460E+05        -0.49965E+08         0.00000E+00
    0.00000E+00         0.00000E+00        -0.49995E+08
 
   -0.49907E+08         0.97611E+05         0.00000E+00
    0.97611E+05        -0.49963E+08         0.00000E+00
    0.00000E+00         0.00000E+00        -0.49995E+08
 
   -0.49911E+08         0.99672E+05         0.00000E+00
    0.99672E+05        -0.49960E+08         0.00000E+00
    0.00000E+00         0.00000E+00        -0.49995E+08
 
   -0.49915E+08         0.10164E+06         0.00000E+00
    0.10164E+06        -0.49958E+08         0.00000E+00
    0.00000E+00         0.00000E+00        -0.49995E+08
 
   -0.49919E+08         0.10352E+06         0.00000E+00
    0.10352E+06        -0.49956E+08         0.00000E+00
    0.00000E+00         0.00000E+00        -0.49995E+08
 
   -0.49924E+08         0.10530E+06         0.00000E+00
    0.10530E+06        -0.49954E+08         0.00000E+00
    0.00000E+00         0.00000E+00        -0.49995E+08
 
   -0.49928E+08         0.10699E+06         0.00000E+00
    0.10699E+06        -0.49951E+08         0.00000E+00
    0.00000E+00         0.00000E+00        -0.49995E+08
 
   -0.49933E+08         0.10858E+06         0.00000E+00
    0.10858E+06        -0.49949E+08         0.00000E+00
    0.00000E+00         0.00000E+00        -0.49995E+08
 
   -0.49937E+08         0.11007E+06         0.00000E+00
    0.11007E+06        -0.49946E+08         0.00000E+00
    0.00000E+00         0.00000E+00        -0.49995E+08
 
   -0.49942E+08         0.11145E+06         0.00000E+00
    0.11145E+06        -0.49944E+08         0.00000E+00
    0.00000E+00         0.00000E+00        -0.49995E+08
 
   -0.49947E+08         0.11274E+06         0.00000E+00
    0.11274E+06        -0.49941E+08         0.00000E+00
    0.00000E+00         0.00000E+00        -0.49995E+08
 
   -0.49952E+08         0.11392E+06         0.00000E+00
    0.11392E+06        -0.49939E+08         0.00000E+00
    0.00000E+00         0.00000E+00        -0.49995E+08
 
   -0.49956E+08         0.11499E+06         0.00000E+00
    0.11499E+06        -0.49936E+08         0.00000E+00
    0.00000E+00         0.00000E+00        -0.49995E+08
 
   -0.49961E+08         0.11595E+06         0.00000E+00
    0.11595E+06        -0.49934E+08         0.00000E+00
    0.00000E+00         0.00000E+00        -0.49995E+08
 
   -0.49966E+08         0.11681E+06         0.00000E+00
    0.11681E+06        -0.49931E+08         0.00000E+00
    0.00000E+00         0.00000E+00        -0.49995E+08
 
   -0.49972E+08         0.11755E+06         0.00000E+00
    0.11755E+06        -0.49928E+08         0.00000E+00
    0.00000E+00         0.00000E+00        -0.49995E+08
 
   -0.49977E+08         0.11819E+06         0.00000E+00
    0.11819E+06        -0.49926E+08         0.00000E+00
    0.00000E+00         0.00000E+00        -0.49995E+08
 
   -0.49982E+08         0.11871E+06         0.00000E+00
    0.11871E+06        -0.49923E+08         0.00000E+00
    0.00000E+00         0.00000E+00        -0.49995E+08
 
   -0.49987E+08         0.11912E+06         0.00000E+00
    0.11912E+06        -0.49921E+08         0.00000E+00
    0.00000E+00         0.00000E+00        -0.49995E+08
 
   -0.49992E+08         0.11941E+06         0.00000E+00
    0.11941E+06        -0.49918E+08         0.00000E+00
    0.00000E+00         0.00000E+00        -0.49995E+08
 
   -0.49826E+08         0.20286E+04         0.00000E+00
    0.20286E+04        -0.50000E+08         0.00000E+00
    0.00000E+00         0.00000E+00        -0.49994E+08
 
   -0.49825E+08         0.60823E+04         0.00000E+00
    0.60823E+04        -0.50000E+08         0.00000E+00
    0.00000E+00         0.00000E+00        -0.49994E+08
 
   -0.49825E+08         0.10130E+05         0.00000E+00
    0.10130E+05        -0.50000E+08         0.00000E+00
    0.00000E+00         0.00000E+00        -0.49994E+08
 
   -0.49826E+08         0.14167E+05         0.00000E+00
    0.14167E+05        -0.49999E+08         0.00000E+00
    0.00000E+00         0.00000E+00        -0.49994E+08
 
   -0.49826E+08         0.18191E+05         0.00000E+00
    0.18191E+05        -0.49999E+08         0.00000E+00
    0.00000E+00         0.00000E+00        -0.49994E+08
 
   -0.49826E+08         0.22197E+05         0.00000E+00
    0.22197E+05        -0.49999E+08         0.00000E+00
    0.00000E+00         0.00000E+00        -0.49994E+08
 
   -0.49827E+08         0.26181E+05         0.00000E+00
    0.26181E+05        -0.49998E+08         0.00000E+00
    0.00000E+00         0.00000E+00        -0.49994E+08
 
   -0.49828E+08         0.30141E+05         0.00000E+00
    0.30141E+05        -0.49997E+08         0.00000E+00
    0.00000E+00         0.00000E+00        -0.49994E+08
 
   -0.49829E+08         0.34073E+05         0.00000E+00
    0.34073E+05        -0.49997E+08         0.00000E+00
    0.00000E+00         0.00000E+00        -0.49994E+08
 
   -0.49830E+08         0.37972E+05         0.00000E+00
    0.37972E+05        -0.49996E+08         0.00000E+00
    0.00000E+00         0.00000E+00        -0.49994E+08
 
   -0.49832E+08         0.41836E+05         0.00000E+00
    0.41836E+05        -0.49995E+08         0.00000E+00
    0.00000E+00         0.00000E+00        -0.49994E+08
 
   -0.49833E+08         0.45661E+05         0.00000E+00
    0.45661E+05        -0.49994E+08         0.00000E+00
    0.00000E+00         0.00000E+00        -0.49994E+08
 
   -0.49835E+08         0.49443E+05         0.00000E+00
    0.49443E+05        -0.49993E+08         0.00000E+00
    0.00000E+00         0.00000E+00        -0.49994E+08
 
   -0.49837E+08         0.53180E+05         0.00000E+00
    0.53180E+05        -0.49992E+08         0.00000E+00
    0.00000E+00         0.00000E+00        -0.49994E+08
 
   -0.49839E+08         0.56868E+05         0.00000E+00
    0.56868E+05        -0.49991E+08         0.00000E+00
    0.00000E+00         0.00000E+00        -0.49994E+08
 
   -0.49841E+08         0.60503E+05         0.00000E+00
    0.60503E+05        -0.49989E+08         0.00000E+00
    0.00000E+00         0.00000E+00        -0.49994E+08
 
   -0.49843E+08         0.64083E+05         0.00000E+00
    0.64083E+05        -0.49988E+08         0.00000E+00
    0.00000E+00         0.00000E+00        -0.49994E+08
 
   -0.49846E+08         0.67604E+05         0.00000E+00
    0.67604E+05        -0.49986E+08         0.00000E+00
    0.00000E+00         0.00000E+00        -0.49994E+08
 
   -0.49849E+08         0.71063E+05         0.00000E+00
    0.71063E+05        -0.49985E+08         0.00000E+00
    0.00000E+00         0.00000E+00        -0.49994E+08
 
   -0.49851E+08         0.74458E+05         0.00000E+00
    0.74458E+05        -0.49983E+08         0.00000E+00
    0.00000E+00         0.00000E+00        -0.49994E+08
 
   -0.49854E+08         0.77785E+05         0.00000E+00
    0.77785E+05        -0.49981E+08         0.00000E+00
    0.00000E+00         0.00000E+00        -0.49994E+08
 
   -0.49857E+08         0.81041E+05         0.00000E+00
    0.81041E+05        -0.49980E+08         0.00000E+00
    0.00000E+00         0.00000E+00        -0.49994E+08
 
   -0.49861E+08         0.84224E+05         0.00000E+00
    0.84224E+05        -0.49978E+08         0.00000E+00
    0.00000E+00         0.00000E+00        -0.49994E+08
 
   -0.49864E+08         0.87330E+05         0.00000E+00
    0.87330E+05        -0.49976E+08         0.00000E+00
    0.00000E+00         0.00000E+00        -0.49994E+08
 
   -0.49868E+08         0.90357E+05         0.00000E+00
    0.90357E+05        -0.49974E+08         0.00000E+00
    0.00000E+00         0.00000E+00        -0.49994E+08
 
   -0.49871E+08         0.93302E+05         0.00000E+00
    0.93302E+05        -0.49972E+08         0.00000E+00
    0.00000E+00         0.00000E+00        -0.49994E+08
 
   -0.49875E+08         0.96162E+05         0.00000E+00
    0.96162E+05        -0.49970E+08         0.00000E+00
    0.00000E+00         0.00000E+00        -0.49994E+08
 
   -0.49879E+08         0.98936E+05         0.00000E+00
    0.98936E+05        -0.49968E+08         0.00000E+00
    0.00000E+00         0.00000E+00        -0.49994E+08
 
   -0.49883E+08         0.10162E+06         0.00000E+00
    0.10162E+06        -0.49965E+08         0.00000E+00
    0.00000E+00         0.00000E+00        -0.49994E+08
 
   -0.49887E+08         0.10421E+06         0.00000E+00
    0.10421E+06        -0.49963E+08         0.00000E+00
    0.00000E+00         0.00000E+00        -0.49994E+08
 
   -0.49891E+08         0.10671E+06         0.00000E+00
    0.10671E+06        -0.49961E+08         0.00000E+00
    0.00000E+00         0.00000E+00        -0.49994E+08
 
   -0.49896E+08         0.10911E+06         0.00000E+00
    0.10911E+06        -0.49958E+08         0.00000E+00
    0.00000E+00         0.00000E+00        -0.49994E+08
 
   -0.49900E+08         0.11141E+06         0.00000E+00
    0.11141E+06        -0.49956E+08         0.00000E+00
    0.00000E+00         0.00000E+00        -0.49994E+08
 
   -0.49905E+08         0.11361E+06         0.00000E+00
    0.11361E+06        -0.49953E+08         0.00000E+00
    0.00000E+00         0.00000E+00        -0.49994E+08
 
   -0.49910E+08         0.11571E+06         0.00000E+00
    0.11571E+06        -0.49951E+08         0.00000E+00
    0.00000E+00         0.00000E+00        -0.49994E+08
 
   -0.49915E+08         0.11770E+06         0.00000E+00
    0.11770E+06        -0.49948E+08         0.00000E+00
    0.00000E+00         0.00000E+00        -0.49994E+08
 
   -0.49919E+08         0.11959E+06         0.00000E+00
    0.11959E+06        -0.49946E+08         0.00000E+00
    0.00000E+00         0.00000E+00        -0.49994E+08
 
   -0.49925E+08         0.12136E+06         0.00000E+00
    0.12136E+06        -0.49943E+08         0.00000E+00
    0.00000E+00         0.00000E+00        -0.49994E+08
 
   -0.49930E+08         0.12303E+06         0.00000E+00
    0.12303E+06        -0.49940E+08         0.00000E+00
    0.00000E+00         0.00000E+00        -0.49994E+08
 
   -0.49935E+08         0.12458E+06         0.00000E+00
    0.12458E+06        -0.49937E+08         0.00000E+00
    0.00000E+00         0.00000E+00        -0.49994E+08
 
   -0.49940E+08         0.12602E+06         0.00000E+00
    0.12602E+06        -0.49935E+08         0.00000E+00
    0.00000E+00         0.00000E+00        -0.49994E+08
 
   -0.49946E+08         0.12734E+06         0.00000E+00
    0.12734E+06        -0.49932E+08         0.00000E+00
    0.00000E+00         0.00000E+00        -0.49994E+08
 
   -0.49951E+08         0.12854E+06         0.00000E+00
    0.12854E+06        -0.49929E+08         0.00000E+00
    0.00000E+00         0.00000E+00        -0.49994E+08
 
   -0.49957E+08         0.12963E+06         0.00000E+00
    0.12963E+06        -0.49926E+08         0.00000E+00
    0.00000E+00         0.00000E+00        -0.49994E+08
 
   -0.49962E+08         0.13059E+06         0.00000E+00
    0.13059E+06        -0.49923E+08         0.00000E+00
    0.00000E+00         0.00000E+00        -0.49994E+08
 
   -0.49968E+08         0.13143E+06         0.00000E+00
    0.13143E+06        -0.49920E+08         0.00000E+00
    0.00000E+00         0.00000E+00        -0.49994E+08
 
   -0.49974E+08         0.13215E+06         0.00000E+00
    0.13215E+06        -0.49917E+08         0.00000E+00
    0.00000E+00         0.00000E+00        -0.49994E+08
 
   -0.49979E+08         0.13274E+06         0.00000E+00
    0.13274E+06        -0.49914E+08         0.00000E+00
    0.00000E+00         0.00000E+00        -0.49994E+08
 
   -0.49985E+08         0.13321E+06         0.00000E+00
    0.13321E+06        -0.49911E+08         0.00000E+00
    0.00000E+00         0.00000E+00        -0.49994E+08
 
   -0.49991E+08         0.13355E+06         0.00000E+00
    0.13355E+06        -0.49909E+08         0.00000E+00
    0.00000E+00         0.00000E+00        -0.49994E+08
 
   -0.49804E+08         0.22755E+04         0.00000E+00
    0.22755E+04        -0.50000E+08         0.00000E+00
    0.00000E+00         0.00000E+00        -0.49993E+08
 
   -0.49804E+08         0.68183E+04         0.00000E+00
    0.68183E+04        -0.50000E+08         0.00000E+00
    0.00000E+00         0.00000E+00        -0.49993E+08
 
   -0.49804E+08         0.11352E+05         0.00000E+00
    0.11352E+05        -0.50000E+08         0.00000E+00
    0.00000E+00         0.00000E+00        -0.49993E+08
 
   -0.49804E+08         0.15874E+05         0.00000E+00
    0.15874E+05        -0.49999E+08         0.00000E+00
    0.00000E+00         0.00000E+00        -0.49993E+08
 
   -0.49805E+08         0.20378E+05         0.00000E+00
    0.20378E+05        -0.49999E+08         0.00000E+00
    0.00000E+00         0.00000E+00        -0.49993E+08
 
   -0.49805E+08         0.24862E+05         0.00000E+00
    0.24862E+05        -0.49998E+08         0.00000E+00
    0.00000E+00         0.00000E+00        -0.49993E+08
 
   -0.49806E+08         0.29320E+05         0.00000E+00
    0.29320E+05        -0.49998E+08         0.00000E+00
    0.00000E+00         0.00000E+00        -0.49993E+08
 
   -0.49807E+08         0.33749E+05         0.00000E+00
    0.33749E+05        -0.49997E+08         0.00000E+00
    0.00000E+00         0.00000E+00        -0.49993E+08
 
   -0.49808E+08         0.38146E+05         0.00000E+00
    0.38146E+05        -0.49996E+08         0.00000E+00
    0.00000E+00         0.00000E+00        -0.49993E+08
 
   -0.49810E+08         0.42505E+05         0.00000E+00
    0.42505E+05        -0.49995E+08         0.00000E+00
    0.00000E+00         0.00000E+00        -0.49993E+08
 
   -0.49811E+08         0.46823E+05         0.00000E+00
    0.46823E+05        -0.49994E+08         0.00000E+00
    0.00000E+00         0.00000E+00        -0.49993E+08
 
   -0.49813E+08         0.51097E+05         0.00000E+00
    0.51097E+05        -0.49993E+08         0.00000E+00
    0.00000E+00         0.00000E+00        -0.49993E+08
 
   -0.49815E+08         0.55323E+05         0.00000E+00
    0.55323E+05        -0.49992E+08         0.00000E+00
    0.00000E+00         0.00000E+00        -0.49993E+08
 
   -0.49817E+08         0.59497E+05         0.00000E+00
    0.59497E+05        -0.49991E+08         0.00000E+00
    0.00000E+00         0.00000E+00        -0.49993E+08
 
   -0.49820E+08         0.63615E+05         0.00000E+00
    0.63615E+05        -0.49989E+08         0.00000E+00
    0.00000E+00         0.00000E+00        -0.49993E+08
 
   -0.49822E+08         0.67674E+05         0.00000E+00
    0.67674E+05        -0.49988E+08         0.00000E+00
    0.00000E+00         0.00000E+00        -0.49993E+08
 
   -0.49825E+08         0.71670E+05         0.00000E+00
    0.71670E+05        -0.49986E+08         0.00000E+00
    0.00000E+00         0.00000E+00        -0.49993E+08
 
   -0.49827E+08         0.75600E+05         0.00000E+00
    0.75600E+05        -0.49985E+08         0.00000E+00
    0.00000E+00         0.00000E+00        -0.49993E+08
 
   -0.49830E+08         0.79461E+05         0.00000E+00
    0.79461E+05        -0.49983E+08         0.00000E+00
    0.00000E+00         0.00000E+00        -0.49993E+08
 
   -0.49834E+08         0.83249E+05         0.00000E+00
    0.83249E+05        -0.49981E+08         0.00000E+00
    0.00000E+00         0.00000E+00        -0.49993E+08
 
   -0.49837E+08         0.86961E+05         0.00000E+00
    0.86961E+05        -0.49979E+08         0.00000E+00
    0.00000E+00         0.00000E+00        -0.49993E+08
 
   -0.49840E+08         0.90593E+05         0.00000E+00
    0.90593E+05        -0.49977E+08         0.00000E+00
    0.00000E+00         0.00000E+00        -0.49993E+08
 
   -0.49844E+08         0.94143E+05         0.00000E+00
    0.94143E+05        -0.49975E+08         0.00000E+00
    0.00000E+00         0.00000E+00        -0.49993E+08
 
   -0.49848E+08         0.97608E+05         0.00000E+00
    0.97608E+05        -0.49973E+08         0.00000E+00
    0.00000E+00         0.00000E+00        -0.49993E+08
 
   -0.49852E+08         0.10098E+06         0.00000E+00
    0.10098E+06        -0.49971E+08         0.00000E+00
    0.00000E+00         0.00000E+00        -0.49993E+08
 
   -0.49856E+08         0.10427E+06         0.00000E+00
    0.10427E+06        -0.49969E+08         0.00000E+00
    0.00000E+00         0.00000E+00        -0.49993E+08
 
   -0.49860E+08         0.10746E+06         0.00000E+00
    0.10746E+06        -0.49966E+08         0.00000E+00
    0.00000E+00         0.00000E+00        -0.49993E+08
 
   -0.49865E+08         0.11055E+06         0.00000E+00
    0.11055E+06        -0.49964E+08         0.00000E+00
    0.00000E+00         0.00000E+00        -0.49993E+08
 
   -0.49869E+08         0.11355E+06         0.00000E+00
    0.11355E+06        -0.49961E+08         0.00000E+00
    0.00000E+00         0.00000E+00        -0.49993E+08
 
   -0.49874E+08         0.11644E+06         0.00000E+00
    0.11644E+06        -0.49959E+08         0.00000E+00
    0.00000E+00         0.00000E+00        -0.49993E+08
 
   -0.49878E+08         0.11922E+06         0.00000E+00
    0.11922E+06        -0.49956E+08         0.00000E+00
    0.00000E+00         0.00000E+00        -0.49993E+08
 
   -0.49883E+08         0.12190E+06         0.00000E+00
    0.12190E+06        -0.49954E+08         0.00000E+00
    0.00000E+00         0.00000E+00        -0.49993E+08
 
   -0.49888E+08         0.12447E+06         0.00000E+00
    0.12447E+06        -0.49951E+08         0.00000E+00
    0.00000E+00         0.00000E+00        -0.49993E+08
 
   -0.49894E+08         0.12693E+06         0.00000E+00
    0.12693E+06        -0.49948E+08         0.00000E+00
    0.00000E+00         0.00000E+00        -0.49993E+08
 
   -0.49899E+08         0.12927E+06         0.00000E+00
    0.12927E+06        -0.49945E+08         0.00000E+00
    0.00000E+00         0.00000E+00        -0.49993E+08
 
   -0.49904E+08         0.13149E+06         0.00000E+00
    0.13149E+06        -0.49942E+08         0.00000E+00
    0.00000E+00         0.00000E+00        -0.49993E+08
 
   -0.49910E+08         0.13360E+06         0.00000E+00
    0.13360E+06        -0.49939E+08         0.00000E+00
    0.00000E+00         0.00000E+00        -0.49993E+08
 
   -0.49915E+08         0.13559E+06         0.00000E+00
    0.13559E+06        -0.49936E+08         0.00000E+00
    0.00000E+00         0.00000E+00        -0.49993E+08
 
   -0.49921E+08         0.13745E+06         0.00000E+00
    0.13745E+06        -0.49933E+08         0.00000E+00
    0.00000E+00         0.00000E+00        -0.49993E+08
 
   -0.49927E+08         0.13918E+06         0.00000E+00
    0.13918E+06        -0.49930E+08         0.00000E+00
    0.00000E+00         0.00000E+00        -0.49993E+08
 
   -0.49933E+08         0.14079E+06         0.00000E+00
    0.14079E+06        -0.49927E+08         0.00000E+00
    0.00000E+00         0.00000E+00        -0.49993E+08
 
   -0.49939E+08         0.14227E+06         0.00000E+00
    0.14227E+06        -0.49924E+08         0.00000E+00
    0.00000E+00         0.00000E+00        -0.49993E+08
 
   -0.49945E+08         0.14362E+06         0.00000E+00
    0.14362E+06        -0.49921E+08         0.00000E+00
    0.00000E+00         0.00000E+00        -0.49993E+08
 
   -0.49951E+08         0.14484E+06         0.00000E+00
    0.14484E+06        -0.49918E+08         0.00000E+00
    0.00000E+00         0.00000E+00        -0.49993E+08
 
   -0.49957E+08         0.14593E+06         0.00000E+00
    0.14593E+06        -0.49915E+08         0.00000E+00
    0.00000E+00         0.00000E+00        -0.49993E+08
 
   -0.49964E+08         0.14687E+06         0.00000E+00
    0.14687E+06        -0.49911E+08         0.00000E+00
    0.00000E+00         0.00000E+00        -0.49993E+08
 
   -0.49970E+08         0.14769E+06         0.00000E+00
    0.14769E+06        -0.49908E+08         0.00000E+00
    0.00000E+00         0.00000E+00        -0.49993E+08
 
   -0.49977E+08         0.14836E+06         0.00000E+00
    0.14836E+06        -0.49905E+08         0.00000E+00
    0.00000E+00         0.00000E+00        -0.49993E+08
 
   -0.49983E+08         0.14890E+06         0.00000E+00
    0.14890E+06        -0.49902E+08         0.00000E+00
    0.00000E+00         0.00000E+00        -0.49993E+08
 
   -0.49990E+08         0.14929E+06         0.00000E+00
    0.14929E+06        -0.49898E+08         0.00000E+00
    0.00000E+00         0.00000E+00        -0.49993E+08
 
   -0.49780E+08         0.25516E+04         0.00000E+00
    0.25516E+04        -0.50000E+08         0.00000E+00
    0.00000E+00         0.00000E+00        -0.49992E+08
 
   -0.49780E+08         0.76401E+04         0.00000E+00
    0.76401E+04        -0.50000E+08         0.00000E+00
    0.00000E+00         0.00000E+00        -0.49992E+08
 
   -0.49780E+08         0.12717E+05         0.00000E+00
    0.12717E+05        -0.50000E+08         0.00000E+00
    0.00000E+00         0.00000E+00        -0.49992E+08
 
   -0.49780E+08         0.17778E+05         0.00000E+00
    0.17778E+05        -0.49999E+08         0.00000E+00
    0.00000E+00         0.00000E+00        -0.49992E+08
 
   -0.49781E+08         0.22819E+05         0.00000E+00
    0.22819E+05        -0.49999E+08         0.00000E+00
    0.00000E+00         0.00000E+00        -0.49992E+08
 
   -0.49782E+08         0.27834E+05         0.00000E+00
    0.27834E+05        -0.49998E+08         0.00000E+00
    0.00000E+00         0.00000E+00        -0.49992E+08
 
   -0.49783E+08         0.32820E+05         0.00000E+00
    0.32820E+05        -0.49998E+08         0.00000E+00
    0.00000E+00         0.00000E+00        -0.49992E+08
 
   -0.49784E+08         0.37772E+05         0.00000E+00
    0.37772E+05        -0.49997E+08         0.00000E+00
    0.00000E+00         0.00000E+00        -0.49992E+08
 
   -0.49785E+08         0.42685E+05         0.00000E+00
    0.42685E+05        -0.49996E+08         0.00000E+00
    0.00000E+00         0.00000E+00        -0.49992E+08
 
   -0.49787E+08         0.47556E+05         0.00000E+00
    0.47556E+05        -0.49995E+08         0.00000E+00
    0.00000E+00         0.00000E+00        -0.49992E+08
 
   -0.49789E+08         0.52380E+05         0.00000E+00
    0.52380E+05        -0.49994E+08         0.00000E+00
    0.00000E+00         0.00000E+00        -0.49992E+08
 
   -0.49791E+08         0.57153E+05         0.00000E+00
    0.57153E+05        -0.49993E+08         0.00000E+00
    0.00000E+00         0.00000E+00        -0.49992E+08
 
   -0.49793E+08         0.61872E+05         0.00000E+00
    0.61872E+05        -0.49991E+08         0.00000E+00
    0.00000E+00         0.00000E+00        -0.49992E+08
 
   -0.49795E+08         0.66531E+05         0.00000E+00
    0.66531E+05        -0.49990E+08         0.00000E+00
    0.00000E+00         0.00000E+00        -0.49992E+08
 
   -0.49798E+08         0.71127E+05         0.00000E+00
    0.71127E+05        -0.49988E+08         0.00000E+00
    0.00000E+00         0.00000E+00        -0.49992E+08
 
   -0.49801E+08         0.75656E+05         0.00000E+00
    0.75656E+05        -0.49987E+08         0.00000E+00
    0.00000E+00         0.00000E+00        -0.49992E+08
 
   -0.49804E+08         0.80115E+05         0.00000E+00
    0.80115E+05        -0.49985E+08         0.00000E+00
    0.00000E+00         0.00000E+00        -0.49992E+08
 
   -0.49807E+08         0.84499E+05         0.00000E+00
    0.84499E+05        -0.49983E+08         0.00000E+00
    0.00000E+00         0.00000E+00        -0.49992E+08
 
   -0.49810E+08         0.88805E+05         0.00000E+00
    0.88805E+05        -0.49981E+08         0.00000E+00
    0.00000E+00         0.00000E+00        -0.49992E+08
 
   -0.49814E+08         0.93029E+05         0.00000E+00
    0.93029E+05        -0.49979E+08         0.00000E+00
    0.00000E+00         0.00000E+00        -0.49992E+08
 
   -0.49818E+08         0.97168E+05         0.00000E+00
    0.97168E+05        -0.49977E+08         0.00000E+00
    0.00000E+00         0.00000E+00        -0.49992E+08
 
   -0.49821E+08         0.10122E+06         0.00000E+00
    0.10122E+06        -0.49975E+08         0.00000E+00
    0.00000E+00         0.00000E+00        -0.49992E+08
 
   -0.49826E+08         0.10518E+06         0.00000E+00
    0.10518E+06        -0.49973E+08         0.00000E+00
    0.00000E+00         0.00000E+00        -0.49992E+08
 
   -0.49830E+08         0.10904E+06         0.00000E+00
    0.10904E+06        -0.49970E+08         0.00000E+00
    0.00000E+00         0.00000E+00        -0.49992E+08
 
   -0.49834E+08         0.11280E+06         0.00000E+00
    0.11280E+06        -0.49968E+08         0.00000E+00
    0.00000E+00         0.00000E+00        -0.49992E+08
 
   -0.49839E+08         0.11646E+06         0.00000E+00
    0.11646E+06        -0.49965E+08         0.00000E+00
    0.00000E+00         0.00000E+00        -0.49992E+08
 
   -0.49844E+08         0.12002E+06         0.00000E+00
    0.12002E+06        -0.49963E+08         0.00000E+00
    0.00000E+00         0.00000E+00        -0.49992E+08
 
   -0.49848E+08         0.12347E+06         0.00000E+00
    0.12347E+06        -0.49960E+08         0.00000E+00
    0.00000E+00         0.00000E+00        -0.49992E+08
 
   -0.49854E+08         0.12680E+06         0.00000E+00
    0.12680E+06        -0.49957E+08         0.00000E+00
    0.00000E+00         0.00000E+00        -0.49992E+08
 
   -0.49859E+08         0.13003E+06         0.00000E+00
    0.13003E+06        -0.49954E+08         0.00000E+00
    0.00000E+00         0.00000E+00        -0.49992E+08
 
   -0.49864E+08         0.13313E+06         0.00000E+00
    0.13313E+06        -0.49951E+08         0.00000E+00
    0.00000E+00         0.00000E+00        -0.49992E+08
 
   -0.49870E+08         0.13612E+06         0.00000E+00
    0.13612E+06        -0.49948E+08         0.00000E+00
    0.00000E+00         0.00000E+00        -0.49992E+08
 
   -0.49875E+08         0.13899E+06         0.00000E+00
    0.13899E+06        -0.49945E+08         0.00000E+00
    0.00000E+00         0.00000E+00        -0.49992E+08
 
   -0.49881E+08         0.14173E+06         0.00000E+00
    0.14173E+06        -0.49942E+08         0.00000E+00
    0.00000E+00         0.00000E+00        -0.49992E+08
 
   -0.49887E+08         0.14434E+06         0.00000E+00
    0.14434E+06        -0.49939E+08         0.00000E+00
    0.00000E+00         0.00000E+00        -0.49992E+08
 
   -0.49893E+08         0.14682E+06         0.00000E+00
    0.14682E+06        -0.49936E+08         0.00000E+00
    0.00000E+00         0.00000E+00        -0.49992E+08
 
   -0.49899E+08         0.14917E+06         0.00000E+00
    0.14917E+06        -0.49933E+08         0.00000E+00
    0.00000E+00         0.00000E+00        -0.49992E+08
 
   -0.49905E+08         0.15139E+06         0.00000E+00
    0.15139E+06        -0.49929E+08         0.00000E+00
    0.00000E+00         0.00000E+00        -0.49992E+08
 
   -0.49912E+08         0.15347E+06         0.00000E+00
    0.15347E+06        -0.49926E+08         0.00000E+00
    0.00000E+00         0.00000E+00        -0.49992E+08
 
   -0.49918E+08         0.15541E+06         0.00000E+00
    0.15541E+06        -0.49923E+08         0.00000E+00
    0.00000E+00         0.00000E+00        -0.49992E+08
 
   -0.49925E+08         0.15722E+06         0.00000E+00
    0.15722E+06        -0.49919E+08         0.00000E+00
    0.00000E+00         0.00000E+00        -0.49992E+08
 
   -0.49931E+08         0.15887E+06         0.00000E+00
    0.15887E+06        -0.49916E+08         0.00000E+00
    0.00000E+00         0.00000E+00        -0.49992E+08
 
   -0.49938E+08         0.16039E+06         0.00000E+00
    0.16039E+06        -0.49912E+08         0.00000E+00
    0.00000E+00         0.00000E+00        -0.49992E+08
 
   -0.49945E+08         0.16176E+06         0.00000E+00
    0.16176E+06        -0.49909E+08         0.00000E+00
    0.00000E+00         0.00000E+00        -0.49992E+08
 
   -0.49952E+08         0.16298E+06         0.00000E+00
    0.16298E+06        -0.49905E+08         0.00000E+00
    0.00000E+00         0.00000E+00        -0.49992E+08
 
   -0.49959E+08         0.16405E+06         0.00000E+00
    0.16405E+06        -0.49901E+08         0.00000E+00
    0.00000E+00         0.00000E+00        -0.49992E+08
 
   -0.49966E+08         0.16497E+06         0.00000E+00
    0.16497E+06        -0.49898E+08         0.00000E+00
    0.00000E+00         0.00000E+00        -0.49992E+08
 
   -0.49973E+08         0.16574E+06         0.00000E+00
    0.16574E+06        -0.49894E+08         0.00000E+00
    0.00000E+00         0.00000E+00        -0.49992E+08
 
   -0.49981E+08         0.16635E+06         0.00000E+00
    0.16635E+06        -0.49891E+08         0.00000E+00
    0.00000E+00         0.00000E+00        -0.49992E+08
 
   -0.49988E+08         0.16681E+06         0.00000E+00
    0.16681E+06        -0.49887E+08         0.00000E+00
    0.00000E+00         0.00000E+00        -0.49992E+08
 
   -0.49753E+08         0.28599E+04         0.00000E+00
    0.28599E+04        -0.50000E+08         0.00000E+00
    0.00000E+00         0.00000E+00        -0.49990E+08
 
   -0.49753E+08         0.85572E+04         0.00000E+00
    0.85572E+04        -0.50000E+08         0.00000E+00
    0.00000E+00         0.00000E+00        -0.49990E+08
 
   -0.49753E+08         0.14240E+05         0.00000E+00
    0.14240E+05        -0.50000E+08         0.00000E+00
    0.00000E+00         0.00000E+00        -0.49990E+08
 
   -0.49754E+08         0.19902E+05         0.00000E+00
    0.19902E+05        -0.49999E+08         0.00000E+00
    0.00000E+00         0.00000E+00        -0.49990E+08
 
   -0.49754E+08         0.25539E+05         0.00000E+00
    0.25539E+05        -0.49999E+08         0.00000E+00
    0.00000E+00         0.00000E+00        -0.49990E+08
 
   -0.49755E+08         0.31147E+05         0.00000E+00
    0.31147E+05        -0.49998E+08         0.00000E+00
    0.00000E+00         0.00000E+00        -0.49990E+08
 
   -0.49756E+08         0.36719E+05         0.00000E+00
    0.36719E+05        -0.49997E+08         0.00000E+00
    0.00000E+00         0.00000E+00        -0.49990E+08
 
   -0.49758E+08         0.42252E+05         0.00000E+00
    0.42252E+05        -0.49996E+08         0.00000E+00
    0.00000E+00         0.00000E+00        -0.49990E+08
 
   -0.49759E+08         0.47741E+05         0.00000E+00
    0.47741E+05        -0.49995E+08         0.00000E+00
    0.00000E+00         0.00000E+00        -0.49990E+08
 
   -0.49761E+08         0.53180E+05         0.00000E+00
    0.53180E+05        -0.49994E+08         0.00000E+00
    0.00000E+00         0.00000E+00        -0.49990E+08
 
   -0.49763E+08         0.58566E+05         0.00000E+00
    0.58566E+05        -0.49993E+08         0.00000E+00
    0.00000E+00         0.00000E+00        -0.49990E+08
 
   -0.49766E+08         0.63894E+05         0.00000E+00
    0.63894E+05        -0.49992E+08         0.00000E+00
    0.00000E+00         0.00000E+00        -0.49990E+08
 
   -0.49768E+08         0.69159E+05         0.00000E+00
    0.69159E+05        -0.49990E+08         0.00000E+00
    0.00000E+00         0.00000E+00        -0.49990E+08
 
   -0.49771E+08         0.74357E+05         0.00000E+00
    0.74357E+05        -0.49989E+08         0.00000E+00
    0.00000E+00         0.00000E+00        -0.49990E+08
 
   -0.49774E+08         0.79483E+05         0.00000E+00
    0.79483E+05        -0.49987E+08         0.00000E+00
    0.00000E+00         0.00000E+00        -0.49990E+08
 
   -0.49777E+08         0.84534E+05         0.00000E+00
    0.84534E+05        -0.49985E+08         0.00000E+00
    0.00000E+00         0.00000E+00        -0.49990E+08
 
   -0.49780E+08         0.89505E+05         0.00000E+00
    0.89505E+05        -0.49983E+08         0.00000E+00
    0.00000E+00         0.00000E+00        -0.49990E+08
 
   -0.49784E+08         0.94393E+05         0.00000E+00
    0.94393E+05        -0.49981E+08         0.00000E+00
    0.00000E+00         0.00000E+00        -0.49990E+08
 
   -0.49788E+08         0.99192E+05         0.00000E+00
    0.99192E+05        -0.49979E+08         0.00000E+00
    0.00000E+00         0.00000E+00        -0.49990E+08
 
   -0.49792E+08         0.10390E+06         0.00000E+00
    0.10390E+06        -0.49977E+08         0.00000E+00
    0.00000E+00         0.00000E+00        -0.49990E+08
 
   -0.49796E+08         0.10851E+06         0.00000E+00
    0.10851E+06        -0.49974E+08         0.00000E+00
    0.00000E+00         0.00000E+00        -0.49990E+08
 
   -0.49800E+08         0.11302E+06         0.00000E+00
    0.11302E+06        -0.49972E+08         0.00000E+00
    0.00000E+00         0.00000E+00        -0.49990E+08
 
   -0.49805E+08         0.11743E+06         0.00000E+00
    0.11743E+06        -0.49969E+08         0.00000E+00
    0.00000E+00         0.00000E+00        -0.49990E+08
 
   -0.49810E+08         0.12174E+06         0.00000E+00
    0.12174E+06        -0.49967E+08         0.00000E+00
    0.00000E+00         0.00000E+00        -0.49990E+08
 
   -0.49815E+08         0.12593E+06         0.00000E+00
    0.12593E+06        -0.49964E+08         0.00000E+00
    0.00000E+00         0.00000E+00        -0.49990E+08
 
   -0.49820E+08         0.13001E+06         0.00000E+00
    0.13001E+06        -0.49961E+08         0.00000E+00
    0.00000E+00         0.00000E+00        -0.49990E+08
 
   -0.49825E+08         0.13397E+06         0.00000E+00
    0.13397E+06        -0.49958E+08         0.00000E+00
    0.00000E+00         0.00000E+00        -0.49990E+08
 
   -0.49831E+08         0.13781E+06         0.00000E+00
    0.13781E+06        -0.49955E+08         0.00000E+00
    0.00000E+00         0.00000E+00        -0.49990E+08
 
   -0.49836E+08         0.14153E+06         0.00000E+00
    0.14153E+06        -0.49952E+08         0.00000E+00
    0.00000E+00         0.00000E+00        -0.49990E+08
 
   -0.49842E+08         0.14512E+06         0.00000E+00
    0.14512E+06        -0.49949E+08         0.00000E+00
    0.00000E+00         0.00000E+00        -0.49990E+08
 
   -0.49848E+08         0.14858E+06         0.00000E+00
    0.14858E+06        -0.49946E+08         0.00000E+00
    0.00000E+00         0.00000E+00        -0.49990E+08
 
   -0.49854E+08         0.15191E+06         0.00000E+00
    0.15191E+06        -0.49943E+08         0.00000E+00
    0.00000E+00         0.00000E+00        -0.49990E+08
 
   -0.49860E+08         0.15510E+06         0.00000E+00
    0.15510E+06        -0.49939E+08         0.00000E+00
    0.00000E+00         0.00000E+00        -0.49990E+08
 
   -0.49867E+08         0.15816E+06         0.00000E+00
    0.15816E+06        -0.49936E+08         0.00000E+00
    0.00000E+00         0.00000E+00        -0.49990E+08
 
   -0.49873E+08         0.16107E+06         0.00000E+00
    0.16107E+06        -0.49932E+08         0.00000E+00
    0.00000E+00         0.00000E+00        -0.49990E+08
 
   -0.49880E+08         0.16384E+06         0.00000E+00
    0.16384E+06        -0.49929E+08         0.00000E+00
    0.00000E+00         0.00000E+00        -0.49990E+08
 
   -0.49887E+08         0.16647E+06         0.00000E+00
    0.16647E+06        -0.49925E+08         0.00000E+00
    0.00000E+00         0.00000E+00        -0.49990E+08
 
   -0.49894E+08         0.16894E+06         0.00000E+00
    0.16894E+06        -0.49922E+08         0.00000E+00
    0.00000E+00         0.00000E+00        -0.49990E+08
 
   -0.49901E+08         0.17127E+06         0.00000E+00
    0.17127E+06        -0.49918E+08         0.00000E+00
    0.00000E+00         0.00000E+00        -0.49990E+08
 
   -0.49908E+08         0.17344E+06         0.00000E+00
    0.17344E+06        -0.49914E+08         0.00000E+00
    0.00000E+00         0.00000E+00        -0.49990E+08
 
   -0.49916E+08         0.17546E+06         0.00000E+00
    0.17546E+06        -0.49910E+08         0.00000E+00
    0.00000E+00         0.00000E+00        -0.49990E+08
 
   -0.49923E+08         0.17732E+06         0.00000E+00
    0.17732E+06        -0.49906E+08         0.00000E+00
    0.00000E+00         0.00000E+00        -0.49990E+08
 
   -0.49931E+08         0.17901E+06         0.00000E+00
    0.17901E+06        -0.49902E+08         0.00000E+00
    0.00000E+00         0.00000E+00        -0.49990E+08
 
   -0.49938E+08         0.18055E+06         0.00000E+00
    0.18055E+06        -0.49899E+08         0.00000E+00
    0.00000E+00         0.00000E+00        -0.49990E+08
 
   -0.49946E+08         0.18193E+06         0.00000E+00
    0.18193E+06        -0.49895E+08         0.00000E+00
    0.00000E+00         0.00000E+00        -0.49990E+08
 
   -0.49954E+08         0.18314E+06         0.00000E+00
    0.18314E+06        -0.49891E+08         0.00000E+00
    0.00000E+00         0.00000E+00        -0.49990E+08
 
   -0.49962E+08         0.18418E+06         0.00000E+00
    0.18418E+06        -0.49887E+08         0.00000E+00
    0.00000E+00         0.00000E+00        -0.49990E+08
 
   -0.49970E+08         0.18505E+06         0.00000E+00
    0.18505E+06        -0.49882E+08         0.00000E+00
    0.00000E+00         0.00000E+00        -0.49990E+08
 
   -0.49978E+08         0.18576E+06         0.00000E+00
    0.18576E+06        -0.49878E+08         0.00000E+00
    0.00000E+00         0.00000E+00        -0.49990E+08
 
   -0.49986E+08         0.18629E+06         0.00000E+00
    0.18629E+06        -0.49874E+08         0.00000E+00
    0.00000E+00         0.00000E+00        -0.49990E+08
 
   -0.49723E+08         0.32039E+04         0.00000E+00
    0.32039E+04        -0.50000E+08         0.00000E+00
    0.00000E+00         0.00000E+00        -0.49988E+08
 
   -0.49723E+08         0.95796E+04         0.00000E+00
    0.95796E+04        -0.50000E+08         0.00000E+00
    0.00000E+00         0.00000E+00        -0.49988E+08
 
   -0.49723E+08         0.15936E+05         0.00000E+00
    0.15936E+05        -0.50000E+08         0.00000E+00
    0.00000E+00         0.00000E+00        -0.49988E+08
 
   -0.49724E+08         0.22268E+05         0.00000E+00
    0.22268E+05        -0.49999E+08         0.00000E+00
    0.00000E+00         0.00000E+00        -0.49988E+08
 
   -0.49725E+08         0.28569E+05         0.00000E+00
    0.28569E+05        -0.49999E+08         0.00000E+00
    0.00000E+00         0.00000E+00        -0.49988E+08
 
   -0.49726E+08         0.34835E+05         0.00000E+00
    0.34835E+05        -0.49998E+08         0.00000E+00
    0.00000E+00         0.00000E+00        -0.49988E+08
 
   -0.49727E+08         0.41060E+05         0.00000E+00
    0.41060E+05        -0.49997E+08         0.00000E+00
    0.00000E+00         0.00000E+00        -0.49988E+08
 
   -0.49729E+08         0.47239E+05         0.00000E+00
    0.47239E+05        -0.49996E+08         0.00000E+00
    0.00000E+00         0.00000E+00        -0.49988E+08
 
   -0.49730E+08         0.53366E+05         0.00000E+00
    0.53366E+05        -0.49995E+08         0.00000E+00
    0.00000E+00         0.00000E+00        -0.49988E+08
 
   -0.49733E+08         0.59437E+05         0.00000E+00
    0.59437E+05        -0.49994E+08         0.00000E+00
    0.00000E+00         0.00000E+00        -0.49988E+08
 
   -0.49735E+08         0.65446E+05         0.00000E+00
    0.65446E+05        -0.49992E+08         0.00000E+00
    0.00000E+00         0.00000E+00        -0.49988E+08
 
   -0.49738E+08         0.71389E+05         0.00000E+00
    0.71389E+05        -0.49991E+08         0.00000E+00
    0.00000E+00         0.00000E+00        -0.49988E+08
 
   -0.49740E+08         0.77260E+05         0.00000E+00
    0.77260E+05        -0.49989E+08         0.00000E+00
    0.00000E+00         0.00000E+00        -0.49988E+08
 
   -0.49744E+08         0.83055E+05         0.00000E+00
    0.83055E+05        -0.49987E+08         0.00000E+00
    0.00000E+00         0.00000E+00        -0.49988E+08
 
   -0.49747E+08         0.88770E+05         0.00000E+00
    0.88770E+05        -0.49985E+08         0.00000E+00
    0.00000E+00         0.00000E+00        -0.49988E+08
 
   -0.49750E+08         0.94399E+05         0.00000E+00
    0.94399E+05        -0.49983E+08         0.00000E+00
    0.00000E+00         0.00000E+00        -0.49988E+08
 
   -0.49754E+08         0.99938E+05         0.00000E+00
    0.99938E+05        -0.49981E+08         0.00000E+00
    0.00000E+00         0.00000E+00        -0.49988E+08
 
   -0.49758E+08         0.10538E+06         0.00000E+00
    0.10538E+06        -0.49979E+08         0.00000E+00
    0.00000E+00         0.00000E+00        -0.49988E+08
 
   -0.49763E+08         0.11073E+06         0.00000E+00
    0.11073E+06        -0.49977E+08         0.00000E+00
    0.00000E+00         0.00000E+00        -0.49988E+08
 
   -0.49767E+08         0.11597E+06         0.00000E+00
    0.11597E+06        -0.49974E+08         0.00000E+00
    0.00000E+00         0.00000E+00        -0.49988E+08
 
   -0.49772E+08         0.12111E+06         0.00000E+00
    0.12111E+06        -0.49972E+08         0.00000E+00
    0.00000E+00         0.00000E+00        -0.49988E+08
 
   -0.49777E+08         0.12613E+06         0.00000E+00
    0.12613E+06        -0.49969E+08         0.00000E+00
    0.00000E+00         0.00000E+00        -0.49988E+08
 
   -0.49782E+08         0.13104E+06         0.00000E+00
    0.13104E+06        -0.49966E+08         0.00000E+00
    0.00000E+00         0.00000E+00        -0.49988E+08
 
   -0.49787E+08         0.13583E+06         0.00000E+00
    0.13583E+06        -0.49963E+08         0.00000E+00
    0.00000E+00         0.00000E+00        -0.49988E+08
 
   -0.49793E+08         0.14050E+06         0.00000E+00
    0.14050E+06        -0.49960E+08         0.00000E+00
    0.00000E+00         0.00000E+00        -0.49988E+08
 
   -0.49799E+08         0.14504E+06         0.00000E+00
    0.14504E+06        -0.49957E+08         0.00000E+00
    0.00000E+00         0.00000E+00        -0.49988E+08
 
   -0.49804E+08         0.14945E+06         0.00000E+00
    0.14945E+06        -0.49954E+08         0.00000E+00
    0.00000E+00         0.00000E+00        -0.49988E+08
 
   -0.49811E+08         0.15373E+06         0.00000E+00
    0.15373E+06        -0.49950E+08         0.00000E+00
    0.00000E+00         0.00000E+00        -0.49988E+08
 
   -0.49817E+08         0.15787E+06         0.00000E+00
    0.15787E+06        -0.49947E+08         0.00000E+00
    0.00000E+00         0.00000E+00        -0.49988E+08
 
   -0.49823E+08         0.16187E+06         0.00000E+00
    0.16187E+06        -0.49944E+08         0.00000E+00
    0.00000E+00         0.00000E+00        -0.49988E+08
 
   -0.49830E+08         0.16572E+06         0.00000E+00
    0.16572E+06        -0.49940E+08         0.00000E+00
    0.00000E+00         0.00000E+00        -0.49988E+08
 
   -0.49837E+08         0.16943E+06         0.00000E+00
    0.16943E+06        -0.49936E+08         0.00000E+00
    0.00000E+00         0.00000E+00        -0.49988E+08
 
   -0.49844E+08         0.17299E+06         0.00000E+00
    0.17299E+06        -0.49933E+08         0.00000E+00
    0.00000E+00         0.00000E+00        -0.49988E+08
 
   -0.49851E+08         0.17639E+06         0.00000E+00
    0.17639E+06        -0.49929E+08         0.00000E+00
    0.00000E+00         0.00000E+00        -0.49988E+08
 
   -0.49858E+08         0.17964E+06         0.00000E+00
    0.17964E+06        -0.49925E+08         0.00000E+00
    0.00000E+00         0.00000E+00        -0.49988E+08
 
   -0.49866E+08         0.18273E+06         0.00000E+00
    0.18273E+06        -0.49921E+08         0.00000E+00
    0.00000E+00         0.00000E+00        -0.49988E+08
 
   -0.49873E+08         0.18565E+06         0.00000E+00
    0.18565E+06        -0.49917E+08         0.00000E+00
    0.00000E+00         0.00000E+00        -0.49988E+08
 
   -0.49881E+08         0.18842E+06         0.00000E+00
    0.18842E+06        -0.49913E+08         0.00000E+00
    0.00000E+00         0.00000E+00        -0.49988E+08
 
   -0.49889E+08         0.19101E+06         0.00000E+00
    0.19101E+06        -0.49909E+08         0.00000E+00
    0.00000E+00         0.00000E+00        -0.49988E+08
 
   -0.49897E+08         0.19344E+06         0.00000E+00
    0.19344E+06        -0.49905E+08         0.00000E+00
    0.00000E+00         0.00000E+00        -0.49988E+08
 
   -0.49905E+08         0.19570E+06         0.00000E+00
    0.19570E+06        -0.49900E+08         0.00000E+00
    0.00000E+00         0.00000E+00        -0.49988E+08
 
   -0.49914E+08         0.19778E+06         0.00000E+00
    0.19778E+06        -0.49896E+08         0.00000E+00
    0.00000E+00         0.00000E+00        -0.49988E+08
 
   -0.49922E+08         0.19969E+06         0.00000E+00
    0.19969E+06        -0.49892E+08         0.00000E+00
    0.00000E+00         0.00000E+00        -0.49988E+08
 
   -0.49930E+08         0.20141E+06         0.00000E+00
    0.20141E+06        -0.49887E+08         0.00000E+00
    0.00000E+00         0.00000E+00        -0.49988E+08
 
   -0.49939E+08         0.20296E+06         0.00000E+00
    0.20296E+06        -0.49883E+08         0.00000E+00
    0.00000E+00         0.00000E+00        -0.49988E+08
 
   -0.49948E+08         0.20433E+06         0.00000E+00
    0.20433E+06        -0.49879E+08         0.00000E+00
    0.00000E+00         0.00000E+00        -0.49988E+08
 
   -0.49957E+08         0.20551E+06         0.00000E+00
    0.20551E+06        -0.49874E+08         0.00000E+00
    0.00000E+00         0.00000E+00        -0.49988E+08
 
   -0.49965E+08         0.20651E+06         0.00000E+00
    0.20651E+06        -0.49870E+08         0.00000E+00
    0.00000E+00         0.00000E+00        -0.49988E+08
 
   -0.49974E+08         0.20731E+06         0.00000E+00
    0.20731E+06        -0.49865E+08         0.00000E+00
    0.00000E+00         0.00000E+00        -0.49988E+08
 
   -0.49983E+08         0.20793E+06         0.00000E+00
    0.20793E+06        -0.49861E+08         0.00000E+00
    0.00000E+00         0.00000E+00        -0.49988E+08
 
   -0.49689E+08         0.35876E+04         0.00000E+00
    0.35876E+04        -0.50000E+08         0.00000E+00
    0.00000E+00         0.00000E+00        -0.49986E+08
 
   -0.49689E+08         0.10719E+05         0.00000E+00
    0.10719E+05        -0.50000E+08         0.00000E+00
    0.00000E+00         0.00000E+00        -0.49986E+08
 
   -0.49690E+08         0.17825E+05         0.00000E+00
    0.17825E+05        -0.49999E+08         0.00000E+00
    0.00000E+00         0.00000E+00        -0.49986E+08
 
   -0.49690E+08         0.24901E+05         0.00000E+00
    0.24901E+05        -0.49999E+08         0.00000E+00
    0.00000E+00         0.00000E+00        -0.49986E+08
 
   -0.49691E+08         0.31941E+05         0.00000E+00
    0.31941E+05        -0.49998E+08         0.00000E+00
    0.00000E+00         0.00000E+00        -0.49986E+08
 
   -0.49693E+08         0.38938E+05         0.00000E+00
    0.38938E+05        -0.49998E+08         0.00000E+00
    0.00000E+00         0.00000E+00        -0.49986E+08
 
   -0.49694E+08         0.45888E+05         0.00000E+00
    0.45888E+05        -0.49997E+08         0.00000E+00
    0.00000E+00         0.00000E+00        -0.49986E+08
 
   -0.49696E+08         0.52783E+05         0.00000E+00
    0.52783E+05        -0.49996E+08         0.00000E+00
    0.00000E+00         0.00000E+00        -0.49986E+08
 
   -0.49698E+08         0.59619E+05         0.00000E+00
    0.59619E+05        -0.49994E+08         0.00000E+00
    0.00000E+00         0.00000E+00        -0.49986E+08
 
   -0.49701E+08         0.66390E+05         0.00000E+00
    0.66390E+05        -0.49993E+08         0.00000E+00
    0.00000E+00         0.00000E+00        -0.49986E+08
 
   -0.49703E+08         0.73090E+05         0.00000E+00
    0.73090E+05        -0.49991E+08         0.00000E+00
    0.00000E+00         0.00000E+00        -0.49986E+08
 
   -0.49706E+08         0.79715E+05         0.00000E+00
    0.79715E+05        -0.49990E+08         0.00000E+00
    0.00000E+00         0.00000E+00        -0.49986E+08
 
   -0.49710E+08         0.86258E+05         0.00000E+00
    0.86258E+05        -0.49988E+08         0.00000E+00
    0.00000E+00         0.00000E+00        -0.49986E+08
 
   -0.49713E+08         0.92715E+05         0.00000E+00
    0.92715E+05        -0.49986E+08         0.00000E+00
    0.00000E+00         0.00000E+00        -0.49986E+08
 
   -0.49717E+08         0.99080E+05         0.00000E+00
    0.99080E+05        -0.49984E+08         0.00000E+00
    0.00000E+00         0.00000E+00        -0.49986E+08
 
   -0.49721E+08         0.10535E+06         0.00000E+00
    0.10535E+06        -0.49982E+08         0.00000E+00
    0.00000E+00         0.00000E+00        -0.49986E+08
 
   -0.49725E+08         0.11152E+06         0.00000E+00
    0.11152E+06        -0.49979E+08         0.00000E+00
    0.00000E+00         0.00000E+00        -0.49986E+08
 
   -0.49730E+08         0.11758E+06         0.00000E+00
    0.11758E+06        -0.49977E+08         0.00000E+00
    0.00000E+00         0.00000E+00        -0.49986E+08
 
   -0.49735E+08         0.12353E+06         0.00000E+00
    0.12353E+06        -0.49974E+08         0.00000E+00
    0.00000E+00         0.00000E+00        -0.49986E+08
 
   -0.49740E+08         0.12936E+06         0.00000E+00
    0.12936E+06        -0.49971E+08         0.00000E+00
    0.00000E+00         0.00000E+00        -0.49986E+08
 
   -0.49745E+08         0.13508E+06         0.00000E+00
    0.13508E+06        -0.49968E+08         0.00000E+00
    0.00000E+00         0.00000E+00        -0.49986E+08
 
   -0.49751E+08         0.14067E+06         0.00000E+00
    0.14067E+06        -0.49965E+08         0.00000E+00
    0.00000E+00         0.00000E+00        -0.49986E+08
 
   -0.49756E+08         0.14613E+06         0.00000E+00
    0.14613E+06        -0.49962E+08         0.00000E+00
    0.00000E+00         0.00000E+00        -0.49986E+08
 
   -0.49762E+08         0.15146E+06         0.00000E+00
    0.15146E+06        -0.49959E+08         0.00000E+00
    0.00000E+00         0.00000E+00        -0.49986E+08
 
   -0.49768E+08         0.15665E+06         0.00000E+00
    0.15665E+06        -0.49956E+08         0.00000E+00
    0.00000E+00         0.00000E+00        -0.49986E+08
 
   -0.49775E+08         0.16171E+06         0.00000E+00
    0.16171E+06        -0.49952E+08         0.00000E+00
    0.00000E+00         0.00000E+00        -0.49986E+08
 
   -0.49782E+08         0.16661E+06         0.00000E+00
    0.16661E+06        -0.49949E+08         0.00000E+00
    0.00000E+00         0.00000E+00        -0.49986E+08
 
   -0.49788E+08         0.17137E+06         0.00000E+00
    0.17137E+06        -0.49945E+08         0.00000E+00
    0.00000E+00         0.00000E+00        -0.49986E+08
 
   -0.49795E+08         0.17598E+06         0.00000E+00
    0.17598E+06        -0.49941E+08         0.00000E+00
    0.00000E+00         0.00000E+00        -0.49986E+08
 
   -0.49803E+08         0.18043E+06         0.00000E+00
    0.18043E+06        -0.49937E+08         0.00000E+00
    0.00000E+00         0.00000E+00        -0.49986E+08
 
   -0.49810E+08         0.18472E+06         0.00000E+00
    0.18472E+06        -0.49933E+08         0.00000E+00
    0.00000E+00         0.00000E+00        -0.49986E+08
 
   -0.49818E+08         0.18884E+06         0.00000E+00
    0.18884E+06        -0.49929E+08         0.00000E+00
    0.00000E+00         0.00000E+00        -0.49986E+08
 
   -0.49825E+08         0.19280E+06         0.00000E+00
    0.19280E+06        -0.49925E+08         0.00000E+00
    0.00000E+00         0.00000E+00        -0.49986E+08
 
   -0.49833E+08         0.19659E+06         0.00000E+00
    0.19659E+06        -0.49921E+08         0.00000E+00
    0.00000E+00         0.00000E+00        -0.49986E+08
 
   -0.49842E+08         0.20021E+06         0.00000E+00
    0.20021E+06        -0.49917E+08         0.00000E+00
    0.00000E+00         0.00000E+00        -0.49986E+08
 
   -0.49850E+08         0.20366E+06         0.00000E+00
    0.20366E+06        -0.49912E+08         0.00000E+00
    0.00000E+00         0.00000E+00        -0.49986E+08
 
   -0.49858E+08         0.20692E+06         0.00000E+00
    0.20692E+06        -0.49908E+08         0.00000E+00
    0.00000E+00         0.00000E+00        -0.49986E+08
 
   -0.49867E+08         0.21000E+06         0.00000E+00
    0.21000E+06        -0.49904E+08         0.00000E+00
    0.00000E+00         0.00000E+00        -0.49986E+08
 
   -0.49876E+08         0.21290E+06         0.00000E+00
    0.21290E+06        -0.49899E+08         0.00000E+00
    0.00000E+00         0.00000E+00        -0.49986E+08
 
   -0.49885E+08         0.21562E+06         0.00000E+00
    0.21562E+06        -0.49894E+08         0.00000E+00
    0.00000E+00         0.00000E+00        -0.49986E+08
 
   -0.49894E+08         0.21814E+06         0.00000E+00
    0.21814E+06        -0.49890E+08         0.00000E+00
    0.00000E+00         0.00000E+00        -0.49986E+08
 
   -0.49903E+08         0.22047E+06         0.00000E+00
    0.22047E+06        -0.49885E+08         0.00000E+00
    0.00000E+00         0.00000E+00        -0.49986E+08
 
   -0.49912E+08         0.22261E+06         0.00000E+00
    0.22261E+06        -0.49880E+08         0.00000E+00
    0.00000E+00         0.00000E+00        -0.49986E+08
 
   -0.49922E+08         0.22455E+06         0.00000E+00
    0.22455E+06        -0.49875E+08         0.00000E+00
    0.00000E+00         0.00000E+00        -0.49986E+08
 
   -0.49931E+08         0.22629E+06         0.00000E+00
    0.22629E+06        -0.49870E+08         0.00000E+00
    0.00000E+00         0.00000E+00        -0.49986E+08
 
   -0.49941E+08         0.22783E+06         0.00000E+00
    0.22783E+06        -0.49865E+08         0.00000E+00
    0.00000E+00         0.00000E+00        -0.49986E+08
 
   -0.49951E+08         0.22917E+06         0.00000E+00
    0.22917E+06        -0.49860E+08         0.00000E+00
    0.00000E+00         0.00000E+00        -0.49986E+08
 
   -0.49961E+08         0.23031E+06         0.00000E+00
    0.23031E+06        -0.49855E+08         0.00000E+00
    0.00000E+00         0.00000E+00        -0.49986E+08
 
   -0.49971E+08         0.23124E+06         0.00000E+00
    0.23124E+06        -0.49850E+08         0.00000E+00
    0.00000E+00         0.00000E+00        -0.49986E+08
 
   -0.49981E+08         0.23196E+06         0.00000E+00
    0.23196E+06        -0.49845E+08         0.00000E+00
    0.00000E+00         0.00000E+00        -0.49986E+08
 
   -0.49651E+08         0.40151E+04         0.00000E+00
    0.40151E+04        -0.50000E+08         0.00000E+00
    0.00000E+00         0.00000E+00        -0.49983E+08
 
   -0.49652E+08         0.11986E+05         0.00000E+00
    0.11986E+05        -0.50000E+08         0.00000E+00
    0.00000E+00         0.00000E+00        -0.49983E+08
 
   -0.49652E+08         0.19926E+05         0.00000E+00
    0.19926E+05        -0.49999E+08         0.00000E+00
    0.00000E+00         0.00000E+00        -0.49983E+08
 
   -0.49653E+08         0.27830E+05         0.00000E+00
    0.27830E+05        -0.49999E+08         0.00000E+00
    0.00000E+00         0.00000E+00        -0.49983E+08
 
   -0.49654E+08         0.35689E+05         0.00000E+00
    0.35689E+05        -0.49998E+08         0.00000E+00
    0.00000E+00         0.00000E+00        -0.49983E+08
 
   -0.49656E+08         0.43499E+05         0.00000E+00
    0.43499E+05        -0.49997E+08         0.00000E+00
    0.00000E+00         0.00000E+00        -0.49983E+08
 
   -0.49658E+08         0.51252E+05         0.00000E+00
    0.51252E+05        -0.49996E+08         0.00000E+00
    0.00000E+00         0.00000E+00        -0.49983E+08
 
   -0.49660E+08         0.58942E+05         0.00000E+00
    0.58942E+05        -0.49995E+08         0.00000E+00
    0.00000E+00         0.00000E+00        -0.49983E+08
 
   -0.49662E+08         0.66563E+05         0.00000E+00
    0.66563E+05        -0.49994E+08         0.00000E+00
    0.00000E+00         0.00000E+00        -0.49983E+08
 
   -0.49665E+08         0.74110E+05         0.00000E+00
    0.74110E+05        -0.49992E+08         0.00000E+00
    0.00000E+00         0.00000E+00        -0.49983E+08
 
   -0.49668E+08         0.81575E+05         0.00000E+00
    0.81575E+05        -0.49990E+08         0.00000E+00
    0.00000E+00         0.00000E+00        -0.49983E+08
 
   -0.49672E+08         0.88954E+05         0.00000E+00
    0.88954E+05        -0.49989E+08         0.00000E+00
    0.00000E+00         0.00000E+00        -0.49983E+08
 
   -0.49675E+08         0.96241E+05         0.00000E+00
    0.96241E+05        -0.49987E+08         0.00000E+00
    0.00000E+00         0.00000E+00        -0.49983E+08
 
   -0.49679E+08         0.10343E+06         0.00000E+00
    0.10343E+06        -0.49984E+08         0.00000E+00
    0.00000E+00         0.00000E+00        -0.49983E+08
 
   -0.49684E+08         0.11052E+06         0.00000E+00
    0.11052E+06        -0.49982E+08         0.00000E+00
    0.00000E+00         0.00000E+00        -0.49983E+08
 
   -0.49688E+08         0.11749E+06         0.00000E+00
    0.11749E+06        -0.49980E+08         0.00000E+00
    0.00000E+00         0.00000E+00        -0.49983E+08
 
   -0.49693E+08         0.12435E+06         0.00000E+00
    0.12435E+06        -0.49977E+08         0.00000E+00
    0.00000E+00         0.00000E+00        -0.49983E+08
 
   -0.49698E+08         0.13110E+06         0.00000E+00
    0.13110E+06        -0.49974E+08         0.00000E+00
    0.00000E+00         0.00000E+00        -0.49983E+08
 
   -0.49704E+08         0.13772E+06         0.00000E+00
    0.13772E+06        -0.49971E+08         0.00000E+00
    0.00000E+00         0.00000E+00        -0.49983E+08
 
   -0.49709E+08         0.14420E+06         0.00000E+00
    0.14420E+06        -0.49968E+08         0.00000E+00
    0.00000E+00         0.00000E+00        -0.49983E+08
 
   -0.49715E+08         0.15056E+06         0.00000E+00
    0.15056E+06        -0.49965E+08         0.00000E+00
    0.00000E+00         0.00000E+00        -0.49983E+08
 
   -0.49721E+08         0.15678E+06         0.00000E+00
    0.15678E+06        -0.49962E+08         0.00000E+00
    0.00000E+00         0.00000E+00        -0.49983E+08
 
   -0.49728E+08         0.16285E+06         0.00000E+00
    0.16285E+06        -0.49958E+08         0.00000E+00
    0.00000E+00         0.00000E+00        -0.49983E+08
 
   -0.49735E+08         0.16877E+06         0.00000E+00
    0.16877E+06        -0.49955E+08         0.00000E+00
    0.00000E+00         0.00000E+00        -0.49983E+08
 
   -0.49741E+08         0.17455E+06         0.00000E+00
    0.17455E+06        -0.49951E+08         0.00000E+00
    0.00000E+00         0.00000E+00        -0.49983E+08
 
   -0.49749E+08         0.18016E+06         0.00000E+00
    0.18016E+06        -0.49947E+08         0.00000E+00
    0.00000E+00         0.00000E+00        -0.49983E+08
 
   -0.49756E+08         0.18562E+06         0.00000E+00
    0.18562E+06        -0.49943E+08         0.00000E+00
    0.00000E+00         0.00000E+00        -0.49983E+08
 
   -0.49764E+08         0.19091E+06         0.00000E+00
    0.19091E+06        -0.49939E+08         0.00000E+00
    0.00000E+00         0.00000E+00        -0.49983E+08
 
   -0.49772E+08         0.19603E+06         0.00000E+00
    0.19603E+06        -0.49935E+08         0.00000E+00
    0.00000E+00         0.00000E+00        -0.49983E+08
 
   -0.49780E+08         0.20098E+06         0.00000E+00
    0.20098E+06        -0.49931E+08         0.00000E+00
    0.00000E+00         0.00000E+00        -0.49983E+08
 
   -0.49788E+08         0.20575E+06         0.00000E+00
    0.20575E+06        -0.49926E+08         0.00000E+00
    0.00000E+00         0.00000E+00        -0.49983E+08
 
   -0.49796E+08         0.21034E+06         0.00000E+00
    0.21034E+06        -0.49922E+08         0.00000E+00
    0.00000E+00         0.00000E+00        -0.49983E+08
 
   -0.49805E+08         0.21474E+06         0.00000E+00
    0.21474E+06        -0.49917E+08         0.00000E+00
    0.00000E+00         0.00000E+00        -0.49983E+08
 
   -0.49814E+08         0.21896E+06         0.00000E+00
    0.21896E+06        -0.49913E+08         0.00000E+00
    0.00000E+00         0.00000E+00        -0.49983E+08
 
   -0.49823E+08         0.22299E+06         0.00000E+00
    0.22299E+06        -0.49908E+08         0.00000E+00
    0.00000E+00         0.00000E+00        -0.49983E+08
 
   -0.49832E+08         0.22683E+06         0.00000E+00
    0.22683E+06        -0.49903E+08         0.00000E+00
    0.00000E+00         0.00000E+00        -0.49983E+08
 
   -0.49842E+08         0.23047E+06         0.00000E+00
    0.23047E+06        -0.49898E+08         0.00000E+00
    0.00000E+00         0.00000E+00        -0.49983E+08
 
   -0.49851E+08         0.23391E+06         0.00000E+00
    0.23391E+06        -0.49893E+08         0.00000E+00
    0.00000E+00         0.00000E+00        -0.49983E+08
 
   -0.49861E+08         0.23714E+06         0.00000E+00
    0.23714E+06        -0.49888E+08         0.00000E+00
    0.00000E+00         0.00000E+00        -0.49983E+08
 
   -0.49871E+08         0.24017E+06         0.00000E+00
    0.24017E+06        -0.49883E+08         0.00000E+00
    0.00000E+00         0.00000E+00        -0.49983E+08
 
   -0.49881E+08         0.24299E+06         0.00000E+00
    0.24299E+06        -0.49878E+08         0.00000E+00
    0.00000E+00         0.00000E+00        -0.49983E+08
 
   -0.49891E+08         0.24560E+06         0.00000E+00
    0.24560E+06        -0.49872E+08         0.00000E+00
    0.00000E+00         0.00000E+00        -0.49983E+08
 
   -0.49901E+08         0.24800E+06         0.00000E+00
    0.24800E+06        -0.49867E+08         0.00000E+00
    0.00000E+00         0.00000E+00        -0.49983E+08
 
   -0.49912E+08         0.25018E+06         0.00000E+00
    0.25018E+06        -0.49862E+08         0.00000E+00
    0.00000E+00         0.00000E+00        -0.49983E+08
 
   -0.49923E+08         0.25214E+06         0.00000E+00
    0.25214E+06        -0.49856E+08         0.00000E+00
    0.00000E+00         0.00000E+00        -0.49983E+08
 
   -0.49933E+08         0.25389E+06         0.00000E+00
    0.25389E+06        -0.49851E+08         0.00000E+00
    0.00000E+00         0.00000E+00        -0.49983E+08
 
   -0.49944E+08         0.25541E+06         0.00000E+00
    0.25541E+06        -0.49845E+08         0.00000E+00
    0.00000E+00         0.00000E+00        -0.49983E+08
 
   -0.49955E+08         0.25670E+06         0.00000E+00
    0.25670E+06        -0.49840E+08         0.00000E+00
    0.00000E+00         0.00000E+00        -0.49983E+08
 
   -0.49966E+08         0.25777E+06         0.00000E+00
    0.25777E+06        -0.49834E+08         0.00000E+00
    0.00000E+00         0.00000E+00        -0.49983E+08
 
   -0.49977E+08         0.25861E+06         0.00000E+00
    0.25861E+06        -0.49829E+08         0.00000E+00
    0.00000E+00         0.00000E+00        -0.49983E+08
 
   -0.49609E+08         0.44909E+04         0.00000E+00
    0.44909E+04        -0.50000E+08         0.00000E+00
    0.00000E+00         0.00000E+00        -0.49980E+08
 
   -0.49609E+08         0.13395E+05         0.00000E+00
    0.13395E+05        -0.50000E+08         0.00000E+00
    0.00000E+00         0.00000E+00        -0.49980E+08
 
   -0.49610E+08         0.22262E+05         0.00000E+00
    0.22262E+05        -0.49999E+08         0.00000E+00
    0.00000E+00         0.00000E+00        -0.49980E+08
 
   -0.49611E+08         0.31083E+05         0.00000E+00
    0.31083E+05        -0.49999E+08         0.00000E+00
    0.00000E+00         0.00000E+00        -0.49980E+08
 
   -0.49613E+08         0.39852E+05         0.00000E+00
    0.39852E+05        -0.49998E+08         0.00000E+00
    0.00000E+00         0.00000E+00        -0.49980E+08
 
   -0.49615E+08         0.48561E+05         0.00000E+00
    0.48561E+05        -0.49997E+08         0.00000E+00
    0.00000E+00         0.00000E+00        -0.49980E+08
 
   -0.49617E+08         0.57205E+05         0.00000E+00
    0.57205E+05        -0.49996E+08         0.00000E+00
    0.00000E+00         0.00000E+00        -0.49980E+08
 
   -0.49619E+08         0.65775E+05         0.00000E+00
    0.65775E+05        -0.49995E+08         0.00000E+00
    0.00000E+00         0.00000E+00        -0.49980E+08
 
   -0.49622E+08         0.74266E+05         0.00000E+00
    0.74266E+05        -0.49993E+08         0.00000E+00
    0.00000E+00         0.00000E+00        -0.49980E+08
 
   -0.49625E+08         0.82671E+05         0.00000E+00
    0.82671E+05        -0.49991E+08         0.00000E+00
    0.00000E+00         0.00000E+00        -0.49980E+08
 
   -0.49629E+08         0.90983E+05         0.00000E+00
    0.90983E+05        -0.49989E+08         0.00000E+00
    0.00000E+00         0.00000E+00        -0.49980E+08
 
   -0.49633E+08         0.99197E+05         0.00000E+00
    0.99197E+05        -0.49987E+08         0.00000E+00
    0.00000E+00         0.00000E+00        -0.49980E+08
 
   -0.49637E+08         0.10731E+06         0.00000E+00
    0.10731E+06        -0.49985E+08         0.00000E+00
    0.00000E+00         0.00000E+00        -0.49980E+08
 
   -0.49642E+08         0.11530E+06         0.00000E+00
    0.11530E+06        -0.49983E+08         0.00000E+00
    0.00000E+00         0.00000E+00        -0.49980E+08
 
   -0.49646E+08         0.12318E+06         0.00000E+00
    0.12318E+06        -0.49980E+08         0.00000E+00
    0.00000E+00         0.00000E+00        -0.49980E+08
 
   -0.49652E+08         0.13094E+06         0.00000E+00
    0.13094E+06        -0.49977E+08         0.00000E+00
    0.00000E+00         0.00000E+00        -0.49980E+08
 
   -0.49657E+08         0.13857E+06         0.00000E+00
    0.13857E+06        -0.49974E+08         0.00000E+00
    0.00000E+00         0.00000E+00        -0.49980E+08
 
   -0.49663E+08         0.14607E+06         0.00000E+00
    0.14607E+06        -0.49971E+08         0.00000E+00
    0.00000E+00         0.00000E+00        -0.49980E+08
 
   -0.49669E+08         0.15342E+06         0.00000E+00
    0.15342E+06        -0.49968E+08         0.00000E+00
    0.00000E+00         0.00000E+00        -0.49980E+08
 
   -0.49675E+08         0.16063E+06         0.00000E+00
    0.16063E+06        -0.49965E+08         0.00000E+00
    0.00000E+00         0.00000E+00        -0.49980E+08
 
   -0.49682E+08         0.16769E+06         0.00000E+00
    0.16769E+06        -0.49961E+08         0.00000E+00
    0.00000E+00         0.00000E+00        -0.49980E+08
 
   -0.49689E+08         0.17460E+06         0.00000E+00
    0.17460E+06        -0.49958E+08         0.00000E+00
    0.00000E+00         0.00000E+00        -0.49980E+08
 
   -0.49696E+08         0.18135E+06         0.00000E+00
    0.18135E+06        -0.49954E+08         0.00000E+00
    0.00000E+00         0.00000E+00        -0.49980E+08
 
   -0.49704E+08         0.18793E+06         0.00000E+00
    0.18793E+06        -0.49950E+08         0.00000E+00
    0.00000E+00         0.00000E+00        -0.49980E+08
 
   -0.49711E+08         0.19434E+06         0.00000E+00
    0.19434E+06        -0.49946E+08         0.00000E+00
    0.00000E+00         0.00000E+00        -0.49980E+08
 
   -0.49719E+08         0.20058E+06         0.00000E+00
    0.20058E+06        -0.49941E+08         0.00000E+00
    0.00000E+00         0.00000E+00        -0.49980E+08
 
   -0.49728E+08         0.20664E+06         0.00000E+00
    0.20664E+06        -0.49937E+08         0.00000E+00
    0.00000E+00         0.00000E+00        -0.49980E+08
 
   -0.49736E+08         0.21251E+06         0.00000E+00
    0.21251E+06        -0.49933E+08         0.00000E+00
    0.00000E+00         0.00000E+00        -0.49980E+08
 
   -0.49745E+08         0.21820E+06         0.00000E+00
    0.21820E+06        -0.49928E+08         0.00000E+00
    0.00000E+00         0.00000E+00        -0.49980E+08
 
   -0.49754E+08         0.22370E+06         0.00000E+00
    0.22370E+06        -0.49923E+08         0.00000E+00
    0.00000E+00         0.00000E+00        -0.49980E+08
 
   -0.49763E+08         0.22900E+06         0.00000E+00
    0.22900E+06        -0.49918E+08         0.00000E+00
    0.00000E+00         0.00000E+00        -0.49980E+08
 
   -0.49773E+08         0.23411E+06         0.00000E+00
    0.23411E+06        -0.49914E+08         0.00000E+00
    0.00000E+00         0.00000E+00        -0.49980E+08
 
   -0.49782E+08         0.23901E+06         0.00000E+00
    0.23901E+06        -0.49908E+08         0.00000E+00
    0.00000E+00         0.00000E+00        -0.49980E+08
 
   -0.49792E+08         0.24370E+06         0.00000E+00
    0.24370E+06        -0.49903E+08         0.00000E+00
    0.00000E+00         0.00000E+00        -0.49980E+08
 
   -0.49802E+08         0.24819E+06         0.00000E+00
    0.24819E+06        -0.49898E+08         0.00000E+00
    0.00000E+00         0.00000E+00        -0.49980E+08
 
   -0.49812E+08         0.25246E+06         0.00000E+00
    0.25246E+06        -0.49893E+08         0.00000E+00
    0.00000E+00         0.00000E+00        -0.49980E+08
 
   -0.49823E+08         0.25651E+06         0.00000E+00
    0.25651E+06        -0.49887E+08         0.00000E+00
    0.00000E+00         0.00000E+00        -0.49980E+08
 
   -0.49834E+08         0.26034E+06         0.00000E+00
    0.26034E+06        -0.49882E+08         0.00000E+00
    0.00000E+00         0.00000E+00        -0.49980E+08
 
   -0.49844E+08         0.26395E+06         0.00000E+00
    0.26395E+06        -0.49876E+08         0.00000E+00
    0.00000E+00         0.00000E+00        -0.49980E+08
 
   -0.49855E+08         0.26734E+06         0.00000E+00
    0.26734E+06        -0.49871E+08         0.00000E+00
    0.00000E+00         0.00000E+00        -0.49980E+08
 
   -0.49867E+08         0.27049E+06         0.00000E+00
    0.27049E+06        -0.49865E+08         0.00000E+00
    0.00000E+00         0.00000E+00        -0.49980E+08
 
   -0.49878E+08         0.27341E+06         0.00000E+00
    0.27341E+06        -0.49859E+08         0.00000E+00
    0.00000E+00         0.00000E+00        -0.49980E+08
 
   -0.49889E+08         0.27610E+06         0.00000E+00
    0.27610E+06        -0.49853E+08         0.00000E+00
    0.00000E+00         0.00000E+00        -0.49980E+08
 
   -0.49901E+08         0.27855E+06         0.00000E+00
    0.27855E+06        -0.49847E+08         0.00000E+00
    0.00000E+00         0.00000E+00        -0.49980E+08
 
   -0.49913E+08         0.28076E+06         0.00000E+00
    0.28076E+06        -0.49841E+08         0.00000E+00
    0.00000E+00         0.00000E+00        -0.49980E+08
 
   -0.49925E+08         0.28273E+06         0.00000E+00
    0.28273E+06        -0.49835E+08         0.00000E+00
    0.00000E+00         0.00000E+00        -0.49980E+08
 
   -0.49937E+08         0.28445E+06         0.00000E+00
    0.28445E+06        -0.49829E+08         0.00000E+00
    0.00000E+00         0.00000E+00        -0.49980E+08
 
   -0.49949E+08         0.28593E+06         0.00000E+00
    0.28593E+06        -0.49823E+08         0.00000E+00
    0.00000E+00         0.00000E+00        -0.49980E+08
 
   -0.49961E+08         0.28716E+06         0.00000E+00
    0.28716E+06        -0.49817E+08         0.00000E+00
    0.00000E+00         0.00000E+00        -0.49980E+08
 
   -0.49973E+08         0.28814E+06         0.00000E+00
    0.28814E+06        -0.49811E+08         0.00000E+00
    0.00000E+00         0.00000E+00        -0.49980E+08
 
   -0.49562E+08         0.50199E+04         0.00000E+00
    0.50199E+04        -0.50000E+08         0.00000E+00
    0.00000E+00         0.00000E+00        -0.49976E+08
 
   -0.49562E+08         0.14960E+05         0.00000E+00
    0.14960E+05        -0.50000E+08         0.00000E+00
    0.00000E+00         0.00000E+00        -0.49976E+08
 
   -0.49563E+08         0.24854E+05         0.00000E+00
    0.24854E+05        -0.49999E+08         0.00000E+00
    0.00000E+00         0.00000E+00        -0.49976E+08
 
   -0.49565E+08         0.34692E+05         0.00000E+00
    0.34692E+05        -0.49999E+08         0.00000E+00
    0.00000E+00         0.00000E+00        -0.49976E+08
 
   -0.49567E+08         0.44469E+05         0.00000E+00
    0.44469E+05        -0.49998E+08         0.00000E+00
    0.00000E+00         0.00000E+00        -0.49976E+08
 
   -0.49569E+08         0.54175E+05         0.00000E+00
    0.54175E+05        -0.49997E+08         0.00000E+00
    0.00000E+00         0.00000E+00        -0.49976E+08
 
   -0.49571E+08         0.63804E+05         0.00000E+00
    0.63804E+05        -0.49995E+08         0.00000E+00
    0.00000E+00         0.00000E+00        -0.49976E+08
 
   -0.49574E+08         0.73348E+05         0.00000E+00
    0.73348E+05        -0.49994E+08         0.00000E+00
    0.00000E+00         0.00000E+00        -0.49976E+08
 
   -0.49578E+08         0.82801E+05         0.00000E+00
    0.82801E+05        -0.49992E+08         0.00000E+00
    0.00000E+00         0.00000E+00        -0.49976E+08
 
   -0.49581E+08         0.92154E+05         0.00000E+00
    0.92154E+05        -0.49990E+08         0.00000E+00
    0.00000E+00         0.00000E+00        -0.49976E+08
 
   -0.49585E+08         0.10140E+06         0.00000E+00
    0.10140E+06        -0.49988E+08         0.00000E+00
    0.00000E+00         0.00000E+00        -0.49976E+08
 
   -0.49590E+08         0.11054E+06         0.00000E+00
    0.11054E+06        -0.49986E+08         0.00000E+00
    0.00000E+00         0.00000E+00        -0.49976E+08
 
   -0.49595E+08         0.11955E+06         0.00000E+00
    0.11955E+06        -0.49983E+08         0.00000E+00
    0.00000E+00         0.00000E+00        -0.49976E+08
 
   -0.49600E+08         0.12844E+06         0.00000E+00
    0.12844E+06        -0.49981E+08         0.00000E+00
    0.00000E+00         0.00000E+00        -0.49976E+08
 
   -0.49605E+08         0.13720E+06         0.00000E+00
    0.13720E+06        -0.49978E+08         0.00000E+00
    0.00000E+00         0.00000E+00        -0.49976E+08
 
   -0.49611E+08         0.14582E+06         0.00000E+00
    0.14582E+06        -0.49975E+08         0.00000E+00
    0.00000E+00         0.00000E+00        -0.49976E+08
 
   -0.49617E+08         0.15429E+06         0.00000E+00
    0.15429E+06        -0.49972E+08         0.00000E+00
    0.00000E+00         0.00000E+00        -0.49976E+08
 
   -0.49624E+08         0.16262E+06         0.00000E+00
    0.16262E+06        -0.49968E+08         0.00000E+00
    0.00000E+00         0.00000E+00        -0.49976E+08
 
   -0.49631E+08         0.17079E+06         0.00000E+00
    0.17079E+06        -0.49965E+08         0.00000E+00
    0.00000E+00         0.00000E+00        -0.49976E+08
 
   -0.49638E+08         0.17879E+06         0.00000E+00
    0.17879E+06        -0.49961E+08         0.00000E+00
    0.00000E+00         0.00000E+00        -0.49976E+08
 
   -0.49645E+08         0.18663E+06         0.00000E+00
    0.18663E+06        -0.49957E+08         0.00000E+00
    0.00000E+00         0.00000E+00        -0.49976E+08
 
   -0.49653E+08         0.19430E+06         0.00000E+00
    0.19430E+06        -0.49953E+08         0.00000E+00
    0.00000E+00         0.00000E+00        -0.49976E+08
 
   -0.49661E+08         0.20179E+06         0.00000E+00
    0.20179E+06        -0.49949E+08         0.00000E+00
    0.00000E+00         0.00000E+00        -0.49976E+08
 
   -0.49669E+08         0.20909E+06         0.00000E+00
    0.20909E+06        -0.49944E+08         0.00000E+00
    0.00000E+00         0.00000E+00        -0.49976E+08
 
   -0.49678E+08         0.21621E+06         0.00000E+00
    0.21621E+06        -0.49940E+08         0.00000E+00
    0.00000E+00         0.00000E+00        -0.49976E+08
 
   -0.49687E+08         0.22314E+06         0.00000E+00
    0.22314E+06        -0.49935E+08         0.00000E+00
    0.00000E+00         0.00000E+00        -0.49976E+08
 
   -0.49696E+08         0.22986E+06         0.00000E+00
    0.22986E+06        -0.49930E+08         0.00000E+00
    0.00000E+00         0.00000E+00        -0.49976E+08
 
   -0.49706E+08         0.23638E+06         0.00000E+00
    0.23638E+06        -0.49926E+08         0.00000E+00
    0.00000E+00         0.00000E+00        -0.49976E+08
 
   -0.49715E+08         0.24270E+06         0.00000E+00
    0.24270E+06        -0.49920E+08         0.00000E+00
    0.00000E+00         0.00000E+00        -0.49976E+08
 
   -0.49725E+08         0.24881E+06         0.00000E+00
    0.24881E+06        -0.49915E+08         0.00000E+00
    0.00000E+00         0.00000E+00        -0.49976E+08
 
   -0.49736E+08         0.25470E+06         0.00000E+00
    0.25470E+06        -0.49910E+08         0.00000E+00
    0.00000E+00         0.00000E+00        -0.49976E+08
 
   -0.49746E+08         0.26037E+06         0.00000E+00
    0.26037E+06        -0.49904E+08         0.00000E+00
    0.00000E+00         0.00000E+00        -0.49976E+08
 
   -0.49757E+08         0.26581E+06         0.00000E+00
    0.26581E+06        -0.49899E+08         0.00000E+00
    0.00000E+00         0.00000E+00        -0.49976E+08
 
   -0.49768E+08         0.27103E+06         0.00000E+00
    0.27103E+06        -0.49893E+08         0.00000E+00
    0.00000E+00         0.00000E+00        -0.49976E+08
 
   -0.49779E+08         0.27602E+06         0.00000E+00
    0.27602E+06        -0.49887E+08         0.00000E+00
    0.00000E+00         0.00000E+00        -0.49976E+08
 
   -0.49791E+08         0.28077E+06         0.00000E+00
    0.28077E+06        -0.49881E+08         0.00000E+00
    0.00000E+00         0.00000E+00        -0.49976E+08
 
   -0.49802E+08         0.28528E+06         0.00000E+00
    0.28528E+06        -0.49876E+08         0.00000E+00
    0.00000E+00         0.00000E+00        -0.49976E+08
 
   -0.49814E+08         0.28955E+06         0.00000E+00
    0.28955E+06        -0.49869E+08         0.00000E+00
    0.00000E+00         0.00000E+00        -0.49976E+08
 
   -0.49826E+08         0.29358E+06         0.00000E+00
    0.29358E+06        -0.49863E+08         0.00000E+00
    0.00000E+00         0.00000E+00        -0.49976E+08
 
   -0.49838E+08         0.29735E+06         0.00000E+00
    0.29735E+06        -0.49857E+08         0.00000E+00
    0.00000E+00         0.00000E+00        -0.49976E+08
 
   -0.49850E+08         0.30088E+06         0.00000E+00
    0.30088E+06        -0.49851E+08         0.00000E+00
    0.00000E+00         0.00000E+00        -0.49976E+08
 
   -0.49863E+08         0.30415E+06         0.00000E+00
    0.30415E+06        -0.49844E+08         0.00000E+00
    0.00000E+00         0.00000E+00        -0.49976E+08
 
   -0.49876E+08         0.30716E+06         0.00000E+00
    0.30716E+06        -0.49838E+08         0.00000E+00
    0.00000E+00         0.00000E+00        -0.49976E+08
 
   -0.49889E+08         0.30991E+06         0.00000E+00
    0.30991E+06        -0.49831E+08         0.00000E+00
    0.00000E+00         0.00000E+00        -0.49976E+08
 
   -0.49902E+08         0.31240E+06         0.00000E+00
    0.31240E+06        -0.49825E+08         0.00000E+00
    0.00000E+00         0.00000E+00        -0.49976E+08
 
   -0.49915E+08         0.31463E+06         0.00000E+00
    0.31463E+06        -0.49818E+08         0.00000E+00
    0.00000E+00         0.00000E+00        -0.49976E+08
 
   -0.49928E+08         0.31658E+06         0.00000E+00
    0.31658E+06        -0.49811E+08         0.00000E+00
    0.00000E+00         0.00000E+00        -0.49976E+08
 
   -0.49942E+08         0.31827E+06         0.00000E+00
    0.31827E+06        -0.49804E+08         0.00000E+00
    0.00000E+00         0.00000E+00        -0.49976E+08
 
   -0.49955E+08         0.31968E+06         0.00000E+00
    0.31968E+06        -0.49798E+08         0.00000E+00
    0.00000E+00         0.00000E+00        -0.49976E+08
 
   -0.49969E+08         0.32082E+06         0.00000E+00
    0.32082E+06        -0.49791E+08         0.00000E+00
    0.00000E+00         0.00000E+00        -0.49976E+08
 
   -0.49509E+08         0.56074E+04         0.00000E+00
    0.56074E+04        -0.50000E+08         0.00000E+00
    0.00000E+00         0.00000E+00        -0.49971E+08
 
   -0.49510E+08         0.16696E+05         0.00000E+00
    0.16696E+05        -0.50000E+08         0.00000E+00
    0.00000E+00         0.00000E+00        -0.49971E+08
 
   -0.49511E+08         0.27727E+05         0.00000E+00
    0.27727E+05        -0.49999E+08         0.00000E+00
    0.00000E+00         0.00000E+00        -0.49971E+08
 
   -0.49513E+08         0.38693E+05         0.00000E+00
    0.38693E+05        -0.49998E+08         0.00000E+00
    0.00000E+00         0.00000E+00        -0.49971E+08
 
   -0.49515E+08         0.49584E+05         0.00000E+00
    0.49584E+05        -0.49998E+08         0.00000E+00
    0.00000E+00         0.00000E+00        -0.49971E+08
 
   -0.49518E+08         0.60393E+05         0.00000E+00
    0.60393E+05        -0.49996E+08         0.00000E+00
    0.00000E+00         0.00000E+00        -0.49971E+08
 
   -0.49521E+08         0.71111E+05         0.00000E+00
    0.71111E+05        -0.49995E+08         0.00000E+00
    0.00000E+00         0.00000E+00        -0.49971E+08
 
   -0.49524E+08         0.81731E+05         0.00000E+00
    0.81731E+05        -0.49993E+08         0.00000E+00
    0.00000E+00         0.00000E+00        -0.49971E+08
 
   -0.49528E+08         0.92245E+05         0.00000E+00
    0.92245E+05        -0.49991E+08         0.00000E+00
    0.00000E+00         0.00000E+00        -0.49971E+08
 
   -0.49532E+08         0.10265E+06         0.00000E+00
    0.10265E+06        -0.49989E+08         0.00000E+00
    0.00000E+00         0.00000E+00        -0.49971E+08
 
   -0.49537E+08         0.11292E+06         0.00000E+00
    0.11292E+06        -0.49987E+08         0.00000E+00
    0.00000E+00         0.00000E+00        -0.49971E+08
 
   -0.49542E+08         0.12308E+06         0.00000E+00
    0.12308E+06        -0.49984E+08         0.00000E+00
    0.00000E+00         0.00000E+00        -0.49971E+08
 
   -0.49547E+08         0.13309E+06         0.00000E+00
    0.13309E+06        -0.49982E+08         0.00000E+00
    0.00000E+00         0.00000E+00        -0.49971E+08
 
   -0.49553E+08         0.14296E+06         0.00000E+00
    0.14296E+06        -0.49979E+08         0.00000E+00
    0.00000E+00         0.00000E+00        -0.49971E+08
 
   -0.49559E+08         0.15269E+06         0.00000E+00
    0.15269E+06        -0.49976E+08         0.00000E+00
    0.00000E+00         0.00000E+00        -0.49971E+08
 
   -0.49566E+08         0.16226E+06         0.00000E+00
    0.16226E+06        -0.49972E+08         0.00000E+00
    0.00000E+00         0.00000E+00        -0.49971E+08
 
   -0.49573E+08         0.17166E+06         0.00000E+00
    0.17166E+06        -0.49969E+08         0.00000E+00
    0.00000E+00         0.00000E+00        -0.49971E+08
 
   -0.49580E+08         0.18090E+06         0.00000E+00
    0.18090E+06        -0.49965E+08         0.00000E+00
    0.00000E+00         0.00000E+00        -0.49971E+08
 
   -0.49588E+08         0.18996E+06         0.00000E+00
    0.18996E+06        -0.49961E+08         0.00000E+00
    0.00000E+00         0.00000E+00        -0.49971E+08
 
   -0.49596E+08         0.19885E+06         0.00000E+00
    0.19885E+06        -0.49957E+08         0.00000E+00
    0.00000E+00         0.00000E+00        -0.49971E+08
 
   -0.49604E+08         0.20754E+06         0.00000E+00
    0.20754E+06        -0.49953E+08         0.00000E+00
    0.00000E+00         0.00000E+00        -0.49971E+08
 
   -0.49613E+08         0.21605E+06         0.00000E+00
    0.21605E+06        -0.49948E+08         0.00000E+00
    0.00000E+00         0.00000E+00        -0.49971E+08
 
   -0.49622E+08         0.22435E+06         0.00000E+00
    0.22435E+06        -0.49943E+08         0.00000E+00
    0.00000E+00         0.00000E+00        -0.49971E+08
 
   -0.49631E+08         0.23245E+06         0.00000E+00
    0.23245E+06        -0.49939E+08         0.00000E+00
    0.00000E+00         0.00000E+00        -0.49971E+08
 
   -0.49641E+08         0.24035E+06         0.00000E+00
    0.24035E+06        -0.49934E+08         0.00000E+00
    0.00000E+00         0.00000E+00        -0.49971E+08
 
   -0.49651E+08         0.24802E+06         0.00000E+00
    0.24802E+06        -0.49929E+08         0.00000E+00
    0.00000E+00         0.00000E+00        -0.49971E+08
 
   -0.49661E+08         0.25548E+06         0.00000E+00
    0.25548E+06        -0.49923E+08         0.00000E+00
    0.00000E+00         0.00000E+00        -0.49971E+08
 
   -0.49672E+08         0.26272E+06         0.00000E+00
    0.26272E+06        -0.49918E+08         0.00000E+00
    0.00000E+00         0.00000E+00        -0.49971E+08
 
   -0.49683E+08         0.26973E+06         0.00000E+00
    0.26973E+06        -0.49912E+08         0.00000E+00
    0.00000E+00         0.00000E+00        -0.49971E+08
 
   -0.49694E+08         0.27650E+06         0.00000E+00
    0.27650E+06        -0.49906E+08         0.00000E+00
    0.00000E+00         0.00000E+00        -0.49971E+08
 
   -0.49705E+08         0.28304E+06         0.00000E+00
    0.28304E+06        -0.49901E+08         0.00000E+00
    0.00000E+00         0.00000E+00        -0.49971E+08
 
   -0.49717E+08         0.28933E+06         0.00000E+00
    0.28933E+06        -0.49895E+08         0.00000E+00
    0.00000E+00         0.00000E+00        -0.49971E+08
 
   -0.49729E+08         0.29538E+06         0.00000E+00
    0.29538E+06        -0.49888E+08         0.00000E+00
    0.00000E+00         0.00000E+00        -0.49971E+08
 
   -0.49741E+08         0.30117E+06         0.00000E+00
    0.30117E+06        -0.49882E+08         0.00000E+00
    0.00000E+00         0.00000E+00        -0.49971E+08
 
   -0.49753E+08         0.30672E+06         0.00000E+00
    0.30672E+06        -0.49876E+08         0.00000E+00
    0.00000E+00         0.00000E+00        -0.49971E+08
 
   -0.49766E+08         0.31200E+06         0.00000E+00
    0.31200E+06        -0.49869E+08         0.00000E+00
    0.00000E+00         0.00000E+00        -0.49971E+08
 
   -0.49779E+08         0.31702E+06         0.00000E+00
    0.31702E+06        -0.49863E+08         0.00000E+00
    0.00000E+00         0.00000E+00        -0.49971E+08
 
   -0.49792E+08         0.32178E+06         0.00000E+00
    0.32178E+06        -0.49856E+08         0.00000E+00
    0.00000E+00         0.00000E+00        -0.49971E+08
 
   -0.49805E+08         0.32626E+06         0.00000E+00
    0.32626E+06        -0.49849E+08         0.00000E+00
    0.00000E+00         0.00000E+00        -0.49971E+08
 
   -0.49819E+08         0.33048E+06         0.00000E+00
    0.33048E+06        -0.49842E+08         0.00000E+00
    0.00000E+00         0.00000E+00        -0.49971E+08
 
   -0.49833E+08         0.33442E+06         0.00000E+00
    0.33442E+06        -0.49835E+08         0.00000E+00
    0.00000E+00         0.00000E+00        -0.49971E+08
 
   -0.49846E+08         0.33808E+06         0.00000E+00
    0.33808E+06        -0.49828E+08         0.00000E+00
    0.00000E+00         0.00000E+00        -0.49971E+08
 
   -0.49860E+08         0.34145E+06         0.00000E+00
    0.34145E+06        -0.49821E+08         0.00000E+00
    0.00000E+00         0.00000E+00        -0.49971E+08
 
   -0.49875E+08         0.34455E+06         0.00000E+00
    0.34455E+06        -0.49814E+08         0.00000E+00
    0.00000E+00         0.00000E+00        -0.49971E+08
 
   -0.49889E+08         0.34735E+06         0.00000E+00
    0.34735E+06        -0.49806E+08         0.00000E+00
    0.00000E+00         0.00000E+00        -0.49971E+08
 
   -0.49904E+08         0.34986E+06         0.00000E+00
    0.34986E+06        -0.49799E+08         0.00000E+00
    0.00000E+00         0.00000E+00        -0.49971E+08
 
   -0.49918E+08         0.35209E+06         0.00000E+00
    0.35209E+06        -0.49792E+08         0.00000E+00
    0.00000E+00         0.00000E+00        -0.49971E+08
 
   -0.49933E+08         0.35401E+06         0.00000E+00
    0.35401E+06        -0.49784E+08         0.00000E+00
    0.00000E+00         0.00000E+00        -0.49971E+08
 
   -0.49948E+08         0.35564E+06         0.00000E+00
    0.35564E+06        -0.49777E+08         0.00000E+00
    0.00000E+00         0.00000E+00        -0.49971E+08
 
   -0.49963E+08         0.35697E+06         0.00000E+00
    0.35697E+06        -0.49769E+08         0.00000E+00
    0.00000E+00         0.00000E+00        -0.49971E+08
 
   -0.49451E+08         0.62590E+04         0.00000E+00
    0.62590E+04        -0.50000E+08         0.00000E+00
    0.00000E+00         0.00000E+00        -0.49965E+08
 
   -0.49452E+08         0.18619E+05         0.00000E+00
    0.18619E+05        -0.50000E+08         0.00000E+00
    0.00000E+00         0.00000E+00        -0.49965E+08
 
   -0.49453E+08         0.30909E+05         0.00000E+00
    0.30909E+05        -0.49999E+08         0.00000E+00
    0.00000E+00         0.00000E+00        -0.49965E+08
 
   -0.49455E+08         0.43120E+05         0.00000E+00
    0.43120E+05        -0.49998E+08         0.00000E+00
    0.00000E+00         0.00000E+00        -0.49965E+08
 
   -0.49458E+08         0.55243E+05         0.00000E+00
    0.55243E+05        -0.49997E+08         0.00000E+00
    0.00000E+00         0.00000E+00        -0.49965E+08
 
   -0.49461E+08         0.67269E+05         0.00000E+00
    0.67269E+05        -0.49996E+08         0.00000E+00
    0.00000E+00         0.00000E+00        -0.49965E+08
 
   -0.49464E+08         0.79190E+05         0.00000E+00
    0.79190E+05        -0.49994E+08         0.00000E+00
    0.00000E+00         0.00000E+00        -0.49965E+08
 
   -0.49468E+08         0.90997E+05         0.00000E+00
    0.90997E+05        -0.49993E+08         0.00000E+00
    0.00000E+00         0.00000E+00        -0.49965E+08
 
   -0.49473E+08         0.10268E+06         0.00000E+00
    0.10268E+06        -0.49990E+08         0.00000E+00
    0.00000E+00         0.00000E+00        -0.49965E+08
 
   -0.49478E+08         0.11424E+06         0.00000E+00
    0.11424E+06        -0.49988E+08         0.00000E+00
    0.00000E+00         0.00000E+00        -0.49965E+08
 
   -0.49483E+08         0.12565E+06         0.00000E+00
    0.12565E+06        -0.49986E+08         0.00000E+00
    0.00000E+00         0.00000E+00        -0.49965E+08
 
   -0.49489E+08         0.13692E+06         0.00000E+00
    0.13692E+06        -0.49983E+08         0.00000E+00
    0.00000E+00         0.00000E+00        -0.49965E+08
 
   -0.49495E+08         0.14804E+06         0.00000E+00
    0.14804E+06        -0.49980E+08         0.00000E+00
    0.00000E+00         0.00000E+00        -0.49965E+08
 
   -0.49502E+08         0.15899E+06         0.00000E+00
    0.15899E+06        -0.49977E+08         0.00000E+00
    0.00000E+00         0.00000E+00        -0.49965E+08
 
   -0.49509E+08         0.16978E+06         0.00000E+00
    0.16978E+06        -0.49973E+08         0.00000E+00
    0.00000E+00         0.00000E+00        -0.49965E+08
 
   -0.49516E+08         0.18039E+06         0.00000E+00
    0.18039E+06        -0.49969E+08         0.00000E+00
    0.00000E+00         0.00000E+00        -0.49965E+08
 
   -0.49524E+08         0.19082E+06         0.00000E+00
    0.19082E+06        -0.49965E+08         0.00000E+00
    0.00000E+00         0.00000E+00        -0.49965E+08
 
   -0.49532E+08         0.20107E+06         0.00000E+00
    0.20107E+06        -0.49961E+08         0.00000E+00
    0.00000E+00         0.00000E+00        -0.49965E+08
 
   -0.49541E+08         0.21111E+06         0.00000E+00
    0.21111E+06        -0.49957E+08         0.00000E+00
    0.00000E+00         0.00000E+00        -0.49965E+08
 
   -0.49550E+08         0.22096E+06         0.00000E+00
    0.22096E+06        -0.49952E+08         0.00000E+00
    0.00000E+00         0.00000E+00        -0.49965E+08
 
   -0.49559E+08         0.23059E+06         0.00000E+00
    0.23059E+06        -0.49948E+08         0.00000E+00
    0.00000E+00         0.00000E+00        -0.49965E+08
 
   -0.49569E+08         0.24001E+06         0.00000E+00
    0.24001E+06        -0.49943E+08         0.00000E+00
    0.00000E+00         0.00000E+00        -0.49965E+08
 
   -0.49579E+08         0.24922E+06         0.00000E+00
    0.24922E+06        -0.49938E+08         0.00000E+00
    0.00000E+00         0.00000E+00        -0.49965E+08
 
   -0.49589E+08         0.25819E+06         0.00000E+00
    0.25819E+06        -0.49932E+08         0.00000E+00
    0.00000E+00         0.00000E+00        -0.49965E+08
 
   -0.49600E+08         0.26694E+06         0.00000E+00
    0.26694E+06        -0.49927E+08         0.00000E+00
    0.00000E+00         0.00000E+00        -0.49965E+08
 
   -0.49611E+08         0.27545E+06         0.00000E+00
    0.27545E+06        -0.49921E+08         0.00000E+00
    0.00000E+00         0.00000E+00        -0.49965E+08
 
   -0.49623E+08         0.28371E+06         0.00000E+00
    0.28371E+06        -0.49915E+08         0.00000E+00
    0.00000E+00         0.00000E+00        -0.49965E+08
 
   -0.49634E+08         0.29173E+06         0.00000E+00
    0.29173E+06        -0.49909E+08         0.00000E+00
    0.00000E+00         0.00000E+00        -0.49965E+08
 
   -0.49646E+08         0.29950E+06         0.00000E+00
    0.29950E+06        -0.49903E+08         0.00000E+00
    0.00000E+00         0.00000E+00        -0.49965E+08
 
   -0.49659E+08         0.30701E+06         0.00000E+00
    0.30701E+06        -0.49897E+08         0.00000E+00
    0.00000E+00         0.00000E+00        -0.49965E+08
 
   -0.49671E+08         0.31426E+06         0.00000E+00
    0.31426E+06        -0.49890E+08         0.00000E+00
    0.00000E+00         0.00000E+00        -0.49965E+08
 
   -0.49684E+08         0.32124E+06         0.00000E+00
    0.32124E+06        -0.49884E+08         0.00000E+00
    0.00000E+00         0.00000E+00        -0.49965E+08
 
   -0.49698E+08         0.32795E+06         0.00000E+00
    0.32795E+06        -0.49877E+08         0.00000E+00
    0.00000E+00         0.00000E+00        -0.49965E+08
 
   -0.49711E+08         0.33438E+06         0.00000E+00
    0.33438E+06        -0.49870E+08         0.00000E+00
    0.00000E+00         0.00000E+00        -0.49965E+08
 
   -0.49725E+08         0.34054E+06         0.00000E+00
    0.34054E+06        -0.49863E+08         0.00000E+00
    0.00000E+00         0.00000E+00        -0.49965E+08
 
   -0.49739E+08         0.34641E+06         0.00000E+00
    0.34641E+06        -0.49856E+08         0.00000E+00
    0.00000E+00         0.00000E+00        -0.49965E+08
 
   -0.49753E+08         0.35200E+06         0.00000E+00
    0.35200E+06        -0.49849E+08         0.00000E+00
    0.00000E+00         0.00000E+00        -0.49965E+08
 
   -0.49768E+08         0.35729E+06         0.00000E+00
    0.35729E+06        -0.49841E+08         0.00000E+00
    0.00000E+00         0.00000E+00        -0.49965E+08
 
   -0.49782E+08         0.36229E+06         0.00000E+00
    0.36229E+06        -0.49834E+08         0.00000E+00
    0.00000E+00         0.00000E+00        -0.49965E+08
 
   -0.49797E+08         0.36699E+06         0.00000E+00
    0.36699E+06        -0.49826E+08         0.00000E+00
    0.00000E+00         0.00000E+00        -0.49965E+08
 
   -0.49812E+08         0.37139E+06         0.00000E+00
    0.37139E+06        -0.49818E+08         0.00000E+00
    0.00000E+00         0.00000E+00        -0.49965E+08
 
   -0.49828E+08         0.37548E+06         0.00000E+00
    0.37548E+06        -0.49811E+08         0.00000E+00
    0.00000E+00         0.00000E+00        -0.49965E+08
 
   -0.49843E+08         0.37927E+06         0.00000E+00
    0.37927E+06        -0.49803E+08         0.00000E+00
    0.00000E+00         0.00000E+00        -0.49965E+08
 
   -0.49859E+08         0.38274E+06         0.00000E+00
    0.38274E+06        -0.49795E+08         0.00000E+00
    0.00000E+00         0.00000E+00        -0.49965E+08
 
   -0.49875E+08         0.38590E+06         0.00000E+00
    0.38590E+06        -0.49787E+08         0.00000E+00
    0.00000E+00         0.00000E+00        -0.49965E+08
 
   -0.49891E+08         0.38874E+06         0.00000E+00
    0.38874E+06        -0.49779E+08         0.00000E+00
    0.00000E+00         0.00000E+00        -0.49965E+08
 
   -0.49907E+08         0.39127E+06         0.00000E+00
    0.39127E+06        -0.49770E+08         0.00000E+00
    0.00000E+00         0.00000E+00        -0.49965E+08
 
   -0.49924E+08         0.39347E+06         0.00000E+00
    0.39347E+06        -0.49762E+08         0.00000E+00
    0.00000E+00         0.00000E+00        -0.49965E+08
 
   -0.49940E+08         0.39534E+06         0.00000E+00
    0.39534E+06        -0.49754E+08         0.00000E+00
    0.00000E+00         0.00000E+00        -0.49965E+08
 
   -0.49957E+08         0.39689E+06         0.00000E+00
    0.39689E+06        -0.49745E+08         0.00000E+00
    0.00000E+00         0.00000E+00        -0.49965E+08
 
   -0.49385E+08         0.69807E+04         0.00000E+00
    0.69807E+04        -0.50000E+08         0.00000E+00
    0.00000E+00         0.00000E+00        -0.49959E+08
 
   -0.49387E+08         0.20746E+05         0.00000E+00
    0.20746E+05        -0.50000E+08         0.00000E+00
    0.00000E+00         0.00000E+00        -0.49959E+08
 
   -0.49389E+08         0.34427E+05         0.00000E+00
    0.34427E+05        -0.49999E+08         0.00000E+00
    0.00000E+00         0.00000E+00        -0.49959E+08
 
   -0.49391E+08         0.48013E+05         0.00000E+00
    0.48013E+05        -0.49998E+08         0.00000E+00
    0.00000E+00         0.00000E+00        -0.49959E+08
 
   -0.49394E+08         0.61495E+05         0.00000E+00
    0.61495E+05        -0.49997E+08         0.00000E+00
    0.00000E+00         0.00000E+00        -0.49959E+08
 
   -0.49398E+08         0.74864E+05         0.00000E+00
    0.74864E+05        -0.49996E+08         0.00000E+00
    0.00000E+00         0.00000E+00        -0.49959E+08
 
   -0.49402E+08         0.88109E+05         0.00000E+00
    0.88109E+05        -0.49994E+08         0.00000E+00
    0.00000E+00         0.00000E+00        -0.49959E+08
 
   -0.49406E+08         0.10122E+06         0.00000E+00
    0.10122E+06        -0.49992E+08         0.00000E+00
    0.00000E+00         0.00000E+00        -0.49959E+08
 
   -0.49412E+08         0.11420E+06         0.00000E+00
    0.11420E+06        -0.49990E+08         0.00000E+00
    0.00000E+00         0.00000E+00        -0.49959E+08
 
   -0.49417E+08         0.12702E+06         0.00000E+00
    0.12702E+06        -0.49987E+08         0.00000E+00
    0.00000E+00         0.00000E+00        -0.49959E+08
 
   -0.49423E+08         0.13969E+06         0.00000E+00
    0.13969E+06        -0.49984E+08         0.00000E+00
    0.00000E+00         0.00000E+00        -0.49959E+08
 
   -0.49430E+08         0.15219E+06         0.00000E+00
    0.15219E+06        -0.49981E+08         0.00000E+00
    0.00000E+00         0.00000E+00        -0.49959E+08
 
   -0.49437E+08         0.16451E+06         0.00000E+00
    0.16451E+06        -0.49978E+08         0.00000E+00
    0.00000E+00         0.00000E+00        -0.49959E+08
 
   -0.49444E+08         0.17666E+06         0.00000E+00
    0.17666E+06        -0.49974E+08         0.00000E+00
    0.00000E+00         0.00000E+00        -0.49959E+08
 
   -0.49452E+08         0.18861E+06         0.00000E+00
    0.18861E+06        -0.49970E+08         0.00000E+00
    0.00000E+00         0.00000E+00        -0.49959E+08
 
   -0.49461E+08         0.20037E+06         0.00000E+00
    0.20037E+06        -0.49966E+08         0.00000E+00
    0.00000E+00         0.00000E+00        -0.49959E+08
 
   -0.49469E+08         0.21193E+06         0.00000E+00
    0.21193E+06        -0.49962E+08         0.00000E+00
    0.00000E+00         0.00000E+00        -0.49959E+08
 
   -0.49479E+08         0.22327E+06         0.00000E+00
    0.22327E+06        -0.49957E+08         0.00000E+00
    0.00000E+00         0.00000E+00        -0.49959E+08
 
   -0.49488E+08         0.23439E+06         0.00000E+00
    0.23439E+06        -0.49953E+08         0.00000E+00
    0.00000E+00         0.00000E+00        -0.49959E+08
 
   -0.49498E+08         0.24529E+06         0.00000E+00
    0.24529E+06        -0.49948E+08         0.00000E+00
    0.00000E+00         0.00000E+00        -0.49959E+08
 
   -0.49509E+08         0.25596E+06         0.00000E+00
    0.25596E+06        -0.49942E+08         0.00000E+00
    0.00000E+00         0.00000E+00        -0.49959E+08
 
   -0.49520E+08         0.26639E+06         0.00000E+00
    0.26639E+06        -0.49937E+08         0.00000E+00
    0.00000E+00         0.00000E+00        -0.49959E+08
 
   -0.49531E+08         0.27658E+06         0.00000E+00
    0.27658E+06        -0.49931E+08         0.00000E+00
    0.00000E+00         0.00000E+00        -0.49959E+08
 
   -0.49543E+08         0.28652E+06         0.00000E+00
    0.28652E+06        -0.49926E+08         0.00000E+00
    0.00000E+00         0.00000E+00        -0.49959E+08
 
   -0.49555E+08         0.29620E+06         0.00000E+00
    0.29620E+06        -0.49920E+08         0.00000E+00
    0.00000E+00         0.00000E+00        -0.49959E+08
 
   -0.49567E+08         0.30562E+06         0.00000E+00
    0.30562E+06        -0.49913E+08         0.00000E+00
    0.00000E+00         0.00000E+00        -0.49959E+08
 
   -0.49580E+08         0.31477E+06         0.00000E+00
    0.31477E+06        -0.49907E+08         0.00000E+00
    0.00000E+00         0.00000E+00        -0.49959E+08
 
   -0.49593E+08         0.32365E+06         0.00000E+00
    0.32365E+06        -0.49900E+08         0.00000E+00
    0.00000E+00         0.00000E+00        -0.49959E+08
 
   -0.49606E+08         0.33225E+06         0.00000E+00
    0.33225E+06        -0.49893E+08         0.00000E+00
    0.00000E+00         0.00000E+00        -0.49959E+08
 
   -0.49620E+08         0.34057E+06         0.00000E+00
    0.34057E+06        -0.49887E+08         0.00000E+00
    0.00000E+00         0.00000E+00        -0.49959E+08
 
   -0.49634E+08         0.34860E+06         0.00000E+00
    0.34860E+06        -0.49879E+08         0.00000E+00
    0.00000E+00         0.00000E+00        -0.49959E+08
 
   -0.49648E+08         0.35634E+06         0.00000E+00
    0.35634E+06        -0.49872E+08         0.00000E+00
    0.00000E+00         0.00000E+00        -0.49959E+08
 
   -0.49663E+08         0.36378E+06         0.00000E+00
    0.36378E+06        -0.49865E+08         0.00000E+00
    0.00000E+00         0.00000E+00        -0.49959E+08
 
   -0.49678E+08         0.37092E+06         0.00000E+00
    0.37092E+06        -0.49857E+08         0.00000E+00
    0.00000E+00         0.00000E+00        -0.49959E+08
 
   -0.49693E+08         0.37775E+06         0.00000E+00
    0.37775E+06        -0.49849E+08         0.00000E+00
    0.00000E+00         0.00000E+00        -0.49959E+08
 
   -0.49709E+08         0.38427E+06         0.00000E+00
    0.38427E+06        -0.49842E+08         0.00000E+00
    0.00000E+00         0.00000E+00        -0.49959E+08
 
   -0.49724E+08         0.39048E+06         0.00000E+00
    0.39048E+06        -0.49834E+08         0.00000E+00
    0.00000E+00         0.00000E+00        -0.49959E+08
 
   -0.49740E+08         0.39637E+06         0.00000E+00
    0.39637E+06        -0.49825E+08         0.00000E+00
    0.00000E+00         0.00000E+00        -0.49959E+08
 
   -0.49757E+08         0.40194E+06         0.00000E+00
    0.40194E+06        -0.49817E+08         0.00000E+00
    0.00000E+00         0.00000E+00        -0.49959E+08
 
   -0.49773E+08         0.40718E+06         0.00000E+00
    0.40718E+06        -0.49809E+08         0.00000E+00
    0.00000E+00         0.00000E+00        -0.49959E+08
 
   -0.49790E+08         0.41209E+06         0.00000E+00
    0.41209E+06        -0.49800E+08         0.00000E+00
    0.00000E+00         0.00000E+00        -0.49959E+08
 
   -0.49807E+08         0.41667E+06         0.00000E+00
    0.41667E+06        -0.49792E+08         0.00000E+00
    0.00000E+00         0.00000E+00        -0.49959E+08
 
   -0.49824E+08         0.42091E+06         0.00000E+00
    0.42091E+06        -0.49783E+08         0.00000E+00
    0.00000E+00         0.00000E+00        -0.49959E+08
 
   -0.49841E+08         0.42482E+06         0.00000E+00
    0.42482E+06        -0.49774E+08         0.00000E+00
    0.00000E+00         0.00000E+00        -0.49959E+08
 
   -0.49859E+08         0.42837E+06         0.00000E+00
    0.42837E+06        -0.49765E+08         0.00000E+00
    0.00000E+00         0.00000E+00        -0.49959E+08
 
   -0.49877E+08         0.43159E+06         0.00000E+00
    0.43159E+06        -0.49756E+08         0.00000E+00
    0.00000E+00         0.00000E+00        -0.49959E+08
 
   -0.49895E+08         0.43445E+06         0.00000E+00
    0.43445E+06        -0.49747E+08         0.00000E+00
    0.00000E+00         0.00000E+00        -0.49959E+08
 
   -0.49913E+08         0.43697E+06         0.00000E+00
    0.43697E+06        -0.49738E+08         0.00000E+00
    0.00000E+00         0.00000E+00        -0.49959E+08
 
   -0.49931E+08         0.43913E+06         0.00000E+00
    0.43913E+06        -0.49729E+08         0.00000E+00
    0.00000E+00         0.00000E+00        -0.49959E+08
 
   -0.49949E+08         0.44093E+06         0.00000E+00
    0.44093E+06        -0.49720E+08         0.00000E+00
    0.00000E+00         0.00000E+00        -0.49959E+08
 
   -0.49312E+08         0.77790E+04         0.00000E+00
    0.77790E+04        -0.50000E+08         0.00000E+00
    0.00000E+00         0.00000E+00        -0.49951E+08
 
   -0.49314E+08         0.23096E+05         0.00000E+00
    0.23096E+05        -0.50000E+08         0.00000E+00
    0.00000E+00         0.00000E+00        -0.49951E+08
 
   -0.49317E+08         0.38310E+05         0.00000E+00
    0.38310E+05        -0.49999E+08         0.00000E+00
    0.00000E+00         0.00000E+00        -0.49951E+08
 
   -0.49320E+08         0.53412E+05         0.00000E+00
    0.53412E+05        -0.49998E+08         0.00000E+00
    0.00000E+00         0.00000E+00        -0.49951E+08
 
   -0.49323E+08         0.68392E+05         0.00000E+00
    0.68392E+05        -0.49997E+08         0.00000E+00
    0.00000E+00         0.00000E+00        -0.49951E+08
 
   -0.49328E+08         0.83238E+05         0.00000E+00
    0.83238E+05        -0.49995E+08         0.00000E+00
    0.00000E+00         0.00000E+00        -0.49951E+08
 
   -0.49332E+08         0.97941E+05         0.00000E+00
    0.97941E+05        -0.49993E+08         0.00000E+00
    0.00000E+00         0.00000E+00        -0.49951E+08
 
   -0.49338E+08         0.11249E+06         0.00000E+00
    0.11249E+06        -0.49991E+08         0.00000E+00
    0.00000E+00         0.00000E+00        -0.49951E+08
 
   -0.49344E+08         0.12688E+06         0.00000E+00
    0.12688E+06        -0.49988E+08         0.00000E+00
    0.00000E+00         0.00000E+00        -0.49951E+08
 
   -0.49350E+08         0.14110E+06         0.00000E+00
    0.14110E+06        -0.49986E+08         0.00000E+00
    0.00000E+00         0.00000E+00        -0.49951E+08
 
   -0.49357E+08         0.15514E+06         0.00000E+00
    0.15514E+06        -0.49983E+08         0.00000E+00
    0.00000E+00         0.00000E+00        -0.49951E+08
 
   -0.49364E+08         0.16899E+06         0.00000E+00
    0.16899E+06        -0.49979E+08         0.00000E+00
    0.00000E+00         0.00000E+00        -0.49951E+08
 
   -0.49372E+08         0.18264E+06         0.00000E+00
    0.18264E+06        -0.49975E+08         0.00000E+00
    0.00000E+00         0.00000E+00        -0.49951E+08
 
   -0.49381E+08         0.19609E+06         0.00000E+00
    0.19609E+06        -0.49972E+08         0.00000E+00
    0.00000E+00         0.00000E+00        -0.49951E+08
 
   -0.49390E+08         0.20933E+06         0.00000E+00
    0.20933E+06        -0.49967E+08         0.00000E+00
    0.00000E+00         0.00000E+00        -0.49951E+08
 
   -0.49399E+08         0.22234E+06         0.00000E+00
    0.22234E+06        -0.49963E+08         0.00000E+00
    0.00000E+00         0.00000E+00        -0.49951E+08
 
   -0.49409E+08         0.23513E+06         0.00000E+00
    0.23513E+06        -0.49958E+08         0.00000E+00
    0.00000E+00         0.00000E+00        -0.49951E+08
 
   -0.49420E+08         0.24768E+06         0.00000E+00
    0.24768E+06        -0.49953E+08         0.00000E+00
    0.00000E+00         0.00000E+00        -0.49951E+08
 
   -0.49430E+08         0.25999E+06         0.00000E+00
    0.25999E+06        -0.49948E+08         0.00000E+00
    0.00000E+00         0.00000E+00        -0.49951E+08
 
   -0.49442E+08         0.27204E+06         0.00000E+00
    0.27204E+06        -0.49942E+08         0.00000E+00
    0.00000E+00         0.00000E+00        -0.49951E+08
 
   -0.49453E+08         0.28384E+06         0.00000E+00
    0.28384E+06        -0.49937E+08         0.00000E+00
    0.00000E+00         0.00000E+00        -0.49951E+08
 
   -0.49466E+08         0.29538E+06         0.00000E+00
    0.29538E+06        -0.49931E+08         0.00000E+00
    0.00000E+00         0.00000E+00        -0.49951E+08
 
   -0.49478E+08         0.30664E+06         0.00000E+00
    0.30664E+06        -0.49925E+08         0.00000E+00
    0.00000E+00         0.00000E+00        -0.49951E+08
 
   -0.49491E+08         0.31763E+06         0.00000E+00
    0.31763E+06        -0.49918E+08         0.00000E+00
    0.00000E+00         0.00000E+00        -0.49951E+08
 
   -0.49504E+08         0.32834E+06         0.00000E+00
    0.32834E+06        -0.49912E+08         0.00000E+00
    0.00000E+00         0.00000E+00        -0.49951E+08
 
   -0.49518E+08         0.33876E+06         0.00000E+00
    0.33876E+06        -0.49905E+08         0.00000E+00
    0.00000E+00         0.00000E+00        -0.49951E+08
 
   -0.49532E+08         0.34888E+06         0.00000E+00
    0.34888E+06        -0.49898E+08         0.00000E+00
    0.00000E+00         0.00000E+00        -0.49951E+08
 
   -0.49547E+08         0.35870E+06         0.00000E+00
    0.35870E+06        -0.49890E+08         0.00000E+00
    0.00000E+00         0.00000E+00        -0.49951E+08
 
   -0.49562E+08         0.36822E+06         0.00000E+00
    0.36822E+06        -0.49883E+08         0.00000E+00
    0.00000E+00         0.00000E+00        -0.49951E+08
 
   -0.49577E+08         0.37743E+06         0.00000E+00
    0.37743E+06        -0.49875E+08         0.00000E+00
    0.00000E+00         0.00000E+00        -0.49951E+08
 
   -0.49592E+08         0.38632E+06         0.00000E+00
    0.38632E+06        -0.49868E+08         0.00000E+00
    0.00000E+00         0.00000E+00        -0.49951E+08
 
   -0.49608E+08         0.39489E+06         0.00000E+00
    0.39489E+06        -0.49860E+08         0.00000E+00
    0.00000E+00         0.00000E+00        -0.49951E+08
 
   -0.49625E+08         0.40313E+06         0.00000E+00
    0.40313E+06        -0.49851E+08         0.00000E+00
    0.00000E+00         0.00000E+00        -0.49951E+08
 
   -0.49641E+08         0.41105E+06         0.00000E+00
    0.41105E+06        -0.49843E+08         0.00000E+00
    0.00000E+00         0.00000E+00        -0.49951E+08
 
   -0.49658E+08         0.41863E+06         0.00000E+00
    0.41863E+06        -0.49835E+08         0.00000E+00
    0.00000E+00         0.00000E+00        -0.49951E+08
 
   -0.49675E+08         0.42587E+06         0.00000E+00
    0.42587E+06        -0.49826E+08         0.00000E+00
    0.00000E+00         0.00000E+00        -0.49951E+08
 
   -0.49693E+08         0.43276E+06         0.00000E+00
    0.43276E+06        -0.49817E+08         0.00000E+00
    0.00000E+00         0.00000E+00        -0.49951E+08
 
   -0.49710E+08         0.43931E+06         0.00000E+00
    0.43931E+06        -0.49808E+08         0.00000E+00
    0.00000E+00         0.00000E+00        -0.49951E+08
 
   -0.49728E+08         0.44551E+06         0.00000E+00
    0.44551E+06        -0.49799E+08         0.00000E+00
    0.00000E+00         0.00000E+00        -0.49951E+08
 
   -0.49746E+08         0.45135E+06         0.00000E+00
    0.45135E+06        -0.49790E+08         0.00000E+00
    0.00000E+00         0.00000E+00        -0.49951E+08
 
   -0.49765E+08         0.45684E+06         0.00000E+00
    0.45684E+06        -0.49781E+08         0.00000E+00
    0.00000E+00         0.00000E+00        -0.49951E+08
 
   -0.49784E+08         0.46196E+06         0.00000E+00
    0.46196E+06        -0.49771E+08         0.00000E+00
    0.00000E+00         0.00000E+00        -0.49951E+08
 
   -0.49802E+08         0.46671E+06         0.00000E+00
    0.46671E+06        -0.49762E+08         0.00000E+00
    0.00000E+00         0.00000E+00        -0.49951E+08
 
   -0.49822E+08         0.47109E+06         0.00000E+00
    0.47109E+06        -0.49752E+08         0.00000E+00
    0.00000E+00         0.00000E+00        -0.49951E+08
 
   -0.49841E+08         0.47510E+06         0.00000E+00
    0.47510E+06        -0.49742E+08         0.00000E+00
    0.00000E+00         0.00000E+00        -0.49951E+08
 
   -0.49861E+08         0.47874E+06         0.00000E+00
    0.47874E+06        -0.49732E+08         0.00000E+00
    0.00000E+00         0.00000E+00        -0.49951E+08
 
   -0.49880E+08         0.48200E+06         0.00000E+00
    0.48200E+06        -0.49723E+08         0.00000E+00
    0.00000E+00         0.00000E+00        -0.49951E+08
 
   -0.49900E+08         0.48487E+06         0.00000E+00
    0.48487E+06        -0.49713E+08         0.00000E+00
    0.00000E+00         0.00000E+00        -0.49951E+08
 
   -0.49920E+08         0.48736E+06         0.00000E+00
    0.48736E+06        -0.49702E+08         0.00000E+00
    0.00000E+00         0.00000E+00        -0.49951E+08
 
   -0.49941E+08         0.48946E+06         0.00000E+00
    0.48946E+06        -0.49692E+08         0.00000E+00
    0.00000E+00         0.00000E+00        -0.49951E+08
 
   -0.49231E+08         0.86604E+04         0.00000E+00
    0.86604E+04        -0.50000E+08         0.00000E+00
    0.00000E+00         0.00000E+00        -0.49941E+08
 
   -0.49234E+08         0.25686E+05         0.00000E+00
    0.25686E+05        -0.50000E+08         0.00000E+00
    0.00000E+00         0.00000E+00        -0.49941E+08
 
   -0.49237E+08         0.42590E+05         0.00000E+00
    0.42590E+05        -0.49999E+08         0.00000E+00
    0.00000E+00         0.00000E+00        -0.49941E+08
 
   -0.49240E+08         0.59360E+05         0.00000E+00
    0.59360E+05        -0.49998E+08         0.00000E+00
    0.00000E+00         0.00000E+00        -0.49941E+08
 
   -0.49245E+08         0.75986E+05         0.00000E+00
    0.75986E+05        -0.49996E+08         0.00000E+00
    0.00000E+00         0.00000E+00        -0.49941E+08
 
   -0.49250E+08         0.92456E+05         0.00000E+00
    0.92456E+05        -0.49995E+08         0.00000E+00
    0.00000E+00         0.00000E+00        -0.49941E+08
 
   -0.49255E+08         0.10876E+06         0.00000E+00
    0.10876E+06        -0.49992E+08         0.00000E+00
    0.00000E+00         0.00000E+00        -0.49941E+08
 
   -0.49262E+08         0.12489E+06         0.00000E+00
    0.12489E+06        -0.49990E+08         0.00000E+00
    0.00000E+00         0.00000E+00        -0.49941E+08
 
   -0.49268E+08         0.14083E+06         0.00000E+00
    0.14083E+06        -0.49987E+08         0.00000E+00
    0.00000E+00         0.00000E+00        -0.49941E+08
 
   -0.49276E+08         0.15658E+06         0.00000E+00
    0.15658E+06        -0.49984E+08         0.00000E+00
    0.00000E+00         0.00000E+00        -0.49941E+08
 
   -0.49284E+08         0.17213E+06         0.00000E+00
    0.17213E+06        -0.49981E+08         0.00000E+00
    0.00000E+00         0.00000E+00        -0.49941E+08
 
   -0.49292E+08         0.18746E+06         0.00000E+00
    0.18746E+06        -0.49977E+08         0.00000E+00
    0.00000E+00         0.00000E+00        -0.49941E+08
 
   -0.49301E+08         0.20256E+06         0.00000E+00
    0.20256E+06        -0.49973E+08         0.00000E+00
    0.00000E+00         0.00000E+00        -0.49941E+08
 
   -0.49311E+08         0.21744E+06         0.00000E+00
    0.21744E+06        -0.49969E+08         0.00000E+00
    0.00000E+00         0.00000E+00        -0.49941E+08
 
   -0.49321E+08         0.23208E+06         0.00000E+00
    0.23208E+06        -0.49964E+08         0.00000E+00
    0.00000E+00         0.00000E+00        -0.49941E+08
 
   -0.49331E+08         0.24647E+06         0.00000E+00
    0.24647E+06        -0.49959E+08         0.00000E+00
    0.00000E+00         0.00000E+00        -0.49941E+08
 
   -0.49343E+08         0.26060E+06         0.00000E+00
    0.26060E+06        -0.49954E+08         0.00000E+00
    0.00000E+00         0.00000E+00        -0.49941E+08
 
   -0.49354E+08         0.27447E+06         0.00000E+00
    0.27447E+06        -0.49949E+08         0.00000E+00
    0.00000E+00         0.00000E+00        -0.49941E+08
 
   -0.49366E+08         0.28807E+06         0.00000E+00
    0.28807E+06        -0.49943E+08         0.00000E+00
    0.00000E+00         0.00000E+00        -0.49941E+08
 
   -0.49379E+08         0.30139E+06         0.00000E+00
    0.30139E+06        -0.49937E+08         0.00000E+00
    0.00000E+00         0.00000E+00        -0.49941E+08
 
   -0.49392E+08         0.31443E+06         0.00000E+00
    0.31443E+06        -0.49931E+08         0.00000E+00
    0.00000E+00         0.00000E+00        -0.49941E+08
 
   -0.49406E+08         0.32717E+06         0.00000E+00
    0.32717E+06        -0.49924E+08         0.00000E+00
    0.00000E+00         0.00000E+00        -0.49941E+08
 
   -0.49420E+08         0.33962E+06         0.00000E+00
    0.33962E+06        -0.49917E+08         0.00000E+00
    0.00000E+00         0.00000E+00        -0.49941E+08
 
   -0.49434E+08         0.35176E+06         0.00000E+00
    0.35176E+06        -0.49910E+08         0.00000E+00
    0.00000E+00         0.00000E+00        -0.49941E+08
 
   -0.49449E+08         0.36358E+06         0.00000E+00
    0.36358E+06        -0.49903E+08         0.00000E+00
    0.00000E+00         0.00000E+00        -0.49941E+08
 
   -0.49464E+08         0.37509E+06         0.00000E+00
    0.37509E+06        -0.49895E+08         0.00000E+00
    0.00000E+00         0.00000E+00        -0.49941E+08
 
   -0.49480E+08         0.38628E+06         0.00000E+00
    0.38628E+06        -0.49888E+08         0.00000E+00
    0.00000E+00         0.00000E+00        -0.49941E+08
 
   -0.49496E+08         0.39714E+06         0.00000E+00
    0.39714E+06        -0.49880E+08         0.00000E+00
    0.00000E+00         0.00000E+00        -0.49941E+08
 
   -0.49512E+08         0.40766E+06         0.00000E+00
    0.40766E+06        -0.49872E+08         0.00000E+00
    0.00000E+00         0.00000E+00        -0.49941E+08
 
   -0.49529E+08         0.41784E+06         0.00000E+00
    0.41784E+06        -0.49863E+08         0.00000E+00
    0.00000E+00         0.00000E+00        -0.49941E+08
 
   -0.49547E+08         0.42767E+06         0.00000E+00
    0.42767E+06        -0.49855E+08         0.00000E+00
    0.00000E+00         0.00000E+00        -0.49941E+08
 
   -0.49564E+08         0.43716E+06         0.00000E+00
    0.43716E+06        -0.49846E+08         0.00000E+00
    0.00000E+00         0.00000E+00        -0.49941E+08
 
   -0.49582E+08         0.44629E+06         0.00000E+00
    0.44629E+06        -0.49837E+08         0.00000E+00
    0.00000E+00         0.00000E+00        -0.49941E+08
 
   -0.49600E+08         0.45505E+06         0.00000E+00
    0.45505E+06        -0.49828E+08         0.00000E+00
    0.00000E+00         0.00000E+00        -0.49941E+08
 
   -0.49619E+08         0.46345E+06         0.00000E+00
    0.46345E+06        -0.49819E+08         0.00000E+00
    0.00000E+00         0.00000E+00        -0.49941E+08
 
   -0.49638E+08         0.47149E+06         0.00000E+00
    0.47149E+06        -0.49809E+08         0.00000E+00
    0.00000E+00         0.00000E+00        -0.49941E+08
 
   -0.49657E+08         0.47914E+06         0.00000E+00
    0.47914E+06        -0.49800E+08         0.00000E+00
    0.00000E+00         0.00000E+00        -0.49941E+08
 
   -0.49677E+08         0.48642E+06         0.00000E+00
    0.48642E+06        -0.49790E+08         0.00000E+00
    0.00000E+00         0.00000E+00        -0.49941E+08
 
   -0.49696E+08         0.49332E+06         0.00000E+00
    0.49332E+06        -0.49780E+08         0.00000E+00
    0.00000E+00         0.00000E+00        -0.49941E+08
 
   -0.49716E+08         0.49983E+06         0.00000E+00
    0.49983E+06        -0.49770E+08         0.00000E+00
    0.00000E+00         0.00000E+00        -0.49941E+08
 
   -0.49737E+08         0.50595E+06         0.00000E+00
    0.50595E+06        -0.49760E+08         0.00000E+00
    0.00000E+00         0.00000E+00        -0.49941E+08
 
   -0.49757E+08         0.51167E+06         0.00000E+00
    0.51167E+06        -0.49749E+08         0.00000E+00
    0.00000E+00         0.00000E+00        -0.49941E+08
 
   -0.49778E+08         0.51700E+06         0.00000E+00
    0.51700E+06        -0.49739E+08         0.00000E+00
    0.00000E+00         0.00000E+00        -0.49941E+08
 
   -0.49799E+08         0.52192E+06         0.00000E+00
    0.52192E+06        -0.49728E+08         0.00000E+00
    0.00000E+00         0.00000E+00        -0.49941E+08
 
   -0.49821E+08         0.52644E+06         0.00000E+00
    0.52644E+06        -0.49717E+08         0.00000E+00
    0.00000E+00         0.00000E+00        -0.49941E+08
 
   -0.49842E+08         0.53056E+06         0.00000E+00
    0.53056E+06        -0.49707E+08         0.00000E+00
    0.00000E+00         0.00000E+00        -0.49941E+08
 
   -0.49864E+08         0.53426E+06         0.00000E+00
    0.53426E+06        -0.49696E+08         0.00000E+00
    0.00000E+00         0.00000E+00        -0.49941E+08
 
   -0.49886E+08         0.53754E+06         0.00000E+00
    0.53754E+06        -0.49685E+08         0.00000E+00
    0.00000E+00         0.00000E+00        -0.49941E+08
 
   -0.49908E+08         0.54041E+06         0.00000E+00
    0.54041E+06        -0.49674E+08         0.00000E+00
    0.00000E+00         0.00000E+00        -0.49941E+08
 
   -0.49930E+08         0.54286E+06         0.00000E+00
    0.54286E+06        -0.49663E+08         0.00000E+00
    0.00000E+00         0.00000E+00        -0.49941E+08
 
   -0.49141E+08         0.96319E+04         0.00000E+00
    0.96319E+04        -0.50000E+08         0.00000E+00
    0.00000E+00         0.00000E+00        -0.49930E+08
 
   -0.49144E+08         0.28538E+05         0.00000E+00
    0.28538E+05        -0.50000E+08         0.00000E+00
    0.00000E+00         0.00000E+00        -0.49930E+08
 
   -0.49148E+08         0.47298E+05         0.00000E+00
    0.47298E+05        -0.49999E+08         0.00000E+00
    0.00000E+00         0.00000E+00        -0.49930E+08
 
   -0.49152E+08         0.65900E+05         0.00000E+00
    0.65900E+05        -0.49998E+08         0.00000E+00
    0.00000E+00         0.00000E+00        -0.49930E+08
 
   -0.49158E+08         0.84333E+05         0.00000E+00
    0.84333E+05        -0.49996E+08         0.00000E+00
    0.00000E+00         0.00000E+00        -0.49930E+08
 
   -0.49163E+08         0.10258E+06         0.00000E+00
    0.10258E+06        -0.49994E+08         0.00000E+00
    0.00000E+00         0.00000E+00        -0.49930E+08
 
   -0.49170E+08         0.12064E+06         0.00000E+00
    0.12064E+06        -0.49992E+08         0.00000E+00
    0.00000E+00         0.00000E+00        -0.49930E+08
 
   -0.49177E+08         0.13850E+06         0.00000E+00
    0.13850E+06        -0.49989E+08         0.00000E+00
    0.00000E+00         0.00000E+00        -0.49930E+08
 
   -0.49185E+08         0.15615E+06         0.00000E+00
    0.15615E+06        -0.49986E+08         0.00000E+00
    0.00000E+00         0.00000E+00        -0.49930E+08
 
   -0.49193E+08         0.17357E+06         0.00000E+00
    0.17357E+06        -0.49983E+08         0.00000E+00
    0.00000E+00         0.00000E+00        -0.49930E+08
 
   -0.49202E+08         0.19076E+06         0.00000E+00
    0.19076E+06        -0.49979E+08         0.00000E+00
    0.00000E+00         0.00000E+00        -0.49930E+08
 
   -0.49212E+08         0.20771E+06         0.00000E+00
    0.20771E+06        -0.49975E+08         0.00000E+00
    0.00000E+00         0.00000E+00        -0.49930E+08
 
   -0.49222E+08         0.22440E+06         0.00000E+00
    0.22440E+06        -0.49970E+08         0.00000E+00
    0.00000E+00         0.00000E+00        -0.49930E+08
 
   -0.49233E+08         0.24084E+06         0.00000E+00
    0.24084E+06        -0.49966E+08         0.00000E+00
    0.00000E+00         0.00000E+00        -0.49930E+08
 
   -0.49244E+08         0.25701E+06         0.00000E+00
    0.25701E+06        -0.49961E+08         0.00000E+00
    0.00000E+00         0.00000E+00        -0.49930E+08
 
   -0.49256E+08         0.27290E+06         0.00000E+00
    0.27290E+06        -0.49955E+08         0.00000E+00
    0.00000E+00         0.00000E+00        -0.49930E+08
 
   -0.49269E+08         0.28851E+06         0.00000E+00
    0.28851E+06        -0.49950E+08         0.00000E+00
    0.00000E+00         0.00000E+00        -0.49930E+08
 
   -0.49282E+08         0.30382E+06         0.00000E+00
    0.30382E+06        -0.49944E+08         0.00000E+00
    0.00000E+00         0.00000E+00        -0.49930E+08
 
   -0.49296E+08         0.31883E+06         0.00000E+00
    0.31883E+06        -0.49937E+08         0.00000E+00
    0.00000E+00         0.00000E+00        -0.49930E+08
 
   -0.49310E+08         0.33353E+06         0.00000E+00
    0.33353E+06        -0.49931E+08         0.00000E+00
    0.00000E+00         0.00000E+00        -0.49930E+08
 
   -0.49324E+08         0.34792E+06         0.00000E+00
    0.34792E+06        -0.49924E+08         0.00000E+00
    0.00000E+00         0.00000E+00        -0.49930E+08
 
   -0.49339E+08         0.36198E+06         0.00000E+00
    0.36198E+06        -0.49917E+08         0.00000E+00
    0.00000E+00         0.00000E+00        -0.49930E+08
 
   -0.49355E+08         0.37571E+06         0.00000E+00
    0.37571E+06        -0.49909E+08         0.00000E+00
    0.00000E+00         0.00000E+00        -0.49930E+08
 
   -0.49371E+08         0.38911E+06         0.00000E+00
    0.38911E+06        -0.49902E+08         0.00000E+00
    0.00000E+00         0.00000E+00        -0.49930E+08
 
   -0.49388E+08         0.40216E+06         0.00000E+00
    0.40216E+06        -0.49894E+08         0.00000E+00
    0.00000E+00         0.00000E+00        -0.49930E+08
 
   -0.49404E+08         0.41486E+06         0.00000E+00
    0.41486E+06        -0.49886E+08         0.00000E+00
    0.00000E+00         0.00000E+00        -0.49930E+08
 
   -0.49422E+08         0.42721E+06         0.00000E+00
    0.42721E+06        -0.49877E+08         0.00000E+00
    0.00000E+00         0.00000E+00        -0.49930E+08
 
   -0.49440E+08         0.43920E+06         0.00000E+00
    0.43920E+06        -0.49868E+08         0.00000E+00
    0.00000E+00         0.00000E+00        -0.49930E+08
 
   -0.49458E+08         0.45082E+06         0.00000E+00
    0.45082E+06        -0.49860E+08         0.00000E+00
    0.00000E+00         0.00000E+00        -0.49930E+08
 
   -0.49477E+08         0.46207E+06         0.00000E+00
    0.46207E+06        -0.49850E+08         0.00000E+00
    0.00000E+00         0.00000E+00        -0.49930E+08
 
   -0.49496E+08         0.47293E+06         0.00000E+00
    0.47293E+06        -0.49841E+08         0.00000E+00
    0.00000E+00         0.00000E+00        -0.49930E+08
 
   -0.49515E+08         0.48342E+06         0.00000E+00
    0.48342E+06        -0.49831E+08         0.00000E+00
    0.00000E+00         0.00000E+00        -0.49930E+08
 
   -0.49535E+08         0.49352E+06         0.00000E+00
    0.49352E+06        -0.49822E+08         0.00000E+00
    0.00000E+00         0.00000E+00        -0.49930E+08
 
   -0.49555E+08         0.50322E+06         0.00000E+00
    0.50322E+06        -0.49812E+08         0.00000E+00
    0.00000E+00         0.00000E+00        -0.49930E+08
 
   -0.49576E+08         0.51253E+06         0.00000E+00
    0.51253E+06        -0.49802E+08         0.00000E+00
    0.00000E+00         0.00000E+00        -0.49930E+08
 
   -0.49596E+08         0.52143E+06         0.00000E+00
    0.52143E+06        -0.49791E+08         0.00000E+00
    0.00000E+00         0.00000E+00        -0.49930E+08
 
   -0.49618E+08         0.52993E+06         0.00000E+00
    0.52993E+06        -0.49781E+08         0.00000E+00
    0.00000E+00         0.00000E+00        -0.49930E+08
 
   -0.49639E+08         0.53802E+06         0.00000E+00
    0.53802E+06        -0.49770E+08         0.00000E+00
    0.00000E+00         0.00000E+00        -0.49930E+08
 
   -0.49661E+08         0.54569E+06         0.00000E+00
    0.54569E+06        -0.49759E+08         0.00000E+00
    0.00000E+00         0.00000E+00        -0.49930E+08
 
   -0.49683E+08         0.55294E+06         0.00000E+00
    0.55294E+06        -0.49748E+08         0.00000E+00
    0.00000E+00         0.00000E+00        -0.49930E+08
 
   -0.49705E+08         0.55976E+06         0.00000E+00
    0.55976E+06        -0.49737E+08         0.00000E+00
    0.00000E+00         0.00000E+00        -0.49930E+08
 
   -0.49728E+08         0.56616E+06         0.00000E+00
    0.56616E+06        -0.49726E+08         0.00000E+00
    0.00000E+00         0.00000E+00        -0.49930E+08
 
   -0.49751E+08         0.57213E+06         0.00000E+00
    0.57213E+06        -0.49714E+08         0.00000E+00
    0.00000E+00         0.00000E+00        -0.49930E+08
 
   -0.49774E+08         0.57766E+06         0.00000E+00
    0.57766E+06        -0.49703E+08         0.00000E+00
    0.00000E+00         0.00000E+00        -0.49930E+08
 
   -0.49798E+08         0.58276E+06         0.00000E+00
    0.58276E+06        -0.49691E+08         0.00000E+00
    0.00000E+00         0.00000E+00        -0.49930E+08
 
   -0.49821E+08         0.58741E+06         0.00000E+00
    0.58741E+06        -0.49679E+08         0.00000E+00
    0.00000E+00         0.00000E+00        -0.49930E+08
 
   -0.49845E+08         0.59162E+06         0.00000E+00
    0.59162E+06        -0.49667E+08         0.00000E+00
    0.00000E+00         0.00000E+00        -0.49930E+08
 
   -0.49869E+08         0.59538E+06         0.00000E+00
    0.59538E+06        -0.49655E+08         0.00000E+00
    0.00000E+00         0.00000E+00        -0.49930E+08
 
   -0.49894E+08         0.59869E+06         0.00000E+00
    0.59869E+06        -0.49643E+08         0.00000E+00
    0.00000E+00         0.00000E+00        -0.49930E+08
 
   -0.49918E+08         0.60154E+06         0.00000E+00
    0.60154E+06        -0.49631E+08         0.00000E+00
    0.00000E+00         0.00000E+00        -0.49930E+08
 
   -0.49041E+08         0.10701E+05         0.00000E+00
    0.10701E+05        -0.50000E+08         0.00000E+00
    0.00000E+00         0.00000E+00        -0.49917E+08
 
   -0.49045E+08         0.31671E+05         0.00000E+00
    0.31671E+05        -0.49999E+08         0.00000E+00
    0.00000E+00         0.00000E+00        -0.49917E+08
 
   -0.49050E+08         0.52467E+05         0.00000E+00
    0.52467E+05        -0.49999E+08         0.00000E+00
    0.00000E+00         0.00000E+00        -0.49917E+08
 
   -0.49055E+08         0.73077E+05         0.00000E+00
    0.73077E+05        -0.49997E+08         0.00000E+00
    0.00000E+00         0.00000E+00        -0.49917E+08
 
   -0.49061E+08         0.93489E+05         0.00000E+00
    0.93489E+05        -0.49996E+08         0.00000E+00
    0.00000E+00         0.00000E+00        -0.49917E+08
 
   -0.49068E+08         0.11369E+06         0.00000E+00
    0.11369E+06        -0.49993E+08         0.00000E+00
    0.00000E+00         0.00000E+00        -0.49917E+08
 
   -0.49075E+08         0.13367E+06         0.00000E+00
    0.13367E+06        -0.49991E+08         0.00000E+00
    0.00000E+00         0.00000E+00        -0.49917E+08
 
   -0.49084E+08         0.15342E+06         0.00000E+00
    0.15342E+06        -0.49988E+08         0.00000E+00
    0.00000E+00         0.00000E+00        -0.49917E+08
 
   -0.49093E+08         0.17292E+06         0.00000E+00
    0.17292E+06        -0.49985E+08         0.00000E+00
    0.00000E+00         0.00000E+00        -0.49917E+08
 
   -0.49102E+08         0.19217E+06         0.00000E+00
    0.19217E+06        -0.49981E+08         0.00000E+00
    0.00000E+00         0.00000E+00        -0.49917E+08
 
   -0.49113E+08         0.21116E+06         0.00000E+00
    0.21116E+06        -0.49977E+08         0.00000E+00
    0.00000E+00         0.00000E+00        -0.49917E+08
 
   -0.49124E+08         0.22987E+06         0.00000E+00
    0.22987E+06        -0.49972E+08         0.00000E+00
    0.00000E+00         0.00000E+00        -0.49917E+08
 
   -0.49135E+08         0.24830E+06         0.00000E+00
    0.24830E+06        -0.49968E+08         0.00000E+00
    0.00000E+00         0.00000E+00        -0.49917E+08
 
   -0.49147E+08         0.26644E+06         0.00000E+00
    0.26644E+06        -0.49962E+08         0.00000E+00
    0.00000E+00         0.00000E+00        -0.49917E+08
 
   -0.49160E+08         0.28428E+06         0.00000E+00
    0.28428E+06        -0.49957E+08         0.00000E+00
    0.00000E+00         0.00000E+00        -0.49917E+08
 
   -0.49174E+08         0.30181E+06         0.00000E+00
    0.30181E+06        -0.49951E+08         0.00000E+00
    0.00000E+00         0.00000E+00        -0.49917E+08
 
   -0.49188E+08         0.31902E+06         0.00000E+00
    0.31902E+06        -0.49945E+08         0.00000E+00
    0.00000E+00         0.00000E+00        -0.49917E+08
 
   -0.49202E+08         0.33590E+06         0.00000E+00
    0.33590E+06        -0.49938E+08         0.00000E+00
    0.00000E+00         0.00000E+00        -0.49917E+08
 
   -0.49218E+08         0.35245E+06         0.00000E+00
    0.35245E+06        -0.49931E+08         0.00000E+00
    0.00000E+00         0.00000E+00        -0.49917E+08
 
   -0.49233E+08         0.36865E+06         0.00000E+00
    0.36865E+06        -0.49924E+08         0.00000E+00
    0.00000E+00         0.00000E+00        -0.49917E+08
 
   -0.49250E+08         0.38451E+06         0.00000E+00
    0.38451E+06        -0.49917E+08         0.00000E+00
    0.00000E+00         0.00000E+00        -0.49917E+08
 
   -0.49266E+08         0.40001E+06         0.00000E+00
    0.40001E+06        -0.49909E+08         0.00000E+00
    0.00000E+00         0.00000E+00        -0.49917E+08
 
   -0.49284E+08         0.41514E+06         0.00000E+00
    0.41514E+06        -0.49901E+08         0.00000E+00
    0.00000E+00         0.00000E+00        -0.49917E+08
 
   -0.49302E+08         0.42991E+06         0.00000E+00
    0.42991E+06        -0.49893E+08         0.00000E+00
    0.00000E+00         0.00000E+00        -0.49917E+08
 
   -0.49320E+08         0.44430E+06         0.00000E+00
    0.44430E+06        -0.49884E+08         0.00000E+00
    0.00000E+00         0.00000E+00        -0.49917E+08
 
   -0.49339E+08         0.45830E+06         0.00000E+00
    0.45830E+06        -0.49875E+08         0.00000E+00
    0.00000E+00         0.00000E+00        -0.49917E+08
 
   -0.49358E+08         0.47192E+06         0.00000E+00
    0.47192E+06        -0.49866E+08         0.00000E+00
    0.00000E+00         0.00000E+00        -0.49917E+08
 
   -0.49378E+08         0.48514E+06         0.00000E+00
    0.48514E+06        -0.49856E+08         0.00000E+00
    0.00000E+00         0.00000E+00        -0.49917E+08
 
   -0.49398E+08         0.49796E+06         0.00000E+00
    0.49796E+06        -0.49847E+08         0.00000E+00
    0.00000E+00         0.00000E+00        -0.49917E+08
 
   -0.49419E+08         0.51037E+06         0.00000E+00
    0.51037E+06        -0.49837E+08         0.00000E+00
    0.00000E+00         0.00000E+00        -0.49917E+08
 
   -0.49440E+08         0.52238E+06         0.00000E+00
    0.52238E+06        -0.49826E+08         0.00000E+00
    0.00000E+00         0.00000E+00        -0.49917E+08
 
   -0.49461E+08         0.53396E+06         0.00000E+00
    0.53396E+06        -0.49816E+08         0.00000E+00
    0.00000E+00         0.00000E+00        -0.49917E+08
 
   -0.49483E+08         0.54512E+06         0.00000E+00
    0.54512E+06        -0.49805E+08         0.00000E+00
    0.00000E+00         0.00000E+00        -0.49917E+08
 
   -0.49505E+08         0.55585E+06         0.00000E+00
    0.55585E+06        -0.49794E+08         0.00000E+00
    0.00000E+00         0.00000E+00        -0.49917E+08
 
   -0.49528E+08         0.56616E+06         0.00000E+00
    0.56616E+06        -0.49783E+08         0.00000E+00
    0.00000E+00         0.00000E+00        -0.49917E+08
 
   -0.49551E+08         0.57602E+06         0.00000E+00
    0.57602E+06        -0.49772E+08         0.00000E+00
    0.00000E+00         0.00000E+00        -0.49917E+08
 
   -0.49574E+08         0.58544E+06         0.00000E+00
    0.58544E+06        -0.49761E+08         0.00000E+00
    0.00000E+00         0.00000E+00        -0.49917E+08
 
   -0.49598E+08         0.59442E+06         0.00000E+00
    0.59442E+06        -0.49749E+08         0.00000E+00
    0.00000E+00         0.00000E+00        -0.49917E+08
 
   -0.49622E+08         0.60295E+06         0.00000E+00
    0.60295E+06        -0.49737E+08         0.00000E+00
    0.00000E+00         0.00000E+00        -0.49917E+08
 
   -0.49646E+08         0.61102E+06         0.00000E+00
    0.61102E+06        -0.49725E+08         0.00000E+00
    0.00000E+00         0.00000E+00        -0.49917E+08
 
   -0.49671E+08         0.61863E+06         0.00000E+00
    0.61863E+06        -0.49713E+08         0.00000E+00
    0.00000E+00         0.00000E+00        -0.49917E+08
 
   -0.49695E+08         0.62579E+06         0.00000E+00
    0.62579E+06        -0.49700E+08         0.00000E+00
    0.00000E+00         0.00000E+00        -0.49917E+08
 
   -0.49721E+08         0.63247E+06         0.00000E+00
    0.63247E+06        -0.49688E+08         0.00000E+00
    0.00000E+00         0.00000E+00        -0.49917E+08
 
   -0.49746E+08         0.63869E+06         0.00000E+00
    0.63869E+06        -0.49675E+08         0.00000E+00
    0.00000E+00         0.00000E+00        -0.49917E+08
 
   -0.49772E+08         0.64443E+06         0.00000E+00
    0.64443E+06        -0.49662E+08         0.00000E+00
    0.00000E+00         0.00000E+00        -0.49917E+08
 
   -0.49798E+08         0.64970E+06         0.00000E+00
    0.64970E+06        -0.49649E+08         0.00000E+00
    0.00000E+00         0.00000E+00        -0.49917E+08
 
   -0.49824E+08         0.65448E+06         0.00000E+00
    0.65448E+06        -0.49636E+08         0.00000E+00
    0.00000E+00         0.00000E+00        -0.49917E+08
 
   -0.49850E+08         0.65879E+06         0.00000E+00
    0.65879E+06        -0.49623E+08         0.00000E+00
    0.00000E+00         0.00000E+00        -0.49917E+08
 
   -0.49877E+08         0.66260E+06         0.00000E+00
    0.66260E+06        -0.49610E+08         0.00000E+00
    0.00000E+00         0.00000E+00        -0.49917E+08
 
   -0.49904E+08         0.66593E+06         0.00000E+00
    0.66593E+06        -0.49596E+08         0.00000E+00
    0.00000E+00         0.00000E+00        -0.49917E+08
 
   -0.48930E+08         0.11874E+05         0.00000E+00
    0.11874E+05        -0.50000E+08         0.00000E+00
    0.00000E+00         0.00000E+00        -0.49902E+08
 
   -0.48935E+08         0.35105E+05         0.00000E+00
    0.35105E+05        -0.49999E+08         0.00000E+00
    0.00000E+00         0.00000E+00        -0.49902E+08
 
   -0.48941E+08         0.58130E+05         0.00000E+00
    0.58130E+05        -0.49998E+08         0.00000E+00
    0.00000E+00         0.00000E+00        -0.49902E+08
 
   -0.48947E+08         0.80937E+05         0.00000E+00
    0.80937E+05        -0.49997E+08         0.00000E+00
    0.00000E+00         0.00000E+00        -0.49902E+08
 
   -0.48954E+08         0.10351E+06         0.00000E+00
    0.10351E+06        -0.49995E+08         0.00000E+00
    0.00000E+00         0.00000E+00        -0.49902E+08
 
   -0.48962E+08         0.12584E+06         0.00000E+00
    0.12584E+06        -0.49993E+08         0.00000E+00
    0.00000E+00         0.00000E+00        -0.49902E+08
 
   -0.48971E+08         0.14792E+06         0.00000E+00
    0.14792E+06        -0.49990E+08         0.00000E+00
    0.00000E+00         0.00000E+00        -0.49902E+08
 
   -0.48980E+08         0.16973E+06         0.00000E+00
    0.16973E+06        -0.49987E+08         0.00000E+00
    0.00000E+00         0.00000E+00        -0.49902E+08
 
   -0.48991E+08         0.19126E+06         0.00000E+00
    0.19126E+06        -0.49983E+08         0.00000E+00
    0.00000E+00         0.00000E+00        -0.49902E+08
 
   -0.49002E+08         0.21250E+06         0.00000E+00
    0.21250E+06        -0.49979E+08         0.00000E+00
    0.00000E+00         0.00000E+00        -0.49902E+08
 
   -0.49014E+08         0.23345E+06         0.00000E+00
    0.23345E+06        -0.49975E+08         0.00000E+00
    0.00000E+00         0.00000E+00        -0.49902E+08
 
   -0.49026E+08         0.25408E+06         0.00000E+00
    0.25408E+06        -0.49970E+08         0.00000E+00
    0.00000E+00         0.00000E+00        -0.49902E+08
 
   -0.49039E+08         0.27440E+06         0.00000E+00
    0.27440E+06        -0.49965E+08         0.00000E+00
    0.00000E+00         0.00000E+00        -0.49902E+08
 
   -0.49053E+08         0.29439E+06         0.00000E+00
    0.29439E+06        -0.49959E+08         0.00000E+00
    0.00000E+00         0.00000E+00        -0.49902E+08
 
   -0.49067E+08         0.31404E+06         0.00000E+00
    0.31404E+06        -0.49953E+08         0.00000E+00
    0.00000E+00         0.00000E+00        -0.49902E+08
 
   -0.49082E+08         0.33335E+06         0.00000E+00
    0.33335E+06        -0.49947E+08         0.00000E+00
    0.00000E+00         0.00000E+00        -0.49902E+08
 
   -0.49098E+08         0.35230E+06         0.00000E+00
    0.35230E+06        -0.49940E+08         0.00000E+00
    0.00000E+00         0.00000E+00        -0.49902E+08
 
   -0.49115E+08         0.37089E+06         0.00000E+00
    0.37089E+06        -0.49933E+08         0.00000E+00
    0.00000E+00         0.00000E+00        -0.49902E+08
 
   -0.49132E+08         0.38911E+06         0.00000E+00
    0.38911E+06        -0.49925E+08         0.00000E+00
    0.00000E+00         0.00000E+00        -0.49902E+08
 
   -0.49149E+08         0.40695E+06         0.00000E+00
    0.40695E+06        -0.49917E+08         0.00000E+00
    0.00000E+00         0.00000E+00        -0.49902E+08
 
   -0.49167E+08         0.42441E+06         0.00000E+00
    0.42441E+06        -0.49909E+08         0.00000E+00
    0.00000E+00         0.00000E+00        -0.49902E+08
 
   -0.49186E+08         0.44147E+06         0.00000E+00
    0.44147E+06        -0.49901E+08         0.00000E+00
    0.00000E+00         0.00000E+00        -0.49902E+08
 
   -0.49205E+08         0.45813E+06         0.00000E+00
    0.45813E+06        -0.49892E+08         0.00000E+00
    0.00000E+00         0.00000E+00        -0.49902E+08
 
   -0.49225E+08         0.47439E+06         0.00000E+00
    0.47439E+06        -0.49883E+08         0.00000E+00
    0.00000E+00         0.00000E+00        -0.49902E+08
 
   -0.49245E+08         0.49023E+06         0.00000E+00
    0.49023E+06        -0.49873E+08         0.00000E+00
    0.00000E+00         0.00000E+00        -0.49902E+08
 
   -0.49266E+08         0.50565E+06         0.00000E+00
    0.50565E+06        -0.49864E+08         0.00000E+00
    0.00000E+00         0.00000E+00        -0.49902E+08
 
   -0.49287E+08         0.52065E+06         0.00000E+00
    0.52065E+06        -0.49854E+08         0.00000E+00
    0.00000E+00         0.00000E+00        -0.49902E+08
 
   -0.49309E+08         0.53522E+06         0.00000E+00
    0.53522E+06        -0.49843E+08         0.00000E+00
    0.00000E+00         0.00000E+00        -0.49902E+08
 
   -0.49332E+08         0.54935E+06         0.00000E+00
    0.54935E+06        -0.49833E+08         0.00000E+00
    0.00000E+00         0.00000E+00        -0.49902E+08
 
   -0.49354E+08         0.56303E+06         0.00000E+00
    0.56303E+06        -0.49822E+08         0.00000E+00
    0.00000E+00         0.00000E+00        -0.49902E+08
 
   -0.49378E+08         0.57627E+06         0.00000E+00
    0.57627E+06        -0.49811E+08         0.00000E+00
    0.00000E+00         0.00000E+00        -0.49902E+08
 
   -0.49401E+08         0.58906E+06         0.00000E+00
    0.58906E+06        -0.49799E+08         0.00000E+00
    0.00000E+00         0.00000E+00        -0.49902E+08
 
   -0.49425E+08         0.60138E+06         0.00000E+00
    0.60138E+06        -0.49788E+08         0.00000E+00
    0.00000E+00         0.00000E+00        -0.49902E+08
 
   -0.49450E+08         0.61324E+06         0.00000E+00
    0.61324E+06        -0.49776E+08         0.00000E+00
    0.00000E+00         0.00000E+00        -0.49902E+08
 
   -0.49475E+08         0.62464E+06         0.00000E+00
    0.62464E+06        -0.49764E+08         0.00000E+00
    0.00000E+00         0.00000E+00        -0.49902E+08
 
   -0.49500E+08         0.63556E+06         0.00000E+00
    0.63556E+06        -0.49752E+08         0.00000E+00
    0.00000E+00         0.00000E+00        -0.49902E+08
 
   -0.49525E+08         0.64600E+06         0.00000E+00
    0.64600E+06        -0.49739E+08         0.00000E+00
    0.00000E+00         0.00000E+00        -0.49902E+08
 
   -0.49551E+08         0.65596E+06         0.00000E+00
    0.65596E+06        -0.49726E+08         0.00000E+00
    0.00000E+00         0.00000E+00        -0.49902E+08
 
   -0.49578E+08         0.66544E+06         0.00000E+00
    0.66544E+06        -0.49713E+08         0.00000E+00
    0.00000E+00         0.00000E+00        -0.49902E+08
 
   -0.49604E+08         0.67443E+06         0.00000E+00
    0.67443E+06        -0.49700E+08         0.00000E+00
    0.00000E+00         0.00000E+00        -0.49902E+08
 
   -0.49631E+08         0.68292E+06         0.00000E+00
    0.68292E+06        -0.49687E+08         0.00000E+00
    0.00000E+00         0.00000E+00        -0.49902E+08
 
   -0.49659E+08         0.69091E+06         0.00000E+00
    0.69091E+06        -0.49673E+08         0.00000E+00
    0.00000E+00         0.00000E+00        -0.49902E+08
 
   -0.49686E+08         0.69840E+06         0.00000E+00
    0.69840E+06        -0.49660E+08         0.00000E+00
    0.00000E+00         0.00000E+00        -0.49902E+08
 
   -0.49714E+08         0.70538E+06         0.00000E+00
    0.70538E+06        -0.49646E+08         0.00000E+00
    0.00000E+00         0.00000E+00        -0.49902E+08
 
   -0.49742E+08         0.71186E+06         0.00000E+00
    0.71186E+06        -0.49632E+08         0.00000E+00
    0.00000E+00         0.00000E+00        -0.49902E+08
 
   -0.49771E+08         0.71782E+06         0.00000E+00
    0.71782E+06        -0.49618E+08         0.00000E+00
    0.00000E+00         0.00000E+00        -0.49902E+08
 
   -0.49800E+08         0.72326E+06         0.00000E+00
    0.72326E+06        -0.49603E+08         0.00000E+00
    0.00000E+00         0.00000E+00        -0.49902E+08
 
   -0.49829E+08         0.72819E+06         0.00000E+00
    0.72819E+06        -0.49589E+08         0.00000E+00
    0.00000E+00         0.00000E+00        -0.49902E+08
 
   -0.49858E+08         0.73259E+06         0.00000E+00
    0.73259E+06        -0.49574E+08         0.00000E+00
    0.00000E+00         0.00000E+00        -0.49902E+08
 
   -0.49887E+08         0.73646E+06         0.00000E+00
    0.73646E+06        -0.49560E+08         0.00000E+00
    0.00000E+00         0.00000E+00        -0.49902E+08
 
   -0.48807E+08         0.13160E+05         0.00000E+00
    0.13160E+05        -0.50000E+08         0.00000E+00
    0.00000E+00         0.00000E+00        -0.49884E+08
 
   -0.48813E+08         0.38861E+05         0.00000E+00
    0.38861E+05        -0.49999E+08         0.00000E+00
    0.00000E+00         0.00000E+00        -0.49884E+08
 
   -0.48820E+08         0.64320E+05         0.00000E+00
    0.64320E+05        -0.49998E+08         0.00000E+00
    0.00000E+00         0.00000E+00        -0.49884E+08
 
   -0.48828E+08         0.89522E+05         0.00000E+00
    0.89522E+05        -0.49997E+08         0.00000E+00
    0.00000E+00         0.00000E+00        -0.49884E+08
 
   -0.48836E+08         0.11446E+06         0.00000E+00
    0.11446E+06        -0.49995E+08         0.00000E+00
    0.00000E+00         0.00000E+00        -0.49884E+08
 
   -0.48845E+08         0.13911E+06         0.00000E+00
    0.13911E+06        -0.49992E+08         0.00000E+00
    0.00000E+00         0.00000E+00        -0.49884E+08
 
   -0.48856E+08         0.16347E+06         0.00000E+00
    0.16347E+06        -0.49989E+08         0.00000E+00
    0.00000E+00         0.00000E+00        -0.49884E+08
 
   -0.48867E+08         0.18752E+06         0.00000E+00
    0.18752E+06        -0.49986E+08         0.00000E+00
    0.00000E+00         0.00000E+00        -0.49884E+08
 
   -0.48878E+08         0.21125E+06         0.00000E+00
    0.21125E+06        -0.49982E+08         0.00000E+00
    0.00000E+00         0.00000E+00        -0.49884E+08
 
   -0.48891E+08         0.23466E+06         0.00000E+00
    0.23466E+06        -0.49977E+08         0.00000E+00
    0.00000E+00         0.00000E+00        -0.49884E+08
 
   -0.48904E+08         0.25773E+06         0.00000E+00
    0.25773E+06        -0.49973E+08         0.00000E+00
    0.00000E+00         0.00000E+00        -0.49884E+08
 
   -0.48918E+08         0.28046E+06         0.00000E+00
    0.28046E+06        -0.49967E+08         0.00000E+00
    0.00000E+00         0.00000E+00        -0.49884E+08
 
   -0.48933E+08         0.30282E+06         0.00000E+00
    0.30282E+06        -0.49962E+08         0.00000E+00
    0.00000E+00         0.00000E+00        -0.49884E+08
 
   -0.48949E+08         0.32482E+06         0.00000E+00
    0.32482E+06        -0.49955E+08         0.00000E+00
    0.00000E+00         0.00000E+00        -0.49884E+08
 
   -0.48965E+08         0.34644E+06         0.00000E+00
    0.34644E+06        -0.49949E+08         0.00000E+00
    0.00000E+00         0.00000E+00        -0.49884E+08
 
   -0.48982E+08         0.36768E+06         0.00000E+00
    0.36768E+06        -0.49942E+08         0.00000E+00
    0.00000E+00         0.00000E+00        -0.49884E+08
 
   -0.49000E+08         0.38852E+06         0.00000E+00
    0.38852E+06        -0.49935E+08         0.00000E+00
    0.00000E+00         0.00000E+00        -0.49884E+08
 
   -0.49018E+08         0.40897E+06         0.00000E+00
    0.40897E+06        -0.49927E+08         0.00000E+00
    0.00000E+00         0.00000E+00        -0.49884E+08
 
   -0.49037E+08         0.42900E+06         0.00000E+00
    0.42900E+06        -0.49919E+08         0.00000E+00
    0.00000E+00         0.00000E+00        -0.49884E+08
 
   -0.49056E+08         0.44861E+06         0.00000E+00
    0.44861E+06        -0.49910E+08         0.00000E+00
    0.00000E+00         0.00000E+00        -0.49884E+08
 
   -0.49077E+08         0.46780E+06         0.00000E+00
    0.46780E+06        -0.49901E+08         0.00000E+00
    0.00000E+00         0.00000E+00        -0.49884E+08
 
   -0.49097E+08         0.48656E+06         0.00000E+00
    0.48656E+06        -0.49892E+08         0.00000E+00
    0.00000E+00         0.00000E+00        -0.49884E+08
 
   -0.49119E+08         0.50488E+06         0.00000E+00
    0.50488E+06        -0.49883E+08         0.00000E+00
    0.00000E+00         0.00000E+00        -0.49884E+08
 
   -0.49141E+08         0.52276E+06         0.00000E+00
    0.52276E+06        -0.49873E+08         0.00000E+00
    0.00000E+00         0.00000E+00        -0.49884E+08
 
   -0.49163E+08         0.54018E+06         0.00000E+00
    0.54018E+06        -0.49862E+08         0.00000E+00
    0.00000E+00         0.00000E+00        -0.49884E+08
 
   -0.49186E+08         0.55714E+06         0.00000E+00
    0.55714E+06        -0.49852E+08         0.00000E+00
    0.00000E+00         0.00000E+00        -0.49884E+08
 
   -0.49210E+08         0.57364E+06         0.00000E+00
    0.57364E+06        -0.49841E+08         0.00000E+00
    0.00000E+00         0.00000E+00        -0.49884E+08
 
   -0.49234E+08         0.58967E+06         0.00000E+00
    0.58967E+06        -0.49830E+08         0.00000E+00
    0.00000E+00         0.00000E+00        -0.49884E+08
 
   -0.49259E+08         0.60523E+06         0.00000E+00
    0.60523E+06        -0.49818E+08         0.00000E+00
    0.00000E+00         0.00000E+00        -0.49884E+08
 
   -0.49284E+08         0.62030E+06         0.00000E+00
    0.62030E+06        -0.49806E+08         0.00000E+00
    0.00000E+00         0.00000E+00        -0.49884E+08
 
   -0.49309E+08         0.63489E+06         0.00000E+00
    0.63489E+06        -0.49794E+08         0.00000E+00
    0.00000E+00         0.00000E+00        -0.49884E+08
 
   -0.49335E+08         0.64899E+06         0.00000E+00
    0.64899E+06        -0.49782E+08         0.00000E+00
    0.00000E+00         0.00000E+00        -0.49884E+08
 
   -0.49362E+08         0.66259E+06         0.00000E+00
    0.66259E+06        -0.49769E+08         0.00000E+00
    0.00000E+00         0.00000E+00        -0.49884E+08
 
   -0.49389E+08         0.67569E+06         0.00000E+00
    0.67569E+06        -0.49757E+08         0.00000E+00
    0.00000E+00         0.00000E+00        -0.49884E+08
 
   -0.49416E+08         0.68828E+06         0.00000E+00
    0.68828E+06        -0.49743E+08         0.00000E+00
    0.00000E+00         0.00000E+00        -0.49884E+08
 
   -0.49444E+08         0.70036E+06         0.00000E+00
    0.70036E+06        -0.49730E+08         0.00000E+00
    0.00000E+00         0.00000E+00        -0.49884E+08
 
   -0.49472E+08         0.71193E+06         0.00000E+00
    0.71193E+06        -0.49716E+08         0.00000E+00
    0.00000E+00         0.00000E+00        -0.49884E+08
 
   -0.49500E+08         0.72298E+06         0.00000E+00
    0.72298E+06        -0.49703E+08         0.00000E+00
    0.00000E+00         0.00000E+00        -0.49884E+08
 
   -0.49529E+08         0.73351E+06         0.00000E+00
    0.73351E+06        -0.49688E+08         0.00000E+00
    0.00000E+00         0.00000E+00        -0.49884E+08
 
   -0.49558E+08         0.74350E+06         0.00000E+00
    0.74350E+06        -0.49674E+08         0.00000E+00
    0.00000E+00         0.00000E+00        -0.49884E+08
 
   -0.49588E+08         0.75297E+06         0.00000E+00
    0.75297E+06        -0.49660E+08         0.00000E+00
    0.00000E+00         0.00000E+00        -0.49884E+08
 
   -0.49618E+08         0.76190E+06         0.00000E+00
    0.76190E+06        -0.49645E+08         0.00000E+00
    0.00000E+00         0.00000E+00        -0.49884E+08
 
   -0.49648E+08         0.77029E+06         0.00000E+00
    0.77029E+06        -0.49630E+08         0.00000E+00
    0.00000E+00         0.00000E+00        -0.49884E+08
 
   -0.49679E+08         0.77813E+06         0.00000E+00
    0.77813E+06        -0.49615E+08         0.00000E+00
    0.00000E+00         0.00000E+00        -0.49884E+08
 
   -0.49709E+08         0.78543E+06         0.00000E+00
    0.78543E+06        -0.49600E+08         0.00000E+00
    0.00000E+00         0.00000E+00        -0.49884E+08
 
   -0.49740E+08         0.79218E+06         0.00000E+00
    0.79218E+06        -0.49584E+08         0.00000E+00
    0.00000E+00         0.00000E+00        -0.49884E+08
 
   -0.49772E+08         0.79838E+06         0.00000E+00
    0.79838E+06        -0.49569E+08         0.00000E+00
    0.00000E+00         0.00000E+00        -0.49884E+08
 
   -0.49804E+08         0.80401E+06         0.00000E+00
    0.80401E+06        -0.49553E+08         0.00000E+00
    0.00000E+00         0.00000E+00        -0.49884E+08
 
   -0.49835E+08         0.80909E+06         0.00000E+00
    0.80909E+06        -0.49537E+08         0.00000E+00
    0.00000E+00         0.00000E+00        -0.49884E+08
 
   -0.49868E+08         0.81360E+06         0.00000E+00
    0.81360E+06        -0.49521E+08         0.00000E+00
    0.00000E+00         0.00000E+00        -0.49884E+08
 
   -0.48672E+08         0.14564E+05         0.00000E+00
    0.14564E+05        -0.50000E+08         0.00000E+00
    0.00000E+00         0.00000E+00        -0.49862E+08
 
   -0.48679E+08         0.42959E+05         0.00000E+00
    0.42959E+05        -0.49999E+08         0.00000E+00
    0.00000E+00         0.00000E+00        -0.49862E+08
 
   -0.48687E+08         0.71068E+05         0.00000E+00
    0.71068E+05        -0.49998E+08         0.00000E+00
    0.00000E+00         0.00000E+00        -0.49862E+08
 
   -0.48696E+08         0.98878E+05         0.00000E+00
    0.98878E+05        -0.49996E+08         0.00000E+00
    0.00000E+00         0.00000E+00        -0.49862E+08
 
   -0.48706E+08         0.12638E+06         0.00000E+00
    0.12638E+06        -0.49994E+08         0.00000E+00
    0.00000E+00         0.00000E+00        -0.49862E+08
 
   -0.48717E+08         0.15355E+06         0.00000E+00
    0.15355E+06        -0.49992E+08         0.00000E+00
    0.00000E+00         0.00000E+00        -0.49862E+08
 
   -0.48729E+08         0.18039E+06         0.00000E+00
    0.18039E+06        -0.49988E+08         0.00000E+00
    0.00000E+00         0.00000E+00        -0.49862E+08
 
   -0.48741E+08         0.20687E+06         0.00000E+00
    0.20687E+06        -0.49984E+08         0.00000E+00
    0.00000E+00         0.00000E+00        -0.49862E+08
 
   -0.48755E+08         0.23300E+06         0.00000E+00
    0.23300E+06        -0.49980E+08         0.00000E+00
    0.00000E+00         0.00000E+00        -0.49862E+08
 
   -0.48769E+08         0.25876E+06         0.00000E+00
    0.25876E+06        -0.49975E+08         0.00000E+00
    0.00000E+00         0.00000E+00        -0.49862E+08
 
   -0.48784E+08         0.28413E+06         0.00000E+00
    0.28413E+06        -0.49970E+08         0.00000E+00
    0.00000E+00         0.00000E+00        -0.49862E+08
 
   -0.48800E+08         0.30912E+06         0.00000E+00
    0.30912E+06        -0.49964E+08         0.00000E+00
    0.00000E+00         0.00000E+00        -0.49862E+08
 
   -0.48817E+08         0.33370E+06         0.00000E+00
    0.33370E+06        -0.49958E+08         0.00000E+00
    0.00000E+00         0.00000E+00        -0.49862E+08
 
   -0.48834E+08         0.35788E+06         0.00000E+00
    0.35788E+06        -0.49952E+08         0.00000E+00
    0.00000E+00         0.00000E+00        -0.49862E+08
 
   -0.48853E+08         0.38163E+06         0.00000E+00
    0.38163E+06        -0.49944E+08         0.00000E+00
    0.00000E+00         0.00000E+00        -0.49862E+08
 
   -0.48872E+08         0.40496E+06         0.00000E+00
    0.40496E+06        -0.49937E+08         0.00000E+00
    0.00000E+00         0.00000E+00        -0.49862E+08
 
   -0.48891E+08         0.42785E+06         0.00000E+00
    0.42785E+06        -0.49929E+08         0.00000E+00
    0.00000E+00         0.00000E+00        -0.49862E+08
 
   -0.48912E+08         0.45029E+06         0.00000E+00
    0.45029E+06        -0.49921E+08         0.00000E+00
    0.00000E+00         0.00000E+00        -0.49862E+08
 
   -0.48933E+08         0.47229E+06         0.00000E+00
    0.47229E+06        -0.49912E+08         0.00000E+00
    0.00000E+00         0.00000E+00        -0.49862E+08
 
   -0.48955E+08         0.49382E+06         0.00000E+00
    0.49382E+06        -0.49903E+08         0.00000E+00
    0.00000E+00         0.00000E+00        -0.49862E+08
 
   -0.48977E+08         0.51489E+06         0.00000E+00
    0.51489E+06        -0.49893E+08         0.00000E+00
    0.00000E+00         0.00000E+00        -0.49862E+08
 
   -0.49000E+08         0.53548E+06         0.00000E+00
    0.53548E+06        -0.49883E+08         0.00000E+00
    0.00000E+00         0.00000E+00        -0.49862E+08
 
   -0.49024E+08         0.55560E+06         0.00000E+00
    0.55560E+06        -0.49873E+08         0.00000E+00
    0.00000E+00         0.00000E+00        -0.49862E+08
 
   -0.49048E+08         0.57522E+06         0.00000E+00
    0.57522E+06        -0.49862E+08         0.00000E+00
    0.00000E+00         0.00000E+00        -0.49862E+08
 
   -0.49073E+08         0.59436E+06         0.00000E+00
    0.59436E+06        -0.49851E+08         0.00000E+00
    0.00000E+00         0.00000E+00        -0.49862E+08
 
   -0.49099E+08         0.61300E+06         0.00000E+00
    0.61300E+06        -0.49839E+08         0.00000E+00
    0.00000E+00         0.00000E+00        -0.49862E+08
 
   -0.49125E+08         0.63113E+06         0.00000E+00
    0.63113E+06        -0.49828E+08         0.00000E+00
    0.00000E+00         0.00000E+00        -0.49862E+08
 
   -0.49151E+08         0.64875E+06         0.00000E+00
    0.64875E+06        -0.49815E+08         0.00000E+00
    0.00000E+00         0.00000E+00        -0.49862E+08
 
   -0.49178E+08         0.66585E+06         0.00000E+00
    0.66585E+06        -0.49803E+08         0.00000E+00
    0.00000E+00         0.00000E+00        -0.49862E+08
 
   -0.49206E+08         0.68244E+06         0.00000E+00
    0.68244E+06        -0.49790E+08         0.00000E+00
    0.00000E+00         0.00000E+00        -0.49862E+08
 
   -0.49234E+08         0.69850E+06         0.00000E+00
    0.69850E+06        -0.49777E+08         0.00000E+00
    0.00000E+00         0.00000E+00        -0.49862E+08
 
   -0.49262E+08         0.71403E+06         0.00000E+00
    0.71403E+06        -0.49764E+08         0.00000E+00
    0.00000E+00         0.00000E+00        -0.49862E+08
 
   -0.49292E+08         0.72902E+06         0.00000E+00
    0.72902E+06        -0.49750E+08         0.00000E+00
    0.00000E+00         0.00000E+00        -0.49862E+08
 
   -0.49321E+08         0.74347E+06         0.00000E+00
    0.74347E+06        -0.49736E+08         0.00000E+00
    0.00000E+00         0.00000E+00        -0.49862E+08
 
   -0.49351E+08         0.75738E+06         0.00000E+00
    0.75738E+06        -0.49722E+08         0.00000E+00
    0.00000E+00         0.00000E+00        -0.49862E+08
 
   -0.49381E+08         0.77074E+06         0.00000E+00
    0.77074E+06        -0.49707E+08         0.00000E+00
    0.00000E+00         0.00000E+00        -0.49862E+08
 
   -0.49412E+08         0.78355E+06         0.00000E+00
    0.78355E+06        -0.49692E+08         0.00000E+00
    0.00000E+00         0.00000E+00        -0.49862E+08
 
   -0.49443E+08         0.79579E+06         0.00000E+00
    0.79579E+06        -0.49677E+08         0.00000E+00
    0.00000E+00         0.00000E+00        -0.49862E+08
 
   -0.49475E+08         0.80748E+06         0.00000E+00
    0.80748E+06        -0.49662E+08         0.00000E+00
    0.00000E+00         0.00000E+00        -0.49862E+08
 
   -0.49507E+08         0.81860E+06         0.00000E+00
    0.81860E+06        -0.49647E+08         0.00000E+00
    0.00000E+00         0.00000E+00        -0.49862E+08
 
   -0.49539E+08         0.82915E+06         0.00000E+00
    0.82915E+06        -0.49631E+08         0.00000E+00
    0.00000E+00         0.00000E+00        -0.49862E+08
 
   -0.49572E+08         0.83912E+06         0.00000E+00
    0.83912E+06        -0.49615E+08         0.00000E+00
    0.00000E+00         0.00000E+00        -0.49862E+08
 
   -0.49605E+08         0.84852E+06         0.00000E+00
    0.84852E+06        -0.49599E+08         0.00000E+00
    0.00000E+00         0.00000E+00        -0.49862E+08
 
   -0.49638E+08         0.85734E+06         0.00000E+00
    0.85734E+06        -0.49582E+08         0.00000E+00
    0.00000E+00         0.00000E+00        -0.49862E+08
 
   -0.49672E+08         0.86557E+06         0.00000E+00
    0.86557E+06        -0.49566E+08         0.00000E+00
    0.00000E+00         0.00000E+00        -0.49862E+08
 
   -0.49706E+08         0.87321E+06         0.00000E+00
    0.87321E+06        -0.49549E+08         0.00000E+00
    0.00000E+00         0.00000E+00        -0.49862E+08
 
   -0.49740E+08         0.88026E+06         0.00000E+00
    0.88026E+06        -0.49532E+08         0.00000E+00
    0.00000E+00         0.00000E+00        -0.49862E+08
 
   -0.49775E+08         0.88671E+06         0.00000E+00
    0.88671E+06        -0.49515E+08         0.00000E+00
    0.00000E+00         0.00000E+00        -0.49862E+08
 
   -0.49810E+08         0.89256E+06         0.00000E+00
    0.89256E+06        -0.49497E+08         0.00000E+00
    0.00000E+00         0.00000E+00        -0.49862E+08
 
   -0.49845E+08         0.89781E+06         0.00000E+00
    0.89781E+06        -0.49480E+08         0.00000E+00
    0.00000E+00         0.00000E+00        -0.49862E+08
 
   -0.48522E+08         0.16094E+05         0.00000E+00
    0.16094E+05        -0.50000E+08         0.00000E+00
    0.00000E+00         0.00000E+00        -0.49837E+08
 
   -0.48530E+08         0.47416E+05         0.00000E+00
    0.47416E+05        -0.49999E+08         0.00000E+00
    0.00000E+00         0.00000E+00        -0.49837E+08
 
   -0.48540E+08         0.78404E+05         0.00000E+00
    0.78404E+05        -0.49998E+08         0.00000E+00
    0.00000E+00         0.00000E+00        -0.49837E+08
 
   -0.48551E+08         0.10904E+06         0.00000E+00
    0.10904E+06        -0.49996E+08         0.00000E+00
    0.00000E+00         0.00000E+00        -0.49837E+08
 
   -0.48562E+08         0.13932E+06         0.00000E+00
    0.13932E+06        -0.49994E+08         0.00000E+00
    0.00000E+00         0.00000E+00        -0.49837E+08
 
   -0.48575E+08         0.16923E+06         0.00000E+00
    0.16923E+06        -0.49991E+08         0.00000E+00
    0.00000E+00         0.00000E+00        -0.49837E+08
 
   -0.48589E+08         0.19875E+06         0.00000E+00
    0.19875E+06        -0.49987E+08         0.00000E+00
    0.00000E+00         0.00000E+00        -0.49837E+08
 
   -0.48603E+08         0.22787E+06         0.00000E+00
    0.22787E+06        -0.49983E+08         0.00000E+00
    0.00000E+00         0.00000E+00        -0.49837E+08
 
   -0.48619E+08         0.25659E+06         0.00000E+00
    0.25659E+06        -0.49979E+08         0.00000E+00
    0.00000E+00         0.00000E+00        -0.49837E+08
 
   -0.48635E+08         0.28488E+06         0.00000E+00
    0.28488E+06        -0.49973E+08         0.00000E+00
    0.00000E+00         0.00000E+00        -0.49837E+08
 
   -0.48652E+08         0.31275E+06         0.00000E+00
    0.31275E+06        -0.49968E+08         0.00000E+00
    0.00000E+00         0.00000E+00        -0.49837E+08
 
   -0.48670E+08         0.34017E+06         0.00000E+00
    0.34017E+06        -0.49961E+08         0.00000E+00
    0.00000E+00         0.00000E+00        -0.49837E+08
 
   -0.48689E+08         0.36715E+06         0.00000E+00
    0.36715E+06        -0.49955E+08         0.00000E+00
    0.00000E+00         0.00000E+00        -0.49837E+08
 
   -0.48709E+08         0.39367E+06         0.00000E+00
    0.39367E+06        -0.49948E+08         0.00000E+00
    0.00000E+00         0.00000E+00        -0.49837E+08
 
   -0.48729E+08         0.41973E+06         0.00000E+00
    0.41973E+06        -0.49940E+08         0.00000E+00
    0.00000E+00         0.00000E+00        -0.49837E+08
 
   -0.48751E+08         0.44531E+06         0.00000E+00
    0.44531E+06        -0.49932E+08         0.00000E+00
    0.00000E+00         0.00000E+00        -0.49837E+08
 
   -0.48773E+08         0.47041E+06         0.00000E+00
    0.47041E+06        -0.49923E+08         0.00000E+00
    0.00000E+00         0.00000E+00        -0.49837E+08
 
   -0.48795E+08         0.49502E+06         0.00000E+00
    0.49502E+06        -0.49914E+08         0.00000E+00
    0.00000E+00         0.00000E+00        -0.49837E+08
 
   -0.48819E+08         0.51913E+06         0.00000E+00
    0.51913E+06        -0.49905E+08         0.00000E+00
    0.00000E+00         0.00000E+00        -0.49837E+08
 
   -0.48843E+08         0.54274E+06         0.00000E+00
    0.54274E+06        -0.49895E+08         0.00000E+00
    0.00000E+00         0.00000E+00        -0.49837E+08
 
   -0.48868E+08         0.56583E+06         0.00000E+00
    0.56583E+06        -0.49884E+08         0.00000E+00
    0.00000E+00         0.00000E+00        -0.49837E+08
 
   -0.48894E+08         0.58841E+06         0.00000E+00
    0.58841E+06        -0.49873E+08         0.00000E+00
    0.00000E+00         0.00000E+00        -0.49837E+08
 
   -0.48920E+08         0.61046E+06         0.00000E+00
    0.61046E+06        -0.49862E+08         0.00000E+00
    0.00000E+00         0.00000E+00        -0.49837E+08
 
   -0.48947E+08         0.63198E+06         0.00000E+00
    0.63198E+06        -0.49851E+08         0.00000E+00
    0.00000E+00         0.00000E+00        -0.49837E+08
 
   -0.48974E+08         0.65297E+06         0.00000E+00
    0.65297E+06        -0.49839E+08         0.00000E+00
    0.00000E+00         0.00000E+00        -0.49837E+08
 
   -0.49002E+08         0.67342E+06         0.00000E+00
    0.67342E+06        -0.49826E+08         0.00000E+00
    0.00000E+00         0.00000E+00        -0.49837E+08
 
   -0.49031E+08         0.69332E+06         0.00000E+00
    0.69332E+06        -0.49814E+08         0.00000E+00
    0.00000E+00         0.00000E+00        -0.49837E+08
 
   -0.49060E+08         0.71266E+06         0.00000E+00
    0.71266E+06        -0.49800E+08         0.00000E+00
    0.00000E+00         0.00000E+00        -0.49837E+08
 
   -0.49090E+08         0.73145E+06         0.00000E+00
    0.73145E+06        -0.49787E+08         0.00000E+00
    0.00000E+00         0.00000E+00        -0.49837E+08
 
   -0.49120E+08         0.74968E+06         0.00000E+00
    0.74968E+06        -0.49773E+08         0.00000E+00
    0.00000E+00         0.00000E+00        -0.49837E+08
 
   -0.49151E+08         0.76734E+06         0.00000E+00
    0.76734E+06        -0.49759E+08         0.00000E+00
    0.00000E+00         0.00000E+00        -0.49837E+08
 
   -0.49182E+08         0.78443E+06         0.00000E+00
    0.78443E+06        -0.49745E+08         0.00000E+00
    0.00000E+00         0.00000E+00        -0.49837E+08
 
   -0.49214E+08         0.80094E+06         0.00000E+00
    0.80094E+06        -0.49730E+08         0.00000E+00
    0.00000E+00         0.00000E+00        -0.49837E+08
 
   -0.49246E+08         0.81688E+06         0.00000E+00
    0.81688E+06        -0.49715E+08         0.00000E+00
    0.00000E+00         0.00000E+00        -0.49837E+08
 
   -0.49279E+08         0.83222E+06         0.00000E+00
    0.83222E+06        -0.49699E+08         0.00000E+00
    0.00000E+00         0.00000E+00        -0.49837E+08
 
   -0.49313E+08         0.84698E+06         0.00000E+00
    0.84698E+06        -0.49684E+08         0.00000E+00
    0.00000E+00         0.00000E+00        -0.49837E+08
 
   -0.49346E+08         0.86115E+06         0.00000E+00
    0.86115E+06        -0.49668E+08         0.00000E+00
    0.00000E+00         0.00000E+00        -0.49837E+08
 
   -0.49380E+08         0.87472E+06         0.00000E+00
    0.87472E+06        -0.49651E+08         0.00000E+00
    0.00000E+00         0.00000E+00        -0.49837E+08
 
   -0.49415E+08         0.88769E+06         0.00000E+00
    0.88769E+06        -0.49635E+08         0.00000E+00
    0.00000E+00         0.00000E+00        -0.49837E+08
 
   -0.49450E+08         0.90005E+06         0.00000E+00
    0.90005E+06        -0.49618E+08         0.00000E+00
    0.00000E+00         0.00000E+00        -0.49837E+08
 
   -0.49485E+08         0.91180E+06         0.00000E+00
    0.91180E+06        -0.49601E+08         0.00000E+00
    0.00000E+00         0.00000E+00        -0.49837E+08
 
   -0.49521E+08         0.92295E+06         0.00000E+00
    0.92295E+06        -0.49583E+08         0.00000E+00
    0.00000E+00         0.00000E+00        -0.49837E+08
 
   -0.49557E+08         0.93347E+06         0.00000E+00
    0.93347E+06        -0.49566E+08         0.00000E+00
    0.00000E+00         0.00000E+00        -0.49837E+08
 
   -0.49593E+08         0.94338E+06         0.00000E+00
    0.94338E+06        -0.49548E+08         0.00000E+00
    0.00000E+00         0.00000E+00        -0.49837E+08
 
   -0.49630E+08         0.95266E+06         0.00000E+00
    0.95266E+06        -0.49530E+08         0.00000E+00
    0.00000E+00         0.00000E+00        -0.49837E+08
 
   -0.49667E+08         0.96131E+06         0.00000E+00
    0.96131E+06        -0.49512E+08         0.00000E+00
    0.00000E+00         0.00000E+00        -0.49837E+08
 
   -0.49704E+08         0.96934E+06         0.00000E+00
    0.96934E+06        -0.49493E+08         0.00000E+00
    0.00000E+00         0.00000E+00        -0.49837E+08
 
   -0.49742E+08         0.97672E+06         0.00000E+00
    0.97672E+06        -0.49475E+08         0.00000E+00
    0.00000E+00         0.00000E+00        -0.49837E+08
 
   -0.49780E+08         0.98347E+06         0.00000E+00
    0.98347E+06        -0.49456E+08         0.00000E+00
    0.00000E+00         0.00000E+00        -0.49837E+08
 
   -0.49818E+08         0.98958E+06         0.00000E+00
    0.98958E+06        -0.49437E+08         0.00000E+00
    0.00000E+00         0.00000E+00        -0.49837E+08
 
   -0.48356E+08         0.17757E+05         0.00000E+00
    0.17757E+05        -0.50000E+08         0.00000E+00
    0.00000E+00         0.00000E+00        -0.49807E+08
 
   -0.48367E+08         0.52251E+05         0.00000E+00
    0.52251E+05        -0.49999E+08         0.00000E+00
    0.00000E+00         0.00000E+00        -0.49807E+08
 
   -0.48378E+08         0.86355E+05         0.00000E+00
    0.86355E+05        -0.49998E+08         0.00000E+00
    0.00000E+00         0.00000E+00        -0.49807E+08
 
   -0.48391E+08         0.12006E+06         0.00000E+00
    0.12006E+06        -0.49996E+08         0.00000E+00
    0.00000E+00         0.00000E+00        -0.49807E+08
 
   -0.48404E+08         0.15334E+06         0.00000E+00
    0.15334E+06        -0.49993E+08         0.00000E+00
    0.00000E+00         0.00000E+00        -0.49807E+08
 
   -0.48419E+08         0.18620E+06         0.00000E+00
    0.18620E+06        -0.49990E+08         0.00000E+00
    0.00000E+00         0.00000E+00        -0.49807E+08
 
   -0.48435E+08         0.21861E+06         0.00000E+00
    0.21861E+06        -0.49986E+08         0.00000E+00
    0.00000E+00         0.00000E+00        -0.49807E+08
 
   -0.48452E+08         0.25058E+06         0.00000E+00
    0.25058E+06        -0.49982E+08         0.00000E+00
    0.00000E+00         0.00000E+00        -0.49807E+08
 
   -0.48469E+08         0.28208E+06         0.00000E+00
    0.28208E+06        -0.49977E+08         0.00000E+00
    0.00000E+00         0.00000E+00        -0.49807E+08
 
   -0.48488E+08         0.31311E+06         0.00000E+00
    0.31311E+06        -0.49971E+08         0.00000E+00
    0.00000E+00         0.00000E+00        -0.49807E+08
 
   -0.48507E+08         0.34366E+06         0.00000E+00
    0.34366E+06        -0.49965E+08         0.00000E+00
    0.00000E+00         0.00000E+00        -0.49807E+08
 
   -0.48528E+08         0.37372E+06         0.00000E+00
    0.37372E+06        -0.49958E+08         0.00000E+00
    0.00000E+00         0.00000E+00        -0.49807E+08
 
   -0.48549E+08         0.40328E+06         0.00000E+00
    0.40328E+06        -0.49951E+08         0.00000E+00
    0.00000E+00         0.00000E+00        -0.49807E+08
 
   -0.48571E+08         0.43233E+06         0.00000E+00
    0.43233E+06        -0.49943E+08         0.00000E+00
    0.00000E+00         0.00000E+00        -0.49807E+08
 
   -0.48594E+08         0.46086E+06         0.00000E+00
    0.46086E+06        -0.49935E+08         0.00000E+00
    0.00000E+00         0.00000E+00        -0.49807E+08
 
   -0.48618E+08         0.48886E+06         0.00000E+00
    0.48886E+06        -0.49926E+08         0.00000E+00
    0.00000E+00         0.00000E+00        -0.49807E+08
 
   -0.48643E+08         0.51634E+06         0.00000E+00
    0.51634E+06        -0.49917E+08         0.00000E+00
    0.00000E+00         0.00000E+00        -0.49807E+08
 
   -0.48668E+08         0.54328E+06         0.00000E+00
    0.54328E+06        -0.49907E+08         0.00000E+00
    0.00000E+00         0.00000E+00        -0.49807E+08
 
   -0.48694E+08         0.56966E+06         0.00000E+00
    0.56966E+06        -0.49897E+08         0.00000E+00
    0.00000E+00         0.00000E+00        -0.49807E+08
 
   -0.48721E+08         0.59550E+06         0.00000E+00
    0.59550E+06        -0.49886E+08         0.00000E+00
    0.00000E+00         0.00000E+00        -0.49807E+08
 
   -0.48748E+08         0.62078E+06         0.00000E+00
    0.62078E+06        -0.49875E+08         0.00000E+00
    0.00000E+00         0.00000E+00        -0.49807E+08
 
   -0.48777E+08         0.64549E+06         0.00000E+00
    0.64549E+06        -0.49864E+08         0.00000E+00
    0.00000E+00         0.00000E+00        -0.49807E+08
 
   -0.48806E+08         0.66964E+06         0.00000E+00
    0.66964E+06        -0.49851E+08         0.00000E+00
    0.00000E+00         0.00000E+00        -0.49807E+08
 
   -0.48835E+08         0.69321E+06         0.00000E+00
    0.69321E+06        -0.49839E+08         0.00000E+00
    0.00000E+00         0.00000E+00        -0.49807E+08
 
   -0.48866E+08         0.71619E+06         0.00000E+00
    0.71619E+06        -0.49826E+08         0.00000E+00
    0.00000E+00         0.00000E+00        -0.49807E+08
 
   -0.48897E+08         0.73859E+06         0.00000E+00
    0.73859E+06        -0.49813E+08         0.00000E+00
    0.00000E+00         0.00000E+00        -0.49807E+08
 
   -0.48928E+08         0.76040E+06         0.00000E+00
    0.76040E+06        -0.49799E+08         0.00000E+00
    0.00000E+00         0.00000E+00        -0.49807E+08
 
   -0.48960E+08         0.78162E+06         0.00000E+00
    0.78162E+06        -0.49785E+08         0.00000E+00
    0.00000E+00         0.00000E+00        -0.49807E+08
 
   -0.48993E+08         0.80223E+06         0.00000E+00
    0.80223E+06        -0.49770E+08         0.00000E+00
    0.00000E+00         0.00000E+00        -0.49807E+08
 
   -0.49026E+08         0.82224E+06         0.00000E+00
    0.82224E+06        -0.49756E+08         0.00000E+00
    0.00000E+00         0.00000E+00        -0.49807E+08
 
   -0.49060E+08         0.84164E+06         0.00000E+00
    0.84164E+06        -0.49740E+08         0.00000E+00
    0.00000E+00         0.00000E+00        -0.49807E+08
 
   -0.49094E+08         0.86043E+06         0.00000E+00
    0.86043E+06        -0.49725E+08         0.00000E+00
    0.00000E+00         0.00000E+00        -0.49807E+08
 
   -0.49129E+08         0.87860E+06         0.00000E+00
    0.87860E+06        -0.49709E+08         0.00000E+00
    0.00000E+00         0.00000E+00        -0.49807E+08
 
   -0.49164E+08         0.89615E+06         0.00000E+00
    0.89615E+06        -0.49692E+08         0.00000E+00
    0.00000E+00         0.00000E+00        -0.49807E+08
 
   -0.49200E+08         0.91307E+06         0.00000E+00
    0.91307E+06        -0.49676E+08         0.00000E+00
    0.00000E+00         0.00000E+00        -0.49807E+08
 
   -0.49236E+08         0.92936E+06         0.00000E+00
    0.92936E+06        -0.49659E+08         0.00000E+00
    0.00000E+00         0.00000E+00        -0.49807E+08
 
   -0.49273E+08         0.94503E+06         0.00000E+00
    0.94503E+06        -0.49642E+08         0.00000E+00
    0.00000E+00         0.00000E+00        -0.49807E+08
 
   -0.49310E+08         0.96005E+06         0.00000E+00
    0.96005E+06        -0.49624E+08         0.00000E+00
    0.00000E+00         0.00000E+00        -0.49807E+08
 
   -0.49348E+08         0.97444E+06         0.00000E+00
    0.97444E+06        -0.49606E+08         0.00000E+00
    0.00000E+00         0.00000E+00        -0.49807E+08
 
   -0.49386E+08         0.98818E+06         0.00000E+00
    0.98818E+06        -0.49588E+08         0.00000E+00
    0.00000E+00         0.00000E+00        -0.49807E+08
 
   -0.49424E+08         0.10013E+07         0.00000E+00
    0.10013E+07        -0.49570E+08         0.00000E+00
    0.00000E+00         0.00000E+00        -0.49807E+08
 
   -0.49463E+08         0.10137E+07         0.00000E+00
    0.10137E+07        -0.49551E+08         0.00000E+00
    0.00000E+00         0.00000E+00        -0.49807E+08
 
   -0.49503E+08         0.10255E+07         0.00000E+00
    0.10255E+07        -0.49532E+08         0.00000E+00
    0.00000E+00         0.00000E+00        -0.49807E+08
 
   -0.49542E+08         0.10366E+07         0.00000E+00
    0.10366E+07        -0.49513E+08         0.00000E+00
    0.00000E+00         0.00000E+00        -0.49807E+08
 
   -0.49582E+08         0.10471E+07         0.00000E+00
    0.10471E+07        -0.49493E+08         0.00000E+00
    0.00000E+00         0.00000E+00        -0.49807E+08
 
   -0.49622E+08         0.10569E+07         0.00000E+00
    0.10569E+07        -0.49473E+08         0.00000E+00
    0.00000E+00         0.00000E+00        -0.49807E+08
 
   -0.49663E+08         0.10660E+07         0.00000E+00
    0.10660E+07        -0.49453E+08         0.00000E+00
    0.00000E+00         0.00000E+00        -0.49807E+08
 
   -0.49704E+08         0.10745E+07         0.00000E+00
    0.10745E+07        -0.49433E+08         0.00000E+00
    0.00000E+00         0.00000E+00        -0.49807E+08
 
   -0.49745E+08         0.10823E+07         0.00000E+00
    0.10823E+07        -0.49413E+08         0.00000E+00
    0.00000E+00         0.00000E+00        -0.49807E+08
 
   -0.49786E+08         0.10894E+07         0.00000E+00
    0.10894E+07        -0.49392E+08         0.00000E+00
    0.00000E+00         0.00000E+00        -0.49807E+08
 
   -0.48174E+08         0.19557E+05         0.00000E+00
    0.19557E+05        -0.50000E+08         0.00000E+00
    0.00000E+00         0.00000E+00        -0.49772E+08
 
   -0.48187E+08         0.57476E+05         0.00000E+00
    0.57476E+05        -0.49999E+08         0.00000E+00
    0.00000E+00         0.00000E+00        -0.49772E+08
 
   -0.48200E+08         0.94943E+05         0.00000E+00
    0.94943E+05        -0.49998E+08         0.00000E+00
    0.00000E+00         0.00000E+00        -0.49772E+08
 
   -0.48215E+08         0.13194E+06         0.00000E+00
    0.13194E+06        -0.49996E+08         0.00000E+00
    0.00000E+00         0.00000E+00        -0.49772E+08
 
   -0.48231E+08         0.16847E+06         0.00000E+00
    0.16847E+06        -0.49993E+08         0.00000E+00
    0.00000E+00         0.00000E+00        -0.49772E+08
 
   -0.48248E+08         0.20450E+06         0.00000E+00
    0.20450E+06        -0.49989E+08         0.00000E+00
    0.00000E+00         0.00000E+00        -0.49772E+08
 
   -0.48266E+08         0.24003E+06         0.00000E+00
    0.24003E+06        -0.49985E+08         0.00000E+00
    0.00000E+00         0.00000E+00        -0.49772E+08
 
   -0.48285E+08         0.27506E+06         0.00000E+00
    0.27506E+06        -0.49980E+08         0.00000E+00
    0.00000E+00         0.00000E+00        -0.49772E+08
 
   -0.48306E+08         0.30956E+06         0.00000E+00
    0.30956E+06        -0.49975E+08         0.00000E+00
    0.00000E+00         0.00000E+00        -0.49772E+08
 
   -0.48327E+08         0.34352E+06         0.00000E+00
    0.34352E+06        -0.49969E+08         0.00000E+00
    0.00000E+00         0.00000E+00        -0.49772E+08
 
   -0.48349E+08         0.37695E+06         0.00000E+00
    0.37695E+06        -0.49962E+08         0.00000E+00
    0.00000E+00         0.00000E+00        -0.49772E+08
 
   -0.48372E+08         0.40983E+06         0.00000E+00
    0.40983E+06        -0.49955E+08         0.00000E+00
    0.00000E+00         0.00000E+00        -0.49772E+08
 
   -0.48396E+08         0.44216E+06         0.00000E+00
    0.44216E+06        -0.49947E+08         0.00000E+00
    0.00000E+00         0.00000E+00        -0.49772E+08
 
   -0.48421E+08         0.47392E+06         0.00000E+00
    0.47392E+06        -0.49939E+08         0.00000E+00
    0.00000E+00         0.00000E+00        -0.49772E+08
 
   -0.48446E+08         0.50510E+06         0.00000E+00
    0.50510E+06        -0.49930E+08         0.00000E+00
    0.00000E+00         0.00000E+00        -0.49772E+08
 
   -0.48473E+08         0.53571E+06         0.00000E+00
    0.53571E+06        -0.49921E+08         0.00000E+00
    0.00000E+00         0.00000E+00        -0.49772E+08
 
   -0.48500E+08         0.56574E+06         0.00000E+00
    0.56574E+06        -0.49911E+08         0.00000E+00
    0.00000E+00         0.00000E+00        -0.49772E+08
 
   -0.48528E+08         0.59517E+06         0.00000E+00
    0.59517E+06        -0.49900E+08         0.00000E+00
    0.00000E+00         0.00000E+00        -0.49772E+08
 
   -0.48557E+08         0.62400E+06         0.00000E+00
    0.62400E+06        -0.49889E+08         0.00000E+00
    0.00000E+00         0.00000E+00        -0.49772E+08
 
   -0.48587E+08         0.65223E+06         0.00000E+00
    0.65223E+06        -0.49878E+08         0.00000E+00
    0.00000E+00         0.00000E+00        -0.49772E+08
 
   -0.48618E+08         0.67986E+06         0.00000E+00
    0.67986E+06        -0.49866E+08         0.00000E+00
    0.00000E+00         0.00000E+00        -0.49772E+08
 
   -0.48649E+08         0.70687E+06         0.00000E+00
    0.70687E+06        -0.49853E+08         0.00000E+00
    0.00000E+00         0.00000E+00        -0.49772E+08
 
   -0.48681E+08         0.73326E+06         0.00000E+00
    0.73326E+06        -0.49840E+08         0.00000E+00
    0.00000E+00         0.00000E+00        -0.49772E+08
 
   -0.48714E+08         0.75902E+06         0.00000E+00
    0.75902E+06        -0.49827E+08         0.00000E+00
    0.00000E+00         0.00000E+00        -0.49772E+08
 
   -0.48747E+08         0.78416E+06         0.00000E+00
    0.78416E+06        -0.49813E+08         0.00000E+00
    0.00000E+00         0.00000E+00        -0.49772E+08
 
   -0.48781E+08         0.80867E+06         0.00000E+00
    0.80867E+06        -0.49799E+08         0.00000E+00
    0.00000E+00         0.00000E+00        -0.49772E+08
 
   -0.48815E+08         0.83254E+06         0.00000E+00
    0.83254E+06        -0.49784E+08         0.00000E+00
    0.00000E+00         0.00000E+00        -0.49772E+08
 
   -0.48851E+08         0.85577E+06         0.00000E+00
    0.85577E+06        -0.49769E+08         0.00000E+00
    0.00000E+00         0.00000E+00        -0.49772E+08
 
   -0.48886E+08         0.87836E+06         0.00000E+00
    0.87836E+06        -0.49753E+08         0.00000E+00
    0.00000E+00         0.00000E+00        -0.49772E+08
 
   -0.48923E+08         0.90030E+06         0.00000E+00
    0.90030E+06        -0.49737E+08         0.00000E+00
    0.00000E+00         0.00000E+00        -0.49772E+08
 
   -0.48960E+08         0.92159E+06         0.00000E+00
    0.92159E+06        -0.49721E+08         0.00000E+00
    0.00000E+00         0.00000E+00        -0.49772E+08
 
   -0.48997E+08         0.94222E+06         0.00000E+00
    0.94222E+06        -0.49704E+08         0.00000E+00
    0.00000E+00         0.00000E+00        -0.49772E+08
 
   -0.49035E+08         0.96219E+06         0.00000E+00
    0.96219E+06        -0.49687E+08         0.00000E+00
    0.00000E+00         0.00000E+00        -0.49772E+08
 
   -0.49074E+08         0.98151E+06         0.00000E+00
    0.98151E+06        -0.49670E+08         0.00000E+00
    0.00000E+00         0.00000E+00        -0.49772E+08
 
   -0.49113E+08         0.10002E+07         0.00000E+00
    0.10002E+07        -0.49652E+08         0.00000E+00
    0.00000E+00         0.00000E+00        -0.49772E+08
 
   -0.49152E+08         0.10181E+07         0.00000E+00
    0.10181E+07        -0.49634E+08         0.00000E+00
    0.00000E+00         0.00000E+00        -0.49772E+08
 
   -0.49192E+08         0.10354E+07         0.00000E+00
    0.10354E+07        -0.49615E+08         0.00000E+00
    0.00000E+00         0.00000E+00        -0.49772E+08
 
   -0.49233E+08         0.10521E+07         0.00000E+00
    0.10521E+07        -0.49596E+08         0.00000E+00
    0.00000E+00         0.00000E+00        -0.49772E+08
 
   -0.49274E+08         0.10680E+07         0.00000E+00
    0.10680E+07        -0.49577E+08         0.00000E+00
    0.00000E+00         0.00000E+00        -0.49772E+08
 
   -0.49315E+08         0.10833E+07         0.00000E+00
    0.10833E+07        -0.49557E+08         0.00000E+00
    0.00000E+00         0.00000E+00        -0.49772E+08
 
   -0.49357E+08         0.10979E+07         0.00000E+00
    0.10979E+07        -0.49537E+08         0.00000E+00
    0.00000E+00         0.00000E+00        -0.49772E+08
 
   -0.49399E+08         0.11118E+07         0.00000E+00
    0.11118E+07        -0.49517E+08         0.00000E+00
    0.00000E+00         0.00000E+00        -0.49772E+08
 
   -0.49442E+08         0.11250E+07         0.00000E+00
    0.11250E+07        -0.49497E+08         0.00000E+00
    0.00000E+00         0.00000E+00        -0.49772E+08
 
   -0.49485E+08         0.11375E+07         0.00000E+00
    0.11375E+07        -0.49476E+08         0.00000E+00
    0.00000E+00         0.00000E+00        -0.49772E+08
 
   -0.49528E+08         0.11493E+07         0.00000E+00
    0.11493E+07        -0.49455E+08         0.00000E+00
    0.00000E+00         0.00000E+00        -0.49772E+08
 
   -0.49572E+08         0.11604E+07         0.00000E+00
    0.11604E+07        -0.49433E+08         0.00000E+00
    0.00000E+00         0.00000E+00        -0.49772E+08
 
   -0.49616E+08         0.11708E+07         0.00000E+00
    0.11708E+07        -0.49412E+08         0.00000E+00
    0.00000E+00         0.00000E+00        -0.49772E+08
 
   -0.49660E+08         0.11805E+07         0.00000E+00
    0.11805E+07        -0.49390E+08         0.00000E+00
    0.00000E+00         0.00000E+00        -0.49772E+08
 
   -0.49705E+08         0.11894E+07         0.00000E+00
    0.11894E+07        -0.49368E+08         0.00000E+00
    0.00000E+00         0.00000E+00        -0.49772E+08
 
   -0.49750E+08         0.11977E+07         0.00000E+00
    0.11977E+07        -0.49345E+08         0.00000E+00
    0.00000E+00         0.00000E+00        -0.49772E+08
 
   -0.47974E+08         0.21499E+05         0.00000E+00
    0.21499E+05        -0.50000E+08         0.00000E+00
    0.00000E+00         0.00000E+00        -0.49732E+08
 
   -0.47989E+08         0.63104E+05         0.00000E+00
    0.63104E+05        -0.49999E+08         0.00000E+00
    0.00000E+00         0.00000E+00        -0.49732E+08
 
   -0.48005E+08         0.10419E+06         0.00000E+00
    0.10419E+06        -0.49997E+08         0.00000E+00
    0.00000E+00         0.00000E+00        -0.49732E+08
 
   -0.48023E+08         0.14473E+06         0.00000E+00
    0.14473E+06        -0.49995E+08         0.00000E+00
    0.00000E+00         0.00000E+00        -0.49732E+08
 
   -0.48041E+08         0.18473E+06         0.00000E+00
    0.18473E+06        -0.49992E+08         0.00000E+00
    0.00000E+00         0.00000E+00        -0.49732E+08
 
   -0.48061E+08         0.22417E+06         0.00000E+00
    0.22417E+06        -0.49988E+08         0.00000E+00
    0.00000E+00         0.00000E+00        -0.49732E+08
 
   -0.48082E+08         0.26304E+06         0.00000E+00
    0.26304E+06        -0.49984E+08         0.00000E+00
    0.00000E+00         0.00000E+00        -0.49732E+08
 
   -0.48104E+08         0.30134E+06         0.00000E+00
    0.30134E+06        -0.49979E+08         0.00000E+00
    0.00000E+00         0.00000E+00        -0.49732E+08
 
   -0.48126E+08         0.33904E+06         0.00000E+00
    0.33904E+06        -0.49973E+08         0.00000E+00
    0.00000E+00         0.00000E+00        -0.49732E+08
 
   -0.48150E+08         0.37616E+06         0.00000E+00
    0.37616E+06        -0.49967E+08         0.00000E+00
    0.00000E+00         0.00000E+00        -0.49732E+08
 
   -0.48175E+08         0.41266E+06         0.00000E+00
    0.41266E+06        -0.49960E+08         0.00000E+00
    0.00000E+00         0.00000E+00        -0.49732E+08
 
   -0.48201E+08         0.44856E+06         0.00000E+00
    0.44856E+06        -0.49952E+08         0.00000E+00
    0.00000E+00         0.00000E+00        -0.49732E+08
 
   -0.48228E+08         0.48384E+06         0.00000E+00
    0.48384E+06        -0.49944E+08         0.00000E+00
    0.00000E+00         0.00000E+00        -0.49732E+08
 
   -0.48256E+08         0.51850E+06         0.00000E+00
    0.51850E+06        -0.49935E+08         0.00000E+00
    0.00000E+00         0.00000E+00        -0.49732E+08
 
   -0.48285E+08         0.55253E+06         0.00000E+00
    0.55253E+06        -0.49925E+08         0.00000E+00
    0.00000E+00         0.00000E+00        -0.49732E+08
 
   -0.48314E+08         0.58592E+06         0.00000E+00
    0.58592E+06        -0.49915E+08         0.00000E+00
    0.00000E+00         0.00000E+00        -0.49732E+08
 
   -0.48345E+08         0.61866E+06         0.00000E+00
    0.61866E+06        -0.49905E+08         0.00000E+00
    0.00000E+00         0.00000E+00        -0.49732E+08
 
   -0.48376E+08         0.65077E+06         0.00000E+00
    0.65077E+06        -0.49893E+08         0.00000E+00
    0.00000E+00         0.00000E+00        -0.49732E+08
 
   -0.48408E+08         0.68222E+06         0.00000E+00
    0.68222E+06        -0.49882E+08         0.00000E+00
    0.00000E+00         0.00000E+00        -0.49732E+08
 
   -0.48441E+08         0.71301E+06         0.00000E+00
    0.71301E+06        -0.49869E+08         0.00000E+00
    0.00000E+00         0.00000E+00        -0.49732E+08
 
   -0.48475E+08         0.74314E+06         0.00000E+00
    0.74314E+06        -0.49856E+08         0.00000E+00
    0.00000E+00         0.00000E+00        -0.49732E+08
 
   -0.48509E+08         0.77261E+06         0.00000E+00
    0.77261E+06        -0.49843E+08         0.00000E+00
    0.00000E+00         0.00000E+00        -0.49732E+08
 
   -0.48545E+08         0.80141E+06         0.00000E+00
    0.80141E+06        -0.49829E+08         0.00000E+00
    0.00000E+00         0.00000E+00        -0.49732E+08
 
   -0.48580E+08         0.82954E+06         0.00000E+00
    0.82954E+06        -0.49815E+08         0.00000E+00
    0.00000E+00         0.00000E+00        -0.49732E+08
 
   -0.48617E+08         0.85699E+06         0.00000E+00
    0.85699E+06        -0.49800E+08         0.00000E+00
    0.00000E+00         0.00000E+00        -0.49732E+08
 
   -0.48654E+08         0.88376E+06         0.00000E+00
    0.88376E+06        -0.49785E+08         0.00000E+00
    0.00000E+00         0.00000E+00        -0.49732E+08
 
   -0.48692E+08         0.90985E+06         0.00000E+00
    0.90985E+06        -0.49769E+08         0.00000E+00
    0.00000E+00         0.00000E+00        -0.49732E+08
 
   -0.48731E+08         0.93526E+06         0.00000E+00
    0.93526E+06        -0.49753E+08         0.00000E+00
    0.00000E+00         0.00000E+00        -0.49732E+08
 
   -0.48770E+08         0.95998E+06         0.00000E+00
    0.95998E+06        -0.49736E+08         0.00000E+00
    0.00000E+00         0.00000E+00        -0.49732E+08
 
   -0.48810E+08         0.98400E+06         0.00000E+00
    0.98400E+06        -0.49719E+08         0.00000E+00
    0.00000E+00         0.00000E+00        -0.49732E+08
 
   -0.48850E+08         0.10073E+07         0.00000E+00
    0.10073E+07        -0.49702E+08         0.00000E+00
    0.00000E+00         0.00000E+00        -0.49732E+08
 
   -0.48891E+08         0.10300E+07         0.00000E+00
    0.10300E+07        -0.49684E+08         0.00000E+00
    0.00000E+00         0.00000E+00        -0.49732E+08
 
   -0.48932E+08         0.10519E+07         0.00000E+00
    0.10519E+07        -0.49665E+08         0.00000E+00
    0.00000E+00         0.00000E+00        -0.49732E+08
 
   -0.48974E+08         0.10731E+07         0.00000E+00
    0.10731E+07        -0.49646E+08         0.00000E+00
    0.00000E+00         0.00000E+00        -0.49732E+08
 
   -0.49017E+08         0.10937E+07         0.00000E+00
    0.10937E+07        -0.49627E+08         0.00000E+00
    0.00000E+00         0.00000E+00        -0.49732E+08
 
   -0.49060E+08         0.11135E+07         0.00000E+00
    0.11135E+07        -0.49608E+08         0.00000E+00
    0.00000E+00         0.00000E+00        -0.49732E+08
 
   -0.49103E+08         0.11326E+07         0.00000E+00
    0.11326E+07        -0.49588E+08         0.00000E+00
    0.00000E+00         0.00000E+00        -0.49732E+08
 
   -0.49147E+08         0.11510E+07         0.00000E+00
    0.11510E+07        -0.49568E+08         0.00000E+00
    0.00000E+00         0.00000E+00        -0.49732E+08
 
   -0.49192E+08         0.11687E+07         0.00000E+00
    0.11687E+07        -0.49547E+08         0.00000E+00
    0.00000E+00         0.00000E+00        -0.49732E+08
 
   -0.49236E+08         0.11856E+07         0.00000E+00
    0.11856E+07        -0.49526E+08         0.00000E+00
    0.00000E+00         0.00000E+00        -0.49732E+08
 
   -0.49282E+08         0.12019E+07         0.00000E+00
    0.12019E+07        -0.49504E+08         0.00000E+00
    0.00000E+00         0.00000E+00        -0.49732E+08
 
   -0.49327E+08         0.12174E+07         0.00000E+00
    0.12174E+07        -0.49483E+08         0.00000E+00
    0.00000E+00         0.00000E+00        -0.49732E+08
 
   -0.49374E+08         0.12322E+07         0.00000E+00
    0.12322E+07        -0.49461E+08         0.00000E+00
    0.00000E+00         0.00000E+00        -0.49732E+08
 
   -0.49420E+08         0.12462E+07         0.00000E+00
    0.12462E+07        -0.49438E+08         0.00000E+00
    0.00000E+00         0.00000E+00        -0.49732E+08
 
   -0.49467E+08         0.12595E+07         0.00000E+00
    0.12595E+07        -0.49416E+08         0.00000E+00
    0.00000E+00         0.00000E+00        -0.49732E+08
 
   -0.49514E+08         0.12721E+07         0.00000E+00
    0.12721E+07        -0.49393E+08         0.00000E+00
    0.00000E+00         0.00000E+00        -0.49732E+08
 
   -0.49562E+08         0.12839E+07         0.00000E+00
    0.12839E+07        -0.49369E+08         0.00000E+00
    0.00000E+00         0.00000E+00        -0.49732E+08
 
   -0.49610E+08         0.12950E+07         0.00000E+00
    0.12950E+07        -0.49346E+08         0.00000E+00
    0.00000E+00         0.00000E+00        -0.49732E+08
 
   -0.49658E+08         0.13054E+07         0.00000E+00
    0.13054E+07        -0.49322E+08         0.00000E+00
    0.00000E+00         0.00000E+00        -0.49732E+08
 
   -0.49707E+08         0.13149E+07         0.00000E+00
    0.13149E+07        -0.49297E+08         0.00000E+00
    0.00000E+00         0.00000E+00        -0.49732E+08
 
   -0.47755E+08         0.23585E+05         0.00000E+00
    0.23585E+05        -0.50000E+08         0.00000E+00
    0.00000E+00         0.00000E+00        -0.49684E+08
 
   -0.47773E+08         0.69139E+05         0.00000E+00
    0.69139E+05        -0.49999E+08         0.00000E+00
    0.00000E+00         0.00000E+00        -0.49684E+08
 
   -0.47792E+08         0.11409E+06         0.00000E+00
    0.11409E+06        -0.49997E+08         0.00000E+00
    0.00000E+00         0.00000E+00        -0.49684E+08
 
   -0.47812E+08         0.15843E+06         0.00000E+00
    0.15843E+06        -0.49995E+08         0.00000E+00
    0.00000E+00         0.00000E+00        -0.49684E+08
 
   -0.47833E+08         0.20214E+06         0.00000E+00
    0.20214E+06        -0.49992E+08         0.00000E+00
    0.00000E+00         0.00000E+00        -0.49684E+08
 
   -0.47856E+08         0.24522E+06         0.00000E+00
    0.24522E+06        -0.49988E+08         0.00000E+00
    0.00000E+00         0.00000E+00        -0.49684E+08
 
   -0.47880E+08         0.28765E+06         0.00000E+00
    0.28765E+06        -0.49983E+08         0.00000E+00
    0.00000E+00         0.00000E+00        -0.49684E+08
 
   -0.47905E+08         0.32944E+06         0.00000E+00
    0.32944E+06        -0.49978E+08         0.00000E+00
    0.00000E+00         0.00000E+00        -0.49684E+08
 
   -0.47931E+08         0.37056E+06         0.00000E+00
    0.37056E+06        -0.49971E+08         0.00000E+00
    0.00000E+00         0.00000E+00        -0.49684E+08
 
   -0.47958E+08         0.41102E+06         0.00000E+00
    0.41102E+06        -0.49965E+08         0.00000E+00
    0.00000E+00         0.00000E+00        -0.49684E+08
 
   -0.47986E+08         0.45081E+06         0.00000E+00
    0.45081E+06        -0.49957E+08         0.00000E+00
    0.00000E+00         0.00000E+00        -0.49684E+08
 
   -0.48015E+08         0.48993E+06         0.00000E+00
    0.48993E+06        -0.49949E+08         0.00000E+00
    0.00000E+00         0.00000E+00        -0.49684E+08
 
   -0.48046E+08         0.52836E+06         0.00000E+00
    0.52836E+06        -0.49940E+08         0.00000E+00
    0.00000E+00         0.00000E+00        -0.49684E+08
 
   -0.48077E+08         0.56610E+06         0.00000E+00
    0.56610E+06        -0.49930E+08         0.00000E+00
    0.00000E+00         0.00000E+00        -0.49684E+08
 
   -0.48109E+08         0.60314E+06         0.00000E+00
    0.60314E+06        -0.49920E+08         0.00000E+00
    0.00000E+00         0.00000E+00        -0.49684E+08
 
   -0.48142E+08         0.63950E+06         0.00000E+00
    0.63950E+06        -0.49910E+08         0.00000E+00
    0.00000E+00         0.00000E+00        -0.49684E+08
 
   -0.48176E+08         0.67515E+06         0.00000E+00
    0.67515E+06        -0.49898E+08         0.00000E+00
    0.00000E+00         0.00000E+00        -0.49684E+08
 
   -0.48210E+08         0.71009E+06         0.00000E+00
    0.71009E+06        -0.49886E+08         0.00000E+00
    0.00000E+00         0.00000E+00        -0.49684E+08
 
   -0.48246E+08         0.74433E+06         0.00000E+00
    0.74433E+06        -0.49874E+08         0.00000E+00
    0.00000E+00         0.00000E+00        -0.49684E+08
 
   -0.48282E+08         0.77785E+06         0.00000E+00
    0.77785E+06        -0.49861E+08         0.00000E+00
    0.00000E+00         0.00000E+00        -0.49684E+08
 
   -0.48319E+08         0.81066E+06         0.00000E+00
    0.81066E+06        -0.49847E+08         0.00000E+00
    0.00000E+00         0.00000E+00        -0.49684E+08
 
   -0.48357E+08         0.84276E+06         0.00000E+00
    0.84276E+06        -0.49833E+08         0.00000E+00
    0.00000E+00         0.00000E+00        -0.49684E+08
 
   -0.48396E+08         0.87413E+06         0.00000E+00
    0.87413E+06        -0.49818E+08         0.00000E+00
    0.00000E+00         0.00000E+00        -0.49684E+08
 
   -0.48435E+08         0.90479E+06         0.00000E+00
    0.90479E+06        -0.49803E+08         0.00000E+00
    0.00000E+00         0.00000E+00        -0.49684E+08
 
   -0.48475E+08         0.93471E+06         0.00000E+00
    0.93471E+06        -0.49787E+08         0.00000E+00
    0.00000E+00         0.00000E+00        -0.49684E+08
 
   -0.48516E+08         0.96392E+06         0.00000E+00
    0.96392E+06        -0.49771E+08         0.00000E+00
    0.00000E+00         0.00000E+00        -0.49684E+08
 
   -0.48558E+08         0.99239E+06         0.00000E+00
    0.99239E+06        -0.49754E+08         0.00000E+00
    0.00000E+00         0.00000E+00        -0.49684E+08
 
   -0.48600E+08         0.10201E+07         0.00000E+00
    0.10201E+07        -0.49737E+08         0.00000E+00
    0.00000E+00         0.00000E+00        -0.49684E+08
 
   -0.48642E+08         0.10471E+07         0.00000E+00
    0.10471E+07        -0.49719E+08         0.00000E+00
    0.00000E+00         0.00000E+00        -0.49684E+08
 
   -0.48686E+08         0.10734E+07         0.00000E+00
    0.10734E+07        -0.49701E+08         0.00000E+00
    0.00000E+00         0.00000E+00        -0.49684E+08
 
   -0.48729E+08         0.10990E+07         0.00000E+00
    0.10990E+07        -0.49682E+08         0.00000E+00
    0.00000E+00         0.00000E+00        -0.49684E+08
 
   -0.48774E+08         0.11238E+07         0.00000E+00
    0.11238E+07        -0.49663E+08         0.00000E+00
    0.00000E+00         0.00000E+00        -0.49684E+08
 
   -0.48819E+08         0.11478E+07         0.00000E+00
    0.11478E+07        -0.49643E+08         0.00000E+00
    0.00000E+00         0.00000E+00        -0.49684E+08
 
   -0.48865E+08         0.11712E+07         0.00000E+00
    0.11712E+07        -0.49623E+08         0.00000E+00
    0.00000E+00         0.00000E+00        -0.49684E+08
 
   -0.48911E+08         0.11937E+07         0.00000E+00
    0.11937E+07        -0.49603E+08         0.00000E+00
    0.00000E+00         0.00000E+00        -0.49684E+08
 
   -0.48957E+08         0.12156E+07         0.00000E+00
    0.12156E+07        -0.49582E+08         0.00000E+00
    0.00000E+00         0.00000E+00        -0.49684E+08
 
   -0.49004E+08         0.12367E+07         0.00000E+00
    0.12367E+07        -0.49561E+08         0.00000E+00
    0.00000E+00         0.00000E+00        -0.49684E+08
 
   -0.49052E+08         0.12570E+07         0.00000E+00
    0.12570E+07        -0.49539E+08         0.00000E+00
    0.00000E+00         0.00000E+00        -0.49684E+08
 
   -0.49100E+08         0.12766E+07         0.00000E+00
    0.12766E+07        -0.49517E+08         0.00000E+00
    0.00000E+00         0.00000E+00        -0.49684E+08
 
   -0.49149E+08         0.12954E+07         0.00000E+00
    0.12954E+07        -0.49494E+08         0.00000E+00
    0.00000E+00         0.00000E+00        -0.49684E+08
 
   -0.49198E+08         0.13135E+07         0.00000E+00
    0.13135E+07        -0.49471E+08         0.00000E+00
    0.00000E+00         0.00000E+00        -0.49684E+08
 
   -0.49247E+08         0.13308E+07         0.00000E+00
    0.13308E+07        -0.49448E+08         0.00000E+00
    0.00000E+00         0.00000E+00        -0.49684E+08
 
   -0.49297E+08         0.13474E+07         0.00000E+00
    0.13474E+07        -0.49424E+08         0.00000E+00
    0.00000E+00         0.00000E+00        -0.49684E+08
 
   -0.49347E+08         0.13632E+07         0.00000E+00
    0.13632E+07        -0.49400E+08         0.00000E+00
    0.00000E+00         0.00000E+00        -0.49684E+08
 
   -0.49398E+08         0.13782E+07         0.00000E+00
    0.13782E+07        -0.49376E+08         0.00000E+00
    0.00000E+00         0.00000E+00        -0.49684E+08
 
   -0.49449E+08         0.13924E+07         0.00000E+00
    0.13924E+07        -0.49351E+08         0.00000E+00
    0.00000E+00         0.00000E+00        -0.49684E+08
 
   -0.49501E+08         0.14059E+07         0.00000E+00
    0.14059E+07        -0.49326E+08         0.00000E+00
    0.00000E+00         0.00000E+00        -0.49684E+08
 
   -0.49553E+08         0.14186E+07         0.00000E+00
    0.14186E+07        -0.49301E+08         0.00000E+00
    0.00000E+00         0.00000E+00        -0.49684E+08
 
   -0.49605E+08         0.14305E+07         0.00000E+00
    0.14305E+07        -0.49275E+08         0.00000E+00
    0.00000E+00         0.00000E+00        -0.49684E+08
 
   -0.49657E+08         0.14416E+07         0.00000E+00
    0.14416E+07        -0.49249E+08         0.00000E+00
    0.00000E+00         0.00000E+00        -0.49684E+08
 
   -0.47515E+08         0.25817E+05         0.00000E+00
    0.25817E+05        -0.50000E+08         0.00000E+00
    0.00000E+00         0.00000E+00        -0.49628E+08
 
   -0.47536E+08         0.75582E+05         0.00000E+00
    0.75582E+05        -0.49999E+08         0.00000E+00
    0.00000E+00         0.00000E+00        -0.49628E+08
 
   -0.47558E+08         0.12466E+06         0.00000E+00
    0.12466E+06        -0.49997E+08         0.00000E+00
    0.00000E+00         0.00000E+00        -0.49628E+08
 
   -0.47582E+08         0.17303E+06         0.00000E+00
    0.17303E+06        -0.49995E+08         0.00000E+00
    0.00000E+00         0.00000E+00        -0.49628E+08
 
   -0.47607E+08         0.22069E+06         0.00000E+00
    0.22069E+06        -0.49991E+08         0.00000E+00
    0.00000E+00         0.00000E+00        -0.49628E+08
 
   -0.47633E+08         0.26763E+06         0.00000E+00
    0.26763E+06        -0.49987E+08         0.00000E+00
    0.00000E+00         0.00000E+00        -0.49628E+08
 
   -0.47660E+08         0.31385E+06         0.00000E+00
    0.31385E+06        -0.49982E+08         0.00000E+00
    0.00000E+00         0.00000E+00        -0.49628E+08
 
   -0.47688E+08         0.35934E+06         0.00000E+00
    0.35934E+06        -0.49976E+08         0.00000E+00
    0.00000E+00         0.00000E+00        -0.49628E+08
 
   -0.47718E+08         0.40410E+06         0.00000E+00
    0.40410E+06        -0.49970E+08         0.00000E+00
    0.00000E+00         0.00000E+00        -0.49628E+08
 
   -0.47749E+08         0.44811E+06         0.00000E+00
    0.44811E+06        -0.49962E+08         0.00000E+00
    0.00000E+00         0.00000E+00        -0.49628E+08
 
   -0.47780E+08         0.49138E+06         0.00000E+00
    0.49138E+06        -0.49954E+08         0.00000E+00
    0.00000E+00         0.00000E+00        -0.49628E+08
 
   -0.47813E+08         0.53390E+06         0.00000E+00
    0.53390E+06        -0.49946E+08         0.00000E+00
    0.00000E+00         0.00000E+00        -0.49628E+08
 
   -0.47847E+08         0.57566E+06         0.00000E+00
    0.57566E+06        -0.49936E+08         0.00000E+00
    0.00000E+00         0.00000E+00        -0.49628E+08
 
   -0.47882E+08         0.61668E+06         0.00000E+00
    0.61668E+06        -0.49926E+08         0.00000E+00
    0.00000E+00         0.00000E+00        -0.49628E+08
 
   -0.47917E+08         0.65693E+06         0.00000E+00
    0.65693E+06        -0.49915E+08         0.00000E+00
    0.00000E+00         0.00000E+00        -0.49628E+08
 
   -0.47954E+08         0.69642E+06         0.00000E+00
    0.69642E+06        -0.49904E+08         0.00000E+00
    0.00000E+00         0.00000E+00        -0.49628E+08
 
   -0.47992E+08         0.73515E+06         0.00000E+00
    0.73515E+06        -0.49892E+08         0.00000E+00
    0.00000E+00         0.00000E+00        -0.49628E+08
 
   -0.48030E+08         0.77311E+06         0.00000E+00
    0.77311E+06        -0.49879E+08         0.00000E+00
    0.00000E+00         0.00000E+00        -0.49628E+08
 
   -0.48069E+08         0.81030E+06         0.00000E+00
    0.81030E+06        -0.49866E+08         0.00000E+00
    0.00000E+00         0.00000E+00        -0.49628E+08
 
   -0.48109E+08         0.84673E+06         0.00000E+00
    0.84673E+06        -0.49852E+08         0.00000E+00
    0.00000E+00         0.00000E+00        -0.49628E+08
 
   -0.48150E+08         0.88239E+06         0.00000E+00
    0.88239E+06        -0.49838E+08         0.00000E+00
    0.00000E+00         0.00000E+00        -0.49628E+08
 
   -0.48192E+08         0.91728E+06         0.00000E+00
    0.91728E+06        -0.49823E+08         0.00000E+00
    0.00000E+00         0.00000E+00        -0.49628E+08
 
   -0.48234E+08         0.95140E+06         0.00000E+00
    0.95140E+06        -0.49807E+08         0.00000E+00
    0.00000E+00         0.00000E+00        -0.49628E+08
 
   -0.48277E+08         0.98475E+06         0.00000E+00
    0.98475E+06        -0.49791E+08         0.00000E+00
    0.00000E+00         0.00000E+00        -0.49628E+08
 
   -0.48321E+08         0.10173E+07         0.00000E+00
    0.10173E+07        -0.49774E+08         0.00000E+00
    0.00000E+00         0.00000E+00        -0.49628E+08
 
   -0.48365E+08         0.10491E+07         0.00000E+00
    0.10491E+07        -0.49757E+08         0.00000E+00
    0.00000E+00         0.00000E+00        -0.49628E+08
 
   -0.48411E+08         0.10802E+07         0.00000E+00
    0.10802E+07        -0.49739E+08         0.00000E+00
    0.00000E+00         0.00000E+00        -0.49628E+08
 
   -0.48456E+08         0.11104E+07         0.00000E+00
    0.11104E+07        -0.49721E+08         0.00000E+00
    0.00000E+00         0.00000E+00        -0.49628E+08
 
   -0.48503E+08         0.11399E+07         0.00000E+00
    0.11399E+07        -0.49702E+08         0.00000E+00
    0.00000E+00         0.00000E+00        -0.49628E+08
 
   -0.48550E+08         0.11686E+07         0.00000E+00
    0.11686E+07        -0.49683E+08         0.00000E+00
    0.00000E+00         0.00000E+00        -0.49628E+08
 
   -0.48598E+08         0.11965E+07         0.00000E+00
    0.11965E+07        -0.49663E+08         0.00000E+00
    0.00000E+00         0.00000E+00        -0.49628E+08
 
   -0.48646E+08         0.12237E+07         0.00000E+00
    0.12237E+07        -0.49642E+08         0.00000E+00
    0.00000E+00         0.00000E+00        -0.49628E+08
 
   -0.48695E+08         0.12500E+07         0.00000E+00
    0.12500E+07        -0.49622E+08         0.00000E+00
    0.00000E+00         0.00000E+00        -0.49628E+08
 
   -0.48744E+08         0.12756E+07         0.00000E+00
    0.12756E+07        -0.49600E+08         0.00000E+00
    0.00000E+00         0.00000E+00        -0.49628E+08
 
   -0.48794E+08         0.13005E+07         0.00000E+00
    0.13005E+07        -0.49578E+08         0.00000E+00
    0.00000E+00         0.00000E+00        -0.49628E+08
 
   -0.48845E+08         0.13245E+07         0.00000E+00
    0.13245E+07        -0.49556E+08         0.00000E+00
    0.00000E+00         0.00000E+00        -0.49628E+08
 
   -0.48896E+08         0.13478E+07         0.00000E+00
    0.13478E+07        -0.49534E+08         0.00000E+00
    0.00000E+00         0.00000E+00        -0.49628E+08
 
   -0.48947E+08         0.13702E+07         0.00000E+00
    0.13702E+07        -0.49510E+08         0.00000E+00
    0.00000E+00         0.00000E+00        -0.49628E+08
 
   -0.48999E+08         0.13919E+07         0.00000E+00
    0.13919E+07        -0.49487E+08         0.00000E+00
    0.00000E+00         0.00000E+00        -0.49628E+08
 
   -0.49051E+08         0.14128E+07         0.00000E+00
    0.14128E+07        -0.49463E+08         0.00000E+00
    0.00000E+00         0.00000E+00        -0.49628E+08
 
   -0.49104E+08         0.14329E+07         0.00000E+00
    0.14329E+07        -0.49438E+08         0.00000E+00
    0.00000E+00         0.00000E+00        -0.49628E+08
 
   -0.49158E+08         0.14523E+07         0.00000E+00
    0.14523E+07        -0.49413E+08         0.00000E+00
    0.00000E+00         0.00000E+00        -0.49628E+08
 
   -0.49211E+08         0.14708E+07         0.00000E+00
    0.14708E+07        -0.49388E+08         0.00000E+00
    0.00000E+00         0.00000E+00        -0.49628E+08
 
   -0.49266E+08         0.14885E+07         0.00000E+00
    0.14885E+07        -0.49362E+08         0.00000E+00
    0.00000E+00         0.00000E+00        -0.49628E+08
 
   -0.49320E+08         0.15055E+07         0.00000E+00
    0.15055E+07        -0.49336E+08         0.00000E+00
    0.00000E+00         0.00000E+00        -0.49628E+08
 
   -0.49375E+08         0.15216E+07         0.00000E+00
    0.15216E+07        -0.49310E+08         0.00000E+00
    0.00000E+00         0.00000E+00        -0.49628E+08
 
   -0.49431E+08         0.15369E+07         0.00000E+00
    0.15369E+07        -0.49283E+08         0.00000E+00
    0.00000E+00         0.00000E+00        -0.49628E+08
 
   -0.49487E+08         0.15515E+07         0.00000E+00
    0.15515E+07        -0.49255E+08         0.00000E+00
    0.00000E+00         0.00000E+00        -0.49628E+08
 
   -0.49543E+08         0.15652E+07         0.00000E+00
    0.15652E+07        -0.49228E+08         0.00000E+00
    0.00000E+00         0.00000E+00        -0.49628E+08
 
   -0.49599E+08         0.15781E+07         0.00000E+00
    0.15781E+07        -0.49200E+08         0.00000E+00
    0.00000E+00         0.00000E+00        -0.49628E+08
 
   -0.47253E+08         0.28191E+05         0.00000E+00
    0.28191E+05        -0.50000E+08         0.00000E+00
    0.00000E+00         0.00000E+00        -0.49562E+08
 
   -0.47278E+08         0.82425E+05         0.00000E+00
    0.82425E+05        -0.49999E+08         0.00000E+00
    0.00000E+00         0.00000E+00        -0.49562E+08
 
   -0.47304E+08         0.13587E+06         0.00000E+00
    0.13587E+06        -0.49997E+08         0.00000E+00
    0.00000E+00         0.00000E+00        -0.49562E+08
 
   -0.47331E+08         0.18851E+06         0.00000E+00
    0.18851E+06        -0.49994E+08         0.00000E+00
    0.00000E+00         0.00000E+00        -0.49562E+08
 
   -0.47360E+08         0.24035E+06         0.00000E+00
    0.24035E+06        -0.49991E+08         0.00000E+00
    0.00000E+00         0.00000E+00        -0.49562E+08
 
   -0.47390E+08         0.29138E+06         0.00000E+00
    0.29138E+06        -0.49986E+08         0.00000E+00
    0.00000E+00         0.00000E+00        -0.49562E+08
 
   -0.47421E+08         0.34160E+06         0.00000E+00
    0.34160E+06        -0.49981E+08         0.00000E+00
    0.00000E+00         0.00000E+00        -0.49562E+08
 
   -0.47453E+08         0.39101E+06         0.00000E+00
    0.39101E+06        -0.49975E+08         0.00000E+00
    0.00000E+00         0.00000E+00        -0.49562E+08
 
   -0.47487E+08         0.43959E+06         0.00000E+00
    0.43959E+06        -0.49968E+08         0.00000E+00
    0.00000E+00         0.00000E+00        -0.49562E+08
 
   -0.47521E+08         0.48735E+06         0.00000E+00
    0.48735E+06        -0.49960E+08         0.00000E+00
    0.00000E+00         0.00000E+00        -0.49562E+08
 
   -0.47557E+08         0.53429E+06         0.00000E+00
    0.53429E+06        -0.49952E+08         0.00000E+00
    0.00000E+00         0.00000E+00        -0.49562E+08
 
   -0.47594E+08         0.58040E+06         0.00000E+00
    0.58040E+06        -0.49943E+08         0.00000E+00
    0.00000E+00         0.00000E+00        -0.49562E+08
 
   -0.47631E+08         0.62569E+06         0.00000E+00
    0.62569E+06        -0.49933E+08         0.00000E+00
    0.00000E+00         0.00000E+00        -0.49562E+08
 
   -0.47670E+08         0.67015E+06         0.00000E+00
    0.67015E+06        -0.49922E+08         0.00000E+00
    0.00000E+00         0.00000E+00        -0.49562E+08
 
   -0.47710E+08         0.71378E+06         0.00000E+00
    0.71378E+06        -0.49911E+08         0.00000E+00
    0.00000E+00         0.00000E+00        -0.49562E+08
 
   -0.47750E+08         0.75659E+06         0.00000E+00
    0.75659E+06        -0.49899E+08         0.00000E+00
    0.00000E+00         0.00000E+00        -0.49562E+08
 
   -0.47792E+08         0.79856E+06         0.00000E+00
    0.79856E+06        -0.49886E+08         0.00000E+00
    0.00000E+00         0.00000E+00        -0.49562E+08
 
   -0.47834E+08         0.83971E+06         0.00000E+00
    0.83971E+06        -0.49873E+08         0.00000E+00
    0.00000E+00         0.00000E+00        -0.49562E+08
 
   -0.47877E+08         0.88004E+06         0.00000E+00
    0.88004E+06        -0.49859E+08         0.00000E+00
    0.00000E+00         0.00000E+00        -0.49562E+08
 
   -0.47921E+08         0.91954E+06         0.00000E+00
    0.91954E+06        -0.49844E+08         0.00000E+00
    0.00000E+00         0.00000E+00        -0.49562E+08
 
   -0.47966E+08         0.95822E+06         0.00000E+00
    0.95822E+06        -0.49829E+08         0.00000E+00
    0.00000E+00         0.00000E+00        -0.49562E+08
 
   -0.48012E+08         0.99607E+06         0.00000E+00
    0.99607E+06        -0.49813E+08         0.00000E+00
    0.00000E+00         0.00000E+00        -0.49562E+08
 
   -0.48058E+08         0.10331E+07         0.00000E+00
    0.10331E+07        -0.49796E+08         0.00000E+00
    0.00000E+00         0.00000E+00        -0.49562E+08
 
   -0.48105E+08         0.10693E+07         0.00000E+00
    0.10693E+07        -0.49779E+08         0.00000E+00
    0.00000E+00         0.00000E+00        -0.49562E+08
 
   -0.48153E+08         0.11047E+07         0.00000E+00
    0.11047E+07        -0.49762E+08         0.00000E+00
    0.00000E+00         0.00000E+00        -0.49562E+08
 
   -0.48202E+08         0.11393E+07         0.00000E+00
    0.11393E+07        -0.49744E+08         0.00000E+00
    0.00000E+00         0.00000E+00        -0.49562E+08
 
   -0.48251E+08         0.11730E+07         0.00000E+00
    0.11730E+07        -0.49725E+08         0.00000E+00
    0.00000E+00         0.00000E+00        -0.49562E+08
 
   -0.48300E+08         0.12060E+07         0.00000E+00
    0.12060E+07        -0.49705E+08         0.00000E+00
    0.00000E+00         0.00000E+00        -0.49562E+08
 
   -0.48351E+08         0.12381E+07         0.00000E+00
    0.12381E+07        -0.49685E+08         0.00000E+00
    0.00000E+00         0.00000E+00        -0.49562E+08
 
   -0.48402E+08         0.12694E+07         0.00000E+00
    0.12694E+07        -0.49665E+08         0.00000E+00
    0.00000E+00         0.00000E+00        -0.49562E+08
 
   -0.48454E+08         0.12999E+07         0.00000E+00
    0.12999E+07        -0.49644E+08         0.00000E+00
    0.00000E+00         0.00000E+00        -0.49562E+08
 
   -0.48506E+08         0.13296E+07         0.00000E+00
    0.13296E+07        -0.49623E+08         0.00000E+00
    0.00000E+00         0.00000E+00        -0.49562E+08
 
   -0.48559E+08         0.13585E+07         0.00000E+00
    0.13585E+07        -0.49600E+08         0.00000E+00
    0.00000E+00         0.00000E+00        -0.49562E+08
 
   -0.48612E+08         0.13866E+07         0.00000E+00
    0.13866E+07        -0.49578E+08         0.00000E+00
    0.00000E+00         0.00000E+00        -0.49562E+08
 
   -0.48666E+08         0.14138E+07         0.00000E+00
    0.14138E+07        -0.49555E+08         0.00000E+00
    0.00000E+00         0.00000E+00        -0.49562E+08
 
   -0.48720E+08         0.14403E+07         0.00000E+00
    0.14403E+07        -0.49531E+08         0.00000E+00
    0.00000E+00         0.00000E+00        -0.49562E+08
 
   -0.48775E+08         0.14659E+07         0.00000E+00
    0.14659E+07        -0.49507E+08         0.00000E+00
    0.00000E+00         0.00000E+00        -0.49562E+08
 
   -0.48831E+08         0.14907E+07         0.00000E+00
    0.14907E+07        -0.49483E+08         0.00000E+00
    0.00000E+00         0.00000E+00        -0.49562E+08
 
   -0.48887E+08         0.15147E+07         0.00000E+00
    0.15147E+07        -0.49458E+08         0.00000E+00
    0.00000E+00         0.00000E+00        -0.49562E+08
 
   -0.48943E+08         0.15379E+07         0.00000E+00
    0.15379E+07        -0.49432E+08         0.00000E+00
    0.00000E+00         0.00000E+00        -0.49562E+08
 
   -0.49000E+08         0.15603E+07         0.00000E+00
    0.15603E+07        -0.49406E+08         0.00000E+00
    0.00000E+00         0.00000E+00        -0.49562E+08
 
   -0.49057E+08         0.15819E+07         0.00000E+00
    0.15819E+07        -0.49379E+08         0.00000E+00
    0.00000E+00         0.00000E+00        -0.49562E+08
 
   -0.49115E+08         0.16026E+07         0.00000E+00
    0.16026E+07        -0.49353E+08         0.00000E+00
    0.00000E+00         0.00000E+00        -0.49562E+08
 
   -0.49173E+08         0.16225E+07         0.00000E+00
    0.16225E+07        -0.49325E+08         0.00000E+00
    0.00000E+00         0.00000E+00        -0.49562E+08
 
   -0.49232E+08         0.16416E+07         0.00000E+00
    0.16416E+07        -0.49297E+08         0.00000E+00
    0.00000E+00         0.00000E+00        -0.49562E+08
 
   -0.49291E+08         0.16599E+07         0.00000E+00
    0.16599E+07        -0.49269E+08         0.00000E+00
    0.00000E+00         0.00000E+00        -0.49562E+08
 
   -0.49351E+08         0.16774E+07         0.00000E+00
    0.16774E+07        -0.49240E+08         0.00000E+00
    0.00000E+00         0.00000E+00        -0.49562E+08
 
   -0.49411E+08         0.16940E+07         0.00000E+00
    0.16940E+07        -0.49211E+08         0.00000E+00
    0.00000E+00         0.00000E+00        -0.49562E+08
 
   -0.49471E+08         0.17097E+07         0.00000E+00
    0.17097E+07        -0.49181E+08         0.00000E+00
    0.00000E+00         0.00000E+00        -0.49562E+08
 
   -0.49532E+08         0.17247E+07         0.00000E+00
    0.17247E+07        -0.49151E+08         0.00000E+00
    0.00000E+00         0.00000E+00        -0.49562E+08
 
   -0.46968E+08         0.30703E+05         0.00000E+00
    0.30703E+05        -0.50000E+08         0.00000E+00
    0.00000E+00         0.00000E+00        -0.49486E+08
 
   -0.46997E+08         0.89650E+05         0.00000E+00
    0.89650E+05        -0.49999E+08         0.00000E+00
    0.00000E+00         0.00000E+00        -0.49486E+08
 
   -0.47027E+08         0.14770E+06         0.00000E+00
    0.14770E+06        -0.49997E+08         0.00000E+00
    0.00000E+00         0.00000E+00        -0.49486E+08
 
   -0.47059E+08         0.20484E+06         0.00000E+00
    0.20484E+06        -0.49994E+08         0.00000E+00
    0.00000E+00         0.00000E+00        -0.49486E+08
 
   -0.47092E+08         0.26107E+06         0.00000E+00
    0.26107E+06        -0.49990E+08         0.00000E+00
    0.00000E+00         0.00000E+00        -0.49486E+08
 
   -0.47126E+08         0.31640E+06         0.00000E+00
    0.31640E+06        -0.49985E+08         0.00000E+00
    0.00000E+00         0.00000E+00        -0.49486E+08
 
   -0.47161E+08         0.37082E+06         0.00000E+00
    0.37082E+06        -0.49980E+08         0.00000E+00
    0.00000E+00         0.00000E+00        -0.49486E+08
 
   -0.47198E+08         0.42433E+06         0.00000E+00
    0.42433E+06        -0.49973E+08         0.00000E+00
    0.00000E+00         0.00000E+00        -0.49486E+08
 
   -0.47236E+08         0.47694E+06         0.00000E+00
    0.47694E+06        -0.49966E+08         0.00000E+00
    0.00000E+00         0.00000E+00        -0.49486E+08
 
   -0.47275E+08         0.52863E+06         0.00000E+00
    0.52863E+06        -0.49958E+08         0.00000E+00
    0.00000E+00         0.00000E+00        -0.49486E+08
 
   -0.47315E+08         0.57942E+06         0.00000E+00
    0.57942E+06        -0.49949E+08         0.00000E+00
    0.00000E+00         0.00000E+00        -0.49486E+08
 
   -0.47356E+08         0.62930E+06         0.00000E+00
    0.62930E+06        -0.49940E+08         0.00000E+00
    0.00000E+00         0.00000E+00        -0.49486E+08
 
   -0.47398E+08         0.67828E+06         0.00000E+00
    0.67828E+06        -0.49929E+08         0.00000E+00
    0.00000E+00         0.00000E+00        -0.49486E+08
 
   -0.47441E+08         0.72636E+06         0.00000E+00
    0.72636E+06        -0.49918E+08         0.00000E+00
    0.00000E+00         0.00000E+00        -0.49486E+08
 
   -0.47485E+08         0.77354E+06         0.00000E+00
    0.77354E+06        -0.49906E+08         0.00000E+00
    0.00000E+00         0.00000E+00        -0.49486E+08
 
   -0.47530E+08         0.81982E+06         0.00000E+00
    0.81982E+06        -0.49894E+08         0.00000E+00
    0.00000E+00         0.00000E+00        -0.49486E+08
 
   -0.47575E+08         0.86521E+06         0.00000E+00
    0.86521E+06        -0.49881E+08         0.00000E+00
    0.00000E+00         0.00000E+00        -0.49486E+08
 
   -0.47622E+08         0.90972E+06         0.00000E+00
    0.90972E+06        -0.49867E+08         0.00000E+00
    0.00000E+00         0.00000E+00        -0.49486E+08
 
   -0.47670E+08         0.95334E+06         0.00000E+00
    0.95334E+06        -0.49852E+08         0.00000E+00
    0.00000E+00         0.00000E+00        -0.49486E+08
 
   -0.47718E+08         0.99608E+06         0.00000E+00
    0.99608E+06        -0.49837E+08         0.00000E+00
    0.00000E+00         0.00000E+00        -0.49486E+08
 
   -0.47767E+08         0.10379E+07         0.00000E+00
    0.10379E+07        -0.49821E+08         0.00000E+00
    0.00000E+00         0.00000E+00        -0.49486E+08
 
   -0.47817E+08         0.10789E+07         0.00000E+00
    0.10789E+07        -0.49804E+08         0.00000E+00
    0.00000E+00         0.00000E+00        -0.49486E+08
 
   -0.47867E+08         0.11190E+07         0.00000E+00
    0.11190E+07        -0.49787E+08         0.00000E+00
    0.00000E+00         0.00000E+00        -0.49486E+08
 
   -0.47919E+08         0.11583E+07         0.00000E+00
    0.11583E+07        -0.49769E+08         0.00000E+00
    0.00000E+00         0.00000E+00        -0.49486E+08
 
   -0.47971E+08         0.11967E+07         0.00000E+00
    0.11967E+07        -0.49750E+08         0.00000E+00
    0.00000E+00         0.00000E+00        -0.49486E+08
 
   -0.48023E+08         0.12342E+07         0.00000E+00
    0.12342E+07        -0.49731E+08         0.00000E+00
    0.00000E+00         0.00000E+00        -0.49486E+08
 
   -0.48077E+08         0.12709E+07         0.00000E+00
    0.12709E+07        -0.49711E+08         0.00000E+00
    0.00000E+00         0.00000E+00        -0.49486E+08
 
   -0.48131E+08         0.13067E+07         0.00000E+00
    0.13067E+07        -0.49691E+08         0.00000E+00
    0.00000E+00         0.00000E+00        -0.49486E+08
 
   -0.48185E+08         0.13416E+07         0.00000E+00
    0.13416E+07        -0.49670E+08         0.00000E+00
    0.00000E+00         0.00000E+00        -0.49486E+08
 
   -0.48240E+08         0.13757E+07         0.00000E+00
    0.13757E+07        -0.49649E+08         0.00000E+00
    0.00000E+00         0.00000E+00        -0.49486E+08
 
   -0.48296E+08         0.14090E+07         0.00000E+00
    0.14090E+07        -0.49626E+08         0.00000E+00
    0.00000E+00         0.00000E+00        -0.49486E+08
 
   -0.48353E+08         0.14414E+07         0.00000E+00
    0.14414E+07        -0.49604E+08         0.00000E+00
    0.00000E+00         0.00000E+00        -0.49486E+08
 
   -0.48410E+08         0.14730E+07         0.00000E+00
    0.14730E+07        -0.49581E+08         0.00000E+00
    0.00000E+00         0.00000E+00        -0.49486E+08
 
   -0.48467E+08         0.15038E+07         0.00000E+00
    0.15038E+07        -0.49557E+08         0.00000E+00
    0.00000E+00         0.00000E+00        -0.49486E+08
 
   -0.48525E+08         0.15337E+07         0.00000E+00
    0.15337E+07        -0.49533E+08         0.00000E+00
    0.00000E+00         0.00000E+00        -0.49486E+08
 
   -0.48584E+08         0.15628E+07         0.00000E+00
    0.15628E+07        -0.49508E+08         0.00000E+00
    0.00000E+00         0.00000E+00        -0.49486E+08
 
   -0.48643E+08         0.15910E+07         0.00000E+00
    0.15910E+07        -0.49482E+08         0.00000E+00
    0.00000E+00         0.00000E+00        -0.49486E+08
 
   -0.48702E+08         0.16184E+07         0.00000E+00
    0.16184E+07        -0.49456E+08         0.00000E+00
    0.00000E+00         0.00000E+00        -0.49486E+08
 
   -0.48762E+08         0.16450E+07         0.00000E+00
    0.16450E+07        -0.49430E+08         0.00000E+00
    0.00000E+00         0.00000E+00        -0.49486E+08
 
   -0.48823E+08         0.16707E+07         0.00000E+00
    0.16707E+07        -0.49403E+08         0.00000E+00
    0.00000E+00         0.00000E+00        -0.49486E+08
 
   -0.48884E+08         0.16956E+07         0.00000E+00
    0.16956E+07        -0.49375E+08         0.00000E+00
    0.00000E+00         0.00000E+00        -0.49486E+08
 
   -0.48945E+08         0.17196E+07         0.00000E+00
    0.17196E+07        -0.49347E+08         0.00000E+00
    0.00000E+00         0.00000E+00        -0.49486E+08
 
   -0.49007E+08         0.17429E+07         0.00000E+00
    0.17429E+07        -0.49318E+08         0.00000E+00
    0.00000E+00         0.00000E+00        -0.49486E+08
 
   -0.49070E+08         0.17652E+07         0.00000E+00
    0.17652E+07        -0.49289E+08         0.00000E+00
    0.00000E+00         0.00000E+00        -0.49486E+08
 
   -0.49133E+08         0.17868E+07         0.00000E+00
    0.17868E+07        -0.49260E+08         0.00000E+00
    0.00000E+00         0.00000E+00        -0.49486E+08
 
   -0.49196E+08         0.18075E+07         0.00000E+00
    0.18075E+07        -0.49229E+08         0.00000E+00
    0.00000E+00         0.00000E+00        -0.49486E+08
 
   -0.49260E+08         0.18273E+07         0.00000E+00
    0.18273E+07        -0.49199E+08         0.00000E+00
    0.00000E+00         0.00000E+00        -0.49486E+08
 
   -0.49324E+08         0.18463E+07         0.00000E+00
    0.18463E+07        -0.49167E+08         0.00000E+00
    0.00000E+00         0.00000E+00        -0.49486E+08
 
   -0.49389E+08         0.18644E+07         0.00000E+00
    0.18644E+07        -0.49136E+08         0.00000E+00
    0.00000E+00         0.00000E+00        -0.49486E+08
 
   -0.49454E+08         0.18817E+07         0.00000E+00
    0.18817E+07        -0.49103E+08         0.00000E+00
    0.00000E+00         0.00000E+00        -0.49486E+08
 
   -0.46659E+08         0.33344E+05         0.00000E+00
    0.33344E+05        -0.50000E+08         0.00000E+00
    0.00000E+00         0.00000E+00        -0.49397E+08
 
   -0.46693E+08         0.97228E+05         0.00000E+00
    0.97228E+05        -0.49999E+08         0.00000E+00
    0.00000E+00         0.00000E+00        -0.49397E+08
 
   -0.46728E+08         0.16009E+06         0.00000E+00
    0.16009E+06        -0.49997E+08         0.00000E+00
    0.00000E+00         0.00000E+00        -0.49397E+08
 
   -0.46764E+08         0.22194E+06         0.00000E+00
    0.22194E+06        -0.49994E+08         0.00000E+00
    0.00000E+00         0.00000E+00        -0.49397E+08
 
   -0.46802E+08         0.28277E+06         0.00000E+00
    0.28277E+06        -0.49990E+08         0.00000E+00
    0.00000E+00         0.00000E+00        -0.49397E+08
 
   -0.46841E+08         0.34258E+06         0.00000E+00
    0.34258E+06        -0.49985E+08         0.00000E+00
    0.00000E+00         0.00000E+00        -0.49397E+08
 
   -0.46881E+08         0.40138E+06         0.00000E+00
    0.40138E+06        -0.49979E+08         0.00000E+00
    0.00000E+00         0.00000E+00        -0.49397E+08
 
   -0.46922E+08         0.45918E+06         0.00000E+00
    0.45918E+06        -0.49972E+08         0.00000E+00
    0.00000E+00         0.00000E+00        -0.49397E+08
 
   -0.46965E+08         0.51597E+06         0.00000E+00
    0.51597E+06        -0.49965E+08         0.00000E+00
    0.00000E+00         0.00000E+00        -0.49397E+08
 
   -0.47008E+08         0.57176E+06         0.00000E+00
    0.57176E+06        -0.49956E+08         0.00000E+00
    0.00000E+00         0.00000E+00        -0.49397E+08
 
   -0.47053E+08         0.62656E+06         0.00000E+00
    0.62656E+06        -0.49947E+08         0.00000E+00
    0.00000E+00         0.00000E+00        -0.49397E+08
 
   -0.47099E+08         0.68037E+06         0.00000E+00
    0.68037E+06        -0.49937E+08         0.00000E+00
    0.00000E+00         0.00000E+00        -0.49397E+08
 
   -0.47146E+08         0.73320E+06         0.00000E+00
    0.73320E+06        -0.49926E+08         0.00000E+00
    0.00000E+00         0.00000E+00        -0.49397E+08
 
   -0.47193E+08         0.78505E+06         0.00000E+00
    0.78505E+06        -0.49915E+08         0.00000E+00
    0.00000E+00         0.00000E+00        -0.49397E+08
 
   -0.47242E+08         0.83593E+06         0.00000E+00
    0.83593E+06        -0.49902E+08         0.00000E+00
    0.00000E+00         0.00000E+00        -0.49397E+08
 
   -0.47291E+08         0.88585E+06         0.00000E+00
    0.88585E+06        -0.49889E+08         0.00000E+00
    0.00000E+00         0.00000E+00        -0.49397E+08
 
   -0.47342E+08         0.93482E+06         0.00000E+00
    0.93482E+06        -0.49876E+08         0.00000E+00
    0.00000E+00         0.00000E+00        -0.49397E+08
 
   -0.47393E+08         0.98283E+06         0.00000E+00
    0.98283E+06        -0.49861E+08         0.00000E+00
    0.00000E+00         0.00000E+00        -0.49397E+08
 
   -0.47445E+08         0.10299E+07         0.00000E+00
    0.10299E+07        -0.49846E+08         0.00000E+00
    0.00000E+00         0.00000E+00        -0.49397E+08
 
   -0.47498E+08         0.10760E+07         0.00000E+00
    0.10760E+07        -0.49830E+08         0.00000E+00
    0.00000E+00         0.00000E+00        -0.49397E+08
 
   -0.47552E+08         0.11212E+07         0.00000E+00
    0.11212E+07        -0.49813E+08         0.00000E+00
    0.00000E+00         0.00000E+00        -0.49397E+08
 
   -0.47606E+08         0.11655E+07         0.00000E+00
    0.11655E+07        -0.49796E+08         0.00000E+00
    0.00000E+00         0.00000E+00        -0.49397E+08
 
   -0.47661E+08         0.12089E+07         0.00000E+00
    0.12089E+07        -0.49778E+08         0.00000E+00
    0.00000E+00         0.00000E+00        -0.49397E+08
 
   -0.47717E+08         0.12513E+07         0.00000E+00
    0.12513E+07        -0.49759E+08         0.00000E+00
    0.00000E+00         0.00000E+00        -0.49397E+08
 
   -0.47773E+08         0.12929E+07         0.00000E+00
    0.12929E+07        -0.49740E+08         0.00000E+00
    0.00000E+00         0.00000E+00        -0.49397E+08
 
   -0.47830E+08         0.13335E+07         0.00000E+00
    0.13335E+07        -0.49720E+08         0.00000E+00
    0.00000E+00         0.00000E+00        -0.49397E+08
 
   -0.47888E+08         0.13733E+07         0.00000E+00
    0.13733E+07        -0.49699E+08         0.00000E+00
    0.00000E+00         0.00000E+00        -0.49397E+08
 
   -0.47946E+08         0.14122E+07         0.00000E+00
    0.14122E+07        -0.49678E+08         0.00000E+00
    0.00000E+00         0.00000E+00        -0.49397E+08
 
   -0.48005E+08         0.14502E+07         0.00000E+00
    0.14502E+07        -0.49656E+08         0.00000E+00
    0.00000E+00         0.00000E+00        -0.49397E+08
 
   -0.48065E+08         0.14873E+07         0.00000E+00
    0.14873E+07        -0.49634E+08         0.00000E+00
    0.00000E+00         0.00000E+00        -0.49397E+08
 
   -0.48125E+08         0.15235E+07         0.00000E+00
    0.15235E+07        -0.49611E+08         0.00000E+00
    0.00000E+00         0.00000E+00        -0.49397E+08
 
   -0.48185E+08         0.15589E+07         0.00000E+00
    0.15589E+07        -0.49587E+08         0.00000E+00
    0.00000E+00         0.00000E+00        -0.49397E+08
 
   -0.48246E+08         0.15934E+07         0.00000E+00
    0.15934E+07        -0.49563E+08         0.00000E+00
    0.00000E+00         0.00000E+00        -0.49397E+08
 
   -0.48308E+08         0.16270E+07         0.00000E+00
    0.16270E+07        -0.49538E+08         0.00000E+00
    0.00000E+00         0.00000E+00        -0.49397E+08
 
   -0.48370E+08         0.16598E+07         0.00000E+00
    0.16598E+07        -0.49512E+08         0.00000E+00
    0.00000E+00         0.00000E+00        -0.49397E+08
 
   -0.48433E+08         0.16918E+07         0.00000E+00
    0.16918E+07        -0.49486E+08         0.00000E+00
    0.00000E+00         0.00000E+00        -0.49397E+08
 
   -0.48497E+08         0.17228E+07         0.00000E+00
    0.17228E+07        -0.49459E+08         0.00000E+00
    0.00000E+00         0.00000E+00        -0.49397E+08
 
   -0.48560E+08         0.17531E+07         0.00000E+00
    0.17531E+07        -0.49432E+08         0.00000E+00
    0.00000E+00         0.00000E+00        -0.49397E+08
 
   -0.48625E+08         0.17825E+07         0.00000E+00
    0.17825E+07        -0.49404E+08         0.00000E+00
    0.00000E+00         0.00000E+00        -0.49397E+08
 
   -0.48689E+08         0.18110E+07         0.00000E+00
    0.18110E+07        -0.49375E+08         0.00000E+00
    0.00000E+00         0.00000E+00        -0.49397E+08
 
   -0.48755E+08         0.18387E+07         0.00000E+00
    0.18387E+07        -0.49346E+08         0.00000E+00
    0.00000E+00         0.00000E+00        -0.49397E+08
 
   -0.48820E+08         0.18655E+07         0.00000E+00
    0.18655E+07        -0.49317E+08         0.00000E+00
    0.00000E+00         0.00000E+00        -0.49397E+08
 
   -0.48887E+08         0.18915E+07         0.00000E+00
    0.18915E+07        -0.49286E+08         0.00000E+00
    0.00000E+00         0.00000E+00        -0.49397E+08
 
   -0.48953E+08         0.19166E+07         0.00000E+00
    0.19166E+07        -0.49256E+08         0.00000E+00
    0.00000E+00         0.00000E+00        -0.49397E+08
 
   -0.49020E+08         0.19409E+07         0.00000E+00
    0.19409E+07        -0.49224E+08         0.00000E+00
    0.00000E+00         0.00000E+00        -0.49397E+08
 
   -0.49088E+08         0.19643E+07         0.00000E+00
    0.19643E+07        -0.49192E+08         0.00000E+00
    0.00000E+00         0.00000E+00        -0.49397E+08
 
   -0.49156E+08         0.19869E+07         0.00000E+00
    0.19869E+07        -0.49160E+08         0.00000E+00
    0.00000E+00         0.00000E+00        -0.49397E+08
 
   -0.49224E+08         0.20086E+07         0.00000E+00
    0.20086E+07        -0.49126E+08         0.00000E+00
    0.00000E+00         0.00000E+00        -0.49397E+08
 
   -0.49293E+08         0.20294E+07         0.00000E+00
    0.20294E+07        -0.49093E+08         0.00000E+00
    0.00000E+00         0.00000E+00        -0.49397E+08
 
   -0.49363E+08         0.20494E+07         0.00000E+00
    0.20494E+07        -0.49058E+08         0.00000E+00
    0.00000E+00         0.00000E+00        -0.49397E+08
 
   -0.46324E+08         0.36098E+05         0.00000E+00
    0.36098E+05        -0.50000E+08         0.00000E+00
    0.00000E+00         0.00000E+00        -0.49294E+08
 
   -0.46363E+08         0.10511E+06         0.00000E+00
    0.10511E+06        -0.49999E+08         0.00000E+00
    0.00000E+00         0.00000E+00        -0.49294E+08
 
   -0.46403E+08         0.17298E+06         0.00000E+00
    0.17298E+06        -0.49997E+08         0.00000E+00
    0.00000E+00         0.00000E+00        -0.49294E+08
 
   -0.46445E+08         0.23971E+06         0.00000E+00
    0.23971E+06        -0.49993E+08         0.00000E+00
    0.00000E+00         0.00000E+00        -0.49294E+08
 
   -0.46488E+08         0.30530E+06         0.00000E+00
    0.30530E+06        -0.49989E+08         0.00000E+00
    0.00000E+00         0.00000E+00        -0.49294E+08
 
   -0.46533E+08         0.36976E+06         0.00000E+00
    0.36976E+06        -0.49984E+08         0.00000E+00
    0.00000E+00         0.00000E+00        -0.49294E+08
 
   -0.46578E+08         0.43310E+06         0.00000E+00
    0.43310E+06        -0.49978E+08         0.00000E+00
    0.00000E+00         0.00000E+00        -0.49294E+08
 
   -0.46625E+08         0.49532E+06         0.00000E+00
    0.49532E+06        -0.49971E+08         0.00000E+00
    0.00000E+00         0.00000E+00        -0.49294E+08
 
   -0.46673E+08         0.55645E+06         0.00000E+00
    0.55645E+06        -0.49964E+08         0.00000E+00
    0.00000E+00         0.00000E+00        -0.49294E+08
 
   -0.46721E+08         0.61648E+06         0.00000E+00
    0.61648E+06        -0.49955E+08         0.00000E+00
    0.00000E+00         0.00000E+00        -0.49294E+08
 
   -0.46771E+08         0.67543E+06         0.00000E+00
    0.67543E+06        -0.49945E+08         0.00000E+00
    0.00000E+00         0.00000E+00        -0.49294E+08
 
   -0.46822E+08         0.73331E+06         0.00000E+00
    0.73331E+06        -0.49935E+08         0.00000E+00
    0.00000E+00         0.00000E+00        -0.49294E+08
 
   -0.46874E+08         0.79012E+06         0.00000E+00
    0.79012E+06        -0.49924E+08         0.00000E+00
    0.00000E+00         0.00000E+00        -0.49294E+08
 
   -0.46927E+08         0.84589E+06         0.00000E+00
    0.84589E+06        -0.49912E+08         0.00000E+00
    0.00000E+00         0.00000E+00        -0.49294E+08
 
   -0.46980E+08         0.90061E+06         0.00000E+00
    0.90061E+06        -0.49899E+08         0.00000E+00
    0.00000E+00         0.00000E+00        -0.49294E+08
 
   -0.47035E+08         0.95430E+06         0.00000E+00
    0.95430E+06        -0.49886E+08         0.00000E+00
    0.00000E+00         0.00000E+00        -0.49294E+08
 
   -0.47090E+08         0.10070E+07         0.00000E+00
    0.10070E+07        -0.49872E+08         0.00000E+00
    0.00000E+00         0.00000E+00        -0.49294E+08
 
   -0.47146E+08         0.10586E+07         0.00000E+00
    0.10586E+07        -0.49856E+08         0.00000E+00
    0.00000E+00         0.00000E+00        -0.49294E+08
 
   -0.47203E+08         0.11093E+07         0.00000E+00
    0.11093E+07        -0.49841E+08         0.00000E+00
    0.00000E+00         0.00000E+00        -0.49294E+08
 
   -0.47261E+08         0.11590E+07         0.00000E+00
    0.11590E+07        -0.49824E+08         0.00000E+00
    0.00000E+00         0.00000E+00        -0.49294E+08
 
   -0.47319E+08         0.12077E+07         0.00000E+00
    0.12077E+07        -0.49807E+08         0.00000E+00
    0.00000E+00         0.00000E+00        -0.49294E+08
 
   -0.47378E+08         0.12554E+07         0.00000E+00
    0.12554E+07        -0.49789E+08         0.00000E+00
    0.00000E+00         0.00000E+00        -0.49294E+08
 
   -0.47438E+08         0.13022E+07         0.00000E+00
    0.13022E+07        -0.49770E+08         0.00000E+00
    0.00000E+00         0.00000E+00        -0.49294E+08
 
   -0.47498E+08         0.13480E+07         0.00000E+00
    0.13480E+07        -0.49751E+08         0.00000E+00
    0.00000E+00         0.00000E+00        -0.49294E+08
 
   -0.47559E+08         0.13929E+07         0.00000E+00
    0.13929E+07        -0.49731E+08         0.00000E+00
    0.00000E+00         0.00000E+00        -0.49294E+08
 
   -0.47621E+08         0.14368E+07         0.00000E+00
    0.14368E+07        -0.49710E+08         0.00000E+00
    0.00000E+00         0.00000E+00        -0.49294E+08
 
   -0.47683E+08         0.14799E+07         0.00000E+00
    0.14799E+07        -0.49689E+08         0.00000E+00
    0.00000E+00         0.00000E+00        -0.49294E+08
 
   -0.47746E+08         0.15220E+07         0.00000E+00
    0.15220E+07        -0.49667E+08         0.00000E+00
    0.00000E+00         0.00000E+00        -0.49294E+08
 
   -0.47809E+08         0.15632E+07         0.00000E+00
    0.15632E+07        -0.49644E+08         0.00000E+00
    0.00000E+00         0.00000E+00        -0.49294E+08
 
   -0.47873E+08         0.16035E+07         0.00000E+00
    0.16035E+07        -0.49621E+08         0.00000E+00
    0.00000E+00         0.00000E+00        -0.49294E+08
 
   -0.47938E+08         0.16430E+07         0.00000E+00
    0.16430E+07        -0.49597E+08         0.00000E+00
    0.00000E+00         0.00000E+00        -0.49294E+08
 
   -0.48003E+08         0.16815E+07         0.00000E+00
    0.16815E+07        -0.49572E+08         0.00000E+00
    0.00000E+00         0.00000E+00        -0.49294E+08
 
   -0.48068E+08         0.17192E+07         0.00000E+00
    0.17192E+07        -0.49547E+08         0.00000E+00
    0.00000E+00         0.00000E+00        -0.49294E+08
 
   -0.48134E+08         0.17560E+07         0.00000E+00
    0.17560E+07        -0.49521E+08         0.00000E+00
    0.00000E+00         0.00000E+00        -0.49294E+08
 
   -0.48201E+08         0.17919E+07         0.00000E+00
    0.17919E+07        -0.49494E+08         0.00000E+00
    0.00000E+00         0.00000E+00        -0.49294E+08
 
   -0.48268E+08         0.18269E+07         0.00000E+00
    0.18269E+07        -0.49467E+08         0.00000E+00
    0.00000E+00         0.00000E+00        -0.49294E+08
 
   -0.48335E+08         0.18611E+07         0.00000E+00
    0.18611E+07        -0.49439E+08         0.00000E+00
    0.00000E+00         0.00000E+00        -0.49294E+08
 
   -0.48403E+08         0.18945E+07         0.00000E+00
    0.18945E+07        -0.49411E+08         0.00000E+00
    0.00000E+00         0.00000E+00        -0.49294E+08
 
   -0.48472E+08         0.19270E+07         0.00000E+00
    0.19270E+07        -0.49381E+08         0.00000E+00
    0.00000E+00         0.00000E+00        -0.49294E+08
 
   -0.48541E+08         0.19586E+07         0.00000E+00
    0.19586E+07        -0.49351E+08         0.00000E+00
    0.00000E+00         0.00000E+00        -0.49294E+08
 
   -0.48611E+08         0.19894E+07         0.00000E+00
    0.19894E+07        -0.49321E+08         0.00000E+00
    0.00000E+00         0.00000E+00        -0.49294E+08
 
   -0.48681E+08         0.20193E+07         0.00000E+00
    0.20193E+07        -0.49290E+08         0.00000E+00
    0.00000E+00         0.00000E+00        -0.49294E+08
 
   -0.48751E+08         0.20484E+07         0.00000E+00
    0.20484E+07        -0.49258E+08         0.00000E+00
    0.00000E+00         0.00000E+00        -0.49294E+08
 
   -0.48822E+08         0.20766E+07         0.00000E+00
    0.20766E+07        -0.49225E+08         0.00000E+00
    0.00000E+00         0.00000E+00        -0.49294E+08
 
   -0.48893E+08         0.21040E+07         0.00000E+00
    0.21040E+07        -0.49192E+08         0.00000E+00
    0.00000E+00         0.00000E+00        -0.49294E+08
 
   -0.48965E+08         0.21305E+07         0.00000E+00
    0.21305E+07        -0.49158E+08         0.00000E+00
    0.00000E+00         0.00000E+00        -0.49294E+08
 
   -0.49038E+08         0.21561E+07         0.00000E+00
    0.21561E+07        -0.49124E+08         0.00000E+00
    0.00000E+00         0.00000E+00        -0.49294E+08
 
   -0.49110E+08         0.21809E+07         0.00000E+00
    0.21809E+07        -0.49089E+08         0.00000E+00
    0.00000E+00         0.00000E+00        -0.49294E+08
 
   -0.49184E+08         0.22048E+07         0.00000E+00
    0.22048E+07        -0.49053E+08         0.00000E+00
    0.00000E+00         0.00000E+00        -0.49294E+08
 
   -0.49257E+08         0.22279E+07         0.00000E+00
    0.22279E+07        -0.49017E+08         0.00000E+00
    0.00000E+00         0.00000E+00        -0.49294E+08
 
   -0.45963E+08         0.38945E+05         0.00000E+00
    0.38945E+05        -0.50000E+08         0.00000E+00
    0.00000E+00         0.00000E+00        -0.49175E+08
 
   -0.46008E+08         0.11325E+06         0.00000E+00
    0.11325E+06        -0.49999E+08         0.00000E+00
    0.00000E+00         0.00000E+00        -0.49175E+08
 
   -0.46054E+08         0.18627E+06         0.00000E+00
    0.18627E+06        -0.49996E+08         0.00000E+00
    0.00000E+00         0.00000E+00        -0.49175E+08
 
   -0.46102E+08         0.25801E+06         0.00000E+00
    0.25801E+06        -0.49993E+08         0.00000E+00
    0.00000E+00         0.00000E+00        -0.49175E+08
 
   -0.46151E+08         0.32849E+06         0.00000E+00
    0.32849E+06        -0.49989E+08         0.00000E+00
    0.00000E+00         0.00000E+00        -0.49175E+08
 
   -0.46201E+08         0.39772E+06         0.00000E+00
    0.39772E+06        -0.49984E+08         0.00000E+00
    0.00000E+00         0.00000E+00        -0.49175E+08
 
   -0.46253E+08         0.46571E+06         0.00000E+00
    0.46571E+06        -0.49978E+08         0.00000E+00
    0.00000E+00         0.00000E+00        -0.49175E+08
 
   -0.46305E+08         0.53249E+06         0.00000E+00
    0.53249E+06        -0.49971E+08         0.00000E+00
    0.00000E+00         0.00000E+00        -0.49175E+08
 
   -0.46359E+08         0.59806E+06         0.00000E+00
    0.59806E+06        -0.49963E+08         0.00000E+00
    0.00000E+00         0.00000E+00        -0.49175E+08
 
   -0.46413E+08         0.66244E+06         0.00000E+00
    0.66244E+06        -0.49954E+08         0.00000E+00
    0.00000E+00         0.00000E+00        -0.49175E+08
 
   -0.46469E+08         0.72565E+06         0.00000E+00
    0.72565E+06        -0.49944E+08         0.00000E+00
    0.00000E+00         0.00000E+00        -0.49175E+08
 
   -0.46525E+08         0.78770E+06         0.00000E+00
    0.78770E+06        -0.49934E+08         0.00000E+00
    0.00000E+00         0.00000E+00        -0.49175E+08
 
   -0.46582E+08         0.84861E+06         0.00000E+00
    0.84861E+06        -0.49922E+08         0.00000E+00
    0.00000E+00         0.00000E+00        -0.49175E+08
 
   -0.46641E+08         0.90839E+06         0.00000E+00
    0.90839E+06        -0.49910E+08         0.00000E+00
    0.00000E+00         0.00000E+00        -0.49175E+08
 
   -0.46699E+08         0.96706E+06         0.00000E+00
    0.96706E+06        -0.49897E+08         0.00000E+00
    0.00000E+00         0.00000E+00        -0.49175E+08
 
   -0.46759E+08         0.10246E+07         0.00000E+00
    0.10246E+07        -0.49883E+08         0.00000E+00
    0.00000E+00         0.00000E+00        -0.49175E+08
 
   -0.46820E+08         0.10811E+07         0.00000E+00
    0.10811E+07        -0.49869E+08         0.00000E+00
    0.00000E+00         0.00000E+00        -0.49175E+08
 
   -0.46881E+08         0.11366E+07         0.00000E+00
    0.11366E+07        -0.49853E+08         0.00000E+00
    0.00000E+00         0.00000E+00        -0.49175E+08
 
   -0.46943E+08         0.11910E+07         0.00000E+00
    0.11910E+07        -0.49837E+08         0.00000E+00
    0.00000E+00         0.00000E+00        -0.49175E+08
 
   -0.47006E+08         0.12443E+07         0.00000E+00
    0.12443E+07        -0.49820E+08         0.00000E+00
    0.00000E+00         0.00000E+00        -0.49175E+08
 
   -0.47069E+08         0.12966E+07         0.00000E+00
    0.12966E+07        -0.49803E+08         0.00000E+00
    0.00000E+00         0.00000E+00        -0.49175E+08
 
   -0.47133E+08         0.13480E+07         0.00000E+00
    0.13480E+07        -0.49784E+08         0.00000E+00
    0.00000E+00         0.00000E+00        -0.49175E+08
 
   -0.47197E+08         0.13983E+07         0.00000E+00
    0.13983E+07        -0.49765E+08         0.00000E+00
    0.00000E+00         0.00000E+00        -0.49175E+08
 
   -0.47263E+08         0.14477E+07         0.00000E+00
    0.14477E+07        -0.49745E+08         0.00000E+00
    0.00000E+00         0.00000E+00        -0.49175E+08
 
   -0.47328E+08         0.14961E+07         0.00000E+00
    0.14961E+07        -0.49725E+08         0.00000E+00
    0.00000E+00         0.00000E+00        -0.49175E+08
 
   -0.47395E+08         0.15435E+07         0.00000E+00
    0.15435E+07        -0.49703E+08         0.00000E+00
    0.00000E+00         0.00000E+00        -0.49175E+08
 
   -0.47461E+08         0.15900E+07         0.00000E+00
    0.15900E+07        -0.49681E+08         0.00000E+00
    0.00000E+00         0.00000E+00        -0.49175E+08
 
   -0.47529E+08         0.16356E+07         0.00000E+00
    0.16356E+07        -0.49659E+08         0.00000E+00
    0.00000E+00         0.00000E+00        -0.49175E+08
 
   -0.47597E+08         0.16802E+07         0.00000E+00
    0.16802E+07        -0.49635E+08         0.00000E+00
    0.00000E+00         0.00000E+00        -0.49175E+08
 
   -0.47665E+08         0.17240E+07         0.00000E+00
    0.17240E+07        -0.49611E+08         0.00000E+00
    0.00000E+00         0.00000E+00        -0.49175E+08
 
   -0.47734E+08         0.17668E+07         0.00000E+00
    0.17668E+07        -0.49587E+08         0.00000E+00
    0.00000E+00         0.00000E+00        -0.49175E+08
 
   -0.47804E+08         0.18087E+07         0.00000E+00
    0.18087E+07        -0.49561E+08         0.00000E+00
    0.00000E+00         0.00000E+00        -0.49175E+08
 
   -0.47873E+08         0.18498E+07         0.00000E+00
    0.18498E+07        -0.49535E+08         0.00000E+00
    0.00000E+00         0.00000E+00        -0.49175E+08
 
   -0.47944E+08         0.18900E+07         0.00000E+00
    0.18900E+07        -0.49508E+08         0.00000E+00
    0.00000E+00         0.00000E+00        -0.49175E+08
 
   -0.48015E+08         0.19293E+07         0.00000E+00
    0.19293E+07        -0.49480E+08         0.00000E+00
    0.00000E+00         0.00000E+00        -0.49175E+08
 
   -0.48086E+08         0.19678E+07         0.00000E+00
    0.19678E+07        -0.49452E+08         0.00000E+00
    0.00000E+00         0.00000E+00        -0.49175E+08
 
   -0.48158E+08         0.20054E+07         0.00000E+00
    0.20054E+07        -0.49423E+08         0.00000E+00
    0.00000E+00         0.00000E+00        -0.49175E+08
 
   -0.48230E+08         0.20421E+07         0.00000E+00
    0.20421E+07        -0.49393E+08         0.00000E+00
    0.00000E+00         0.00000E+00        -0.49175E+08
 
   -0.48303E+08         0.20780E+07         0.00000E+00
    0.20780E+07        -0.49363E+08         0.00000E+00
    0.00000E+00         0.00000E+00        -0.49175E+08
 
   -0.48376E+08         0.21131E+07         0.00000E+00
    0.21131E+07        -0.49331E+08         0.00000E+00
    0.00000E+00         0.00000E+00        -0.49175E+08
 
   -0.48450E+08         0.21473E+07         0.00000E+00
    0.21473E+07        -0.49300E+08         0.00000E+00
    0.00000E+00         0.00000E+00        -0.49175E+08
 
   -0.48524E+08         0.21806E+07         0.00000E+00
    0.21806E+07        -0.49267E+08         0.00000E+00
    0.00000E+00         0.00000E+00        -0.49175E+08
 
   -0.48599E+08         0.22132E+07         0.00000E+00
    0.22132E+07        -0.49234E+08         0.00000E+00
    0.00000E+00         0.00000E+00        -0.49175E+08
 
   -0.48674E+08         0.22448E+07         0.00000E+00
    0.22448E+07        -0.49200E+08         0.00000E+00
    0.00000E+00         0.00000E+00        -0.49175E+08
 
   -0.48750E+08         0.22757E+07         0.00000E+00
    0.22757E+07        -0.49165E+08         0.00000E+00
    0.00000E+00         0.00000E+00        -0.49175E+08
 
   -0.48826E+08         0.23056E+07         0.00000E+00
    0.23056E+07        -0.49129E+08         0.00000E+00
    0.00000E+00         0.00000E+00        -0.49175E+08
 
   -0.48903E+08         0.23348E+07         0.00000E+00
    0.23348E+07        -0.49093E+08         0.00000E+00
    0.00000E+00         0.00000E+00        -0.49175E+08
 
   -0.48980E+08         0.23631E+07         0.00000E+00
    0.23631E+07        -0.49056E+08         0.00000E+00
    0.00000E+00         0.00000E+00        -0.49175E+08
 
   -0.49057E+08         0.23905E+07         0.00000E+00
    0.23905E+07        -0.49018E+08         0.00000E+00
    0.00000E+00         0.00000E+00        -0.49175E+08
 
   -0.49135E+08         0.24171E+07         0.00000E+00
    0.24171E+07        -0.48979E+08         0.00000E+00
    0.00000E+00         0.00000E+00        -0.49175E+08
 
   -0.45574E+08         0.41858E+05         0.00000E+00
    0.41858E+05        -0.50000E+08         0.00000E+00
    0.00000E+00         0.00000E+00        -0.49036E+08
 
   -0.45626E+08         0.12155E+06         0.00000E+00
    0.12155E+06        -0.49999E+08         0.00000E+00
    0.00000E+00         0.00000E+00        -0.49036E+08
 
   -0.45679E+08         0.19981E+06         0.00000E+00
    0.19981E+06        -0.49996E+08         0.00000E+00
    0.00000E+00         0.00000E+00        -0.49036E+08
 
   -0.45734E+08         0.27666E+06         0.00000E+00
    0.27666E+06        -0.49993E+08         0.00000E+00
    0.00000E+00         0.00000E+00        -0.49036E+08
 
   -0.45789E+08         0.35211E+06         0.00000E+00
    0.35211E+06        -0.49989E+08         0.00000E+00
    0.00000E+00         0.00000E+00        -0.49036E+08
 
   -0.45846E+08         0.42618E+06         0.00000E+00
    0.42618E+06        -0.49984E+08         0.00000E+00
    0.00000E+00         0.00000E+00        -0.49036E+08
 
   -0.45904E+08         0.49891E+06         0.00000E+00
    0.49891E+06        -0.49978E+08         0.00000E+00
    0.00000E+00         0.00000E+00        -0.49036E+08
 
   -0.45963E+08         0.57030E+06         0.00000E+00
    0.57030E+06        -0.49970E+08         0.00000E+00
    0.00000E+00         0.00000E+00        -0.49036E+08
 
   -0.46022E+08         0.64038E+06         0.00000E+00
    0.64038E+06        -0.49962E+08         0.00000E+00
    0.00000E+00         0.00000E+00        -0.49036E+08
 
   -0.46083E+08         0.70918E+06         0.00000E+00
    0.70918E+06        -0.49953E+08         0.00000E+00
    0.00000E+00         0.00000E+00        -0.49036E+08
 
   -0.46145E+08         0.77672E+06         0.00000E+00
    0.77672E+06        -0.49944E+08         0.00000E+00
    0.00000E+00         0.00000E+00        -0.49036E+08
 
   -0.46207E+08         0.84301E+06         0.00000E+00
    0.84301E+06        -0.49933E+08         0.00000E+00
    0.00000E+00         0.00000E+00        -0.49036E+08
 
   -0.46270E+08         0.90809E+06         0.00000E+00
    0.90809E+06        -0.49921E+08         0.00000E+00
    0.00000E+00         0.00000E+00        -0.49036E+08
 
   -0.46334E+08         0.97197E+06         0.00000E+00
    0.97197E+06        -0.49909E+08         0.00000E+00
    0.00000E+00         0.00000E+00        -0.49036E+08
 
   -0.46399E+08         0.10347E+07         0.00000E+00
    0.10347E+07        -0.49896E+08         0.00000E+00
    0.00000E+00         0.00000E+00        -0.49036E+08
 
   -0.46464E+08         0.10962E+07         0.00000E+00
    0.10962E+07        -0.49882E+08         0.00000E+00
    0.00000E+00         0.00000E+00        -0.49036E+08
 
   -0.46530E+08         0.11566E+07         0.00000E+00
    0.11566E+07        -0.49867E+08         0.00000E+00
    0.00000E+00         0.00000E+00        -0.49036E+08
 
   -0.46597E+08         0.12159E+07         0.00000E+00
    0.12159E+07        -0.49851E+08         0.00000E+00
    0.00000E+00         0.00000E+00        -0.49036E+08
 
   -0.46664E+08         0.12741E+07         0.00000E+00
    0.12741E+07        -0.49835E+08         0.00000E+00
    0.00000E+00         0.00000E+00        -0.49036E+08
 
   -0.46732E+08         0.13313E+07         0.00000E+00
    0.13313E+07        -0.49818E+08         0.00000E+00
    0.00000E+00         0.00000E+00        -0.49036E+08
 
   -0.46800E+08         0.13874E+07         0.00000E+00
    0.13874E+07        -0.49800E+08         0.00000E+00
    0.00000E+00         0.00000E+00        -0.49036E+08
 
   -0.46869E+08         0.14424E+07         0.00000E+00
    0.14424E+07        -0.49781E+08         0.00000E+00
    0.00000E+00         0.00000E+00        -0.49036E+08
 
   -0.46939E+08         0.14965E+07         0.00000E+00
    0.14965E+07        -0.49762E+08         0.00000E+00
    0.00000E+00         0.00000E+00        -0.49036E+08
 
   -0.47009E+08         0.15495E+07         0.00000E+00
    0.15495E+07        -0.49742E+08         0.00000E+00
    0.00000E+00         0.00000E+00        -0.49036E+08
 
   -0.47079E+08         0.16016E+07         0.00000E+00
    0.16016E+07        -0.49721E+08         0.00000E+00
    0.00000E+00         0.00000E+00        -0.49036E+08
 
   -0.47151E+08         0.16527E+07         0.00000E+00
    0.16527E+07        -0.49699E+08         0.00000E+00
    0.00000E+00         0.00000E+00        -0.49036E+08
 
   -0.47222E+08         0.17028E+07         0.00000E+00
    0.17028E+07        -0.49677E+08         0.00000E+00
    0.00000E+00         0.00000E+00        -0.49036E+08
 
   -0.47294E+08         0.17520E+07         0.00000E+00
    0.17520E+07        -0.49654E+08         0.00000E+00
    0.00000E+00         0.00000E+00        -0.49036E+08
 
   -0.47367E+08         0.18003E+07         0.00000E+00
    0.18003E+07        -0.49630E+08         0.00000E+00
    0.00000E+00         0.00000E+00        -0.49036E+08
 
   -0.47440E+08         0.18477E+07         0.00000E+00
    0.18477E+07        -0.49605E+08         0.00000E+00
    0.00000E+00         0.00000E+00        -0.49036E+08
 
   -0.47513E+08         0.18942E+07         0.00000E+00
    0.18942E+07        -0.49580E+08         0.00000E+00
    0.00000E+00         0.00000E+00        -0.49036E+08
 
   -0.47587E+08         0.19398E+07         0.00000E+00
    0.19398E+07        -0.49554E+08         0.00000E+00
    0.00000E+00         0.00000E+00        -0.49036E+08
 
   -0.47661E+08         0.19845E+07         0.00000E+00
    0.19845E+07        -0.49527E+08         0.00000E+00
    0.00000E+00         0.00000E+00        -0.49036E+08
 
   -0.47736E+08         0.20284E+07         0.00000E+00
    0.20284E+07        -0.49499E+08         0.00000E+00
    0.00000E+00         0.00000E+00        -0.49036E+08
 
   -0.47811E+08         0.20714E+07         0.00000E+00
    0.20714E+07        -0.49471E+08         0.00000E+00
    0.00000E+00         0.00000E+00        -0.49036E+08
 
   -0.47887E+08         0.21135E+07         0.00000E+00
    0.21135E+07        -0.49442E+08         0.00000E+00
    0.00000E+00         0.00000E+00        -0.49036E+08
 
   -0.47963E+08         0.21549E+07         0.00000E+00
    0.21549E+07        -0.49412E+08         0.00000E+00
    0.00000E+00         0.00000E+00        -0.49036E+08
 
   -0.48039E+08         0.21953E+07         0.00000E+00
    0.21953E+07        -0.49381E+08         0.00000E+00
    0.00000E+00         0.00000E+00        -0.49036E+08
 
   -0.48116E+08         0.22350E+07         0.00000E+00
    0.22350E+07        -0.49349E+08         0.00000E+00
    0.00000E+00         0.00000E+00        -0.49036E+08
 
   -0.48194E+08         0.22738E+07         0.00000E+00
    0.22738E+07        -0.49317E+08         0.00000E+00
    0.00000E+00         0.00000E+00        -0.49036E+08
 
   -0.48272E+08         0.23118E+07         0.00000E+00
    0.23118E+07        -0.49284E+08         0.00000E+00
    0.00000E+00         0.00000E+00        -0.49036E+08
 
   -0.48350E+08         0.23490E+07         0.00000E+00
    0.23490E+07        -0.49250E+08         0.00000E+00
    0.00000E+00         0.00000E+00        -0.49036E+08
 
   -0.48429E+08         0.23854E+07         0.00000E+00
    0.23854E+07        -0.49215E+08         0.00000E+00
    0.00000E+00         0.00000E+00        -0.49036E+08
 
   -0.48508E+08         0.24209E+07         0.00000E+00
    0.24209E+07        -0.49180E+08         0.00000E+00
    0.00000E+00         0.00000E+00        -0.49036E+08
 
   -0.48588E+08         0.24556E+07         0.00000E+00
    0.24556E+07        -0.49143E+08         0.00000E+00
    0.00000E+00         0.00000E+00        -0.49036E+08
 
   -0.48668E+08         0.24895E+07         0.00000E+00
    0.24895E+07        -0.49106E+08         0.00000E+00
    0.00000E+00         0.00000E+00        -0.49036E+08
 
   -0.48749E+08         0.25226E+07         0.00000E+00
    0.25226E+07        -0.49068E+08         0.00000E+00
    0.00000E+00         0.00000E+00        -0.49036E+08
 
   -0.48831E+08         0.25549E+07         0.00000E+00
    0.25549E+07        -0.49029E+08         0.00000E+00
    0.00000E+00         0.00000E+00        -0.49036E+08
 
   -0.48912E+08         0.25863E+07         0.00000E+00
    0.25863E+07        -0.48989E+08         0.00000E+00
    0.00000E+00         0.00000E+00        -0.49036E+08
 
   -0.48995E+08         0.26169E+07         0.00000E+00
    0.26169E+07        -0.48949E+08         0.00000E+00
    0.00000E+00         0.00000E+00        -0.49036E+08
 
   -0.45158E+08         0.44801E+05         0.00000E+00
    0.44801E+05        -0.50000E+08         0.00000E+00
    0.00000E+00         0.00000E+00        -0.48876E+08
 
   -0.45218E+08         0.12992E+06         0.00000E+00
    0.12992E+06        -0.49999E+08         0.00000E+00
    0.00000E+00         0.00000E+00        -0.48876E+08
 
   -0.45278E+08         0.21345E+06         0.00000E+00
    0.21345E+06        -0.49996E+08         0.00000E+00
    0.00000E+00         0.00000E+00        -0.48876E+08
 
   -0.45340E+08         0.29542E+06         0.00000E+00
    0.29542E+06        -0.49993E+08         0.00000E+00
    0.00000E+00         0.00000E+00        -0.48876E+08
 
   -0.45403E+08         0.37586E+06         0.00000E+00
    0.37586E+06        -0.49989E+08         0.00000E+00
    0.00000E+00         0.00000E+00        -0.48876E+08
 
   -0.45467E+08         0.45479E+06         0.00000E+00
    0.45479E+06        -0.49984E+08         0.00000E+00
    0.00000E+00         0.00000E+00        -0.48876E+08
 
   -0.45532E+08         0.53225E+06         0.00000E+00
    0.53225E+06        -0.49978E+08         0.00000E+00
    0.00000E+00         0.00000E+00        -0.48876E+08
 
   -0.45597E+08         0.60827E+06         0.00000E+00
    0.60827E+06        -0.49970E+08         0.00000E+00
    0.00000E+00         0.00000E+00        -0.48876E+08
 
   -0.45664E+08         0.68289E+06         0.00000E+00
    0.68289E+06        -0.49962E+08         0.00000E+00
    0.00000E+00         0.00000E+00        -0.48876E+08
 
   -0.45731E+08         0.75612E+06         0.00000E+00
    0.75612E+06        -0.49953E+08         0.00000E+00
    0.00000E+00         0.00000E+00        -0.48876E+08
 
   -0.45799E+08         0.82800E+06         0.00000E+00
    0.82800E+06        -0.49944E+08         0.00000E+00
    0.00000E+00         0.00000E+00        -0.48876E+08
 
   -0.45868E+08         0.89856E+06         0.00000E+00
    0.89856E+06        -0.49933E+08         0.00000E+00
    0.00000E+00         0.00000E+00        -0.48876E+08
 
   -0.45937E+08         0.96783E+06         0.00000E+00
    0.96783E+06        -0.49922E+08         0.00000E+00
    0.00000E+00         0.00000E+00        -0.48876E+08
 
   -0.46007E+08         0.10358E+07         0.00000E+00
    0.10358E+07        -0.49909E+08         0.00000E+00
    0.00000E+00         0.00000E+00        -0.48876E+08
 
   -0.46078E+08         0.11026E+07         0.00000E+00
    0.11026E+07        -0.49896E+08         0.00000E+00
    0.00000E+00         0.00000E+00        -0.48876E+08
 
   -0.46149E+08         0.11682E+07         0.00000E+00
    0.11682E+07        -0.49882E+08         0.00000E+00
    0.00000E+00         0.00000E+00        -0.48876E+08
 
   -0.46221E+08         0.12326E+07         0.00000E+00
    0.12326E+07        -0.49867E+08         0.00000E+00
    0.00000E+00         0.00000E+00        -0.48876E+08
 
   -0.46293E+08         0.12958E+07         0.00000E+00
    0.12958E+07        -0.49852E+08         0.00000E+00
    0.00000E+00         0.00000E+00        -0.48876E+08
 
   -0.46366E+08         0.13579E+07         0.00000E+00
    0.13579E+07        -0.49835E+08         0.00000E+00
    0.00000E+00         0.00000E+00        -0.48876E+08
 
   -0.46439E+08         0.14190E+07         0.00000E+00
    0.14190E+07        -0.49818E+08         0.00000E+00
    0.00000E+00         0.00000E+00        -0.48876E+08
 
   -0.46513E+08         0.14789E+07         0.00000E+00
    0.14789E+07        -0.49800E+08         0.00000E+00
    0.00000E+00         0.00000E+00        -0.48876E+08
 
   -0.46587E+08         0.15378E+07         0.00000E+00
    0.15378E+07        -0.49782E+08         0.00000E+00
    0.00000E+00         0.00000E+00        -0.48876E+08
 
   -0.46662E+08         0.15957E+07         0.00000E+00
    0.15957E+07        -0.49762E+08         0.00000E+00
    0.00000E+00         0.00000E+00        -0.48876E+08
 
   -0.46737E+08         0.16525E+07         0.00000E+00
    0.16525E+07        -0.49742E+08         0.00000E+00
    0.00000E+00         0.00000E+00        -0.48876E+08
 
   -0.46812E+08         0.17084E+07         0.00000E+00
    0.17084E+07        -0.49721E+08         0.00000E+00
    0.00000E+00         0.00000E+00        -0.48876E+08
 
   -0.46888E+08         0.17633E+07         0.00000E+00
    0.17633E+07        -0.49699E+08         0.00000E+00
    0.00000E+00         0.00000E+00        -0.48876E+08
 
   -0.46964E+08         0.18173E+07         0.00000E+00
    0.18173E+07        -0.49677E+08         0.00000E+00
    0.00000E+00         0.00000E+00        -0.48876E+08
 
   -0.47041E+08         0.18704E+07         0.00000E+00
    0.18704E+07        -0.49653E+08         0.00000E+00
    0.00000E+00         0.00000E+00        -0.48876E+08
 
   -0.47118E+08         0.19225E+07         0.00000E+00
    0.19225E+07        -0.49629E+08         0.00000E+00
    0.00000E+00         0.00000E+00        -0.48876E+08
 
   -0.47195E+08         0.19738E+07         0.00000E+00
    0.19738E+07        -0.49604E+08         0.00000E+00
    0.00000E+00         0.00000E+00        -0.48876E+08
 
   -0.47273E+08         0.20241E+07         0.00000E+00
    0.20241E+07        -0.49578E+08         0.00000E+00
    0.00000E+00         0.00000E+00        -0.48876E+08
 
   -0.47351E+08         0.20736E+07         0.00000E+00
    0.20736E+07        -0.49552E+08         0.00000E+00
    0.00000E+00         0.00000E+00        -0.48876E+08
 
   -0.47430E+08         0.21223E+07         0.00000E+00
    0.21223E+07        -0.49524E+08         0.00000E+00
    0.00000E+00         0.00000E+00        -0.48876E+08
 
   -0.47509E+08         0.21701E+07         0.00000E+00
    0.21701E+07        -0.49496E+08         0.00000E+00
    0.00000E+00         0.00000E+00        -0.48876E+08
 
   -0.47588E+08         0.22171E+07         0.00000E+00
    0.22171E+07        -0.49467E+08         0.00000E+00
    0.00000E+00         0.00000E+00        -0.48876E+08
 
   -0.47668E+08         0.22633E+07         0.00000E+00
    0.22633E+07        -0.49437E+08         0.00000E+00
    0.00000E+00         0.00000E+00        -0.48876E+08
 
   -0.47748E+08         0.23087E+07         0.00000E+00
    0.23087E+07        -0.49406E+08         0.00000E+00
    0.00000E+00         0.00000E+00        -0.48876E+08
 
   -0.47829E+08         0.23533E+07         0.00000E+00
    0.23533E+07        -0.49375E+08         0.00000E+00
    0.00000E+00         0.00000E+00        -0.48876E+08
 
   -0.47910E+08         0.23970E+07         0.00000E+00
    0.23970E+07        -0.49342E+08         0.00000E+00
    0.00000E+00         0.00000E+00        -0.48876E+08
 
   -0.47991E+08         0.24400E+07         0.00000E+00
    0.24400E+07        -0.49309E+08         0.00000E+00
    0.00000E+00         0.00000E+00        -0.48876E+08
 
   -0.48073E+08         0.24822E+07         0.00000E+00
    0.24822E+07        -0.49275E+08         0.00000E+00
    0.00000E+00         0.00000E+00        -0.48876E+08
 
   -0.48156E+08         0.25237E+07         0.00000E+00
    0.25237E+07        -0.49240E+08         0.00000E+00
    0.00000E+00         0.00000E+00        -0.48876E+08
 
   -0.48239E+08         0.25643E+07         0.00000E+00
    0.25643E+07        -0.49204E+08         0.00000E+00
    0.00000E+00         0.00000E+00        -0.48876E+08
 
   -0.48322E+08         0.26042E+07         0.00000E+00
    0.26042E+07        -0.49167E+08         0.00000E+00
    0.00000E+00         0.00000E+00        -0.48876E+08
 
   -0.48406E+08         0.26433E+07         0.00000E+00
    0.26433E+07        -0.49129E+08         0.00000E+00
    0.00000E+00         0.00000E+00        -0.48876E+08
 
   -0.48490E+08         0.26816E+07         0.00000E+00
    0.26816E+07        -0.49091E+08         0.00000E+00
    0.00000E+00         0.00000E+00        -0.48876E+08
 
   -0.48575E+08         0.27191E+07         0.00000E+00
    0.27191E+07        -0.49051E+08         0.00000E+00
    0.00000E+00         0.00000E+00        -0.48876E+08
 
   -0.48660E+08         0.27558E+07         0.00000E+00
    0.27558E+07        -0.49010E+08         0.00000E+00
    0.00000E+00         0.00000E+00        -0.48876E+08
 
   -0.48746E+08         0.27918E+07         0.00000E+00
    0.27918E+07        -0.48969E+08         0.00000E+00
    0.00000E+00         0.00000E+00        -0.48876E+08
 
   -0.48833E+08         0.28269E+07         0.00000E+00
    0.28269E+07        -0.48926E+08         0.00000E+00
    0.00000E+00         0.00000E+00        -0.48876E+08
 
   -0.44715E+08         0.47728E+05         0.00000E+00
    0.47728E+05        -0.50000E+08         0.00000E+00
    0.00000E+00         0.00000E+00        -0.48691E+08
 
   -0.44783E+08         0.13822E+06         0.00000E+00
    0.13822E+06        -0.49999E+08         0.00000E+00
    0.00000E+00         0.00000E+00        -0.48691E+08
 
   -0.44852E+08         0.22696E+06         0.00000E+00
    0.22696E+06        -0.49996E+08         0.00000E+00
    0.00000E+00         0.00000E+00        -0.48691E+08
 
   -0.44922E+08         0.31400E+06         0.00000E+00
    0.31400E+06        -0.49993E+08         0.00000E+00
    0.00000E+00         0.00000E+00        -0.48691E+08
 
   -0.44992E+08         0.39936E+06         0.00000E+00
    0.39936E+06        -0.49989E+08         0.00000E+00
    0.00000E+00         0.00000E+00        -0.48691E+08
 
   -0.45064E+08         0.48309E+06         0.00000E+00
    0.48309E+06        -0.49984E+08         0.00000E+00
    0.00000E+00         0.00000E+00        -0.48691E+08
 
   -0.45136E+08         0.56523E+06         0.00000E+00
    0.56523E+06        -0.49978E+08         0.00000E+00
    0.00000E+00         0.00000E+00        -0.48691E+08
 
   -0.45209E+08         0.64582E+06         0.00000E+00
    0.64582E+06        -0.49971E+08         0.00000E+00
    0.00000E+00         0.00000E+00        -0.48691E+08
 
   -0.45283E+08         0.72491E+06         0.00000E+00
    0.72491E+06        -0.49963E+08         0.00000E+00
    0.00000E+00         0.00000E+00        -0.48691E+08
 
   -0.45357E+08         0.80252E+06         0.00000E+00
    0.80252E+06        -0.49954E+08         0.00000E+00
    0.00000E+00         0.00000E+00        -0.48691E+08
 
   -0.45432E+08         0.87870E+06         0.00000E+00
    0.87870E+06        -0.49945E+08         0.00000E+00
    0.00000E+00         0.00000E+00        -0.48691E+08
 
   -0.45508E+08         0.95350E+06         0.00000E+00
    0.95350E+06        -0.49934E+08         0.00000E+00
    0.00000E+00         0.00000E+00        -0.48691E+08
 
   -0.45584E+08         0.10269E+07         0.00000E+00
    0.10269E+07        -0.49923E+08         0.00000E+00
    0.00000E+00         0.00000E+00        -0.48691E+08
 
   -0.45660E+08         0.10991E+07         0.00000E+00
    0.10991E+07        -0.49911E+08         0.00000E+00
    0.00000E+00         0.00000E+00        -0.48691E+08
 
   -0.45737E+08         0.11699E+07         0.00000E+00
    0.11699E+07        -0.49898E+08         0.00000E+00
    0.00000E+00         0.00000E+00        -0.48691E+08
 
   -0.45814E+08         0.12395E+07         0.00000E+00
    0.12395E+07        -0.49884E+08         0.00000E+00
    0.00000E+00         0.00000E+00        -0.48691E+08
 
   -0.45892E+08         0.13079E+07         0.00000E+00
    0.13079E+07        -0.49870E+08         0.00000E+00
    0.00000E+00         0.00000E+00        -0.48691E+08
 
   -0.45970E+08         0.13751E+07         0.00000E+00
    0.13751E+07        -0.49855E+08         0.00000E+00
    0.00000E+00         0.00000E+00        -0.48691E+08
 
   -0.46048E+08         0.14412E+07         0.00000E+00
    0.14412E+07        -0.49838E+08         0.00000E+00
    0.00000E+00         0.00000E+00        -0.48691E+08
 
   -0.46127E+08         0.15061E+07         0.00000E+00
    0.15061E+07        -0.49822E+08         0.00000E+00
    0.00000E+00         0.00000E+00        -0.48691E+08
 
   -0.46206E+08         0.15700E+07         0.00000E+00
    0.15700E+07        -0.49804E+08         0.00000E+00
    0.00000E+00         0.00000E+00        -0.48691E+08
 
   -0.46285E+08         0.16328E+07         0.00000E+00
    0.16328E+07        -0.49785E+08         0.00000E+00
    0.00000E+00         0.00000E+00        -0.48691E+08
 
   -0.46365E+08         0.16947E+07         0.00000E+00
    0.16947E+07        -0.49766E+08         0.00000E+00
    0.00000E+00         0.00000E+00        -0.48691E+08
 
   -0.46445E+08         0.17555E+07         0.00000E+00
    0.17555E+07        -0.49746E+08         0.00000E+00
    0.00000E+00         0.00000E+00        -0.48691E+08
 
   -0.46525E+08         0.18153E+07         0.00000E+00
    0.18153E+07        -0.49725E+08         0.00000E+00
    0.00000E+00         0.00000E+00        -0.48691E+08
 
   -0.46605E+08         0.18742E+07         0.00000E+00
    0.18742E+07        -0.49703E+08         0.00000E+00
    0.00000E+00         0.00000E+00        -0.48691E+08
 
   -0.46686E+08         0.19322E+07         0.00000E+00
    0.19322E+07        -0.49681E+08         0.00000E+00
    0.00000E+00         0.00000E+00        -0.48691E+08
 
   -0.46767E+08         0.19893E+07         0.00000E+00
    0.19893E+07        -0.49658E+08         0.00000E+00
    0.00000E+00         0.00000E+00        -0.48691E+08
 
   -0.46849E+08         0.20455E+07         0.00000E+00
    0.20455E+07        -0.49633E+08         0.00000E+00
    0.00000E+00         0.00000E+00        -0.48691E+08
 
   -0.46931E+08         0.21009E+07         0.00000E+00
    0.21009E+07        -0.49608E+08         0.00000E+00
    0.00000E+00         0.00000E+00        -0.48691E+08
 
   -0.47013E+08         0.21554E+07         0.00000E+00
    0.21554E+07        -0.49583E+08         0.00000E+00
    0.00000E+00         0.00000E+00        -0.48691E+08
 
   -0.47095E+08         0.22091E+07         0.00000E+00
    0.22091E+07        -0.49556E+08         0.00000E+00
    0.00000E+00         0.00000E+00        -0.48691E+08
 
   -0.47178E+08         0.22620E+07         0.00000E+00
    0.22620E+07        -0.49528E+08         0.00000E+00
    0.00000E+00         0.00000E+00        -0.48691E+08
 
   -0.47261E+08         0.23141E+07         0.00000E+00
    0.23141E+07        -0.49500E+08         0.00000E+00
    0.00000E+00         0.00000E+00        -0.48691E+08
 
   -0.47344E+08         0.23654E+07         0.00000E+00
    0.23654E+07        -0.49470E+08         0.00000E+00
    0.00000E+00         0.00000E+00        -0.48691E+08
 
   -0.47428E+08         0.24159E+07         0.00000E+00
    0.24159E+07        -0.49440E+08         0.00000E+00
    0.00000E+00         0.00000E+00        -0.48691E+08
 
   -0.47512E+08         0.24657E+07         0.00000E+00
    0.24657E+07        -0.49409E+08         0.00000E+00
    0.00000E+00         0.00000E+00        -0.48691E+08
 
   -0.47597E+08         0.25148E+07         0.00000E+00
    0.25148E+07        -0.49377E+08         0.00000E+00
    0.00000E+00         0.00000E+00        -0.48691E+08
 
   -0.47681E+08         0.25631E+07         0.00000E+00
    0.25631E+07        -0.49344E+08         0.00000E+00
    0.00000E+00         0.00000E+00        -0.48691E+08
 
   -0.47767E+08         0.26107E+07         0.00000E+00
    0.26107E+07        -0.49310E+08         0.00000E+00
    0.00000E+00         0.00000E+00        -0.48691E+08
 
   -0.47852E+08         0.26576E+07         0.00000E+00
    0.26576E+07        -0.49275E+08         0.00000E+00
    0.00000E+00         0.00000E+00        -0.48691E+08
 
   -0.47939E+08         0.27037E+07         0.00000E+00
    0.27037E+07        -0.49239E+08         0.00000E+00
    0.00000E+00         0.00000E+00        -0.48691E+08
 
   -0.48025E+08         0.27491E+07         0.00000E+00
    0.27491E+07        -0.49202E+08         0.00000E+00
    0.00000E+00         0.00000E+00        -0.48691E+08
 
   -0.48112E+08         0.27938E+07         0.00000E+00
    0.27938E+07        -0.49164E+08         0.00000E+00
    0.00000E+00         0.00000E+00        -0.48691E+08
 
   -0.48200E+08         0.28378E+07         0.00000E+00
    0.28378E+07        -0.49125E+08         0.00000E+00
    0.00000E+00         0.00000E+00        -0.48691E+08
 
   -0.48288E+08         0.28810E+07         0.00000E+00
    0.28810E+07        -0.49085E+08         0.00000E+00
    0.00000E+00         0.00000E+00        -0.48691E+08
 
   -0.48377E+08         0.29235E+07         0.00000E+00
    0.29235E+07        -0.49044E+08         0.00000E+00
    0.00000E+00         0.00000E+00        -0.48691E+08
 
   -0.48466E+08         0.29653E+07         0.00000E+00
    0.29653E+07        -0.49002E+08         0.00000E+00
    0.00000E+00         0.00000E+00        -0.48691E+08
 
   -0.48555E+08         0.30064E+07         0.00000E+00
    0.30064E+07        -0.48958E+08         0.00000E+00
    0.00000E+00         0.00000E+00        -0.48691E+08
 
   -0.48646E+08         0.30467E+07         0.00000E+00
    0.30467E+07        -0.48914E+08         0.00000E+00
    0.00000E+00         0.00000E+00        -0.48691E+08
 
   -0.44244E+08         0.50582E+05         0.00000E+00
    0.50582E+05        -0.50000E+08         0.00000E+00
    0.00000E+00         0.00000E+00        -0.48478E+08
 
   -0.44322E+08         0.14629E+06         0.00000E+00
    0.14629E+06        -0.49999E+08         0.00000E+00
    0.00000E+00         0.00000E+00        -0.48478E+08
 
   -0.44400E+08         0.24009E+06         0.00000E+00
    0.24009E+06        -0.49997E+08         0.00000E+00
    0.00000E+00         0.00000E+00        -0.48478E+08
 
   -0.44478E+08         0.33202E+06         0.00000E+00
    0.33202E+06        -0.49994E+08         0.00000E+00
    0.00000E+00         0.00000E+00        -0.48478E+08
 
   -0.44558E+08         0.42215E+06         0.00000E+00
    0.42215E+06        -0.49990E+08         0.00000E+00
    0.00000E+00         0.00000E+00        -0.48478E+08
 
   -0.44638E+08         0.51052E+06         0.00000E+00
    0.51052E+06        -0.49985E+08         0.00000E+00
    0.00000E+00         0.00000E+00        -0.48478E+08
 
   -0.44718E+08         0.59719E+06         0.00000E+00
    0.59719E+06        -0.49979E+08         0.00000E+00
    0.00000E+00         0.00000E+00        -0.48478E+08
 
   -0.44799E+08         0.68221E+06         0.00000E+00
    0.68221E+06        -0.49972E+08         0.00000E+00
    0.00000E+00         0.00000E+00        -0.48478E+08
 
   -0.44880E+08         0.76563E+06         0.00000E+00
    0.76563E+06        -0.49965E+08         0.00000E+00
    0.00000E+00         0.00000E+00        -0.48478E+08
 
   -0.44962E+08         0.84751E+06         0.00000E+00
    0.84751E+06        -0.49956E+08         0.00000E+00
    0.00000E+00         0.00000E+00        -0.48478E+08
 
   -0.45044E+08         0.92788E+06         0.00000E+00
    0.92788E+06        -0.49947E+08         0.00000E+00
    0.00000E+00         0.00000E+00        -0.48478E+08
 
   -0.45127E+08         0.10068E+07         0.00000E+00
    0.10068E+07        -0.49937E+08         0.00000E+00
    0.00000E+00         0.00000E+00        -0.48478E+08
 
   -0.45209E+08         0.10843E+07         0.00000E+00
    0.10843E+07        -0.49926E+08         0.00000E+00
    0.00000E+00         0.00000E+00        -0.48478E+08
 
   -0.45292E+08         0.11605E+07         0.00000E+00
    0.11605E+07        -0.49915E+08         0.00000E+00
    0.00000E+00         0.00000E+00        -0.48478E+08
 
   -0.45376E+08         0.12353E+07         0.00000E+00
    0.12353E+07        -0.49902E+08         0.00000E+00
    0.00000E+00         0.00000E+00        -0.48478E+08
 
   -0.45459E+08         0.13089E+07         0.00000E+00
    0.13089E+07        -0.49889E+08         0.00000E+00
    0.00000E+00         0.00000E+00        -0.48478E+08
 
   -0.45543E+08         0.13813E+07         0.00000E+00
    0.13813E+07        -0.49875E+08         0.00000E+00
    0.00000E+00         0.00000E+00        -0.48478E+08
 
   -0.45626E+08         0.14524E+07         0.00000E+00
    0.14524E+07        -0.49860E+08         0.00000E+00
    0.00000E+00         0.00000E+00        -0.48478E+08
 
   -0.45710E+08         0.15225E+07         0.00000E+00
    0.15225E+07        -0.49845E+08         0.00000E+00
    0.00000E+00         0.00000E+00        -0.48478E+08
 
   -0.45795E+08         0.15914E+07         0.00000E+00
    0.15914E+07        -0.49828E+08         0.00000E+00
    0.00000E+00         0.00000E+00        -0.48478E+08
 
   -0.45879E+08         0.16593E+07         0.00000E+00
    0.16593E+07        -0.49811E+08         0.00000E+00
    0.00000E+00         0.00000E+00        -0.48478E+08
 
   -0.45963E+08         0.17261E+07         0.00000E+00
    0.17261E+07        -0.49793E+08         0.00000E+00
    0.00000E+00         0.00000E+00        -0.48478E+08
 
   -0.46048E+08         0.17919E+07         0.00000E+00
    0.17919E+07        -0.49775E+08         0.00000E+00
    0.00000E+00         0.00000E+00        -0.48478E+08
 
   -0.46133E+08         0.18568E+07         0.00000E+00
    0.18568E+07        -0.49755E+08         0.00000E+00
    0.00000E+00         0.00000E+00        -0.48478E+08
 
   -0.46218E+08         0.19207E+07         0.00000E+00
    0.19207E+07        -0.49735E+08         0.00000E+00
    0.00000E+00         0.00000E+00        -0.48478E+08
 
   -0.46303E+08         0.19838E+07         0.00000E+00
    0.19838E+07        -0.49713E+08         0.00000E+00
    0.00000E+00         0.00000E+00        -0.48478E+08
 
   -0.46388E+08         0.20459E+07         0.00000E+00
    0.20459E+07        -0.49691E+08         0.00000E+00
    0.00000E+00         0.00000E+00        -0.48478E+08
 
   -0.46473E+08         0.21073E+07         0.00000E+00
    0.21073E+07        -0.49668E+08         0.00000E+00
    0.00000E+00         0.00000E+00        -0.48478E+08
 
   -0.46559E+08         0.21678E+07         0.00000E+00
    0.21678E+07        -0.49644E+08         0.00000E+00
    0.00000E+00         0.00000E+00        -0.48478E+08
 
   -0.46645E+08         0.22275E+07         0.00000E+00
    0.22275E+07        -0.49620E+08         0.00000E+00
    0.00000E+00         0.00000E+00        -0.48478E+08
 
   -0.46731E+08         0.22864E+07         0.00000E+00
    0.22864E+07        -0.49594E+08         0.00000E+00
    0.00000E+00         0.00000E+00        -0.48478E+08
 
   -0.46817E+08         0.23445E+07         0.00000E+00
    0.23445E+07        -0.49568E+08         0.00000E+00
    0.00000E+00         0.00000E+00        -0.48478E+08
 
   -0.46904E+08         0.24020E+07         0.00000E+00
    0.24020E+07        -0.49540E+08         0.00000E+00
    0.00000E+00         0.00000E+00        -0.48478E+08
 
   -0.46991E+08         0.24587E+07         0.00000E+00
    0.24587E+07        -0.49512E+08         0.00000E+00
    0.00000E+00         0.00000E+00        -0.48478E+08
 
   -0.47078E+08         0.25147E+07         0.00000E+00
    0.25147E+07        -0.49482E+08         0.00000E+00
    0.00000E+00         0.00000E+00        -0.48478E+08
 
   -0.47165E+08         0.25700E+07         0.00000E+00
    0.25700E+07        -0.49452E+08         0.00000E+00
    0.00000E+00         0.00000E+00        -0.48478E+08
 
   -0.47253E+08         0.26246E+07         0.00000E+00
    0.26246E+07        -0.49421E+08         0.00000E+00
    0.00000E+00         0.00000E+00        -0.48478E+08
 
   -0.47341E+08         0.26786E+07         0.00000E+00
    0.26786E+07        -0.49388E+08         0.00000E+00
    0.00000E+00         0.00000E+00        -0.48478E+08
 
   -0.47429E+08         0.27319E+07         0.00000E+00
    0.27319E+07        -0.49355E+08         0.00000E+00
    0.00000E+00         0.00000E+00        -0.48478E+08
 
   -0.47518E+08         0.27845E+07         0.00000E+00
    0.27845E+07        -0.49321E+08         0.00000E+00
    0.00000E+00         0.00000E+00        -0.48478E+08
 
   -0.47607E+08         0.28365E+07         0.00000E+00
    0.28365E+07        -0.49285E+08         0.00000E+00
    0.00000E+00         0.00000E+00        -0.48478E+08
 
   -0.47697E+08         0.28879E+07         0.00000E+00
    0.28879E+07        -0.49248E+08         0.00000E+00
    0.00000E+00         0.00000E+00        -0.48478E+08
 
   -0.47787E+08         0.29386E+07         0.00000E+00
    0.29386E+07        -0.49211E+08         0.00000E+00
    0.00000E+00         0.00000E+00        -0.48478E+08
 
   -0.47877E+08         0.29886E+07         0.00000E+00
    0.29886E+07        -0.49172E+08         0.00000E+00
    0.00000E+00         0.00000E+00        -0.48478E+08
 
   -0.47968E+08         0.30381E+07         0.00000E+00
    0.30381E+07        -0.49132E+08         0.00000E+00
    0.00000E+00         0.00000E+00        -0.48478E+08
 
   -0.48060E+08         0.30869E+07         0.00000E+00
    0.30869E+07        -0.49091E+08         0.00000E+00
    0.00000E+00         0.00000E+00        -0.48478E+08
 
   -0.48152E+08         0.31350E+07         0.00000E+00
    0.31350E+07        -0.49048E+08         0.00000E+00
    0.00000E+00         0.00000E+00        -0.48478E+08
 
   -0.48244E+08         0.31825E+07         0.00000E+00
    0.31825E+07        -0.49005E+08         0.00000E+00
    0.00000E+00         0.00000E+00        -0.48478E+08
 
   -0.48338E+08         0.32294E+07         0.00000E+00
    0.32294E+07        -0.48960E+08         0.00000E+00
    0.00000E+00         0.00000E+00        -0.48478E+08
 
   -0.48431E+08         0.32755E+07         0.00000E+00
    0.32755E+07        -0.48914E+08         0.00000E+00
    0.00000E+00         0.00000E+00        -0.48478E+08
 
   -0.43748E+08         0.53295E+05         0.00000E+00
    0.53295E+05        -0.50000E+08         0.00000E+00
    0.00000E+00         0.00000E+00        -0.48234E+08
 
   -0.43835E+08         0.15393E+06         0.00000E+00
    0.15393E+06        -0.49999E+08         0.00000E+00
    0.00000E+00         0.00000E+00        -0.48234E+08
 
   -0.43923E+08         0.25250E+06         0.00000E+00
    0.25250E+06        -0.49997E+08         0.00000E+00
    0.00000E+00         0.00000E+00        -0.48234E+08
 
   -0.44012E+08         0.34905E+06         0.00000E+00
    0.34905E+06        -0.49994E+08         0.00000E+00
    0.00000E+00         0.00000E+00        -0.48234E+08
 
   -0.44100E+08         0.44367E+06         0.00000E+00
    0.44367E+06        -0.49990E+08         0.00000E+00
    0.00000E+00         0.00000E+00        -0.48234E+08
 
   -0.44189E+08         0.53642E+06         0.00000E+00
    0.53642E+06        -0.49986E+08         0.00000E+00
    0.00000E+00         0.00000E+00        -0.48234E+08
 
   -0.44278E+08         0.62737E+06         0.00000E+00
    0.62737E+06        -0.49980E+08         0.00000E+00
    0.00000E+00         0.00000E+00        -0.48234E+08
 
   -0.44367E+08         0.71657E+06         0.00000E+00
    0.71657E+06        -0.49974E+08         0.00000E+00
    0.00000E+00         0.00000E+00        -0.48234E+08
 
   -0.44457E+08         0.80409E+06         0.00000E+00
    0.80409E+06        -0.49967E+08         0.00000E+00
    0.00000E+00         0.00000E+00        -0.48234E+08
 
   -0.44546E+08         0.89001E+06         0.00000E+00
    0.89001E+06        -0.49959E+08         0.00000E+00
    0.00000E+00         0.00000E+00        -0.48234E+08
 
   -0.44636E+08         0.97436E+06         0.00000E+00
    0.97436E+06        -0.49951E+08         0.00000E+00
    0.00000E+00         0.00000E+00        -0.48234E+08
 
   -0.44726E+08         0.10572E+07         0.00000E+00
    0.10572E+07        -0.49942E+08         0.00000E+00
    0.00000E+00         0.00000E+00        -0.48234E+08
 
   -0.44815E+08         0.11387E+07         0.00000E+00
    0.11387E+07        -0.49931E+08         0.00000E+00
    0.00000E+00         0.00000E+00        -0.48234E+08
 
   -0.44905E+08         0.12187E+07         0.00000E+00
    0.12187E+07        -0.49921E+08         0.00000E+00
    0.00000E+00         0.00000E+00        -0.48234E+08
 
   -0.44995E+08         0.12974E+07         0.00000E+00
    0.12974E+07        -0.49909E+08         0.00000E+00
    0.00000E+00         0.00000E+00        -0.48234E+08
 
   -0.45084E+08         0.13749E+07         0.00000E+00
    0.13749E+07        -0.49897E+08         0.00000E+00
    0.00000E+00         0.00000E+00        -0.48234E+08
 
   -0.45174E+08         0.14511E+07         0.00000E+00
    0.14511E+07        -0.49884E+08         0.00000E+00
    0.00000E+00         0.00000E+00        -0.48234E+08
 
   -0.45263E+08         0.15262E+07         0.00000E+00
    0.15262E+07        -0.49870E+08         0.00000E+00
    0.00000E+00         0.00000E+00        -0.48234E+08
 
   -0.45353E+08         0.16002E+07         0.00000E+00
    0.16002E+07        -0.49855E+08         0.00000E+00
    0.00000E+00         0.00000E+00        -0.48234E+08
 
   -0.45442E+08         0.16730E+07         0.00000E+00
    0.16730E+07        -0.49840E+08         0.00000E+00
    0.00000E+00         0.00000E+00        -0.48234E+08
 
   -0.45532E+08         0.17449E+07         0.00000E+00
    0.17449E+07        -0.49823E+08         0.00000E+00
    0.00000E+00         0.00000E+00        -0.48234E+08
 
   -0.45621E+08         0.18158E+07         0.00000E+00
    0.18158E+07        -0.49806E+08         0.00000E+00
    0.00000E+00         0.00000E+00        -0.48234E+08
 
   -0.45711E+08         0.18857E+07         0.00000E+00
    0.18857E+07        -0.49788E+08         0.00000E+00
    0.00000E+00         0.00000E+00        -0.48234E+08
 
   -0.45800E+08         0.19547E+07         0.00000E+00
    0.19547E+07        -0.49770E+08         0.00000E+00
    0.00000E+00         0.00000E+00        -0.48234E+08
 
   -0.45889E+08         0.20229E+07         0.00000E+00
    0.20229E+07        -0.49750E+08         0.00000E+00
    0.00000E+00         0.00000E+00        -0.48234E+08
 
   -0.45979E+08         0.20902E+07         0.00000E+00
    0.20902E+07        -0.49730E+08         0.00000E+00
    0.00000E+00         0.00000E+00        -0.48234E+08
 
   -0.46068E+08         0.21567E+07         0.00000E+00
    0.21567E+07        -0.49709E+08         0.00000E+00
    0.00000E+00         0.00000E+00        -0.48234E+08
 
   -0.46158E+08         0.22224E+07         0.00000E+00
    0.22224E+07        -0.49686E+08         0.00000E+00
    0.00000E+00         0.00000E+00        -0.48234E+08
 
   -0.46247E+08         0.22874E+07         0.00000E+00
    0.22874E+07        -0.49663E+08         0.00000E+00
    0.00000E+00         0.00000E+00        -0.48234E+08
 
   -0.46337E+08         0.23517E+07         0.00000E+00
    0.23517E+07        -0.49639E+08         0.00000E+00
    0.00000E+00         0.00000E+00        -0.48234E+08
 
   -0.46426E+08         0.24153E+07         0.00000E+00
    0.24153E+07        -0.49614E+08         0.00000E+00
    0.00000E+00         0.00000E+00        -0.48234E+08
 
   -0.46516E+08         0.24783E+07         0.00000E+00
    0.24783E+07        -0.49588E+08         0.00000E+00
    0.00000E+00         0.00000E+00        -0.48234E+08
 
   -0.46606E+08         0.25405E+07         0.00000E+00
    0.25405E+07        -0.49561E+08         0.00000E+00
    0.00000E+00         0.00000E+00        -0.48234E+08
 
   -0.46696E+08         0.26022E+07         0.00000E+00
    0.26022E+07        -0.49534E+08         0.00000E+00
    0.00000E+00         0.00000E+00        -0.48234E+08
 
   -0.46787E+08         0.26633E+07         0.00000E+00
    0.26633E+07        -0.49505E+08         0.00000E+00
    0.00000E+00         0.00000E+00        -0.48234E+08
 
   -0.46877E+08         0.27237E+07         0.00000E+00
    0.27237E+07        -0.49475E+08         0.00000E+00
    0.00000E+00         0.00000E+00        -0.48234E+08
 
   -0.46968E+08         0.27836E+07         0.00000E+00
    0.27836E+07        -0.49443E+08         0.00000E+00
    0.00000E+00         0.00000E+00        -0.48234E+08
 
   -0.47059E+08         0.28429E+07         0.00000E+00
    0.28429E+07        -0.49411E+08         0.00000E+00
    0.00000E+00         0.00000E+00        -0.48234E+08
 
   -0.47150E+08         0.29017E+07         0.00000E+00
    0.29017E+07        -0.49378E+08         0.00000E+00
    0.00000E+00         0.00000E+00        -0.48234E+08
 
   -0.47242E+08         0.29599E+07         0.00000E+00
    0.29599E+07        -0.49343E+08         0.00000E+00
    0.00000E+00         0.00000E+00        -0.48234E+08
 
   -0.47334E+08         0.30176E+07         0.00000E+00
    0.30176E+07        -0.49308E+08         0.00000E+00
    0.00000E+00         0.00000E+00        -0.48234E+08
 
   -0.47427E+08         0.30747E+07         0.00000E+00
    0.30747E+07        -0.49271E+08         0.00000E+00
    0.00000E+00         0.00000E+00        -0.48234E+08
 
   -0.47520E+08         0.31313E+07         0.00000E+00
    0.31313E+07        -0.49232E+08         0.00000E+00
    0.00000E+00         0.00000E+00        -0.48234E+08
 
   -0.47613E+08         0.31873E+07         0.00000E+00
    0.31873E+07        -0.49193E+08         0.00000E+00
    0.00000E+00         0.00000E+00        -0.48234E+08
 
   -0.47707E+08         0.32429E+07         0.00000E+00
    0.32429E+07        -0.49152E+08         0.00000E+00
    0.00000E+00         0.00000E+00        -0.48234E+08
 
   -0.47802E+08         0.32979E+07         0.00000E+00
    0.32979E+07        -0.49110E+08         0.00000E+00
    0.00000E+00         0.00000E+00        -0.48234E+08
 
   -0.47897E+08         0.33523E+07         0.00000E+00
    0.33523E+07        -0.49067E+08         0.00000E+00
    0.00000E+00         0.00000E+00        -0.48234E+08
 
   -0.47992E+08         0.34062E+07         0.00000E+00
    0.34062E+07        -0.49023E+08         0.00000E+00
    0.00000E+00         0.00000E+00        -0.48234E+08
 
   -0.48089E+08         0.34596E+07         0.00000E+00
    0.34596E+07        -0.48977E+08         0.00000E+00
    0.00000E+00         0.00000E+00        -0.48234E+08
 
   -0.48186E+08         0.35123E+07         0.00000E+00
    0.35123E+07        -0.48929E+08         0.00000E+00
    0.00000E+00         0.00000E+00        -0.48234E+08
 
   -0.43228E+08         0.55780E+05         0.00000E+00
    0.55780E+05        -0.50000E+08         0.00000E+00
    0.00000E+00         0.00000E+00        -0.47954E+08
 
   -0.43326E+08         0.16090E+06         0.00000E+00
    0.16090E+06        -0.49999E+08         0.00000E+00
    0.00000E+00         0.00000E+00        -0.47954E+08
 
   -0.43424E+08         0.26380E+06         0.00000E+00
    0.26380E+06        -0.49997E+08         0.00000E+00
    0.00000E+00         0.00000E+00        -0.47954E+08
 
   -0.43523E+08         0.36456E+06         0.00000E+00
    0.36456E+06        -0.49995E+08         0.00000E+00
    0.00000E+00         0.00000E+00        -0.47954E+08
 
   -0.43621E+08         0.46326E+06         0.00000E+00
    0.46326E+06        -0.49991E+08         0.00000E+00
    0.00000E+00         0.00000E+00        -0.47954E+08
 
   -0.43720E+08         0.55999E+06         0.00000E+00
    0.55999E+06        -0.49987E+08         0.00000E+00
    0.00000E+00         0.00000E+00        -0.47954E+08
 
   -0.43818E+08         0.65482E+06         0.00000E+00
    0.65482E+06        -0.49983E+08         0.00000E+00
    0.00000E+00         0.00000E+00        -0.47954E+08
 
   -0.43916E+08         0.74784E+06         0.00000E+00
    0.74784E+06        -0.49977E+08         0.00000E+00
    0.00000E+00         0.00000E+00        -0.47954E+08
 
   -0.44014E+08         0.83913E+06         0.00000E+00
    0.83913E+06        -0.49971E+08         0.00000E+00
    0.00000E+00         0.00000E+00        -0.47954E+08
 
   -0.44111E+08         0.92875E+06         0.00000E+00
    0.92875E+06        -0.49964E+08         0.00000E+00
    0.00000E+00         0.00000E+00        -0.47954E+08
 
   -0.44208E+08         0.10168E+07         0.00000E+00
    0.10168E+07        -0.49956E+08         0.00000E+00
    0.00000E+00         0.00000E+00        -0.47954E+08
 
   -0.44305E+08         0.11033E+07         0.00000E+00
    0.11033E+07        -0.49948E+08         0.00000E+00
    0.00000E+00         0.00000E+00        -0.47954E+08
 
   -0.44402E+08         0.11884E+07         0.00000E+00
    0.11884E+07        -0.49939E+08         0.00000E+00
    0.00000E+00         0.00000E+00        -0.47954E+08
 
   -0.44499E+08         0.12721E+07         0.00000E+00
    0.12721E+07        -0.49929E+08         0.00000E+00
    0.00000E+00         0.00000E+00        -0.47954E+08
 
   -0.44595E+08         0.13545E+07         0.00000E+00
    0.13545E+07        -0.49919E+08         0.00000E+00
    0.00000E+00         0.00000E+00        -0.47954E+08
 
   -0.44690E+08         0.14357E+07         0.00000E+00
    0.14357E+07        -0.49908E+08         0.00000E+00
    0.00000E+00         0.00000E+00        -0.47954E+08
 
   -0.44786E+08         0.15157E+07         0.00000E+00
    0.15157E+07        -0.49896E+08         0.00000E+00
    0.00000E+00         0.00000E+00        -0.47954E+08
 
   -0.44881E+08         0.15945E+07         0.00000E+00
    0.15945E+07        -0.49883E+08         0.00000E+00
    0.00000E+00         0.00000E+00        -0.47954E+08
 
   -0.44976E+08         0.16723E+07         0.00000E+00
    0.16723E+07        -0.49870E+08         0.00000E+00
    0.00000E+00         0.00000E+00        -0.47954E+08
 
   -0.45071E+08         0.17491E+07         0.00000E+00
    0.17491E+07        -0.49856E+08         0.00000E+00
    0.00000E+00         0.00000E+00        -0.47954E+08
 
   -0.45165E+08         0.18249E+07         0.00000E+00
    0.18249E+07        -0.49841E+08         0.00000E+00
    0.00000E+00         0.00000E+00        -0.47954E+08
 
   -0.45259E+08         0.18998E+07         0.00000E+00
    0.18998E+07        -0.49825E+08         0.00000E+00
    0.00000E+00         0.00000E+00        -0.47954E+08
 
   -0.45353E+08         0.19738E+07         0.00000E+00
    0.19738E+07        -0.49809E+08         0.00000E+00
    0.00000E+00         0.00000E+00        -0.47954E+08
 
   -0.45446E+08         0.20471E+07         0.00000E+00
    0.20471E+07        -0.49791E+08         0.00000E+00
    0.00000E+00         0.00000E+00        -0.47954E+08
 
   -0.45540E+08         0.21195E+07         0.00000E+00
    0.21195E+07        -0.49773E+08         0.00000E+00
    0.00000E+00         0.00000E+00        -0.47954E+08
 
   -0.45633E+08         0.21912E+07         0.00000E+00
    0.21912E+07        -0.49754E+08         0.00000E+00
    0.00000E+00         0.00000E+00        -0.47954E+08
 
   -0.45726E+08         0.22623E+07         0.00000E+00
    0.22623E+07        -0.49734E+08         0.00000E+00
    0.00000E+00         0.00000E+00        -0.47954E+08
 
   -0.45819E+08         0.23326E+07         0.00000E+00
    0.23326E+07        -0.49713E+08         0.00000E+00
    0.00000E+00         0.00000E+00        -0.47954E+08
 
   -0.45912E+08         0.24023E+07         0.00000E+00
    0.24023E+07        -0.49691E+08         0.00000E+00
    0.00000E+00         0.00000E+00        -0.47954E+08
 
   -0.46005E+08         0.24715E+07         0.00000E+00
    0.24715E+07        -0.49668E+08         0.00000E+00
    0.00000E+00         0.00000E+00        -0.47954E+08
 
   -0.46097E+08         0.25400E+07         0.00000E+00
    0.25400E+07        -0.49645E+08         0.00000E+00
    0.00000E+00         0.00000E+00        -0.47954E+08
 
   -0.46190E+08         0.26080E+07         0.00000E+00
    0.26080E+07        -0.49620E+08         0.00000E+00
    0.00000E+00         0.00000E+00        -0.47954E+08
 
   -0.46283E+08         0.26755E+07         0.00000E+00
    0.26755E+07        -0.49594E+08         0.00000E+00
    0.00000E+00         0.00000E+00        -0.47954E+08
 
   -0.46376E+08         0.27425E+07         0.00000E+00
    0.27425E+07        -0.49567E+08         0.00000E+00
    0.00000E+00         0.00000E+00        -0.47954E+08
 
   -0.46469E+08         0.28091E+07         0.00000E+00
    0.28091E+07        -0.49539E+08         0.00000E+00
    0.00000E+00         0.00000E+00        -0.47954E+08
 
   -0.46562E+08         0.28751E+07         0.00000E+00
    0.28751E+07        -0.49509E+08         0.00000E+00
    0.00000E+00         0.00000E+00        -0.47954E+08
 
   -0.46655E+08         0.29407E+07         0.00000E+00
    0.29407E+07        -0.49479E+08         0.00000E+00
    0.00000E+00         0.00000E+00        -0.47954E+08
 
   -0.46749E+08         0.30059E+07         0.00000E+00
    0.30059E+07        -0.49447E+08         0.00000E+00
    0.00000E+00         0.00000E+00        -0.47954E+08
 
   -0.46843E+08         0.30706E+07         0.00000E+00
    0.30706E+07        -0.49414E+08         0.00000E+00
    0.00000E+00         0.00000E+00        -0.47954E+08
 
   -0.46937E+08         0.31350E+07         0.00000E+00
    0.31350E+07        -0.49380E+08         0.00000E+00
    0.00000E+00         0.00000E+00        -0.47954E+08
 
   -0.47032E+08         0.31989E+07         0.00000E+00
    0.31989E+07        -0.49344E+08         0.00000E+00
    0.00000E+00         0.00000E+00        -0.47954E+08
 
   -0.47126E+08         0.32624E+07         0.00000E+00
    0.32624E+07        -0.49308E+08         0.00000E+00
    0.00000E+00         0.00000E+00        -0.47954E+08
 
   -0.47222E+08         0.33255E+07         0.00000E+00
    0.33255E+07        -0.49269E+08         0.00000E+00
    0.00000E+00         0.00000E+00        -0.47954E+08
 
   -0.47317E+08         0.33882E+07         0.00000E+00
    0.33882E+07        -0.49230E+08         0.00000E+00
    0.00000E+00         0.00000E+00        -0.47954E+08
 
   -0.47414E+08         0.34505E+07         0.00000E+00
    0.34505E+07        -0.49189E+08         0.00000E+00
    0.00000E+00         0.00000E+00        -0.47954E+08
 
   -0.47511E+08         0.35124E+07         0.00000E+00
    0.35124E+07        -0.49146E+08         0.00000E+00
    0.00000E+00         0.00000E+00        -0.47954E+08
 
   -0.47608E+08         0.35739E+07         0.00000E+00
    0.35739E+07        -0.49103E+08         0.00000E+00
    0.00000E+00         0.00000E+00        -0.47954E+08
 
   -0.47706E+08         0.36350E+07         0.00000E+00
    0.36350E+07        -0.49057E+08         0.00000E+00
    0.00000E+00         0.00000E+00        -0.47954E+08
 
   -0.47805E+08         0.36957E+07         0.00000E+00
    0.36957E+07        -0.49010E+08         0.00000E+00
    0.00000E+00         0.00000E+00        -0.47954E+08
 
   -0.47904E+08         0.37559E+07         0.00000E+00
    0.37559E+07        -0.48962E+08         0.00000E+00
    0.00000E+00         0.00000E+00        -0.47954E+08
 
   -0.42686E+08         0.57938E+05         0.00000E+00
    0.57938E+05        -0.50000E+08         0.00000E+00
    0.00000E+00         0.00000E+00        -0.47634E+08
 
   -0.42796E+08         0.16692E+06         0.00000E+00
    0.16692E+06        -0.49999E+08         0.00000E+00
    0.00000E+00         0.00000E+00        -0.47634E+08
 
   -0.42906E+08         0.27355E+06         0.00000E+00
    0.27355E+06        -0.49998E+08         0.00000E+00
    0.00000E+00         0.00000E+00        -0.47634E+08
 
   -0.43015E+08         0.37791E+06         0.00000E+00
    0.37791E+06        -0.49996E+08         0.00000E+00
    0.00000E+00         0.00000E+00        -0.47634E+08
 
   -0.43124E+08         0.48012E+06         0.00000E+00
    0.48012E+06        -0.49993E+08         0.00000E+00
    0.00000E+00         0.00000E+00        -0.47634E+08
 
   -0.43232E+08         0.58027E+06         0.00000E+00
    0.58027E+06        -0.49990E+08         0.00000E+00
    0.00000E+00         0.00000E+00        -0.47634E+08
 
   -0.43339E+08         0.67846E+06         0.00000E+00
    0.67846E+06        -0.49986E+08         0.00000E+00
    0.00000E+00         0.00000E+00        -0.47634E+08
 
   -0.43446E+08         0.77480E+06         0.00000E+00
    0.77480E+06        -0.49981E+08         0.00000E+00
    0.00000E+00         0.00000E+00        -0.47634E+08
 
   -0.43553E+08         0.86937E+06         0.00000E+00
    0.86937E+06        -0.49976E+08         0.00000E+00
    0.00000E+00         0.00000E+00        -0.47634E+08
 
   -0.43658E+08         0.96226E+06         0.00000E+00
    0.96226E+06        -0.49970E+08         0.00000E+00
    0.00000E+00         0.00000E+00        -0.47634E+08
 
   -0.43763E+08         0.10536E+07         0.00000E+00
    0.10536E+07        -0.49964E+08         0.00000E+00
    0.00000E+00         0.00000E+00        -0.47634E+08
 
   -0.43868E+08         0.11434E+07         0.00000E+00
    0.11434E+07        -0.49957E+08         0.00000E+00
    0.00000E+00         0.00000E+00        -0.47634E+08
 
   -0.43971E+08         0.12317E+07         0.00000E+00
    0.12317E+07        -0.49949E+08         0.00000E+00
    0.00000E+00         0.00000E+00        -0.47634E+08
 
   -0.44075E+08         0.13188E+07         0.00000E+00
    0.13188E+07        -0.49941E+08         0.00000E+00
    0.00000E+00         0.00000E+00        -0.47634E+08
 
   -0.44177E+08         0.14046E+07         0.00000E+00
    0.14046E+07        -0.49932E+08         0.00000E+00
    0.00000E+00         0.00000E+00        -0.47634E+08
 
   -0.44279E+08         0.14892E+07         0.00000E+00
    0.14892E+07        -0.49923E+08         0.00000E+00
    0.00000E+00         0.00000E+00        -0.47634E+08
 
   -0.44380E+08         0.15727E+07         0.00000E+00
    0.15727E+07        -0.49912E+08         0.00000E+00
    0.00000E+00         0.00000E+00        -0.47634E+08
 
   -0.44480E+08         0.16551E+07         0.00000E+00
    0.16551E+07        -0.49902E+08         0.00000E+00
    0.00000E+00         0.00000E+00        -0.47634E+08
 
   -0.44580E+08         0.17366E+07         0.00000E+00
    0.17366E+07        -0.49890E+08         0.00000E+00
    0.00000E+00         0.00000E+00        -0.47634E+08
 
   -0.44679E+08         0.18172E+07         0.00000E+00
    0.18172E+07        -0.49878E+08         0.00000E+00
    0.00000E+00         0.00000E+00        -0.47634E+08
 
   -0.44778E+08         0.18969E+07         0.00000E+00
    0.18969E+07        -0.49865E+08         0.00000E+00
    0.00000E+00         0.00000E+00        -0.47634E+08
 
   -0.44876E+08         0.19758E+07         0.00000E+00
    0.19758E+07        -0.49851E+08         0.00000E+00
    0.00000E+00         0.00000E+00        -0.47634E+08
 
   -0.44974E+08         0.20539E+07         0.00000E+00
    0.20539E+07        -0.49836E+08         0.00000E+00
    0.00000E+00         0.00000E+00        -0.47634E+08
 
   -0.45071E+08         0.21314E+07         0.00000E+00
    0.21314E+07        -0.49821E+08         0.00000E+00
    0.00000E+00         0.00000E+00        -0.47634E+08
 
   -0.45168E+08         0.22082E+07         0.00000E+00
    0.22082E+07        -0.49805E+08         0.00000E+00
    0.00000E+00         0.00000E+00        -0.47634E+08
 
   -0.45265E+08         0.22845E+07         0.00000E+00
    0.22845E+07        -0.49787E+08         0.00000E+00
    0.00000E+00         0.00000E+00        -0.47634E+08
 
   -0.45361E+08         0.23601E+07         0.00000E+00
    0.23601E+07        -0.49769E+08         0.00000E+00
    0.00000E+00         0.00000E+00        -0.47634E+08
 
   -0.45456E+08         0.24353E+07         0.00000E+00
    0.24353E+07        -0.49750E+08         0.00000E+00
    0.00000E+00         0.00000E+00        -0.47634E+08
 
   -0.45552E+08         0.25100E+07         0.00000E+00
    0.25100E+07        -0.49730E+08         0.00000E+00
    0.00000E+00         0.00000E+00        -0.47634E+08
 
   -0.45647E+08         0.25842E+07         0.00000E+00
    0.25842E+07        -0.49709E+08         0.00000E+00
    0.00000E+00         0.00000E+00        -0.47634E+08
 
   -0.45743E+08         0.26580E+07         0.00000E+00
    0.26580E+07        -0.49687E+08         0.00000E+00
    0.00000E+00         0.00000E+00        -0.47634E+08
 
   -0.45838E+08         0.27315E+07         0.00000E+00
    0.27315E+07        -0.49663E+08         0.00000E+00
    0.00000E+00         0.00000E+00        -0.47634E+08
 
   -0.45933E+08         0.28045E+07         0.00000E+00
    0.28045E+07        -0.49639E+08         0.00000E+00
    0.00000E+00         0.00000E+00        -0.47634E+08
 
   -0.46028E+08         0.28773E+07         0.00000E+00
    0.28773E+07        -0.49613E+08         0.00000E+00
    0.00000E+00         0.00000E+00        -0.47634E+08
 
   -0.46123E+08         0.29497E+07         0.00000E+00
    0.29497E+07        -0.49586E+08         0.00000E+00
    0.00000E+00         0.00000E+00        -0.47634E+08
 
   -0.46218E+08         0.30218E+07         0.00000E+00
    0.30218E+07        -0.49558E+08         0.00000E+00
    0.00000E+00         0.00000E+00        -0.47634E+08
 
   -0.46313E+08         0.30936E+07         0.00000E+00
    0.30936E+07        -0.49529E+08         0.00000E+00
    0.00000E+00         0.00000E+00        -0.47634E+08
 
   -0.46408E+08         0.31652E+07         0.00000E+00
    0.31652E+07        -0.49498E+08         0.00000E+00
    0.00000E+00         0.00000E+00        -0.47634E+08
 
   -0.46504E+08         0.32365E+07         0.00000E+00
    0.32365E+07        -0.49466E+08         0.00000E+00
    0.00000E+00         0.00000E+00        -0.47634E+08
 
   -0.46599E+08         0.33075E+07         0.00000E+00
    0.33075E+07        -0.49433E+08         0.00000E+00
    0.00000E+00         0.00000E+00        -0.47634E+08
 
   -0.46695E+08         0.33783E+07         0.00000E+00
    0.33783E+07        -0.49398E+08         0.00000E+00
    0.00000E+00         0.00000E+00        -0.47634E+08
 
   -0.46792E+08         0.34489E+07         0.00000E+00
    0.34489E+07        -0.49362E+08         0.00000E+00
    0.00000E+00         0.00000E+00        -0.47634E+08
 
   -0.46889E+08         0.35192E+07         0.00000E+00
    0.35192E+07        -0.49324E+08         0.00000E+00
    0.00000E+00         0.00000E+00        -0.47634E+08
 
   -0.46986E+08         0.35893E+07         0.00000E+00
    0.35893E+07        -0.49285E+08         0.00000E+00
    0.00000E+00         0.00000E+00        -0.47634E+08
 
   -0.47084E+08         0.36592E+07         0.00000E+00
    0.36592E+07        -0.49244E+08         0.00000E+00
    0.00000E+00         0.00000E+00        -0.47634E+08
 
   -0.47183E+08         0.37288E+07         0.00000E+00
    0.37288E+07        -0.49201E+08         0.00000E+00
    0.00000E+00         0.00000E+00        -0.47634E+08
 
   -0.47282E+08         0.37981E+07         0.00000E+00
    0.37981E+07        -0.49157E+08         0.00000E+00
    0.00000E+00         0.00000E+00        -0.47634E+08
 
   -0.47382E+08         0.38672E+07         0.00000E+00
    0.38672E+07        -0.49111E+08         0.00000E+00
    0.00000E+00         0.00000E+00        -0.47634E+08
 
   -0.47482E+08         0.39360E+07         0.00000E+00
    0.39360E+07        -0.49064E+08         0.00000E+00
    0.00000E+00         0.00000E+00        -0.47634E+08
 
   -0.47583E+08         0.40046E+07         0.00000E+00
    0.40046E+07        -0.49015E+08         0.00000E+00
    0.00000E+00         0.00000E+00        -0.47634E+08
 
   -0.42127E+08         0.59648E+05         0.00000E+00
    0.59648E+05        -0.50000E+08         0.00000E+00
    0.00000E+00         0.00000E+00        -0.47270E+08
 
   -0.42249E+08         0.17166E+06         0.00000E+00
    0.17166E+06        -0.49999E+08         0.00000E+00
    0.00000E+00         0.00000E+00        -0.47270E+08
 
   -0.42371E+08         0.28119E+06         0.00000E+00
    0.28119E+06        -0.49998E+08         0.00000E+00
    0.00000E+00         0.00000E+00        -0.47270E+08
 
   -0.42491E+08         0.38837E+06         0.00000E+00
    0.38837E+06        -0.49997E+08         0.00000E+00
    0.00000E+00         0.00000E+00        -0.47270E+08
 
   -0.42611E+08         0.49332E+06         0.00000E+00
    0.49332E+06        -0.49995E+08         0.00000E+00
    0.00000E+00         0.00000E+00        -0.47270E+08
 
   -0.42729E+08         0.59616E+06         0.00000E+00
    0.59616E+06        -0.49992E+08         0.00000E+00
    0.00000E+00         0.00000E+00        -0.47270E+08
 
   -0.42846E+08         0.69702E+06         0.00000E+00
    0.69702E+06        -0.49990E+08         0.00000E+00
    0.00000E+00         0.00000E+00        -0.47270E+08
 
   -0.42962E+08         0.79600E+06         0.00000E+00
    0.79600E+06        -0.49986E+08         0.00000E+00
    0.00000E+00         0.00000E+00        -0.47270E+08
 
   -0.43077E+08         0.89322E+06         0.00000E+00
    0.89322E+06        -0.49982E+08         0.00000E+00
    0.00000E+00         0.00000E+00        -0.47270E+08
 
   -0.43191E+08         0.98879E+06         0.00000E+00
    0.98879E+06        -0.49978E+08         0.00000E+00
    0.00000E+00         0.00000E+00        -0.47270E+08
 
   -0.43303E+08         0.10828E+07         0.00000E+00
    0.10828E+07        -0.49973E+08         0.00000E+00
    0.00000E+00         0.00000E+00        -0.47270E+08
 
   -0.43415E+08         0.11754E+07         0.00000E+00
    0.11754E+07        -0.49968E+08         0.00000E+00
    0.00000E+00         0.00000E+00        -0.47270E+08
 
   -0.43525E+08         0.12666E+07         0.00000E+00
    0.12666E+07        -0.49963E+08         0.00000E+00
    0.00000E+00         0.00000E+00        -0.47270E+08
 
   -0.43635E+08         0.13565E+07         0.00000E+00
    0.13565E+07        -0.49956E+08         0.00000E+00
    0.00000E+00         0.00000E+00        -0.47270E+08
 
   -0.43743E+08         0.14453E+07         0.00000E+00
    0.14453E+07        -0.49950E+08         0.00000E+00
    0.00000E+00         0.00000E+00        -0.47270E+08
 
   -0.43850E+08         0.15330E+07         0.00000E+00
    0.15330E+07        -0.49942E+08         0.00000E+00
    0.00000E+00         0.00000E+00        -0.47270E+08
 
   -0.43956E+08         0.16197E+07         0.00000E+00
    0.16197E+07        -0.49934E+08         0.00000E+00
    0.00000E+00         0.00000E+00        -0.47270E+08
 
   -0.44061E+08         0.17055E+07         0.00000E+00
    0.17055E+07        -0.49926E+08         0.00000E+00
    0.00000E+00         0.00000E+00        -0.47270E+08
 
   -0.44166E+08         0.17905E+07         0.00000E+00
    0.17905E+07        -0.49917E+08         0.00000E+00
    0.00000E+00         0.00000E+00        -0.47270E+08
 
   -0.44269E+08         0.18746E+07         0.00000E+00
    0.18746E+07        -0.49907E+08         0.00000E+00
    0.00000E+00         0.00000E+00        -0.47270E+08
 
   -0.44372E+08         0.19581E+07         0.00000E+00
    0.19581E+07        -0.49896E+08         0.00000E+00
    0.00000E+00         0.00000E+00        -0.47270E+08
 
   -0.44473E+08         0.20409E+07         0.00000E+00
    0.20409E+07        -0.49885E+08         0.00000E+00
    0.00000E+00         0.00000E+00        -0.47270E+08
 
   -0.44574E+08         0.21232E+07         0.00000E+00
    0.21232E+07        -0.49873E+08         0.00000E+00
    0.00000E+00         0.00000E+00        -0.47270E+08
 
   -0.44674E+08         0.22049E+07         0.00000E+00
    0.22049E+07        -0.49860E+08         0.00000E+00
    0.00000E+00         0.00000E+00        -0.47270E+08
 
   -0.44774E+08         0.22862E+07         0.00000E+00
    0.22862E+07        -0.49846E+08         0.00000E+00
    0.00000E+00         0.00000E+00        -0.47270E+08
 
   -0.44873E+08         0.23670E+07         0.00000E+00
    0.23670E+07        -0.49831E+08         0.00000E+00
    0.00000E+00         0.00000E+00        -0.47270E+08
 
   -0.44971E+08         0.24475E+07         0.00000E+00
    0.24475E+07        -0.49815E+08         0.00000E+00
    0.00000E+00         0.00000E+00        -0.47270E+08
 
   -0.45069E+08         0.25276E+07         0.00000E+00
    0.25276E+07        -0.49798E+08         0.00000E+00
    0.00000E+00         0.00000E+00        -0.47270E+08
 
   -0.45166E+08         0.26075E+07         0.00000E+00
    0.26075E+07        -0.49781E+08         0.00000E+00
    0.00000E+00         0.00000E+00        -0.47270E+08
 
   -0.45263E+08         0.26871E+07         0.00000E+00
    0.26871E+07        -0.49762E+08         0.00000E+00
    0.00000E+00         0.00000E+00        -0.47270E+08
 
   -0.45360E+08         0.27665E+07         0.00000E+00
    0.27665E+07        -0.49742E+08         0.00000E+00
    0.00000E+00         0.00000E+00        -0.47270E+08
 
   -0.45457E+08         0.28457E+07         0.00000E+00
    0.28457E+07        -0.49721E+08         0.00000E+00
    0.00000E+00         0.00000E+00        -0.47270E+08
 
   -0.45553E+08         0.29247E+07         0.00000E+00
    0.29247E+07        -0.49699E+08         0.00000E+00
    0.00000E+00         0.00000E+00        -0.47270E+08
 
   -0.45649E+08         0.30036E+07         0.00000E+00
    0.30036E+07        -0.49675E+08         0.00000E+00
    0.00000E+00         0.00000E+00        -0.47270E+08
 
   -0.45745E+08         0.30824E+07         0.00000E+00
    0.30824E+07        -0.49650E+08         0.00000E+00
    0.00000E+00         0.00000E+00        -0.47270E+08
 
   -0.45841E+08         0.31610E+07         0.00000E+00
    0.31610E+07        -0.49624E+08         0.00000E+00
    0.00000E+00         0.00000E+00        -0.47270E+08
 
   -0.45937E+08         0.32397E+07         0.00000E+00
    0.32397E+07        -0.49596E+08         0.00000E+00
    0.00000E+00         0.00000E+00        -0.47270E+08
 
   -0.46033E+08         0.33182E+07         0.00000E+00
    0.33182E+07        -0.49567E+08         0.00000E+00
    0.00000E+00         0.00000E+00        -0.47270E+08
 
   -0.46129E+08         0.33967E+07         0.00000E+00
    0.33967E+07        -0.49537E+08         0.00000E+00
    0.00000E+00         0.00000E+00        -0.47270E+08
 
   -0.46226E+08         0.34751E+07         0.00000E+00
    0.34751E+07        -0.49505E+08         0.00000E+00
    0.00000E+00         0.00000E+00        -0.47270E+08
 
   -0.46323E+08         0.35535E+07         0.00000E+00
    0.35535E+07        -0.49471E+08         0.00000E+00
    0.00000E+00         0.00000E+00        -0.47270E+08
 
   -0.46420E+08         0.36318E+07         0.00000E+00
    0.36318E+07        -0.49436E+08         0.00000E+00
    0.00000E+00         0.00000E+00        -0.47270E+08
 
   -0.46518E+08         0.37101E+07         0.00000E+00
    0.37101E+07        -0.49399E+08         0.00000E+00
    0.00000E+00         0.00000E+00        -0.47270E+08
 
   -0.46616E+08         0.37883E+07         0.00000E+00
    0.37883E+07        -0.49360E+08         0.00000E+00
    0.00000E+00         0.00000E+00        -0.47270E+08
 
   -0.46715E+08         0.38665E+07         0.00000E+00
    0.38665E+07        -0.49320E+08         0.00000E+00
    0.00000E+00         0.00000E+00        -0.47270E+08
 
   -0.46814E+08         0.39447E+07         0.00000E+00
    0.39447E+07        -0.49278E+08         0.00000E+00
    0.00000E+00         0.00000E+00        -0.47270E+08
 
   -0.46914E+08         0.40228E+07         0.00000E+00
    0.40228E+07        -0.49234E+08         0.00000E+00
    0.00000E+00         0.00000E+00        -0.47270E+08
 
   -0.47014E+08         0.41008E+07         0.00000E+00
    0.41008E+07        -0.49188E+08         0.00000E+00
    0.00000E+00         0.00000E+00        -0.47270E+08
 
   -0.47116E+08         0.41787E+07         0.00000E+00
    0.41787E+07        -0.49141E+08         0.00000E+00
    0.00000E+00         0.00000E+00        -0.47270E+08
 
   -0.47218E+08         0.42565E+07         0.00000E+00
    0.42565E+07        -0.49091E+08         0.00000E+00
    0.00000E+00         0.00000E+00        -0.47270E+08
 
   -0.41554E+08         0.60770E+05         0.00000E+00
    0.60770E+05        -0.50000E+08         0.00000E+00
    0.00000E+00         0.00000E+00        -0.46855E+08
 
   -0.41690E+08         0.17471E+06         0.00000E+00
    0.17471E+06        -0.50000E+08         0.00000E+00
    0.00000E+00         0.00000E+00        -0.46855E+08
 
   -0.41824E+08         0.28609E+06         0.00000E+00
    0.28609E+06        -0.49999E+08         0.00000E+00
    0.00000E+00         0.00000E+00        -0.46855E+08
 
   -0.41956E+08         0.39506E+06         0.00000E+00
    0.39506E+06        -0.49998E+08         0.00000E+00
    0.00000E+00         0.00000E+00        -0.46855E+08
 
   -0.42086E+08         0.50178E+06         0.00000E+00
    0.50178E+06        -0.49997E+08         0.00000E+00
    0.00000E+00         0.00000E+00        -0.46855E+08
 
   -0.42215E+08         0.60638E+06         0.00000E+00
    0.60638E+06        -0.49996E+08         0.00000E+00
    0.00000E+00         0.00000E+00        -0.46855E+08
 
   -0.42341E+08         0.70900E+06         0.00000E+00
    0.70900E+06        -0.49995E+08         0.00000E+00
    0.00000E+00         0.00000E+00        -0.46855E+08
 
   -0.42466E+08         0.80979E+06         0.00000E+00
    0.80979E+06        -0.49993E+08         0.00000E+00
    0.00000E+00         0.00000E+00        -0.46855E+08
 
   -0.42590E+08         0.90886E+06         0.00000E+00
    0.90886E+06        -0.49991E+08         0.00000E+00
    0.00000E+00         0.00000E+00        -0.46855E+08
 
   -0.42711E+08         0.10063E+07         0.00000E+00
    0.10063E+07        -0.49989E+08         0.00000E+00
    0.00000E+00         0.00000E+00        -0.46855E+08
 
   -0.42831E+08         0.11024E+07         0.00000E+00
    0.11024E+07        -0.49986E+08         0.00000E+00
    0.00000E+00         0.00000E+00        -0.46855E+08
 
   -0.42950E+08         0.11971E+07         0.00000E+00
    0.11971E+07        -0.49983E+08         0.00000E+00
    0.00000E+00         0.00000E+00        -0.46855E+08
 
   -0.43066E+08         0.12905E+07         0.00000E+00
    0.12905E+07        -0.49980E+08         0.00000E+00
    0.00000E+00         0.00000E+00        -0.46855E+08
 
   -0.43181E+08         0.13828E+07         0.00000E+00
    0.13828E+07        -0.49976E+08         0.00000E+00
    0.00000E+00         0.00000E+00        -0.46855E+08
 
   -0.43295E+08         0.14741E+07         0.00000E+00
    0.14741E+07        -0.49972E+08         0.00000E+00
    0.00000E+00         0.00000E+00        -0.46855E+08
 
   -0.43407E+08         0.15645E+07         0.00000E+00
    0.15645E+07        -0.49967E+08         0.00000E+00
    0.00000E+00         0.00000E+00        -0.46855E+08
 
   -0.43517E+08         0.16540E+07         0.00000E+00
    0.16540E+07        -0.49962E+08         0.00000E+00
    0.00000E+00         0.00000E+00        -0.46855E+08
 
   -0.43627E+08         0.17428E+07         0.00000E+00
    0.17428E+07        -0.49956E+08         0.00000E+00
    0.00000E+00         0.00000E+00        -0.46855E+08
 
   -0.43734E+08         0.18310E+07         0.00000E+00
    0.18310E+07        -0.49950E+08         0.00000E+00
    0.00000E+00         0.00000E+00        -0.46855E+08
 
   -0.43841E+08         0.19185E+07         0.00000E+00
    0.19185E+07        -0.49943E+08         0.00000E+00
    0.00000E+00         0.00000E+00        -0.46855E+08
 
   -0.43946E+08         0.20056E+07         0.00000E+00
    0.20056E+07        -0.49936E+08         0.00000E+00
    0.00000E+00         0.00000E+00        -0.46855E+08
 
   -0.44051E+08         0.20922E+07         0.00000E+00
    0.20922E+07        -0.49927E+08         0.00000E+00
    0.00000E+00         0.00000E+00        -0.46855E+08
 
   -0.44154E+08         0.21785E+07         0.00000E+00
    0.21785E+07        -0.49918E+08         0.00000E+00
    0.00000E+00         0.00000E+00        -0.46855E+08
 
   -0.44256E+08         0.22644E+07         0.00000E+00
    0.22644E+07        -0.49909E+08         0.00000E+00
    0.00000E+00         0.00000E+00        -0.46855E+08
 
   -0.44357E+08         0.23502E+07         0.00000E+00
    0.23502E+07        -0.49898E+08         0.00000E+00
    0.00000E+00         0.00000E+00        -0.46855E+08
 
   -0.44457E+08         0.24357E+07         0.00000E+00
    0.24357E+07        -0.49886E+08         0.00000E+00
    0.00000E+00         0.00000E+00        -0.46855E+08
 
   -0.44557E+08         0.25211E+07         0.00000E+00
    0.25211E+07        -0.49874E+08         0.00000E+00
    0.00000E+00         0.00000E+00        -0.46855E+08
 
   -0.44656E+08         0.26064E+07         0.00000E+00
    0.26064E+07        -0.49860E+08         0.00000E+00
    0.00000E+00         0.00000E+00        -0.46855E+08
 
   -0.44754E+08         0.26917E+07         0.00000E+00
    0.26917E+07        -0.49845E+08         0.00000E+00
    0.00000E+00         0.00000E+00        -0.46855E+08
 
   -0.44851E+08         0.27769E+07         0.00000E+00
    0.27769E+07        -0.49829E+08         0.00000E+00
    0.00000E+00         0.00000E+00        -0.46855E+08
 
   -0.44949E+08         0.28622E+07         0.00000E+00
    0.28622E+07        -0.49812E+08         0.00000E+00
    0.00000E+00         0.00000E+00        -0.46855E+08
 
   -0.45045E+08         0.29475E+07         0.00000E+00
    0.29475E+07        -0.49794E+08         0.00000E+00
    0.00000E+00         0.00000E+00        -0.46855E+08
 
   -0.45142E+08         0.30329E+07         0.00000E+00
    0.30329E+07        -0.49775E+08         0.00000E+00
    0.00000E+00         0.00000E+00        -0.46855E+08
 
   -0.45238E+08         0.31184E+07         0.00000E+00
    0.31184E+07        -0.49754E+08         0.00000E+00
    0.00000E+00         0.00000E+00        -0.46855E+08
 
   -0.45334E+08         0.32041E+07         0.00000E+00
    0.32041E+07        -0.49731E+08         0.00000E+00
    0.00000E+00         0.00000E+00        -0.46855E+08
 
   -0.45430E+08         0.32899E+07         0.00000E+00
    0.32899E+07        -0.49708E+08         0.00000E+00
    0.00000E+00         0.00000E+00        -0.46855E+08
 
   -0.45525E+08         0.33758E+07         0.00000E+00
    0.33758E+07        -0.49682E+08         0.00000E+00
    0.00000E+00         0.00000E+00        -0.46855E+08
 
   -0.45621E+08         0.34619E+07         0.00000E+00
    0.34619E+07        -0.49655E+08         0.00000E+00
    0.00000E+00         0.00000E+00        -0.46855E+08
 
   -0.45717E+08         0.35482E+07         0.00000E+00
    0.35482E+07        -0.49627E+08         0.00000E+00
    0.00000E+00         0.00000E+00        -0.46855E+08
 
   -0.45814E+08         0.36347E+07         0.00000E+00
    0.36347E+07        -0.49597E+08         0.00000E+00
    0.00000E+00         0.00000E+00        -0.46855E+08
 
   -0.45910E+08         0.37214E+07         0.00000E+00
    0.37214E+07        -0.49565E+08         0.00000E+00
    0.00000E+00         0.00000E+00        -0.46855E+08
 
   -0.46007E+08         0.38083E+07         0.00000E+00
    0.38083E+07        -0.49532E+08         0.00000E+00
    0.00000E+00         0.00000E+00        -0.46855E+08
 
   -0.46104E+08         0.38953E+07         0.00000E+00
    0.38953E+07        -0.49496E+08         0.00000E+00
    0.00000E+00         0.00000E+00        -0.46855E+08
 
   -0.46202E+08         0.39826E+07         0.00000E+00
    0.39826E+07        -0.49459E+08         0.00000E+00
    0.00000E+00         0.00000E+00        -0.46855E+08
 
   -0.46300E+08         0.40700E+07         0.00000E+00
    0.40700E+07        -0.49420E+08         0.00000E+00
    0.00000E+00         0.00000E+00        -0.46855E+08
 
   -0.46399E+08         0.41576E+07         0.00000E+00
    0.41576E+07        -0.49379E+08         0.00000E+00
    0.00000E+00         0.00000E+00        -0.46855E+08
 
   -0.46499E+08         0.42454E+07         0.00000E+00
    0.42454E+07        -0.49336E+08         0.00000E+00
    0.00000E+00         0.00000E+00        -0.46855E+08
 
   -0.46600E+08         0.43333E+07         0.00000E+00
    0.43333E+07        -0.49290E+08         0.00000E+00
    0.00000E+00         0.00000E+00        -0.46855E+08
 
   -0.46701E+08         0.44213E+07         0.00000E+00
    0.44213E+07        -0.49243E+08         0.00000E+00
    0.00000E+00         0.00000E+00        -0.46855E+08
 
   -0.46803E+08         0.45094E+07         0.00000E+00
    0.45094E+07        -0.49194E+08         0.00000E+00
    0.00000E+00         0.00000E+00        -0.46855E+08
 
   -0.40976E+08         0.61139E+05         0.00000E+00
    0.61139E+05        -0.50000E+08         0.00000E+00
    0.00000E+00         0.00000E+00        -0.46385E+08
 
   -0.41125E+08         0.17562E+06         0.00000E+00
    0.17562E+06        -0.50000E+08         0.00000E+00
    0.00000E+00         0.00000E+00        -0.46385E+08
 
   -0.41271E+08         0.28752E+06         0.00000E+00
    0.28752E+06        -0.50000E+08         0.00000E+00
    0.00000E+00         0.00000E+00        -0.46385E+08
 
   -0.41415E+08         0.39701E+06         0.00000E+00
    0.39701E+06        -0.50000E+08         0.00000E+00
    0.00000E+00         0.00000E+00        -0.46385E+08
 
   -0.41556E+08         0.50426E+06         0.00000E+00
    0.50426E+06        -0.50001E+08         0.00000E+00
    0.00000E+00         0.00000E+00        -0.46385E+08
 
   -0.41694E+08         0.60945E+06         0.00000E+00
    0.60945E+06        -0.50001E+08         0.00000E+00
    0.00000E+00         0.00000E+00        -0.46385E+08
 
   -0.41831E+08         0.71273E+06         0.00000E+00
    0.71273E+06        -0.50001E+08         0.00000E+00
    0.00000E+00         0.00000E+00        -0.46385E+08
 
   -0.41964E+08         0.81426E+06         0.00000E+00
    0.81426E+06        -0.50001E+08         0.00000E+00
    0.00000E+00         0.00000E+00        -0.46385E+08
 
   -0.42096E+08         0.91420E+06         0.00000E+00
    0.91420E+06        -0.50001E+08         0.00000E+00
    0.00000E+00         0.00000E+00        -0.46385E+08
 
   -0.42224E+08         0.10127E+07         0.00000E+00
    0.10127E+07        -0.50001E+08         0.00000E+00
    0.00000E+00         0.00000E+00        -0.46385E+08
 
   -0.42351E+08         0.11099E+07         0.00000E+00
    0.11099E+07        -0.50001E+08         0.00000E+00
    0.00000E+00         0.00000E+00        -0.46385E+08
 
   -0.42475E+08         0.12058E+07         0.00000E+00
    0.12058E+07        -0.50001E+08         0.00000E+00
    0.00000E+00         0.00000E+00        -0.46385E+08
 
   -0.42597E+08         0.13008E+07         0.00000E+00
    0.13008E+07        -0.50001E+08         0.00000E+00
    0.00000E+00         0.00000E+00        -0.46385E+08
 
   -0.42717E+08         0.13948E+07         0.00000E+00
    0.13948E+07        -0.50000E+08         0.00000E+00
    0.00000E+00         0.00000E+00        -0.46385E+08
 
   -0.42835E+08         0.14880E+07         0.00000E+00
    0.14880E+07        -0.49999E+08         0.00000E+00
    0.00000E+00         0.00000E+00        -0.46385E+08
 
   -0.42951E+08         0.15805E+07         0.00000E+00
    0.15805E+07        -0.49998E+08         0.00000E+00
    0.00000E+00         0.00000E+00        -0.46385E+08
 
   -0.43065E+08         0.16724E+07         0.00000E+00
    0.16724E+07        -0.49996E+08         0.00000E+00
    0.00000E+00         0.00000E+00        -0.46385E+08
 
   -0.43177E+08         0.17637E+07         0.00000E+00
    0.17637E+07        -0.49994E+08         0.00000E+00
    0.00000E+00         0.00000E+00        -0.46385E+08
 
   -0.43287E+08         0.18547E+07         0.00000E+00
    0.18547E+07        -0.49992E+08         0.00000E+00
    0.00000E+00         0.00000E+00        -0.46385E+08
 
   -0.43396E+08         0.19454E+07         0.00000E+00
    0.19454E+07        -0.49989E+08         0.00000E+00
    0.00000E+00         0.00000E+00        -0.46385E+08
 
   -0.43503E+08         0.20358E+07         0.00000E+00
    0.20358E+07        -0.49985E+08         0.00000E+00
    0.00000E+00         0.00000E+00        -0.46385E+08
 
   -0.43609E+08         0.21261E+07         0.00000E+00
    0.21261E+07        -0.49980E+08         0.00000E+00
    0.00000E+00         0.00000E+00        -0.46385E+08
 
   -0.43713E+08         0.22163E+07         0.00000E+00
    0.22163E+07        -0.49975E+08         0.00000E+00
    0.00000E+00         0.00000E+00        -0.46385E+08
 
   -0.43815E+08         0.23064E+07         0.00000E+00
    0.23064E+07        -0.49969E+08         0.00000E+00
    0.00000E+00         0.00000E+00        -0.46385E+08
 
   -0.43917E+08         0.23966E+07         0.00000E+00
    0.23966E+07        -0.49962E+08         0.00000E+00
    0.00000E+00         0.00000E+00        -0.46385E+08
 
   -0.44017E+08         0.24869E+07         0.00000E+00
    0.24869E+07        -0.49955E+08         0.00000E+00
    0.00000E+00         0.00000E+00        -0.46385E+08
 
   -0.44117E+08         0.25774E+07         0.00000E+00
    0.25774E+07        -0.49946E+08         0.00000E+00
    0.00000E+00         0.00000E+00        -0.46385E+08
 
   -0.44215E+08         0.26680E+07         0.00000E+00
    0.26680E+07        -0.49936E+08         0.00000E+00
    0.00000E+00         0.00000E+00        -0.46385E+08
 
   -0.44313E+08         0.27589E+07         0.00000E+00
    0.27589E+07        -0.49925E+08         0.00000E+00
    0.00000E+00         0.00000E+00        -0.46385E+08
 
   -0.44410E+08         0.28501E+07         0.00000E+00
    0.28501E+07        -0.49913E+08         0.00000E+00
    0.00000E+00         0.00000E+00        -0.46385E+08
 
   -0.44506E+08         0.29416E+07         0.00000E+00
    0.29416E+07        -0.49900E+08         0.00000E+00
    0.00000E+00         0.00000E+00        -0.46385E+08
 
   -0.44602E+08         0.30335E+07         0.00000E+00
    0.30335E+07        -0.49885E+08         0.00000E+00
    0.00000E+00         0.00000E+00        -0.46385E+08
 
   -0.44697E+08         0.31257E+07         0.00000E+00
    0.31257E+07        -0.49869E+08         0.00000E+00
    0.00000E+00         0.00000E+00        -0.46385E+08
 
   -0.44792E+08         0.32183E+07         0.00000E+00
    0.32183E+07        -0.49851E+08         0.00000E+00
    0.00000E+00         0.00000E+00        -0.46385E+08
 
   -0.44886E+08         0.33114E+07         0.00000E+00
    0.33114E+07        -0.49832E+08         0.00000E+00
    0.00000E+00         0.00000E+00        -0.46385E+08
 
   -0.44981E+08         0.34048E+07         0.00000E+00
    0.34048E+07        -0.49812E+08         0.00000E+00
    0.00000E+00         0.00000E+00        -0.46385E+08
 
   -0.45075E+08         0.34988E+07         0.00000E+00
    0.34988E+07        -0.49790E+08         0.00000E+00
    0.00000E+00         0.00000E+00        -0.46385E+08
 
   -0.45169E+08         0.35931E+07         0.00000E+00
    0.35931E+07        -0.49766E+08         0.00000E+00
    0.00000E+00         0.00000E+00        -0.46385E+08
 
   -0.45264E+08         0.36880E+07         0.00000E+00
    0.36880E+07        -0.49740E+08         0.00000E+00
    0.00000E+00         0.00000E+00        -0.46385E+08
 
   -0.45358E+08         0.37833E+07         0.00000E+00
    0.37833E+07        -0.49713E+08         0.00000E+00
    0.00000E+00         0.00000E+00        -0.46385E+08
 
   -0.45453E+08         0.38791E+07         0.00000E+00
    0.38791E+07        -0.49683E+08         0.00000E+00
    0.00000E+00         0.00000E+00        -0.46385E+08
 
   -0.45548E+08         0.39753E+07         0.00000E+00
    0.39753E+07        -0.49652E+08         0.00000E+00
    0.00000E+00         0.00000E+00        -0.46385E+08
 
   -0.45644E+08         0.40720E+07         0.00000E+00
    0.40720E+07        -0.49619E+08         0.00000E+00
    0.00000E+00         0.00000E+00        -0.46385E+08
 
   -0.45740E+08         0.41691E+07         0.00000E+00
    0.41691E+07        -0.49583E+08         0.00000E+00
    0.00000E+00         0.00000E+00        -0.46385E+08
 
   -0.45837E+08         0.42667E+07         0.00000E+00
    0.42667E+07        -0.49546E+08         0.00000E+00
    0.00000E+00         0.00000E+00        -0.46385E+08
 
   -0.45935E+08         0.43647E+07         0.00000E+00
    0.43647E+07        -0.49506E+08         0.00000E+00
    0.00000E+00         0.00000E+00        -0.46385E+08
 
   -0.46033E+08         0.44631E+07         0.00000E+00
    0.44631E+07        -0.49465E+08         0.00000E+00
    0.00000E+00         0.00000E+00        -0.46385E+08
 
   -0.46132E+08         0.45620E+07         0.00000E+00
    0.45620E+07        -0.49421E+08         0.00000E+00
    0.00000E+00         0.00000E+00        -0.46385E+08
 
   -0.46233E+08         0.46611E+07         0.00000E+00
    0.46611E+07        -0.49374E+08         0.00000E+00
    0.00000E+00         0.00000E+00        -0.46385E+08
 
   -0.46334E+08         0.47607E+07         0.00000E+00
    0.47607E+07        -0.49326E+08         0.00000E+00
    0.00000E+00         0.00000E+00        -0.46385E+08
 
   -0.40398E+08         0.60564E+05         0.00000E+00
    0.60564E+05        -0.50000E+08         0.00000E+00
    0.00000E+00         0.00000E+00        -0.45853E+08
 
   -0.40561E+08         0.17388E+06         0.00000E+00
    0.17388E+06        -0.50001E+08         0.00000E+00
    0.00000E+00         0.00000E+00        -0.45853E+08
 
   -0.40719E+08         0.28465E+06         0.00000E+00
    0.28465E+06        -0.50002E+08         0.00000E+00
    0.00000E+00         0.00000E+00        -0.45853E+08
 
   -0.40874E+08         0.39308E+06         0.00000E+00
    0.39308E+06        -0.50003E+08         0.00000E+00
    0.00000E+00         0.00000E+00        -0.45853E+08
 
   -0.41026E+08         0.49936E+06         0.00000E+00
    0.49936E+06        -0.50004E+08         0.00000E+00
    0.00000E+00         0.00000E+00        -0.45853E+08
 
   -0.41174E+08         0.60370E+06         0.00000E+00
    0.60370E+06        -0.50006E+08         0.00000E+00
    0.00000E+00         0.00000E+00        -0.45853E+08
 
   -0.41319E+08         0.70628E+06         0.00000E+00
    0.70628E+06        -0.50009E+08         0.00000E+00
    0.00000E+00         0.00000E+00        -0.45853E+08
 
   -0.41461E+08         0.80729E+06         0.00000E+00
    0.80729E+06        -0.50011E+08         0.00000E+00
    0.00000E+00         0.00000E+00        -0.45853E+08
 
   -0.41599E+08         0.90688E+06         0.00000E+00
    0.90688E+06        -0.50014E+08         0.00000E+00
    0.00000E+00         0.00000E+00        -0.45853E+08
 
   -0.41735E+08         0.10052E+07         0.00000E+00
    0.10052E+07        -0.50017E+08         0.00000E+00
    0.00000E+00         0.00000E+00        -0.45853E+08
 
   -0.41867E+08         0.11025E+07         0.00000E+00
    0.11025E+07        -0.50020E+08         0.00000E+00
    0.00000E+00         0.00000E+00        -0.45853E+08
 
   -0.41996E+08         0.11988E+07         0.00000E+00
    0.11988E+07        -0.50023E+08         0.00000E+00
    0.00000E+00         0.00000E+00        -0.45853E+08
 
   -0.42123E+08         0.12944E+07         0.00000E+00
    0.12944E+07        -0.50027E+08         0.00000E+00
    0.00000E+00         0.00000E+00        -0.45853E+08
 
   -0.42246E+08         0.13893E+07         0.00000E+00
    0.13893E+07        -0.50030E+08         0.00000E+00
    0.00000E+00         0.00000E+00        -0.45853E+08
 
   -0.42367E+08         0.14836E+07         0.00000E+00
    0.14836E+07        -0.50033E+08         0.00000E+00
    0.00000E+00         0.00000E+00        -0.45853E+08
 
   -0.42486E+08         0.15776E+07         0.00000E+00
    0.15776E+07        -0.50035E+08         0.00000E+00
    0.00000E+00         0.00000E+00        -0.45853E+08
 
   -0.42601E+08         0.16713E+07         0.00000E+00
    0.16713E+07        -0.50038E+08         0.00000E+00
    0.00000E+00         0.00000E+00        -0.45853E+08
 
   -0.42715E+08         0.17648E+07         0.00000E+00
    0.17648E+07        -0.50040E+08         0.00000E+00
    0.00000E+00         0.00000E+00        -0.45853E+08
 
   -0.42826E+08         0.18582E+07         0.00000E+00
    0.18582E+07        -0.50042E+08         0.00000E+00
    0.00000E+00         0.00000E+00        -0.45853E+08
 
   -0.42936E+08         0.19516E+07         0.00000E+00
    0.19516E+07        -0.50043E+08         0.00000E+00
    0.00000E+00         0.00000E+00        -0.45853E+08
 
   -0.43043E+08         0.20451E+07         0.00000E+00
    0.20451E+07        -0.50044E+08         0.00000E+00
    0.00000E+00         0.00000E+00        -0.45853E+08
 
   -0.43148E+08         0.21388E+07         0.00000E+00
    0.21388E+07        -0.50044E+08         0.00000E+00
    0.00000E+00         0.00000E+00        -0.45853E+08
 
   -0.43252E+08         0.22328E+07         0.00000E+00
    0.22328E+07        -0.50044E+08         0.00000E+00
    0.00000E+00         0.00000E+00        -0.45853E+08
 
   -0.43354E+08         0.23270E+07         0.00000E+00
    0.23270E+07        -0.50043E+08         0.00000E+00
    0.00000E+00         0.00000E+00        -0.45853E+08
 
   -0.43454E+08         0.24217E+07         0.00000E+00
    0.24217E+07        -0.50040E+08         0.00000E+00
    0.00000E+00         0.00000E+00        -0.45853E+08
 
   -0.43553E+08         0.25169E+07         0.00000E+00
    0.25169E+07        -0.50037E+08         0.00000E+00
    0.00000E+00         0.00000E+00        -0.45853E+08
 
   -0.43650E+08         0.26125E+07         0.00000E+00
    0.26125E+07        -0.50033E+08         0.00000E+00
    0.00000E+00         0.00000E+00        -0.45853E+08
 
   -0.43747E+08         0.27087E+07         0.00000E+00
    0.27087E+07        -0.50028E+08         0.00000E+00
    0.00000E+00         0.00000E+00        -0.45853E+08
 
   -0.43842E+08         0.28055E+07         0.00000E+00
    0.28055E+07        -0.50022E+08         0.00000E+00
    0.00000E+00         0.00000E+00        -0.45853E+08
 
   -0.43937E+08         0.29029E+07         0.00000E+00
    0.29029E+07        -0.50014E+08         0.00000E+00
    0.00000E+00         0.00000E+00        -0.45853E+08
 
   -0.44031E+08         0.30010E+07         0.00000E+00
    0.30010E+07        -0.50005E+08         0.00000E+00
    0.00000E+00         0.00000E+00        -0.45853E+08
 
   -0.44124E+08         0.30998E+07         0.00000E+00
    0.30998E+07        -0.49995E+08         0.00000E+00
    0.00000E+00         0.00000E+00        -0.45853E+08
 
   -0.44216E+08         0.31993E+07         0.00000E+00
    0.31993E+07        -0.49983E+08         0.00000E+00
    0.00000E+00         0.00000E+00        -0.45853E+08
 
   -0.44308E+08         0.32996E+07         0.00000E+00
    0.32996E+07        -0.49970E+08         0.00000E+00
    0.00000E+00         0.00000E+00        -0.45853E+08
 
   -0.44400E+08         0.34006E+07         0.00000E+00
    0.34006E+07        -0.49955E+08         0.00000E+00
    0.00000E+00         0.00000E+00        -0.45853E+08
 
   -0.44491E+08         0.35023E+07         0.00000E+00
    0.35023E+07        -0.49938E+08         0.00000E+00
    0.00000E+00         0.00000E+00        -0.45853E+08
 
   -0.44582E+08         0.36049E+07         0.00000E+00
    0.36049E+07        -0.49920E+08         0.00000E+00
    0.00000E+00         0.00000E+00        -0.45853E+08
 
   -0.44673E+08         0.37082E+07         0.00000E+00
    0.37082E+07        -0.49900E+08         0.00000E+00
    0.00000E+00         0.00000E+00        -0.45853E+08
 
   -0.44765E+08         0.38124E+07         0.00000E+00
    0.38124E+07        -0.49877E+08         0.00000E+00
    0.00000E+00         0.00000E+00        -0.45853E+08
 
   -0.44856E+08         0.39173E+07         0.00000E+00
    0.39173E+07        -0.49853E+08         0.00000E+00
    0.00000E+00         0.00000E+00        -0.45853E+08
 
   -0.44948E+08         0.40230E+07         0.00000E+00
    0.40230E+07        -0.49827E+08         0.00000E+00
    0.00000E+00         0.00000E+00        -0.45853E+08
 
   -0.45040E+08         0.41294E+07         0.00000E+00
    0.41294E+07        -0.49799E+08         0.00000E+00
    0.00000E+00         0.00000E+00        -0.45853E+08
 
   -0.45133E+08         0.42367E+07         0.00000E+00
    0.42367E+07        -0.49769E+08         0.00000E+00
    0.00000E+00         0.00000E+00        -0.45853E+08
 
   -0.45226E+08         0.43447E+07         0.00000E+00
    0.43447E+07        -0.49736E+08         0.00000E+00
    0.00000E+00         0.00000E+00        -0.45853E+08
 
   -0.45320E+08         0.44534E+07         0.00000E+00
    0.44534E+07        -0.49701E+08         0.00000E+00
    0.00000E+00         0.00000E+00        -0.45853E+08
 
   -0.45415E+08         0.45628E+07         0.00000E+00
    0.45628E+07        -0.49664E+08         0.00000E+00
    0.00000E+00         0.00000E+00        -0.45853E+08
 
   -0.45510E+08         0.46730E+07         0.00000E+00
    0.46730E+07        -0.49624E+08         0.00000E+00
    0.00000E+00         0.00000E+00        -0.45853E+08
 
   -0.45607E+08         0.47838E+07         0.00000E+00
    0.47838E+07        -0.49582E+08         0.00000E+00
    0.00000E+00         0.00000E+00        -0.45853E+08
 
   -0.45705E+08         0.48953E+07         0.00000E+00
    0.48953E+07        -0.49537E+08         0.00000E+00
    0.00000E+00         0.00000E+00        -0.45853E+08
 
   -0.45804E+08         0.50074E+07         0.00000E+00
    0.50074E+07        -0.49490E+08         0.00000E+00
    0.00000E+00         0.00000E+00        -0.45853E+08
 
   -0.39832E+08         0.58827E+05         0.00000E+00
    0.58827E+05        -0.50000E+08         0.00000E+00
    0.00000E+00         0.00000E+00        -0.45255E+08
 
   -0.40007E+08         0.16889E+06         0.00000E+00
    0.16889E+06        -0.50001E+08         0.00000E+00
    0.00000E+00         0.00000E+00        -0.45255E+08
 
   -0.40178E+08         0.27652E+06         0.00000E+00
    0.27652E+06        -0.50003E+08         0.00000E+00
    0.00000E+00         0.00000E+00        -0.45255E+08
 
   -0.40344E+08         0.38198E+06         0.00000E+00
    0.38198E+06        -0.50006E+08         0.00000E+00
    0.00000E+00         0.00000E+00        -0.45255E+08
 
   -0.40505E+08         0.48548E+06         0.00000E+00
    0.48548E+06        -0.50009E+08         0.00000E+00
    0.00000E+00         0.00000E+00        -0.45255E+08
 
   -0.40662E+08         0.58726E+06         0.00000E+00
    0.58726E+06        -0.50013E+08         0.00000E+00
    0.00000E+00         0.00000E+00        -0.45255E+08
 
   -0.40815E+08         0.68751E+06         0.00000E+00
    0.68751E+06        -0.50018E+08         0.00000E+00
    0.00000E+00         0.00000E+00        -0.45255E+08
 
   -0.40963E+08         0.78646E+06         0.00000E+00
    0.78646E+06        -0.50024E+08         0.00000E+00
    0.00000E+00         0.00000E+00        -0.45255E+08
 
   -0.41108E+08         0.88429E+06         0.00000E+00
    0.88429E+06        -0.50029E+08         0.00000E+00
    0.00000E+00         0.00000E+00        -0.45255E+08
 
   -0.41248E+08         0.98118E+06         0.00000E+00
    0.98118E+06        -0.50036E+08         0.00000E+00
    0.00000E+00         0.00000E+00        -0.45255E+08
 
   -0.41385E+08         0.10773E+07         0.00000E+00
    0.10773E+07        -0.50043E+08         0.00000E+00
    0.00000E+00         0.00000E+00        -0.45255E+08
 
   -0.41517E+08         0.11729E+07         0.00000E+00
    0.11729E+07        -0.50050E+08         0.00000E+00
    0.00000E+00         0.00000E+00        -0.45255E+08
 
   -0.41647E+08         0.12680E+07         0.00000E+00
    0.12680E+07        -0.50057E+08         0.00000E+00
    0.00000E+00         0.00000E+00        -0.45255E+08
 
   -0.41772E+08         0.13628E+07         0.00000E+00
    0.13628E+07        -0.50065E+08         0.00000E+00
    0.00000E+00         0.00000E+00        -0.45255E+08
 
   -0.41895E+08         0.14575E+07         0.00000E+00
    0.14575E+07        -0.50073E+08         0.00000E+00
    0.00000E+00         0.00000E+00        -0.45255E+08
 
   -0.42014E+08         0.15522E+07         0.00000E+00
    0.15522E+07        -0.50080E+08         0.00000E+00
    0.00000E+00         0.00000E+00        -0.45255E+08
 
   -0.42130E+08         0.16469E+07         0.00000E+00
    0.16469E+07        -0.50088E+08         0.00000E+00
    0.00000E+00         0.00000E+00        -0.45255E+08
 
   -0.42243E+08         0.17419E+07         0.00000E+00
    0.17419E+07        -0.50095E+08         0.00000E+00
    0.00000E+00         0.00000E+00        -0.45255E+08
 
   -0.42354E+08         0.18373E+07         0.00000E+00
    0.18373E+07        -0.50102E+08         0.00000E+00
    0.00000E+00         0.00000E+00        -0.45255E+08
 
   -0.42461E+08         0.19330E+07         0.00000E+00
    0.19330E+07        -0.50109E+08         0.00000E+00
    0.00000E+00         0.00000E+00        -0.45255E+08
 
   -0.42567E+08         0.20293E+07         0.00000E+00
    0.20293E+07        -0.50115E+08         0.00000E+00
    0.00000E+00         0.00000E+00        -0.45255E+08
 
   -0.42670E+08         0.21262E+07         0.00000E+00
    0.21262E+07        -0.50121E+08         0.00000E+00
    0.00000E+00         0.00000E+00        -0.45255E+08
 
   -0.42771E+08         0.22238E+07         0.00000E+00
    0.22238E+07        -0.50126E+08         0.00000E+00
    0.00000E+00         0.00000E+00        -0.45255E+08
 
   -0.42870E+08         0.23221E+07         0.00000E+00
    0.23221E+07        -0.50130E+08         0.00000E+00
    0.00000E+00         0.00000E+00        -0.45255E+08
 
   -0.42967E+08         0.24213E+07         0.00000E+00
    0.24213E+07        -0.50133E+08         0.00000E+00
    0.00000E+00         0.00000E+00        -0.45255E+08
 
   -0.43063E+08         0.25213E+07         0.00000E+00
    0.25213E+07        -0.50136E+08         0.00000E+00
    0.00000E+00         0.00000E+00        -0.45255E+08
 
   -0.43157E+08         0.26223E+07         0.00000E+00
    0.26223E+07        -0.50137E+08         0.00000E+00
    0.00000E+00         0.00000E+00        -0.45255E+08
 
   -0.43249E+08         0.27242E+07         0.00000E+00
    0.27242E+07        -0.50137E+08         0.00000E+00
    0.00000E+00         0.00000E+00        -0.45255E+08
 
   -0.43341E+08         0.28272E+07         0.00000E+00
    0.28272E+07        -0.50136E+08         0.00000E+00
    0.00000E+00         0.00000E+00        -0.45255E+08
 
   -0.43431E+08         0.29312E+07         0.00000E+00
    0.29312E+07        -0.50134E+08         0.00000E+00
    0.00000E+00         0.00000E+00        -0.45255E+08
 
   -0.43520E+08         0.30362E+07         0.00000E+00
    0.30362E+07        -0.50131E+08         0.00000E+00
    0.00000E+00         0.00000E+00        -0.45255E+08
 
   -0.43609E+08         0.31424E+07         0.00000E+00
    0.31424E+07        -0.50126E+08         0.00000E+00
    0.00000E+00         0.00000E+00        -0.45255E+08
 
   -0.43697E+08         0.32497E+07         0.00000E+00
    0.32497E+07        -0.50119E+08         0.00000E+00
    0.00000E+00         0.00000E+00        -0.45255E+08
 
   -0.43784E+08         0.33581E+07         0.00000E+00
    0.33581E+07        -0.50110E+08         0.00000E+00
    0.00000E+00         0.00000E+00        -0.45255E+08
 
   -0.43871E+08         0.34677E+07         0.00000E+00
    0.34677E+07        -0.50100E+08         0.00000E+00
    0.00000E+00         0.00000E+00        -0.45255E+08
 
   -0.43957E+08         0.35784E+07         0.00000E+00
    0.35784E+07        -0.50089E+08         0.00000E+00
    0.00000E+00         0.00000E+00        -0.45255E+08
 
   -0.44044E+08         0.36903E+07         0.00000E+00
    0.36903E+07        -0.50075E+08         0.00000E+00
    0.00000E+00         0.00000E+00        -0.45255E+08
 
   -0.44130E+08         0.38034E+07         0.00000E+00
    0.38034E+07        -0.50059E+08         0.00000E+00
    0.00000E+00         0.00000E+00        -0.45255E+08
 
   -0.44216E+08         0.39176E+07         0.00000E+00
    0.39176E+07        -0.50041E+08         0.00000E+00
    0.00000E+00         0.00000E+00        -0.45255E+08
 
   -0.44303E+08         0.40329E+07         0.00000E+00
    0.40329E+07        -0.50021E+08         0.00000E+00
    0.00000E+00         0.00000E+00        -0.45255E+08
 
   -0.44390E+08         0.41494E+07         0.00000E+00
    0.41494E+07        -0.49999E+08         0.00000E+00
    0.00000E+00         0.00000E+00        -0.45255E+08
 
   -0.44478E+08         0.42670E+07         0.00000E+00
    0.42670E+07        -0.49975E+08         0.00000E+00
    0.00000E+00         0.00000E+00        -0.45255E+08
 
   -0.44566E+08         0.43857E+07         0.00000E+00
    0.43857E+07        -0.49948E+08         0.00000E+00
    0.00000E+00         0.00000E+00        -0.45255E+08
 
   -0.44654E+08         0.45056E+07         0.00000E+00
    0.45056E+07        -0.49919E+08         0.00000E+00
    0.00000E+00         0.00000E+00        -0.45255E+08
 
   -0.44744E+08         0.46264E+07         0.00000E+00
    0.46264E+07        -0.49887E+08         0.00000E+00
    0.00000E+00         0.00000E+00        -0.45255E+08
 
   -0.44834E+08         0.47484E+07         0.00000E+00
    0.47484E+07        -0.49853E+08         0.00000E+00
    0.00000E+00         0.00000E+00        -0.45255E+08
 
   -0.44926E+08         0.48713E+07         0.00000E+00
    0.48713E+07        -0.49816E+08         0.00000E+00
    0.00000E+00         0.00000E+00        -0.45255E+08
 
   -0.45018E+08         0.49953E+07         0.00000E+00
    0.49953E+07        -0.49776E+08         0.00000E+00
    0.00000E+00         0.00000E+00        -0.45255E+08
 
   -0.45112E+08         0.51202E+07         0.00000E+00
    0.51202E+07        -0.49734E+08         0.00000E+00
    0.00000E+00         0.00000E+00        -0.45255E+08
 
   -0.45207E+08         0.52460E+07         0.00000E+00
    0.52460E+07        -0.49688E+08         0.00000E+00
    0.00000E+00         0.00000E+00        -0.45255E+08
 
   -0.39289E+08         0.55677E+05         0.00000E+00
    0.55677E+05        -0.50001E+08         0.00000E+00
    0.00000E+00         0.00000E+00        -0.44583E+08
 
   -0.39476E+08         0.15997E+06         0.00000E+00
    0.15997E+06        -0.50002E+08         0.00000E+00
    0.00000E+00         0.00000E+00        -0.44583E+08
 
   -0.39658E+08         0.26208E+06         0.00000E+00
    0.26208E+06        -0.50005E+08         0.00000E+00
    0.00000E+00         0.00000E+00        -0.44583E+08
 
   -0.39833E+08         0.36229E+06         0.00000E+00
    0.36229E+06        -0.50009E+08         0.00000E+00
    0.00000E+00         0.00000E+00        -0.44583E+08
 
   -0.40003E+08         0.46086E+06         0.00000E+00
    0.46086E+06        -0.50015E+08         0.00000E+00
    0.00000E+00         0.00000E+00        -0.44583E+08
 
   -0.40167E+08         0.55804E+06         0.00000E+00
    0.55804E+06        -0.50021E+08         0.00000E+00
    0.00000E+00         0.00000E+00        -0.44583E+08
 
   -0.40326E+08         0.65406E+06         0.00000E+00
    0.65406E+06        -0.50029E+08         0.00000E+00
    0.00000E+00         0.00000E+00        -0.44583E+08
 
   -0.40480E+08         0.74916E+06         0.00000E+00
    0.74916E+06        -0.50038E+08         0.00000E+00
    0.00000E+00         0.00000E+00        -0.44583E+08
 
   -0.40628E+08         0.84355E+06         0.00000E+00
    0.84355E+06        -0.50048E+08         0.00000E+00
    0.00000E+00         0.00000E+00        -0.44583E+08
 
   -0.40772E+08         0.93744E+06         0.00000E+00
    0.93744E+06        -0.50058E+08         0.00000E+00
    0.00000E+00         0.00000E+00        -0.44583E+08
 
   -0.40911E+08         0.10310E+07         0.00000E+00
    0.10310E+07        -0.50070E+08         0.00000E+00
    0.00000E+00         0.00000E+00        -0.44583E+08
 
   -0.41045E+08         0.11245E+07         0.00000E+00
    0.11245E+07        -0.50081E+08         0.00000E+00
    0.00000E+00         0.00000E+00        -0.44583E+08
 
   -0.41175E+08         0.12179E+07         0.00000E+00
    0.12179E+07        -0.50094E+08         0.00000E+00
    0.00000E+00         0.00000E+00        -0.44583E+08
 
   -0.41300E+08         0.13116E+07         0.00000E+00
    0.13116E+07        -0.50107E+08         0.00000E+00
    0.00000E+00         0.00000E+00        -0.44583E+08
 
   -0.41422E+08         0.14056E+07         0.00000E+00
    0.14056E+07        -0.50120E+08         0.00000E+00
    0.00000E+00         0.00000E+00        -0.44583E+08
 
   -0.41539E+08         0.15001E+07         0.00000E+00
    0.15001E+07        -0.50133E+08         0.00000E+00
    0.00000E+00         0.00000E+00        -0.44583E+08
 
   -0.41653E+08         0.15953E+07         0.00000E+00
    0.15953E+07        -0.50146E+08         0.00000E+00
    0.00000E+00         0.00000E+00        -0.44583E+08
 
   -0.41764E+08         0.16911E+07         0.00000E+00
    0.16911E+07        -0.50160E+08         0.00000E+00
    0.00000E+00         0.00000E+00        -0.44583E+08
 
   -0.41871E+08         0.17879E+07         0.00000E+00
    0.17879E+07        -0.50173E+08         0.00000E+00
    0.00000E+00         0.00000E+00        -0.44583E+08
 
   -0.41976E+08         0.18855E+07         0.00000E+00
    0.18855E+07        -0.50186E+08         0.00000E+00
    0.00000E+00         0.00000E+00        -0.44583E+08
 
   -0.42077E+08         0.19842E+07         0.00000E+00
    0.19842E+07        -0.50198E+08         0.00000E+00
    0.00000E+00         0.00000E+00        -0.44583E+08
 
   -0.42176E+08         0.20840E+07         0.00000E+00
    0.20840E+07        -0.50210E+08         0.00000E+00
    0.00000E+00         0.00000E+00        -0.44583E+08
 
   -0.42272E+08         0.21851E+07         0.00000E+00
    0.21851E+07        -0.50221E+08         0.00000E+00
    0.00000E+00         0.00000E+00        -0.44583E+08
 
   -0.42366E+08         0.22874E+07         0.00000E+00
    0.22874E+07        -0.50232E+08         0.00000E+00
    0.00000E+00         0.00000E+00        -0.44583E+08
 
   -0.42457E+08         0.23910E+07         0.00000E+00
    0.23910E+07        -0.50242E+08         0.00000E+00
    0.00000E+00         0.00000E+00        -0.44583E+08
 
   -0.42547E+08         0.24960E+07         0.00000E+00
    0.24960E+07        -0.50251E+08         0.00000E+00
    0.00000E+00         0.00000E+00        -0.44583E+08
 
   -0.42635E+08         0.26024E+07         0.00000E+00
    0.26024E+07        -0.50259E+08         0.00000E+00
    0.00000E+00         0.00000E+00        -0.44583E+08
 
   -0.42722E+08         0.27103E+07         0.00000E+00
    0.27103E+07        -0.50265E+08         0.00000E+00
    0.00000E+00         0.00000E+00        -0.44583E+08
 
   -0.42807E+08         0.28197E+07         0.00000E+00
    0.28197E+07        -0.50271E+08         0.00000E+00
    0.00000E+00         0.00000E+00        -0.44583E+08
 
   -0.42890E+08         0.29306E+07         0.00000E+00
    0.29306E+07        -0.50275E+08         0.00000E+00
    0.00000E+00         0.00000E+00        -0.44583E+08
 
   -0.42973E+08         0.30430E+07         0.00000E+00
    0.30430E+07        -0.50277E+08         0.00000E+00
    0.00000E+00         0.00000E+00        -0.44583E+08
 
   -0.43055E+08         0.31571E+07         0.00000E+00
    0.31571E+07        -0.50278E+08         0.00000E+00
    0.00000E+00         0.00000E+00        -0.44583E+08
 
   -0.43136E+08         0.32727E+07         0.00000E+00
    0.32727E+07        -0.50277E+08         0.00000E+00
    0.00000E+00         0.00000E+00        -0.44583E+08
 
   -0.43216E+08         0.33899E+07         0.00000E+00
    0.33899E+07        -0.50275E+08         0.00000E+00
    0.00000E+00         0.00000E+00        -0.44583E+08
 
   -0.43296E+08         0.35087E+07         0.00000E+00
    0.35087E+07        -0.50271E+08         0.00000E+00
    0.00000E+00         0.00000E+00        -0.44583E+08
 
   -0.43376E+08         0.36290E+07         0.00000E+00
    0.36290E+07        -0.50264E+08         0.00000E+00
    0.00000E+00         0.00000E+00        -0.44583E+08
 
   -0.43456E+08         0.37510E+07         0.00000E+00
    0.37510E+07        -0.50256E+08         0.00000E+00
    0.00000E+00         0.00000E+00        -0.44583E+08
 
   -0.43535E+08         0.38745E+07         0.00000E+00
    0.38745E+07        -0.50245E+08         0.00000E+00
    0.00000E+00         0.00000E+00        -0.44583E+08
 
   -0.43615E+08         0.39996E+07         0.00000E+00
    0.39996E+07        -0.50233E+08         0.00000E+00
    0.00000E+00         0.00000E+00        -0.44583E+08
 
   -0.43695E+08         0.41263E+07         0.00000E+00
    0.41263E+07        -0.50218E+08         0.00000E+00
    0.00000E+00         0.00000E+00        -0.44583E+08
 
   -0.43775E+08         0.42545E+07         0.00000E+00
    0.42545E+07        -0.50200E+08         0.00000E+00
    0.00000E+00         0.00000E+00        -0.44583E+08
 
   -0.43856E+08         0.43841E+07         0.00000E+00
    0.43841E+07        -0.50181E+08         0.00000E+00
    0.00000E+00         0.00000E+00        -0.44583E+08
 
   -0.43938E+08         0.45153E+07         0.00000E+00
    0.45153E+07        -0.50158E+08         0.00000E+00
    0.00000E+00         0.00000E+00        -0.44583E+08
 
   -0.44020E+08         0.46480E+07         0.00000E+00
    0.46480E+07        -0.50133E+08         0.00000E+00
    0.00000E+00         0.00000E+00        -0.44583E+08
 
   -0.44103E+08         0.47821E+07         0.00000E+00
    0.47821E+07        -0.50105E+08         0.00000E+00
    0.00000E+00         0.00000E+00        -0.44583E+08
 
   -0.44188E+08         0.49176E+07         0.00000E+00
    0.49176E+07        -0.50075E+08         0.00000E+00
    0.00000E+00         0.00000E+00        -0.44583E+08
 
   -0.44273E+08         0.50545E+07         0.00000E+00
    0.50545E+07        -0.50041E+08         0.00000E+00
    0.00000E+00         0.00000E+00        -0.44583E+08
 
   -0.44360E+08         0.51927E+07         0.00000E+00
    0.51927E+07        -0.50005E+08         0.00000E+00
    0.00000E+00         0.00000E+00        -0.44583E+08
 
   -0.44448E+08         0.53322E+07         0.00000E+00
    0.53322E+07        -0.49966E+08         0.00000E+00
    0.00000E+00         0.00000E+00        -0.44583E+08
 
   -0.44538E+08         0.54730E+07         0.00000E+00
    0.54730E+07        -0.49923E+08         0.00000E+00
    0.00000E+00         0.00000E+00        -0.44583E+08
 
   -0.38782E+08         0.50836E+05         0.00000E+00
    0.50836E+05        -0.50001E+08         0.00000E+00
    0.00000E+00         0.00000E+00        -0.43832E+08
 
   -0.38980E+08         0.14639E+06         0.00000E+00
    0.14639E+06        -0.50003E+08         0.00000E+00
    0.00000E+00         0.00000E+00        -0.43832E+08
 
   -0.39171E+08         0.24017E+06         0.00000E+00
    0.24017E+06        -0.50007E+08         0.00000E+00
    0.00000E+00         0.00000E+00        -0.43832E+08
 
   -0.39354E+08         0.33247E+06         0.00000E+00
    0.33247E+06        -0.50013E+08         0.00000E+00
    0.00000E+00         0.00000E+00        -0.43832E+08
 
   -0.39531E+08         0.42359E+06         0.00000E+00
    0.42359E+06        -0.50021E+08         0.00000E+00
    0.00000E+00         0.00000E+00        -0.43832E+08
 
   -0.39700E+08         0.51381E+06         0.00000E+00
    0.51381E+06        -0.50031E+08         0.00000E+00
    0.00000E+00         0.00000E+00        -0.43832E+08
 
   -0.39863E+08         0.60340E+06         0.00000E+00
    0.60340E+06        -0.50042E+08         0.00000E+00
    0.00000E+00         0.00000E+00        -0.43832E+08
 
   -0.40019E+08         0.69259E+06         0.00000E+00
    0.69259E+06        -0.50055E+08         0.00000E+00
    0.00000E+00         0.00000E+00        -0.43832E+08
 
   -0.40169E+08         0.78163E+06         0.00000E+00
    0.78163E+06        -0.50069E+08         0.00000E+00
    0.00000E+00         0.00000E+00        -0.43832E+08
 
   -0.40313E+08         0.87074E+06         0.00000E+00
    0.87074E+06        -0.50084E+08         0.00000E+00
    0.00000E+00         0.00000E+00        -0.43832E+08
 
   -0.40452E+08         0.96012E+06         0.00000E+00
    0.96012E+06        -0.50101E+08         0.00000E+00
    0.00000E+00         0.00000E+00        -0.43832E+08
 
   -0.40585E+08         0.10500E+07         0.00000E+00
    0.10500E+07        -0.50118E+08         0.00000E+00
    0.00000E+00         0.00000E+00        -0.43832E+08
 
   -0.40713E+08         0.11405E+07         0.00000E+00
    0.11405E+07        -0.50136E+08         0.00000E+00
    0.00000E+00         0.00000E+00        -0.43832E+08
 
   -0.40835E+08         0.12318E+07         0.00000E+00
    0.12318E+07        -0.50155E+08         0.00000E+00
    0.00000E+00         0.00000E+00        -0.43832E+08
 
   -0.40953E+08         0.13240E+07         0.00000E+00
    0.13240E+07        -0.50174E+08         0.00000E+00
    0.00000E+00         0.00000E+00        -0.43832E+08
 
   -0.41067E+08         0.14174E+07         0.00000E+00
    0.14174E+07        -0.50194E+08         0.00000E+00
    0.00000E+00         0.00000E+00        -0.43832E+08
 
   -0.41176E+08         0.15121E+07         0.00000E+00
    0.15121E+07        -0.50214E+08         0.00000E+00
    0.00000E+00         0.00000E+00        -0.43832E+08
 
   -0.41281E+08         0.16081E+07         0.00000E+00
    0.16081E+07        -0.50234E+08         0.00000E+00
    0.00000E+00         0.00000E+00        -0.43832E+08
 
   -0.41382E+08         0.17055E+07         0.00000E+00
    0.17055E+07        -0.50254E+08         0.00000E+00
    0.00000E+00         0.00000E+00        -0.43832E+08
 
   -0.41480E+08         0.18046E+07         0.00000E+00
    0.18046E+07        -0.50274E+08         0.00000E+00
    0.00000E+00         0.00000E+00        -0.43832E+08
 
   -0.41575E+08         0.19053E+07         0.00000E+00
    0.19053E+07        -0.50294E+08         0.00000E+00
    0.00000E+00         0.00000E+00        -0.43832E+08
 
   -0.41666E+08         0.20077E+07         0.00000E+00
    0.20077E+07        -0.50313E+08         0.00000E+00
    0.00000E+00         0.00000E+00        -0.43832E+08
 
   -0.41754E+08         0.21120E+07         0.00000E+00
    0.21120E+07        -0.50332E+08         0.00000E+00
    0.00000E+00         0.00000E+00        -0.43832E+08
 
   -0.41840E+08         0.22181E+07         0.00000E+00
    0.22181E+07        -0.50350E+08         0.00000E+00
    0.00000E+00         0.00000E+00        -0.43832E+08
 
   -0.41924E+08         0.23262E+07         0.00000E+00
    0.23262E+07        -0.50367E+08         0.00000E+00
    0.00000E+00         0.00000E+00        -0.43832E+08
 
   -0.42005E+08         0.24362E+07         0.00000E+00
    0.24362E+07        -0.50383E+08         0.00000E+00
    0.00000E+00         0.00000E+00        -0.43832E+08
 
   -0.42085E+08         0.25483E+07         0.00000E+00
    0.25483E+07        -0.50398E+08         0.00000E+00
    0.00000E+00         0.00000E+00        -0.43832E+08
 
   -0.42162E+08         0.26624E+07         0.00000E+00
    0.26624E+07        -0.50412E+08         0.00000E+00
    0.00000E+00         0.00000E+00        -0.43832E+08
 
   -0.42238E+08         0.27785E+07         0.00000E+00
    0.27785E+07        -0.50425E+08         0.00000E+00
    0.00000E+00         0.00000E+00        -0.43832E+08
 
   -0.42313E+08         0.28967E+07         0.00000E+00
    0.28967E+07        -0.50436E+08         0.00000E+00
    0.00000E+00         0.00000E+00        -0.43832E+08
 
   -0.42387E+08         0.30170E+07         0.00000E+00
    0.30170E+07        -0.50445E+08         0.00000E+00
    0.00000E+00         0.00000E+00        -0.43832E+08
 
   -0.42459E+08         0.31395E+07         0.00000E+00
    0.31395E+07        -0.50453E+08         0.00000E+00
    0.00000E+00         0.00000E+00        -0.43832E+08
 
   -0.42531E+08         0.32640E+07         0.00000E+00
    0.32640E+07        -0.50459E+08         0.00000E+00
    0.00000E+00         0.00000E+00        -0.43832E+08
 
   -0.42602E+08         0.33905E+07         0.00000E+00
    0.33905E+07        -0.50464E+08         0.00000E+00
    0.00000E+00         0.00000E+00        -0.43832E+08
 
   -0.42673E+08         0.35192E+07         0.00000E+00
    0.35192E+07        -0.50466E+08         0.00000E+00
    0.00000E+00         0.00000E+00        -0.43832E+08
 
   -0.42744E+08         0.36499E+07         0.00000E+00
    0.36499E+07        -0.50466E+08         0.00000E+00
    0.00000E+00         0.00000E+00        -0.43832E+08
 
   -0.42814E+08         0.37827E+07         0.00000E+00
    0.37827E+07        -0.50464E+08         0.00000E+00
    0.00000E+00         0.00000E+00        -0.43832E+08
 
   -0.42885E+08         0.39176E+07         0.00000E+00
    0.39176E+07        -0.50460E+08         0.00000E+00
    0.00000E+00         0.00000E+00        -0.43832E+08
 
   -0.42956E+08         0.40544E+07         0.00000E+00
    0.40544E+07        -0.50453E+08         0.00000E+00
    0.00000E+00         0.00000E+00        -0.43832E+08
 
   -0.43027E+08         0.41932E+07         0.00000E+00
    0.41932E+07        -0.50444E+08         0.00000E+00
    0.00000E+00         0.00000E+00        -0.43832E+08
 
   -0.43099E+08         0.43340E+07         0.00000E+00
    0.43340E+07        -0.50432E+08         0.00000E+00
    0.00000E+00         0.00000E+00        -0.43832E+08
 
   -0.43171E+08         0.44767E+07         0.00000E+00
    0.44767E+07        -0.50417E+08         0.00000E+00
    0.00000E+00         0.00000E+00        -0.43832E+08
 
   -0.43244E+08         0.46214E+07         0.00000E+00
    0.46214E+07        -0.50400E+08         0.00000E+00
    0.00000E+00         0.00000E+00        -0.43832E+08
 
   -0.43318E+08         0.47678E+07         0.00000E+00
    0.47678E+07        -0.50380E+08         0.00000E+00
    0.00000E+00         0.00000E+00        -0.43832E+08
 
   -0.43394E+08         0.49162E+07         0.00000E+00
    0.49162E+07        -0.50357E+08         0.00000E+00
    0.00000E+00         0.00000E+00        -0.43832E+08
 
   -0.43470E+08         0.50663E+07         0.00000E+00
    0.50663E+07        -0.50331E+08         0.00000E+00
    0.00000E+00         0.00000E+00        -0.43832E+08
 
   -0.43548E+08         0.52182E+07         0.00000E+00
    0.52182E+07        -0.50303E+08         0.00000E+00
    0.00000E+00         0.00000E+00        -0.43832E+08
 
   -0.43627E+08         0.53719E+07         0.00000E+00
    0.53719E+07        -0.50270E+08         0.00000E+00
    0.00000E+00         0.00000E+00        -0.43832E+08
 
   -0.43708E+08         0.55272E+07         0.00000E+00
    0.55272E+07        -0.50235E+08         0.00000E+00
    0.00000E+00         0.00000E+00        -0.43832E+08
 
   -0.43790E+08         0.56842E+07         0.00000E+00
    0.56842E+07        -0.50196E+08         0.00000E+00
    0.00000E+00         0.00000E+00        -0.43832E+08
 
   -0.38329E+08         0.43998E+05         0.00000E+00
    0.43998E+05        -0.50001E+08         0.00000E+00
    0.00000E+00         0.00000E+00        -0.42995E+08
 
   -0.38535E+08         0.12737E+06         0.00000E+00
    0.12737E+06        -0.50004E+08         0.00000E+00
    0.00000E+00         0.00000E+00        -0.42995E+08
 
   -0.38732E+08         0.20955E+06         0.00000E+00
    0.20955E+06        -0.50010E+08         0.00000E+00
    0.00000E+00         0.00000E+00        -0.42995E+08
 
   -0.38921E+08         0.29089E+06         0.00000E+00
    0.29089E+06        -0.50018E+08         0.00000E+00
    0.00000E+00         0.00000E+00        -0.42995E+08
 
   -0.39101E+08         0.37169E+06         0.00000E+00
    0.37169E+06        -0.50029E+08         0.00000E+00
    0.00000E+00         0.00000E+00        -0.42995E+08
 
   -0.39273E+08         0.45228E+06         0.00000E+00
    0.45228E+06        -0.50042E+08         0.00000E+00
    0.00000E+00         0.00000E+00        -0.42995E+08
 
   -0.39436E+08         0.53292E+06         0.00000E+00
    0.53292E+06        -0.50057E+08         0.00000E+00
    0.00000E+00         0.00000E+00        -0.42995E+08
 
   -0.39592E+08         0.61388E+06         0.00000E+00
    0.61388E+06        -0.50074E+08         0.00000E+00
    0.00000E+00         0.00000E+00        -0.42995E+08
 
   -0.39741E+08         0.69542E+06         0.00000E+00
    0.69542E+06        -0.50093E+08         0.00000E+00
    0.00000E+00         0.00000E+00        -0.42995E+08
 
   -0.39882E+08         0.77777E+06         0.00000E+00
    0.77777E+06        -0.50114E+08         0.00000E+00
    0.00000E+00         0.00000E+00        -0.42995E+08
 
   -0.40017E+08         0.86114E+06         0.00000E+00
    0.86114E+06        -0.50136E+08         0.00000E+00
    0.00000E+00         0.00000E+00        -0.42995E+08
 
   -0.40145E+08         0.94573E+06         0.00000E+00
    0.94573E+06        -0.50160E+08         0.00000E+00
    0.00000E+00         0.00000E+00        -0.42995E+08
 
   -0.40268E+08         0.10317E+07         0.00000E+00
    0.10317E+07        -0.50184E+08         0.00000E+00
    0.00000E+00         0.00000E+00        -0.42995E+08
 
   -0.40384E+08         0.11193E+07         0.00000E+00
    0.11193E+07        -0.50210E+08         0.00000E+00
    0.00000E+00         0.00000E+00        -0.42995E+08
 
   -0.40495E+08         0.12086E+07         0.00000E+00
    0.12086E+07        -0.50236E+08         0.00000E+00
    0.00000E+00         0.00000E+00        -0.42995E+08
 
   -0.40601E+08         0.12998E+07         0.00000E+00
    0.12998E+07        -0.50263E+08         0.00000E+00
    0.00000E+00         0.00000E+00        -0.42995E+08
 
   -0.40701E+08         0.13930E+07         0.00000E+00
    0.13930E+07        -0.50291E+08         0.00000E+00
    0.00000E+00         0.00000E+00        -0.42995E+08
 
   -0.40798E+08         0.14883E+07         0.00000E+00
    0.14883E+07        -0.50318E+08         0.00000E+00
    0.00000E+00         0.00000E+00        -0.42995E+08
 
   -0.40889E+08         0.15859E+07         0.00000E+00
    0.15859E+07        -0.50346E+08         0.00000E+00
    0.00000E+00         0.00000E+00        -0.42995E+08
 
   -0.40977E+08         0.16858E+07         0.00000E+00
    0.16858E+07        -0.50374E+08         0.00000E+00
    0.00000E+00         0.00000E+00        -0.42995E+08
 
   -0.41061E+08         0.17880E+07         0.00000E+00
    0.17880E+07        -0.50402E+08         0.00000E+00
    0.00000E+00         0.00000E+00        -0.42995E+08
 
   -0.41142E+08         0.18928E+07         0.00000E+00
    0.18928E+07        -0.50429E+08         0.00000E+00
    0.00000E+00         0.00000E+00        -0.42995E+08
 
   -0.41220E+08         0.20001E+07         0.00000E+00
    0.20001E+07        -0.50456E+08         0.00000E+00
    0.00000E+00         0.00000E+00        -0.42995E+08
 
   -0.41294E+08         0.21099E+07         0.00000E+00
    0.21099E+07        -0.50482E+08         0.00000E+00
    0.00000E+00         0.00000E+00        -0.42995E+08
 
   -0.41366E+08         0.22224E+07         0.00000E+00
    0.22224E+07        -0.50508E+08         0.00000E+00
    0.00000E+00         0.00000E+00        -0.42995E+08
 
   -0.41436E+08         0.23376E+07         0.00000E+00
    0.23376E+07        -0.50532E+08         0.00000E+00
    0.00000E+00         0.00000E+00        -0.42995E+08
 
   -0.41504E+08         0.24554E+07         0.00000E+00
    0.24554E+07        -0.50555E+08         0.00000E+00
    0.00000E+00         0.00000E+00        -0.42995E+08
 
   -0.41570E+08         0.25760E+07         0.00000E+00
    0.25760E+07        -0.50578E+08         0.00000E+00
    0.00000E+00         0.00000E+00        -0.42995E+08
 
   -0.41634E+08         0.26992E+07         0.00000E+00
    0.26992E+07        -0.50598E+08         0.00000E+00
    0.00000E+00         0.00000E+00        -0.42995E+08
 
   -0.41697E+08         0.28251E+07         0.00000E+00
    0.28251E+07        -0.50617E+08         0.00000E+00
    0.00000E+00         0.00000E+00        -0.42995E+08
 
   -0.41758E+08         0.29538E+07         0.00000E+00
    0.29538E+07        -0.50635E+08         0.00000E+00
    0.00000E+00         0.00000E+00        -0.42995E+08
 
   -0.41819E+08         0.30851E+07         0.00000E+00
    0.30851E+07        -0.50651E+08         0.00000E+00
    0.00000E+00         0.00000E+00        -0.42995E+08
 
   -0.41879E+08         0.32191E+07         0.00000E+00
    0.32191E+07        -0.50665E+08         0.00000E+00
    0.00000E+00         0.00000E+00        -0.42995E+08
 
   -0.41938E+08         0.33557E+07         0.00000E+00
    0.33557E+07        -0.50676E+08         0.00000E+00
    0.00000E+00         0.00000E+00        -0.42995E+08
 
   -0.41998E+08         0.34950E+07         0.00000E+00
    0.34950E+07        -0.50686E+08         0.00000E+00
    0.00000E+00         0.00000E+00        -0.42995E+08
 
   -0.42057E+08         0.36369E+07         0.00000E+00
    0.36369E+07        -0.50694E+08         0.00000E+00
    0.00000E+00         0.00000E+00        -0.42995E+08
 
   -0.42116E+08         0.37813E+07         0.00000E+00
    0.37813E+07        -0.50699E+08         0.00000E+00
    0.00000E+00         0.00000E+00        -0.42995E+08
 
   -0.42175E+08         0.39282E+07         0.00000E+00
    0.39282E+07        -0.50701E+08         0.00000E+00
    0.00000E+00         0.00000E+00        -0.42995E+08
 
   -0.42235E+08         0.40777E+07         0.00000E+00
    0.40777E+07        -0.50701E+08         0.00000E+00
    0.00000E+00         0.00000E+00        -0.42995E+08
 
   -0.42295E+08         0.42295E+07         0.00000E+00
    0.42295E+07        -0.50699E+08         0.00000E+00
    0.00000E+00         0.00000E+00        -0.42995E+08
 
   -0.42356E+08         0.43838E+07         0.00000E+00
    0.43838E+07        -0.50694E+08         0.00000E+00
    0.00000E+00         0.00000E+00        -0.42995E+08
 
   -0.42417E+08         0.45405E+07         0.00000E+00
    0.45405E+07        -0.50685E+08         0.00000E+00
    0.00000E+00         0.00000E+00        -0.42995E+08
 
   -0.42480E+08         0.46996E+07         0.00000E+00
    0.46996E+07        -0.50674E+08         0.00000E+00
    0.00000E+00         0.00000E+00        -0.42995E+08
 
   -0.42544E+08         0.48609E+07         0.00000E+00
    0.48609E+07        -0.50660E+08         0.00000E+00
    0.00000E+00         0.00000E+00        -0.42995E+08
 
   -0.42609E+08         0.50245E+07         0.00000E+00
    0.50245E+07        -0.50643E+08         0.00000E+00
    0.00000E+00         0.00000E+00        -0.42995E+08
 
   -0.42675E+08         0.51903E+07         0.00000E+00
    0.51903E+07        -0.50623E+08         0.00000E+00
    0.00000E+00         0.00000E+00        -0.42995E+08
 
   -0.42743E+08         0.53583E+07         0.00000E+00
    0.53583E+07        -0.50599E+08         0.00000E+00
    0.00000E+00         0.00000E+00        -0.42995E+08
 
   -0.42813E+08         0.55284E+07         0.00000E+00
    0.55284E+07        -0.50572E+08         0.00000E+00
    0.00000E+00         0.00000E+00        -0.42995E+08
 
   -0.42884E+08         0.57006E+07         0.00000E+00
    0.57006E+07        -0.50542E+08         0.00000E+00
    0.00000E+00         0.00000E+00        -0.42995E+08
 
   -0.42958E+08         0.58749E+07         0.00000E+00
    0.58749E+07        -0.50508E+08         0.00000E+00
    0.00000E+00         0.00000E+00        -0.42995E+08
 
   -0.37947E+08         0.34851E+05         0.00000E+00
    0.34851E+05        -0.50001E+08         0.00000E+00
    0.00000E+00         0.00000E+00        -0.42066E+08
 
   -0.38159E+08         0.10212E+06         0.00000E+00
    0.10212E+06        -0.50005E+08         0.00000E+00
    0.00000E+00         0.00000E+00        -0.42066E+08
 
   -0.38359E+08         0.16904E+06         0.00000E+00
    0.16904E+06        -0.50013E+08         0.00000E+00
    0.00000E+00         0.00000E+00        -0.42066E+08
 
   -0.38549E+08         0.23597E+06         0.00000E+00
    0.23597E+06        -0.50023E+08         0.00000E+00
    0.00000E+00         0.00000E+00        -0.42066E+08
 
   -0.38729E+08         0.30326E+06         0.00000E+00
    0.30326E+06        -0.50037E+08         0.00000E+00
    0.00000E+00         0.00000E+00        -0.42066E+08
 
   -0.38899E+08         0.37122E+06         0.00000E+00
    0.37122E+06        -0.50054E+08         0.00000E+00
    0.00000E+00         0.00000E+00        -0.42066E+08
 
   -0.39059E+08         0.44016E+06         0.00000E+00
    0.44016E+06        -0.50074E+08         0.00000E+00
    0.00000E+00         0.00000E+00        -0.42066E+08
 
   -0.39211E+08         0.51034E+06         0.00000E+00
    0.51034E+06        -0.50096E+08         0.00000E+00
    0.00000E+00         0.00000E+00        -0.42066E+08
 
   -0.39354E+08         0.58202E+06         0.00000E+00
    0.58202E+06        -0.50120E+08         0.00000E+00
    0.00000E+00         0.00000E+00        -0.42066E+08
 
   -0.39488E+08         0.65544E+06         0.00000E+00
    0.65544E+06        -0.50147E+08         0.00000E+00
    0.00000E+00         0.00000E+00        -0.42066E+08
 
   -0.39615E+08         0.73081E+06         0.00000E+00
    0.73081E+06        -0.50175E+08         0.00000E+00
    0.00000E+00         0.00000E+00        -0.42066E+08
 
   -0.39735E+08         0.80834E+06         0.00000E+00
    0.80834E+06        -0.50206E+08         0.00000E+00
    0.00000E+00         0.00000E+00        -0.42066E+08
 
   -0.39847E+08         0.88820E+06         0.00000E+00
    0.88820E+06        -0.50237E+08         0.00000E+00
    0.00000E+00         0.00000E+00        -0.42066E+08
 
   -0.39953E+08         0.97058E+06         0.00000E+00
    0.97058E+06        -0.50270E+08         0.00000E+00
    0.00000E+00         0.00000E+00        -0.42066E+08
 
   -0.40053E+08         0.10556E+07         0.00000E+00
    0.10556E+07        -0.50304E+08         0.00000E+00
    0.00000E+00         0.00000E+00        -0.42066E+08
 
   -0.40146E+08         0.11434E+07         0.00000E+00
    0.11434E+07        -0.50339E+08         0.00000E+00
    0.00000E+00         0.00000E+00        -0.42066E+08
 
   -0.40235E+08         0.12342E+07         0.00000E+00
    0.12342E+07        -0.50375E+08         0.00000E+00
    0.00000E+00         0.00000E+00        -0.42066E+08
 
   -0.40318E+08         0.13279E+07         0.00000E+00
    0.13279E+07        -0.50411E+08         0.00000E+00
    0.00000E+00         0.00000E+00        -0.42066E+08
 
   -0.40396E+08         0.14248E+07         0.00000E+00
    0.14248E+07        -0.50448E+08         0.00000E+00
    0.00000E+00         0.00000E+00        -0.42066E+08
 
   -0.40470E+08         0.15248E+07         0.00000E+00
    0.15248E+07        -0.50484E+08         0.00000E+00
    0.00000E+00         0.00000E+00        -0.42066E+08
 
   -0.40540E+08         0.16282E+07         0.00000E+00
    0.16282E+07        -0.50521E+08         0.00000E+00
    0.00000E+00         0.00000E+00        -0.42066E+08
 
   -0.40606E+08         0.17348E+07         0.00000E+00
    0.17348E+07        -0.50557E+08         0.00000E+00
    0.00000E+00         0.00000E+00        -0.42066E+08
 
   -0.40669E+08         0.18449E+07         0.00000E+00
    0.18449E+07        -0.50593E+08         0.00000E+00
    0.00000E+00         0.00000E+00        -0.42066E+08
 
   -0.40728E+08         0.19583E+07         0.00000E+00
    0.19583E+07        -0.50629E+08         0.00000E+00
    0.00000E+00         0.00000E+00        -0.42066E+08
 
   -0.40785E+08         0.20752E+07         0.00000E+00
    0.20752E+07        -0.50663E+08         0.00000E+00
    0.00000E+00         0.00000E+00        -0.42066E+08
 
   -0.40840E+08         0.21955E+07         0.00000E+00
    0.21955E+07        -0.50697E+08         0.00000E+00
    0.00000E+00         0.00000E+00        -0.42066E+08
 
   -0.40892E+08         0.23192E+07         0.00000E+00
    0.23192E+07        -0.50729E+08         0.00000E+00
    0.00000E+00         0.00000E+00        -0.42066E+08
 
   -0.40943E+08         0.24464E+07         0.00000E+00
    0.24464E+07        -0.50760E+08         0.00000E+00
    0.00000E+00         0.00000E+00        -0.42066E+08
 
   -0.40991E+08         0.25771E+07         0.00000E+00
    0.25771E+07        -0.50790E+08         0.00000E+00
    0.00000E+00         0.00000E+00        -0.42066E+08
 
   -0.41039E+08         0.27112E+07         0.00000E+00
    0.27112E+07        -0.50818E+08         0.00000E+00
    0.00000E+00         0.00000E+00        -0.42066E+08
 
   -0.41086E+08         0.28486E+07         0.00000E+00
    0.28486E+07        -0.50845E+08         0.00000E+00
    0.00000E+00         0.00000E+00        -0.42066E+08
 
   -0.41131E+08         0.29894E+07         0.00000E+00
    0.29894E+07        -0.50869E+08         0.00000E+00
    0.00000E+00         0.00000E+00        -0.42066E+08
 
   -0.41176E+08         0.31336E+07         0.00000E+00
    0.31336E+07        -0.50892E+08         0.00000E+00
    0.00000E+00         0.00000E+00        -0.42066E+08
 
   -0.41221E+08         0.32810E+07         0.00000E+00
    0.32810E+07        -0.50912E+08         0.00000E+00
    0.00000E+00         0.00000E+00        -0.42066E+08
 
   -0.41266E+08         0.34316E+07         0.00000E+00
    0.34316E+07        -0.50930E+08         0.00000E+00
    0.00000E+00         0.00000E+00        -0.42066E+08
 
   -0.41311E+08         0.35854E+07         0.00000E+00
    0.35854E+07        -0.50946E+08         0.00000E+00
    0.00000E+00         0.00000E+00        -0.42066E+08
 
   -0.41356E+08         0.37422E+07         0.00000E+00
    0.37422E+07        -0.50959E+08         0.00000E+00
    0.00000E+00         0.00000E+00        -0.42066E+08
 
   -0.41401E+08         0.39022E+07         0.00000E+00
    0.39022E+07        -0.50970E+08         0.00000E+00
    0.00000E+00         0.00000E+00        -0.42066E+08
 
   -0.41447E+08         0.40651E+07         0.00000E+00
    0.40651E+07        -0.50978E+08         0.00000E+00
    0.00000E+00         0.00000E+00        -0.42066E+08
 
   -0.41494E+08         0.42309E+07         0.00000E+00
    0.42309E+07        -0.50983E+08         0.00000E+00
    0.00000E+00         0.00000E+00        -0.42066E+08
 
   -0.41542E+08         0.43996E+07         0.00000E+00
    0.43996E+07        -0.50985E+08         0.00000E+00
    0.00000E+00         0.00000E+00        -0.42066E+08
 
   -0.41591E+08         0.45712E+07         0.00000E+00
    0.45712E+07        -0.50984E+08         0.00000E+00
    0.00000E+00         0.00000E+00        -0.42066E+08
 
   -0.41641E+08         0.47455E+07         0.00000E+00
    0.47455E+07        -0.50979E+08         0.00000E+00
    0.00000E+00         0.00000E+00        -0.42066E+08
 
   -0.41692E+08         0.49225E+07         0.00000E+00
    0.49225E+07        -0.50972E+08         0.00000E+00
    0.00000E+00         0.00000E+00        -0.42066E+08
 
   -0.41745E+08         0.51023E+07         0.00000E+00
    0.51023E+07        -0.50962E+08         0.00000E+00
    0.00000E+00         0.00000E+00        -0.42066E+08
 
   -0.41799E+08         0.52848E+07         0.00000E+00
    0.52848E+07        -0.50948E+08         0.00000E+00
    0.00000E+00         0.00000E+00        -0.42066E+08
 
   -0.41855E+08         0.54698E+07         0.00000E+00
    0.54698E+07        -0.50930E+08         0.00000E+00
    0.00000E+00         0.00000E+00        -0.42066E+08
 
   -0.41913E+08         0.56573E+07         0.00000E+00
    0.56573E+07        -0.50909E+08         0.00000E+00
    0.00000E+00         0.00000E+00        -0.42066E+08
 
   -0.41973E+08         0.58474E+07         0.00000E+00
    0.58474E+07        -0.50885E+08         0.00000E+00
    0.00000E+00         0.00000E+00        -0.42066E+08
 
   -0.42035E+08         0.60402E+07         0.00000E+00
    0.60402E+07        -0.50857E+08         0.00000E+00
    0.00000E+00         0.00000E+00        -0.42066E+08
 
   -0.37660E+08         0.23107E+05         0.00000E+00
    0.23107E+05        -0.50001E+08         0.00000E+00
    0.00000E+00         0.00000E+00        -0.41041E+08
 
   -0.37871E+08         0.69954E+05         0.00000E+00
    0.69954E+05        -0.50006E+08         0.00000E+00
    0.00000E+00         0.00000E+00        -0.41041E+08
 
   -0.38070E+08         0.11759E+06         0.00000E+00
    0.11759E+06        -0.50016E+08         0.00000E+00
    0.00000E+00         0.00000E+00        -0.41041E+08
 
   -0.38256E+08         0.16639E+06         0.00000E+00
    0.16639E+06        -0.50029E+08         0.00000E+00
    0.00000E+00         0.00000E+00        -0.41041E+08
 
   -0.38430E+08         0.21670E+06         0.00000E+00
    0.21670E+06        -0.50046E+08         0.00000E+00
    0.00000E+00         0.00000E+00        -0.41041E+08
 
   -0.38593E+08         0.26884E+06         0.00000E+00
    0.26884E+06        -0.50067E+08         0.00000E+00
    0.00000E+00         0.00000E+00        -0.41041E+08
 
   -0.38745E+08         0.32311E+06         0.00000E+00
    0.32311E+06        -0.50092E+08         0.00000E+00
    0.00000E+00         0.00000E+00        -0.41041E+08
 
   -0.38887E+08         0.37978E+06         0.00000E+00
    0.37978E+06        -0.50119E+08         0.00000E+00
    0.00000E+00         0.00000E+00        -0.41041E+08
 
   -0.39019E+08         0.43909E+06         0.00000E+00
    0.43909E+06        -0.50149E+08         0.00000E+00
    0.00000E+00         0.00000E+00        -0.41041E+08
 
   -0.39142E+08         0.50128E+06         0.00000E+00
    0.50128E+06        -0.50182E+08         0.00000E+00
    0.00000E+00         0.00000E+00        -0.41041E+08
 
   -0.39256E+08         0.56655E+06         0.00000E+00
    0.56655E+06        -0.50218E+08         0.00000E+00
    0.00000E+00         0.00000E+00        -0.41041E+08
 
   -0.39362E+08         0.63509E+06         0.00000E+00
    0.63509E+06        -0.50255E+08         0.00000E+00
    0.00000E+00         0.00000E+00        -0.41041E+08
 
   -0.39459E+08         0.70708E+06         0.00000E+00
    0.70708E+06        -0.50294E+08         0.00000E+00
    0.00000E+00         0.00000E+00        -0.41041E+08
 
   -0.39550E+08         0.78266E+06         0.00000E+00
    0.78266E+06        -0.50335E+08         0.00000E+00
    0.00000E+00         0.00000E+00        -0.41041E+08
 
   -0.39633E+08         0.86198E+06         0.00000E+00
    0.86198E+06        -0.50377E+08         0.00000E+00
    0.00000E+00         0.00000E+00        -0.41041E+08
 
   -0.39710E+08         0.94514E+06         0.00000E+00
    0.94514E+06        -0.50421E+08         0.00000E+00
    0.00000E+00         0.00000E+00        -0.41041E+08
 
   -0.39781E+08         0.10323E+07         0.00000E+00
    0.10323E+07        -0.50465E+08         0.00000E+00
    0.00000E+00         0.00000E+00        -0.41041E+08
 
   -0.39846E+08         0.11234E+07         0.00000E+00
    0.11234E+07        -0.50510E+08         0.00000E+00
    0.00000E+00         0.00000E+00        -0.41041E+08
 
   -0.39906E+08         0.12188E+07         0.00000E+00
    0.12188E+07        -0.50556E+08         0.00000E+00
    0.00000E+00         0.00000E+00        -0.41041E+08
 
   -0.39962E+08         0.13183E+07         0.00000E+00
    0.13183E+07        -0.50602E+08         0.00000E+00
    0.00000E+00         0.00000E+00        -0.41041E+08
 
   -0.40013E+08         0.14220E+07         0.00000E+00
    0.14220E+07        -0.50648E+08         0.00000E+00
    0.00000E+00         0.00000E+00        -0.41041E+08
 
   -0.40060E+08         0.15300E+07         0.00000E+00
    0.15300E+07        -0.50694E+08         0.00000E+00
    0.00000E+00         0.00000E+00        -0.41041E+08
 
   -0.40103E+08         0.16424E+07         0.00000E+00
    0.16424E+07        -0.50740E+08         0.00000E+00
    0.00000E+00         0.00000E+00        -0.41041E+08
 
   -0.40143E+08         0.17591E+07         0.00000E+00
    0.17591E+07        -0.50785E+08         0.00000E+00
    0.00000E+00         0.00000E+00        -0.41041E+08
 
   -0.40181E+08         0.18801E+07         0.00000E+00
    0.18801E+07        -0.50829E+08         0.00000E+00
    0.00000E+00         0.00000E+00        -0.41041E+08
 
   -0.40216E+08         0.20055E+07         0.00000E+00
    0.20055E+07        -0.50873E+08         0.00000E+00
    0.00000E+00         0.00000E+00        -0.41041E+08
 
   -0.40249E+08         0.21352E+07         0.00000E+00
    0.21352E+07        -0.50915E+08         0.00000E+00
    0.00000E+00         0.00000E+00        -0.41041E+08
 
   -0.40280E+08         0.22692E+07         0.00000E+00
    0.22692E+07        -0.50956E+08         0.00000E+00
    0.00000E+00         0.00000E+00        -0.41041E+08
 
   -0.40310E+08         0.24074E+07         0.00000E+00
    0.24074E+07        -0.50996E+08         0.00000E+00
    0.00000E+00         0.00000E+00        -0.41041E+08
 
   -0.40338E+08         0.25499E+07         0.00000E+00
    0.25499E+07        -0.51034E+08         0.00000E+00
    0.00000E+00         0.00000E+00        -0.41041E+08
 
   -0.40366E+08         0.26966E+07         0.00000E+00
    0.26966E+07        -0.51071E+08         0.00000E+00
    0.00000E+00         0.00000E+00        -0.41041E+08
 
   -0.40393E+08         0.28474E+07         0.00000E+00
    0.28474E+07        -0.51105E+08         0.00000E+00
    0.00000E+00         0.00000E+00        -0.41041E+08
 
   -0.40420E+08         0.30023E+07         0.00000E+00
    0.30023E+07        -0.51137E+08         0.00000E+00
    0.00000E+00         0.00000E+00        -0.41041E+08
 
   -0.40447E+08         0.31611E+07         0.00000E+00
    0.31611E+07        -0.51168E+08         0.00000E+00
    0.00000E+00         0.00000E+00        -0.41041E+08
 
   -0.40474E+08         0.33238E+07         0.00000E+00
    0.33238E+07        -0.51195E+08         0.00000E+00
    0.00000E+00         0.00000E+00        -0.41041E+08
 
   -0.40502E+08         0.34903E+07         0.00000E+00
    0.34903E+07        -0.51220E+08         0.00000E+00
    0.00000E+00         0.00000E+00        -0.41041E+08
 
   -0.40530E+08         0.36606E+07         0.00000E+00
    0.36606E+07        -0.51243E+08         0.00000E+00
    0.00000E+00         0.00000E+00        -0.41041E+08
 
   -0.40559E+08         0.38344E+07         0.00000E+00
    0.38344E+07        -0.51262E+08         0.00000E+00
    0.00000E+00         0.00000E+00        -0.41041E+08
 
   -0.40589E+08         0.40118E+07         0.00000E+00
    0.40118E+07        -0.51279E+08         0.00000E+00
    0.00000E+00         0.00000E+00        -0.41041E+08
 
   -0.40620E+08         0.41925E+07         0.00000E+00
    0.41925E+07        -0.51292E+08         0.00000E+00
    0.00000E+00         0.00000E+00        -0.41041E+08
 
   -0.40652E+08         0.43766E+07         0.00000E+00
    0.43766E+07        -0.51303E+08         0.00000E+00
    0.00000E+00         0.00000E+00        -0.41041E+08
 
   -0.40686E+08         0.45640E+07         0.00000E+00
    0.45640E+07        -0.51310E+08         0.00000E+00
    0.00000E+00         0.00000E+00        -0.41041E+08
 
   -0.40721E+08         0.47545E+07         0.00000E+00
    0.47545E+07        -0.51314E+08         0.00000E+00
    0.00000E+00         0.00000E+00        -0.41041E+08
 
   -0.40758E+08         0.49481E+07         0.00000E+00
    0.49481E+07        -0.51315E+08         0.00000E+00
    0.00000E+00         0.00000E+00        -0.41041E+08
 
   -0.40797E+08         0.51447E+07         0.00000E+00
    0.51447E+07        -0.51312E+08         0.00000E+00
    0.00000E+00         0.00000E+00        -0.41041E+08
 
   -0.40836E+08         0.53443E+07         0.00000E+00
    0.53443E+07        -0.51305E+08         0.00000E+00
    0.00000E+00         0.00000E+00        -0.41041E+08
 
   -0.40878E+08         0.55473E+07         0.00000E+00
    0.55473E+07        -0.51296E+08         0.00000E+00
    0.00000E+00         0.00000E+00        -0.41041E+08
 
   -0.40922E+08         0.57533E+07         0.00000E+00
    0.57533E+07        -0.51282E+08         0.00000E+00
    0.00000E+00         0.00000E+00        -0.41041E+08
 
   -0.40968E+08         0.59625E+07         0.00000E+00
    0.59625E+07        -0.51265E+08         0.00000E+00
    0.00000E+00         0.00000E+00        -0.41041E+08
 
   -0.41017E+08         0.61739E+07         0.00000E+00
    0.61739E+07        -0.51243E+08         0.00000E+00
    0.00000E+00         0.00000E+00        -0.41041E+08
 
   -0.37489E+08         0.85527E+04         0.00000E+00
    0.85527E+04        -0.50002E+08         0.00000E+00
    0.00000E+00         0.00000E+00        -0.39914E+08
 
   -0.37694E+08         0.30416E+05         0.00000E+00
    0.30416E+05        -0.50008E+08         0.00000E+00
    0.00000E+00         0.00000E+00        -0.39914E+08
 
   -0.37884E+08         0.54561E+05         0.00000E+00
    0.54561E+05        -0.50019E+08         0.00000E+00
    0.00000E+00         0.00000E+00        -0.39914E+08
 
   -0.38060E+08         0.81349E+05         0.00000E+00
    0.81349E+05        -0.50035E+08         0.00000E+00
    0.00000E+00         0.00000E+00        -0.39914E+08
 
   -0.38222E+08         0.11111E+06         0.00000E+00
    0.11111E+06        -0.50056E+08         0.00000E+00
    0.00000E+00         0.00000E+00        -0.39914E+08
 
   -0.38372E+08         0.14414E+06         0.00000E+00
    0.14414E+06        -0.50081E+08         0.00000E+00
    0.00000E+00         0.00000E+00        -0.39914E+08
 
   -0.38509E+08         0.18073E+06         0.00000E+00
    0.18073E+06        -0.50110E+08         0.00000E+00
    0.00000E+00         0.00000E+00        -0.39914E+08
 
   -0.38635E+08         0.22111E+06         0.00000E+00
    0.22111E+06        -0.50143E+08         0.00000E+00
    0.00000E+00         0.00000E+00        -0.39914E+08
 
   -0.38750E+08         0.26551E+06         0.00000E+00
    0.26551E+06        -0.50179E+08         0.00000E+00
    0.00000E+00         0.00000E+00        -0.39914E+08
 
   -0.38855E+08         0.31414E+06         0.00000E+00
    0.31414E+06        -0.50218E+08         0.00000E+00
    0.00000E+00         0.00000E+00        -0.39914E+08
 
   -0.38950E+08         0.36717E+06         0.00000E+00
    0.36717E+06        -0.50260E+08         0.00000E+00
    0.00000E+00         0.00000E+00        -0.39914E+08
 
   -0.39035E+08         0.42478E+06         0.00000E+00
    0.42478E+06        -0.50305E+08         0.00000E+00
    0.00000E+00         0.00000E+00        -0.39914E+08
 
   -0.39112E+08         0.48709E+06         0.00000E+00
    0.48709E+06        -0.50352E+08         0.00000E+00
    0.00000E+00         0.00000E+00        -0.39914E+08
 
   -0.39181E+08         0.55424E+06         0.00000E+00
    0.55424E+06        -0.50400E+08         0.00000E+00
    0.00000E+00         0.00000E+00        -0.39914E+08
 
   -0.39243E+08         0.62635E+06         0.00000E+00
    0.62635E+06        -0.50451E+08         0.00000E+00
    0.00000E+00         0.00000E+00        -0.39914E+08
 
   -0.39297E+08         0.70349E+06         0.00000E+00
    0.70349E+06        -0.50503E+08         0.00000E+00
    0.00000E+00         0.00000E+00        -0.39914E+08
 
   -0.39345E+08         0.78576E+06         0.00000E+00
    0.78576E+06        -0.50556E+08         0.00000E+00
    0.00000E+00         0.00000E+00        -0.39914E+08
 
   -0.39387E+08         0.87322E+06         0.00000E+00
    0.87322E+06        -0.50610E+08         0.00000E+00
    0.00000E+00         0.00000E+00        -0.39914E+08
 
   -0.39424E+08         0.96593E+06         0.00000E+00
    0.96593E+06        -0.50665E+08         0.00000E+00
    0.00000E+00         0.00000E+00        -0.39914E+08
 
   -0.39456E+08         0.10639E+07         0.00000E+00
    0.10639E+07        -0.50721E+08         0.00000E+00
    0.00000E+00         0.00000E+00        -0.39914E+08
 
   -0.39483E+08         0.11672E+07         0.00000E+00
    0.11672E+07        -0.50776E+08         0.00000E+00
    0.00000E+00         0.00000E+00        -0.39914E+08
 
   -0.39506E+08         0.12759E+07         0.00000E+00
    0.12759E+07        -0.50832E+08         0.00000E+00
    0.00000E+00         0.00000E+00        -0.39914E+08
 
   -0.39525E+08         0.13899E+07         0.00000E+00
    0.13899E+07        -0.50888E+08         0.00000E+00
    0.00000E+00         0.00000E+00        -0.39914E+08
 
   -0.39541E+08         0.15092E+07         0.00000E+00
    0.15092E+07        -0.50943E+08         0.00000E+00
    0.00000E+00         0.00000E+00        -0.39914E+08
 
   -0.39555E+08         0.16339E+07         0.00000E+00
    0.16339E+07        -0.50998E+08         0.00000E+00
    0.00000E+00         0.00000E+00        -0.39914E+08
 
   -0.39566E+08         0.17639E+07         0.00000E+00
    0.17639E+07        -0.51052E+08         0.00000E+00
    0.00000E+00         0.00000E+00        -0.39914E+08
 
   -0.39575E+08         0.18992E+07         0.00000E+00
    0.18992E+07        -0.51105E+08         0.00000E+00
    0.00000E+00         0.00000E+00        -0.39914E+08
 
   -0.39582E+08         0.20397E+07         0.00000E+00
    0.20397E+07        -0.51157E+08         0.00000E+00
    0.00000E+00         0.00000E+00        -0.39914E+08
 
   -0.39588E+08         0.21854E+07         0.00000E+00
    0.21854E+07        -0.51208E+08         0.00000E+00
    0.00000E+00         0.00000E+00        -0.39914E+08
 
   -0.39594E+08         0.23362E+07         0.00000E+00
    0.23362E+07        -0.51257E+08         0.00000E+00
    0.00000E+00         0.00000E+00        -0.39914E+08
 
   -0.39599E+08         0.24922E+07         0.00000E+00
    0.24922E+07        -0.51304E+08         0.00000E+00
    0.00000E+00         0.00000E+00        -0.39914E+08
 
   -0.39603E+08         0.26531E+07         0.00000E+00
    0.26531E+07        -0.51350E+08         0.00000E+00
    0.00000E+00         0.00000E+00        -0.39914E+08
 
   -0.39608E+08         0.28189E+07         0.00000E+00
    0.28189E+07        -0.51393E+08         0.00000E+00
    0.00000E+00         0.00000E+00        -0.39914E+08
 
   -0.39613E+08         0.29895E+07         0.00000E+00
    0.29895E+07        -0.51435E+08         0.00000E+00
    0.00000E+00         0.00000E+00        -0.39914E+08
 
   -0.39619E+08         0.31647E+07         0.00000E+00
    0.31647E+07        -0.51473E+08         0.00000E+00
    0.00000E+00         0.00000E+00        -0.39914E+08
 
   -0.39626E+08         0.33446E+07         0.00000E+00
    0.33446E+07        -0.51510E+08         0.00000E+00
    0.00000E+00         0.00000E+00        -0.39914E+08
 
   -0.39634E+08         0.35289E+07         0.00000E+00
    0.35289E+07        -0.51543E+08         0.00000E+00
    0.00000E+00         0.00000E+00        -0.39914E+08
 
   -0.39644E+08         0.37176E+07         0.00000E+00
    0.37176E+07        -0.51574E+08         0.00000E+00
    0.00000E+00         0.00000E+00        -0.39914E+08
 
   -0.39655E+08         0.39104E+07         0.00000E+00
    0.39104E+07        -0.51601E+08         0.00000E+00
    0.00000E+00         0.00000E+00        -0.39914E+08
 
   -0.39668E+08         0.41073E+07         0.00000E+00
    0.41073E+07        -0.51625E+08         0.00000E+00
    0.00000E+00         0.00000E+00        -0.39914E+08
 
   -0.39682E+08         0.43079E+07         0.00000E+00
    0.43079E+07        -0.51646E+08         0.00000E+00
    0.00000E+00         0.00000E+00        -0.39914E+08
 
   -0.39699E+08         0.45123E+07         0.00000E+00
    0.45123E+07        -0.51663E+08         0.00000E+00
    0.00000E+00         0.00000E+00        -0.39914E+08
 
   -0.39717E+08         0.47202E+07         0.00000E+00
    0.47202E+07        -0.51677E+08         0.00000E+00
    0.00000E+00         0.00000E+00        -0.39914E+08
 
   -0.39738E+08         0.49317E+07         0.00000E+00
    0.49317E+07        -0.51687E+08         0.00000E+00
    0.00000E+00         0.00000E+00        -0.39914E+08
 
   -0.39761E+08         0.51466E+07         0.00000E+00
    0.51466E+07        -0.51693E+08         0.00000E+00
    0.00000E+00         0.00000E+00        -0.39914E+08
 
   -0.39785E+08         0.53644E+07         0.00000E+00
    0.53644E+07        -0.51695E+08         0.00000E+00
    0.00000E+00         0.00000E+00        -0.39914E+08
 
   -0.39812E+08         0.55846E+07         0.00000E+00
    0.55846E+07        -0.51693E+08         0.00000E+00
    0.00000E+00         0.00000E+00        -0.39914E+08
 
   -0.39839E+08         0.58080E+07         0.00000E+00
    0.58080E+07        -0.51688E+08         0.00000E+00
    0.00000E+00         0.00000E+00        -0.39914E+08
 
   -0.39867E+08         0.60352E+07         0.00000E+00
    0.60352E+07        -0.51681E+08         0.00000E+00
    0.00000E+00         0.00000E+00        -0.39914E+08
 
   -0.39898E+08         0.62697E+07         0.00000E+00
    0.62697E+07        -0.51671E+08         0.00000E+00
    0.00000E+00         0.00000E+00        -0.39914E+08
 
   -0.37459E+08        -0.88728E+04         0.00000E+00
   -0.88728E+04        -0.50002E+08         0.00000E+00
    0.00000E+00         0.00000E+00        -0.38682E+08
 
   -0.37649E+08        -0.16525E+05         0.00000E+00
   -0.16525E+05        -0.50009E+08         0.00000E+00
    0.00000E+00         0.00000E+00        -0.38682E+08
 
   -0.37822E+08        -0.20012E+05         0.00000E+00
   -0.20012E+05        -0.50022E+08         0.00000E+00
    0.00000E+00         0.00000E+00        -0.38682E+08
 
   -0.37980E+08        -0.19017E+05         0.00000E+00
   -0.19017E+05        -0.50041E+08         0.00000E+00
    0.00000E+00         0.00000E+00        -0.38682E+08
 
   -0.38122E+08        -0.13256E+05         0.00000E+00
   -0.13256E+05        -0.50065E+08         0.00000E+00
    0.00000E+00         0.00000E+00        -0.38682E+08
 
   -0.38250E+08        -0.24745E+04         0.00000E+00
   -0.24745E+04        -0.50094E+08         0.00000E+00
    0.00000E+00         0.00000E+00        -0.38682E+08
 
   -0.38365E+08         0.13553E+05         0.00000E+00
    0.13553E+05        -0.50128E+08         0.00000E+00
    0.00000E+00         0.00000E+00        -0.38682E+08
 
   -0.38468E+08         0.35026E+05         0.00000E+00
    0.35026E+05        -0.50165E+08         0.00000E+00
    0.00000E+00         0.00000E+00        -0.38682E+08
 
   -0.38558E+08         0.62122E+05         0.00000E+00
    0.62122E+05        -0.50207E+08         0.00000E+00
    0.00000E+00         0.00000E+00        -0.38682E+08
 
   -0.38638E+08         0.94995E+05         0.00000E+00
    0.94995E+05        -0.50252E+08         0.00000E+00
    0.00000E+00         0.00000E+00        -0.38682E+08
 
   -0.38706E+08         0.13378E+06         0.00000E+00
    0.13378E+06        -0.50300E+08         0.00000E+00
    0.00000E+00         0.00000E+00        -0.38682E+08
 
   -0.38765E+08         0.17859E+06         0.00000E+00
    0.17859E+06        -0.50352E+08         0.00000E+00
    0.00000E+00         0.00000E+00        -0.38682E+08
 
   -0.38815E+08         0.22952E+06         0.00000E+00
    0.22952E+06        -0.50405E+08         0.00000E+00
    0.00000E+00         0.00000E+00        -0.38682E+08
 
   -0.38856E+08         0.28666E+06         0.00000E+00
    0.28666E+06        -0.50462E+08         0.00000E+00
    0.00000E+00         0.00000E+00        -0.38682E+08
 
   -0.38890E+08         0.35007E+06         0.00000E+00
    0.35007E+06        -0.50520E+08         0.00000E+00
    0.00000E+00         0.00000E+00        -0.38682E+08
 
   -0.38916E+08         0.41981E+06         0.00000E+00
    0.41981E+06        -0.50579E+08         0.00000E+00
    0.00000E+00         0.00000E+00        -0.38682E+08
 
   -0.38935E+08         0.49591E+06         0.00000E+00
    0.49591E+06        -0.50641E+08         0.00000E+00
    0.00000E+00         0.00000E+00        -0.38682E+08
 
   -0.38948E+08         0.57841E+06         0.00000E+00
    0.57841E+06        -0.50703E+08         0.00000E+00
    0.00000E+00         0.00000E+00        -0.38682E+08
 
   -0.38955E+08         0.66733E+06         0.00000E+00
    0.66733E+06        -0.50767E+08         0.00000E+00
    0.00000E+00         0.00000E+00        -0.38682E+08
 
   -0.38958E+08         0.76268E+06         0.00000E+00
    0.76268E+06        -0.50831E+08         0.00000E+00
    0.00000E+00         0.00000E+00        -0.38682E+08
 
   -0.38955E+08         0.86445E+06         0.00000E+00
    0.86445E+06        -0.50896E+08         0.00000E+00
    0.00000E+00         0.00000E+00        -0.38682E+08
 
   -0.38949E+08         0.97264E+06         0.00000E+00
    0.97264E+06        -0.50961E+08         0.00000E+00
    0.00000E+00         0.00000E+00        -0.38682E+08
 
   -0.38939E+08         0.10872E+07         0.00000E+00
    0.10872E+07        -0.51027E+08         0.00000E+00
    0.00000E+00         0.00000E+00        -0.38682E+08
 
   -0.38926E+08         0.12082E+07         0.00000E+00
    0.12082E+07        -0.51092E+08         0.00000E+00
    0.00000E+00         0.00000E+00        -0.38682E+08
 
   -0.38910E+08         0.13355E+07         0.00000E+00
    0.13355E+07        -0.51157E+08         0.00000E+00
    0.00000E+00         0.00000E+00        -0.38682E+08
 
   -0.38892E+08         0.14692E+07         0.00000E+00
    0.14692E+07        -0.51221E+08         0.00000E+00
    0.00000E+00         0.00000E+00        -0.38682E+08
 
   -0.38873E+08         0.16090E+07         0.00000E+00
    0.16090E+07        -0.51285E+08         0.00000E+00
    0.00000E+00         0.00000E+00        -0.38682E+08
 
   -0.38852E+08         0.17551E+07         0.00000E+00
    0.17551E+07        -0.51348E+08         0.00000E+00
    0.00000E+00         0.00000E+00        -0.38682E+08
 
   -0.38830E+08         0.19074E+07         0.00000E+00
    0.19074E+07        -0.51410E+08         0.00000E+00
    0.00000E+00         0.00000E+00        -0.38682E+08
 
   -0.38807E+08         0.20657E+07         0.00000E+00
    0.20657E+07        -0.51470E+08         0.00000E+00
    0.00000E+00         0.00000E+00        -0.38682E+08
 
   -0.38785E+08         0.22300E+07         0.00000E+00
    0.22300E+07        -0.51530E+08         0.00000E+00
    0.00000E+00         0.00000E+00        -0.38682E+08
 
   -0.38762E+08         0.24002E+07         0.00000E+00
    0.24002E+07        -0.51587E+08         0.00000E+00
    0.00000E+00         0.00000E+00        -0.38682E+08
 
   -0.38741E+08         0.25762E+07         0.00000E+00
    0.25762E+07        -0.51643E+08         0.00000E+00
    0.00000E+00         0.00000E+00        -0.38682E+08
 
   -0.38720E+08         0.27579E+07         0.00000E+00
    0.27579E+07        -0.51697E+08         0.00000E+00
    0.00000E+00         0.00000E+00        -0.38682E+08
 
   -0.38701E+08         0.29452E+07         0.00000E+00
    0.29452E+07        -0.51749E+08         0.00000E+00
    0.00000E+00         0.00000E+00        -0.38682E+08
 
   -0.38683E+08         0.31380E+07         0.00000E+00
    0.31380E+07        -0.51798E+08         0.00000E+00
    0.00000E+00         0.00000E+00        -0.38682E+08
 
   -0.38667E+08         0.33360E+07         0.00000E+00
    0.33360E+07        -0.51845E+08         0.00000E+00
    0.00000E+00         0.00000E+00        -0.38682E+08
 
   -0.38653E+08         0.35391E+07         0.00000E+00
    0.35391E+07        -0.51889E+08         0.00000E+00
    0.00000E+00         0.00000E+00        -0.38682E+08
 
   -0.38642E+08         0.37473E+07         0.00000E+00
    0.37473E+07        -0.51931E+08         0.00000E+00
    0.00000E+00         0.00000E+00        -0.38682E+08
 
   -0.38633E+08         0.39604E+07         0.00000E+00
    0.39604E+07        -0.51969E+08         0.00000E+00
    0.00000E+00         0.00000E+00        -0.38682E+08
 
   -0.38627E+08         0.41784E+07         0.00000E+00
    0.41784E+07        -0.52005E+08         0.00000E+00
    0.00000E+00         0.00000E+00        -0.38682E+08
 
   -0.38624E+08         0.44008E+07         0.00000E+00
    0.44008E+07        -0.52037E+08         0.00000E+00
    0.00000E+00         0.00000E+00        -0.38682E+08
 
   -0.38624E+08         0.46272E+07         0.00000E+00
    0.46272E+07        -0.52065E+08         0.00000E+00
    0.00000E+00         0.00000E+00        -0.38682E+08
 
   -0.38626E+08         0.48567E+07         0.00000E+00
    0.48567E+07        -0.52089E+08         0.00000E+00
    0.00000E+00         0.00000E+00        -0.38682E+08
 
   -0.38630E+08         0.50902E+07         0.00000E+00
    0.50902E+07        -0.52112E+08         0.00000E+00
    0.00000E+00         0.00000E+00        -0.38682E+08
 
   -0.38636E+08         0.53284E+07         0.00000E+00
    0.53284E+07        -0.52132E+08         0.00000E+00
    0.00000E+00         0.00000E+00        -0.38682E+08
 
   -0.38644E+08         0.55731E+07         0.00000E+00
    0.55731E+07        -0.52148E+08         0.00000E+00
    0.00000E+00         0.00000E+00        -0.38682E+08
 
   -0.38657E+08         0.58206E+07         0.00000E+00
    0.58206E+07        -0.52152E+08         0.00000E+00
    0.00000E+00         0.00000E+00        -0.38682E+08
 
   -0.38672E+08         0.60691E+07         0.00000E+00
    0.60691E+07        -0.52146E+08         0.00000E+00
    0.00000E+00         0.00000E+00        -0.38682E+08
 
   -0.38681E+08         0.63090E+07         0.00000E+00
    0.63090E+07        -0.52135E+08         0.00000E+00
    0.00000E+00         0.00000E+00        -0.38682E+08
 
   -0.37592E+08        -0.29002E+05         0.00000E+00
   -0.29002E+05        -0.50002E+08         0.00000E+00
    0.00000E+00         0.00000E+00        -0.37343E+08
 
   -0.37757E+08        -0.70290E+05         0.00000E+00
   -0.70290E+05        -0.50010E+08         0.00000E+00
    0.00000E+00         0.00000E+00        -0.37343E+08
 
   -0.37903E+08        -0.10511E+06         0.00000E+00
   -0.10511E+06        -0.50025E+08         0.00000E+00
    0.00000E+00         0.00000E+00        -0.37343E+08
 
   -0.38032E+08        -0.13324E+06         0.00000E+00
   -0.13324E+06        -0.50046E+08         0.00000E+00
    0.00000E+00         0.00000E+00        -0.37343E+08
 
   -0.38145E+08        -0.15448E+06         0.00000E+00
   -0.15448E+06        -0.50073E+08         0.00000E+00
    0.00000E+00         0.00000E+00        -0.37343E+08
 
   -0.38243E+08        -0.16864E+06         0.00000E+00
   -0.16864E+06        -0.50105E+08         0.00000E+00
    0.00000E+00         0.00000E+00        -0.37343E+08
 
   -0.38326E+08        -0.17560E+06         0.00000E+00
   -0.17560E+06        -0.50142E+08         0.00000E+00
    0.00000E+00         0.00000E+00        -0.37343E+08
 
   -0.38396E+08        -0.17522E+06         0.00000E+00
   -0.17522E+06        -0.50184E+08         0.00000E+00
    0.00000E+00         0.00000E+00        -0.37343E+08
 
   -0.38454E+08        -0.16741E+06         0.00000E+00
   -0.16741E+06        -0.50230E+08         0.00000E+00
    0.00000E+00         0.00000E+00        -0.37343E+08
 
   -0.38500E+08        -0.15209E+06         0.00000E+00
   -0.15209E+06        -0.50280E+08         0.00000E+00
    0.00000E+00         0.00000E+00        -0.37343E+08
 
   -0.38535E+08        -0.12921E+06         0.00000E+00
   -0.12921E+06        -0.50334E+08         0.00000E+00
    0.00000E+00         0.00000E+00        -0.37343E+08
 
   -0.38560E+08        -0.98708E+05         0.00000E+00
   -0.98708E+05        -0.50390E+08         0.00000E+00
    0.00000E+00         0.00000E+00        -0.37343E+08
 
   -0.38575E+08        -0.60571E+05         0.00000E+00
   -0.60571E+05        -0.50449E+08         0.00000E+00
    0.00000E+00         0.00000E+00        -0.37343E+08
 
   -0.38581E+08        -0.14781E+05         0.00000E+00
   -0.14781E+05        -0.50511E+08         0.00000E+00
    0.00000E+00         0.00000E+00        -0.37343E+08
 
   -0.38580E+08         0.38666E+05         0.00000E+00
    0.38666E+05        -0.50575E+08         0.00000E+00
    0.00000E+00         0.00000E+00        -0.37343E+08
 
   -0.38571E+08         0.99762E+05         0.00000E+00
    0.99762E+05        -0.50642E+08         0.00000E+00
    0.00000E+00         0.00000E+00        -0.37343E+08
 
   -0.38555E+08         0.16849E+06         0.00000E+00
    0.16849E+06        -0.50709E+08         0.00000E+00
    0.00000E+00         0.00000E+00        -0.37343E+08
 
   -0.38533E+08         0.24482E+06         0.00000E+00
    0.24482E+06        -0.50779E+08         0.00000E+00
    0.00000E+00         0.00000E+00        -0.37343E+08
 
   -0.38506E+08         0.32874E+06         0.00000E+00
    0.32874E+06        -0.50849E+08         0.00000E+00
    0.00000E+00         0.00000E+00        -0.37343E+08
 
   -0.38473E+08         0.42019E+06         0.00000E+00
    0.42019E+06        -0.50920E+08         0.00000E+00
    0.00000E+00         0.00000E+00        -0.37343E+08
 
   -0.38436E+08         0.51914E+06         0.00000E+00
    0.51914E+06        -0.50993E+08         0.00000E+00
    0.00000E+00         0.00000E+00        -0.37343E+08
 
   -0.38395E+08         0.62554E+06         0.00000E+00
    0.62554E+06        -0.51066E+08         0.00000E+00
    0.00000E+00         0.00000E+00        -0.37343E+08
 
   -0.38351E+08         0.73934E+06         0.00000E+00
    0.73934E+06        -0.51139E+08         0.00000E+00
    0.00000E+00         0.00000E+00        -0.37343E+08
 
   -0.38304E+08         0.86049E+06         0.00000E+00
    0.86049E+06        -0.51212E+08         0.00000E+00
    0.00000E+00         0.00000E+00        -0.37343E+08
 
   -0.38254E+08         0.98893E+06         0.00000E+00
    0.98893E+06        -0.51286E+08         0.00000E+00
    0.00000E+00         0.00000E+00        -0.37343E+08
 
   -0.38203E+08         0.11246E+07         0.00000E+00
    0.11246E+07        -0.51359E+08         0.00000E+00
    0.00000E+00         0.00000E+00        -0.37343E+08
 
   -0.38150E+08         0.12674E+07         0.00000E+00
    0.12674E+07        -0.51432E+08         0.00000E+00
    0.00000E+00         0.00000E+00        -0.37343E+08
 
   -0.38096E+08         0.14173E+07         0.00000E+00
    0.14173E+07        -0.51505E+08         0.00000E+00
    0.00000E+00         0.00000E+00        -0.37343E+08
 
   -0.38041E+08         0.15742E+07         0.00000E+00
    0.15742E+07        -0.51577E+08         0.00000E+00
    0.00000E+00         0.00000E+00        -0.37343E+08
 
   -0.37986E+08         0.17381E+07         0.00000E+00
    0.17381E+07        -0.51648E+08         0.00000E+00
    0.00000E+00         0.00000E+00        -0.37343E+08
 
   -0.37932E+08         0.19088E+07         0.00000E+00
    0.19088E+07        -0.51718E+08         0.00000E+00
    0.00000E+00         0.00000E+00        -0.37343E+08
 
   -0.37878E+08         0.20862E+07         0.00000E+00
    0.20862E+07        -0.51788E+08         0.00000E+00
    0.00000E+00         0.00000E+00        -0.37343E+08
 
   -0.37826E+08         0.22702E+07         0.00000E+00
    0.22702E+07        -0.51856E+08         0.00000E+00
    0.00000E+00         0.00000E+00        -0.37343E+08
 
   -0.37775E+08         0.24608E+07         0.00000E+00
    0.24608E+07        -0.51922E+08         0.00000E+00
    0.00000E+00         0.00000E+00        -0.37343E+08
 
   -0.37726E+08         0.26576E+07         0.00000E+00
    0.26576E+07        -0.51987E+08         0.00000E+00
    0.00000E+00         0.00000E+00        -0.37343E+08
 
   -0.37680E+08         0.28607E+07         0.00000E+00
    0.28607E+07        -0.52051E+08         0.00000E+00
    0.00000E+00         0.00000E+00        -0.37343E+08
 
   -0.37636E+08         0.30699E+07         0.00000E+00
    0.30699E+07        -0.52113E+08         0.00000E+00
    0.00000E+00         0.00000E+00        -0.37343E+08
 
   -0.37595E+08         0.32852E+07         0.00000E+00
    0.32852E+07        -0.52172E+08         0.00000E+00
    0.00000E+00         0.00000E+00        -0.37343E+08
 
   -0.37558E+08         0.35060E+07         0.00000E+00
    0.35060E+07        -0.52230E+08         0.00000E+00
    0.00000E+00         0.00000E+00        -0.37343E+08
 
   -0.37524E+08         0.37316E+07         0.00000E+00
    0.37316E+07        -0.52285E+08         0.00000E+00
    0.00000E+00         0.00000E+00        -0.37343E+08
 
   -0.37494E+08         0.39618E+07         0.00000E+00
    0.39618E+07        -0.52339E+08         0.00000E+00
    0.00000E+00         0.00000E+00        -0.37343E+08
 
   -0.37466E+08         0.41975E+07         0.00000E+00
    0.41975E+07        -0.52392E+08         0.00000E+00
    0.00000E+00         0.00000E+00        -0.37343E+08
 
   -0.37442E+08         0.44398E+07         0.00000E+00
    0.44398E+07        -0.52444E+08         0.00000E+00
    0.00000E+00         0.00000E+00        -0.37343E+08
 
   -0.37425E+08         0.46894E+07         0.00000E+00
    0.46894E+07        -0.52494E+08         0.00000E+00
    0.00000E+00         0.00000E+00        -0.37343E+08
 
   -0.37415E+08         0.49418E+07         0.00000E+00
    0.49418E+07        -0.52530E+08         0.00000E+00
    0.00000E+00         0.00000E+00        -0.37343E+08
 
   -0.37411E+08         0.51927E+07         0.00000E+00
    0.51927E+07        -0.52564E+08         0.00000E+00
    0.00000E+00         0.00000E+00        -0.37343E+08
 
   -0.37405E+08         0.54349E+07         0.00000E+00
    0.54349E+07        -0.52598E+08         0.00000E+00
    0.00000E+00         0.00000E+00        -0.37343E+08
 
   -0.37390E+08         0.56838E+07         0.00000E+00
    0.56838E+07        -0.52667E+08         0.00000E+00
    0.00000E+00         0.00000E+00        -0.37343E+08
 
   -0.37393E+08         0.59285E+07         0.00000E+00
    0.59285E+07        -0.52757E+08         0.00000E+00
    0.00000E+00         0.00000E+00        -0.37368E+08
 
   -0.37469E+08         0.61520E+07         0.00000E+00
    0.61520E+07        -0.52837E+08         0.00000E+00
    0.00000E+00         0.00000E+00        -0.37463E+08
 
   -0.37909E+08        -0.51383E+05         0.00000E+00
   -0.51383E+05        -0.50003E+08         0.00000E+00
    0.00000E+00         0.00000E+00        -0.35894E+08
 
   -0.38035E+08        -0.12953E+06         0.00000E+00
   -0.12953E+06        -0.50011E+08         0.00000E+00
    0.00000E+00         0.00000E+00        -0.35894E+08
 
   -0.38142E+08        -0.19852E+06         0.00000E+00
   -0.19852E+06        -0.50027E+08         0.00000E+00
    0.00000E+00         0.00000E+00        -0.35894E+08
 
   -0.38231E+08        -0.25824E+06         0.00000E+00
   -0.25824E+06        -0.50049E+08         0.00000E+00
    0.00000E+00         0.00000E+00        -0.35894E+08
 
   -0.38303E+08        -0.30861E+06         0.00000E+00
   -0.30861E+06        -0.50078E+08         0.00000E+00
    0.00000E+00         0.00000E+00        -0.35894E+08
 
   -0.38359E+08        -0.34958E+06         0.00000E+00
   -0.34958E+06        -0.50113E+08         0.00000E+00
    0.00000E+00         0.00000E+00        -0.35894E+08
 
   -0.38401E+08        -0.38112E+06         0.00000E+00
   -0.38112E+06        -0.50152E+08         0.00000E+00
    0.00000E+00         0.00000E+00        -0.35894E+08
 
   -0.38429E+08        -0.40323E+06         0.00000E+00
   -0.40323E+06        -0.50197E+08         0.00000E+00
    0.00000E+00         0.00000E+00        -0.35894E+08
 
   -0.38445E+08        -0.41591E+06         0.00000E+00
   -0.41591E+06        -0.50246E+08         0.00000E+00
    0.00000E+00         0.00000E+00        -0.35894E+08
 
   -0.38449E+08        -0.41921E+06         0.00000E+00
   -0.41921E+06        -0.50298E+08         0.00000E+00
    0.00000E+00         0.00000E+00        -0.35894E+08
 
   -0.38441E+08        -0.41316E+06         0.00000E+00
   -0.41316E+06        -0.50355E+08         0.00000E+00
    0.00000E+00         0.00000E+00        -0.35894E+08
 
   -0.38424E+08        -0.39782E+06         0.00000E+00
   -0.39782E+06        -0.50414E+08         0.00000E+00
    0.00000E+00         0.00000E+00        -0.35894E+08
 
   -0.38397E+08        -0.37327E+06         0.00000E+00
   -0.37327E+06        -0.50477E+08         0.00000E+00
    0.00000E+00         0.00000E+00        -0.35894E+08
 
   -0.38362E+08        -0.33959E+06         0.00000E+00
   -0.33959E+06        -0.50542E+08         0.00000E+00
    0.00000E+00         0.00000E+00        -0.35894E+08
 
   -0.38319E+08        -0.29685E+06         0.00000E+00
   -0.29685E+06        -0.50609E+08         0.00000E+00
    0.00000E+00         0.00000E+00        -0.35894E+08
 
   -0.38269E+08        -0.24517E+06         0.00000E+00
   -0.24517E+06        -0.50679E+08         0.00000E+00
    0.00000E+00         0.00000E+00        -0.35894E+08
 
   -0.38212E+08        -0.18464E+06         0.00000E+00
   -0.18464E+06        -0.50750E+08         0.00000E+00
    0.00000E+00         0.00000E+00        -0.35894E+08
 
   -0.38149E+08        -0.11535E+06         0.00000E+00
   -0.11535E+06        -0.50823E+08         0.00000E+00
    0.00000E+00         0.00000E+00        -0.35894E+08
 
   -0.38081E+08        -0.37408E+05         0.00000E+00
   -0.37408E+05        -0.50897E+08         0.00000E+00
    0.00000E+00         0.00000E+00        -0.35894E+08
 
   -0.38009E+08         0.49081E+05         0.00000E+00
    0.49081E+05        -0.50972E+08         0.00000E+00
    0.00000E+00         0.00000E+00        -0.35894E+08
 
   -0.37932E+08         0.14402E+06         0.00000E+00
    0.14402E+06        -0.51048E+08         0.00000E+00
    0.00000E+00         0.00000E+00        -0.35894E+08
 
   -0.37852E+08         0.24730E+06         0.00000E+00
    0.24730E+06        -0.51125E+08         0.00000E+00
    0.00000E+00         0.00000E+00        -0.35894E+08
 
   -0.37769E+08         0.35883E+06         0.00000E+00
    0.35883E+06        -0.51203E+08         0.00000E+00
    0.00000E+00         0.00000E+00        -0.35894E+08
 
   -0.37683E+08         0.47853E+06         0.00000E+00
    0.47853E+06        -0.51281E+08         0.00000E+00
    0.00000E+00         0.00000E+00        -0.35894E+08
 
   -0.37595E+08         0.60628E+06         0.00000E+00
    0.60628E+06        -0.51360E+08         0.00000E+00
    0.00000E+00         0.00000E+00        -0.35894E+08
 
   -0.37506E+08         0.74201E+06         0.00000E+00
    0.74201E+06        -0.51439E+08         0.00000E+00
    0.00000E+00         0.00000E+00        -0.35894E+08
 
   -0.37415E+08         0.88563E+06         0.00000E+00
    0.88563E+06        -0.51518E+08         0.00000E+00
    0.00000E+00         0.00000E+00        -0.35894E+08
 
   -0.37324E+08         0.10370E+07         0.00000E+00
    0.10370E+07        -0.51597E+08         0.00000E+00
    0.00000E+00         0.00000E+00        -0.35894E+08
 
   -0.37233E+08         0.11962E+07         0.00000E+00
    0.11962E+07        -0.51676E+08         0.00000E+00
    0.00000E+00         0.00000E+00        -0.35894E+08
 
   -0.37142E+08         0.13629E+07         0.00000E+00
    0.13629E+07        -0.51755E+08         0.00000E+00
    0.00000E+00         0.00000E+00        -0.35894E+08
 
   -0.37052E+08         0.15372E+07         0.00000E+00
    0.15372E+07        -0.51833E+08         0.00000E+00
    0.00000E+00         0.00000E+00        -0.35894E+08
 
   -0.36964E+08         0.17188E+07         0.00000E+00
    0.17188E+07        -0.51911E+08         0.00000E+00
    0.00000E+00         0.00000E+00        -0.35894E+08
 
   -0.36877E+08         0.19077E+07         0.00000E+00
    0.19077E+07        -0.51988E+08         0.00000E+00
    0.00000E+00         0.00000E+00        -0.35894E+08
 
   -0.36793E+08         0.21038E+07         0.00000E+00
    0.21038E+07        -0.52064E+08         0.00000E+00
    0.00000E+00         0.00000E+00        -0.35894E+08
 
   -0.36711E+08         0.23070E+07         0.00000E+00
    0.23070E+07        -0.52140E+08         0.00000E+00
    0.00000E+00         0.00000E+00        -0.35894E+08
 
   -0.36633E+08         0.25170E+07         0.00000E+00
    0.25170E+07        -0.52214E+08         0.00000E+00
    0.00000E+00         0.00000E+00        -0.35894E+08
 
   -0.36559E+08         0.27329E+07         0.00000E+00
    0.27329E+07        -0.52287E+08         0.00000E+00
    0.00000E+00         0.00000E+00        -0.35894E+08
 
   -0.36488E+08         0.29546E+07         0.00000E+00
    0.29546E+07        -0.52360E+08         0.00000E+00
    0.00000E+00         0.00000E+00        -0.35894E+08
 
   -0.36421E+08         0.31829E+07         0.00000E+00
    0.31829E+07        -0.52433E+08         0.00000E+00
    0.00000E+00         0.00000E+00        -0.35894E+08
 
   -0.36360E+08         0.34193E+07         0.00000E+00
    0.34193E+07        -0.52506E+08         0.00000E+00
    0.00000E+00         0.00000E+00        -0.35894E+08
 
   -0.36307E+08         0.36626E+07         0.00000E+00
    0.36626E+07        -0.52572E+08         0.00000E+00
    0.00000E+00         0.00000E+00        -0.35894E+08
 
   -0.36263E+08         0.39072E+07         0.00000E+00
    0.39072E+07        -0.52629E+08         0.00000E+00
    0.00000E+00         0.00000E+00        -0.35894E+08
 
   -0.36225E+08         0.41475E+07         0.00000E+00
    0.41475E+07        -0.52685E+08         0.00000E+00
    0.00000E+00         0.00000E+00        -0.35894E+08
 
   -0.36184E+08         0.43824E+07         0.00000E+00
    0.43824E+07        -0.52748E+08         0.00000E+00
    0.00000E+00         0.00000E+00        -0.35894E+08
 
   -0.36147E+08         0.46242E+07         0.00000E+00
    0.46242E+07        -0.52857E+08         0.00000E+00
    0.00000E+00         0.00000E+00        -0.35904E+08
 
   -0.36157E+08         0.48527E+07         0.00000E+00
    0.48527E+07        -0.52961E+08         0.00000E+00
    0.00000E+00         0.00000E+00        -0.35964E+08
 
   -0.36199E+08         0.50722E+07         0.00000E+00
    0.50722E+07        -0.53061E+08         0.00000E+00
    0.00000E+00         0.00000E+00        -0.36054E+08
 
   -0.36300E+08         0.52680E+07         0.00000E+00
    0.52680E+07        -0.53140E+08         0.00000E+00
    0.00000E+00         0.00000E+00        -0.36203E+08
 
   -0.36453E+08         0.54445E+07         0.00000E+00
    0.54445E+07        -0.53218E+08         0.00000E+00
    0.00000E+00         0.00000E+00        -0.36399E+08
 
   -0.36632E+08         0.56189E+07         0.00000E+00
    0.56189E+07        -0.53329E+08         0.00000E+00
    0.00000E+00         0.00000E+00        -0.36615E+08
 
   -0.38423E+08        -0.75255E+05         0.00000E+00
   -0.75255E+05        -0.50003E+08         0.00000E+00
    0.00000E+00         0.00000E+00        -0.34339E+08
 
   -0.38495E+08        -0.19213E+06         0.00000E+00
   -0.19213E+06        -0.50011E+08         0.00000E+00
    0.00000E+00         0.00000E+00        -0.34339E+08
 
   -0.38549E+08        -0.29675E+06         0.00000E+00
   -0.29675E+06        -0.50028E+08         0.00000E+00
    0.00000E+00         0.00000E+00        -0.34339E+08
 
   -0.38584E+08        -0.38919E+06         0.00000E+00
   -0.38919E+06        -0.50051E+08         0.00000E+00
    0.00000E+00         0.00000E+00        -0.34339E+08
 
   -0.38603E+08        -0.46954E+06         0.00000E+00
   -0.46954E+06        -0.50080E+08         0.00000E+00
    0.00000E+00         0.00000E+00        -0.34339E+08
 
   -0.38606E+08        -0.53791E+06         0.00000E+00
   -0.53791E+06        -0.50115E+08         0.00000E+00
    0.00000E+00         0.00000E+00        -0.34339E+08
 
   -0.38595E+08        -0.59440E+06         0.00000E+00
   -0.59440E+06        -0.50155E+08         0.00000E+00
    0.00000E+00         0.00000E+00        -0.34339E+08
 
   -0.38571E+08        -0.63917E+06         0.00000E+00
   -0.63917E+06        -0.50200E+08         0.00000E+00
    0.00000E+00         0.00000E+00        -0.34339E+08
 
   -0.38534E+08        -0.67237E+06         0.00000E+00
   -0.67237E+06        -0.50250E+08         0.00000E+00
    0.00000E+00         0.00000E+00        -0.34339E+08
 
   -0.38486E+08        -0.69419E+06         0.00000E+00
   -0.69419E+06        -0.50302E+08         0.00000E+00
    0.00000E+00         0.00000E+00        -0.34339E+08
 
   -0.38428E+08        -0.70480E+06         0.00000E+00
   -0.70480E+06        -0.50359E+08         0.00000E+00
    0.00000E+00         0.00000E+00        -0.34339E+08
 
   -0.38360E+08        -0.70440E+06         0.00000E+00
   -0.70440E+06        -0.50418E+08         0.00000E+00
    0.00000E+00         0.00000E+00        -0.34339E+08
 
   -0.38284E+08        -0.69319E+06         0.00000E+00
   -0.69319E+06        -0.50480E+08         0.00000E+00
    0.00000E+00         0.00000E+00        -0.34339E+08
 
   -0.38200E+08        -0.67139E+06         0.00000E+00
   -0.67139E+06        -0.50545E+08         0.00000E+00
    0.00000E+00         0.00000E+00        -0.34339E+08
 
   -0.38108E+08        -0.63919E+06         0.00000E+00
   -0.63919E+06        -0.50612E+08         0.00000E+00
    0.00000E+00         0.00000E+00        -0.34339E+08
 
   -0.38011E+08        -0.59682E+06         0.00000E+00
   -0.59682E+06        -0.50680E+08         0.00000E+00
    0.00000E+00         0.00000E+00        -0.34339E+08
 
   -0.37907E+08        -0.54448E+06         0.00000E+00
   -0.54448E+06        -0.50750E+08         0.00000E+00
    0.00000E+00         0.00000E+00        -0.34339E+08
 
   -0.37799E+08        -0.48238E+06         0.00000E+00
   -0.48238E+06        -0.50822E+08         0.00000E+00
    0.00000E+00         0.00000E+00        -0.34339E+08
 
   -0.37686E+08        -0.41071E+06         0.00000E+00
   -0.41071E+06        -0.50895E+08         0.00000E+00
    0.00000E+00         0.00000E+00        -0.34339E+08
 
   -0.37569E+08        -0.32966E+06         0.00000E+00
   -0.32966E+06        -0.50969E+08         0.00000E+00
    0.00000E+00         0.00000E+00        -0.34339E+08
 
   -0.37448E+08        -0.23941E+06         0.00000E+00
   -0.23941E+06        -0.51044E+08         0.00000E+00
    0.00000E+00         0.00000E+00        -0.34339E+08
 
   -0.37325E+08        -0.14015E+06         0.00000E+00
   -0.14015E+06        -0.51120E+08         0.00000E+00
    0.00000E+00         0.00000E+00        -0.34339E+08
 
   -0.37199E+08        -0.32016E+05         0.00000E+00
   -0.32016E+05        -0.51197E+08         0.00000E+00
    0.00000E+00         0.00000E+00        -0.34339E+08
 
   -0.37071E+08         0.84838E+05         0.00000E+00
    0.84838E+05        -0.51275E+08         0.00000E+00
    0.00000E+00         0.00000E+00        -0.34339E+08
 
   -0.36942E+08         0.21028E+06         0.00000E+00
    0.21028E+06        -0.51353E+08         0.00000E+00
    0.00000E+00         0.00000E+00        -0.34339E+08
 
   -0.36812E+08         0.34421E+06         0.00000E+00
    0.34421E+06        -0.51432E+08         0.00000E+00
    0.00000E+00         0.00000E+00        -0.34339E+08
 
   -0.36681E+08         0.48651E+06         0.00000E+00
    0.48651E+06        -0.51511E+08         0.00000E+00
    0.00000E+00         0.00000E+00        -0.34339E+08
 
   -0.36550E+08         0.63710E+06         0.00000E+00
    0.63710E+06        -0.51590E+08         0.00000E+00
    0.00000E+00         0.00000E+00        -0.34339E+08
 
   -0.36419E+08         0.79586E+06         0.00000E+00
    0.79586E+06        -0.51670E+08         0.00000E+00
    0.00000E+00         0.00000E+00        -0.34339E+08
 
   -0.36289E+08         0.96271E+06         0.00000E+00
    0.96271E+06        -0.51751E+08         0.00000E+00
    0.00000E+00         0.00000E+00        -0.34339E+08
 
   -0.36161E+08         0.11376E+07         0.00000E+00
    0.11376E+07        -0.51831E+08         0.00000E+00
    0.00000E+00         0.00000E+00        -0.34339E+08
 
   -0.36034E+08         0.13207E+07         0.00000E+00
    0.13207E+07        -0.51912E+08         0.00000E+00
    0.00000E+00         0.00000E+00        -0.34339E+08
 
   -0.35910E+08         0.15117E+07         0.00000E+00
    0.15117E+07        -0.51992E+08         0.00000E+00
    0.00000E+00         0.00000E+00        -0.34339E+08
 
   -0.35789E+08         0.17102E+07         0.00000E+00
    0.17102E+07        -0.52072E+08         0.00000E+00
    0.00000E+00         0.00000E+00        -0.34339E+08
 
   -0.35671E+08         0.19156E+07         0.00000E+00
    0.19156E+07        -0.52152E+08         0.00000E+00
    0.00000E+00         0.00000E+00        -0.34339E+08
 
   -0.35557E+08         0.21290E+07         0.00000E+00
    0.21290E+07        -0.52233E+08         0.00000E+00
    0.00000E+00         0.00000E+00        -0.34339E+08
 
   -0.35448E+08         0.23520E+07         0.00000E+00
    0.23520E+07        -0.52314E+08         0.00000E+00
    0.00000E+00         0.00000E+00        -0.34339E+08
 
   -0.35348E+08         0.25836E+07         0.00000E+00
    0.25836E+07        -0.52389E+08         0.00000E+00
    0.00000E+00         0.00000E+00        -0.34339E+08
 
   -0.35257E+08         0.28180E+07         0.00000E+00
    0.28180E+07        -0.52455E+08         0.00000E+00
    0.00000E+00         0.00000E+00        -0.34339E+08
 
   -0.35171E+08         0.30494E+07         0.00000E+00
    0.30494E+07        -0.52521E+08         0.00000E+00
    0.00000E+00         0.00000E+00        -0.34339E+08
 
   -0.35082E+08         0.32819E+07         0.00000E+00
    0.32819E+07        -0.52609E+08         0.00000E+00
    0.00000E+00         0.00000E+00        -0.34339E+08
 
   -0.35029E+08         0.35145E+07         0.00000E+00
    0.35145E+07        -0.52720E+08         0.00000E+00
    0.00000E+00         0.00000E+00        -0.34381E+08
 
   -0.34998E+08         0.37445E+07         0.00000E+00
    0.37445E+07        -0.52827E+08         0.00000E+00
    0.00000E+00         0.00000E+00        -0.34449E+08
 
   -0.34998E+08         0.39697E+07         0.00000E+00
    0.39697E+07        -0.52923E+08         0.00000E+00
    0.00000E+00         0.00000E+00        -0.34554E+08
 
   -0.35081E+08         0.41749E+07         0.00000E+00
    0.41749E+07        -0.52988E+08         0.00000E+00
    0.00000E+00         0.00000E+00        -0.34749E+08
 
   -0.35186E+08         0.43759E+07         0.00000E+00
    0.43759E+07        -0.53071E+08         0.00000E+00
    0.00000E+00         0.00000E+00        -0.34964E+08
 
   -0.35309E+08         0.45665E+07         0.00000E+00
    0.45665E+07        -0.53171E+08         0.00000E+00
    0.00000E+00         0.00000E+00        -0.35183E+08
 
   -0.35447E+08         0.47465E+07         0.00000E+00
    0.47465E+07        -0.53279E+08         0.00000E+00
    0.00000E+00         0.00000E+00        -0.35391E+08
 
   -0.35602E+08         0.49222E+07         0.00000E+00
    0.49222E+07        -0.53385E+08         0.00000E+00
    0.00000E+00         0.00000E+00        -0.35586E+08
 
   -0.35766E+08         0.50995E+07         0.00000E+00
    0.50995E+07        -0.53480E+08         0.00000E+00
    0.00000E+00         0.00000E+00        -0.35765E+08
 
   -0.39140E+08        -0.99707E+05         0.00000E+00
   -0.99707E+05        -0.50003E+08         0.00000E+00
    0.00000E+00         0.00000E+00        -0.32679E+08
 
   -0.39142E+08        -0.25521E+06         0.00000E+00
   -0.25521E+06        -0.50011E+08         0.00000E+00
    0.00000E+00         0.00000E+00        -0.32679E+08
 
   -0.39126E+08        -0.39518E+06         0.00000E+00
   -0.39518E+06        -0.50027E+08         0.00000E+00
    0.00000E+00         0.00000E+00        -0.32679E+08
 
   -0.39094E+08        -0.51977E+06         0.00000E+00
   -0.51977E+06        -0.50050E+08         0.00000E+00
    0.00000E+00         0.00000E+00        -0.32679E+08
 
   -0.39045E+08        -0.62923E+06         0.00000E+00
   -0.62923E+06        -0.50078E+08         0.00000E+00
    0.00000E+00         0.00000E+00        -0.32679E+08
 
   -0.38982E+08        -0.72387E+06         0.00000E+00
   -0.72387E+06        -0.50112E+08         0.00000E+00
    0.00000E+00         0.00000E+00        -0.32679E+08
 
   -0.38905E+08        -0.80401E+06         0.00000E+00
   -0.80401E+06        -0.50150E+08         0.00000E+00
    0.00000E+00         0.00000E+00        -0.32679E+08
 
   -0.38817E+08        -0.86998E+06         0.00000E+00
   -0.86998E+06        -0.50193E+08         0.00000E+00
    0.00000E+00         0.00000E+00        -0.32679E+08
 
   -0.38718E+08        -0.92212E+06         0.00000E+00
   -0.92212E+06        -0.50239E+08         0.00000E+00
    0.00000E+00         0.00000E+00        -0.32679E+08
 
   -0.38608E+08        -0.96079E+06         0.00000E+00
   -0.96079E+06        -0.50289E+08         0.00000E+00
    0.00000E+00         0.00000E+00        -0.32679E+08
 
   -0.38490E+08        -0.98635E+06         0.00000E+00
   -0.98635E+06        -0.50341E+08         0.00000E+00
    0.00000E+00         0.00000E+00        -0.32679E+08
 
   -0.38364E+08        -0.99917E+06         0.00000E+00
   -0.99917E+06        -0.50396E+08         0.00000E+00
    0.00000E+00         0.00000E+00        -0.32679E+08
 
   -0.38230E+08        -0.99962E+06         0.00000E+00
   -0.99962E+06        -0.50454E+08         0.00000E+00
    0.00000E+00         0.00000E+00        -0.32679E+08
 
   -0.38090E+08        -0.98805E+06         0.00000E+00
   -0.98805E+06        -0.50513E+08         0.00000E+00
    0.00000E+00         0.00000E+00        -0.32679E+08
 
   -0.37944E+08        -0.96486E+06         0.00000E+00
   -0.96486E+06        -0.50574E+08         0.00000E+00
    0.00000E+00         0.00000E+00        -0.32679E+08
 
   -0.37794E+08        -0.93039E+06         0.00000E+00
   -0.93039E+06        -0.50636E+08         0.00000E+00
    0.00000E+00         0.00000E+00        -0.32679E+08
 
   -0.37639E+08        -0.88500E+06         0.00000E+00
   -0.88500E+06        -0.50700E+08         0.00000E+00
    0.00000E+00         0.00000E+00        -0.32679E+08
 
   -0.37480E+08        -0.82904E+06         0.00000E+00
   -0.82904E+06        -0.50764E+08         0.00000E+00
    0.00000E+00         0.00000E+00        -0.32679E+08
 
   -0.37318E+08        -0.76282E+06         0.00000E+00
   -0.76282E+06        -0.50830E+08         0.00000E+00
    0.00000E+00         0.00000E+00        -0.32679E+08
 
   -0.37153E+08        -0.68666E+06         0.00000E+00
   -0.68666E+06        -0.50896E+08         0.00000E+00
    0.00000E+00         0.00000E+00        -0.32679E+08
 
   -0.36986E+08        -0.60085E+06         0.00000E+00
   -0.60085E+06        -0.50964E+08         0.00000E+00
    0.00000E+00         0.00000E+00        -0.32679E+08
 
   -0.36817E+08        -0.50565E+06         0.00000E+00
   -0.50565E+06        -0.51032E+08         0.00000E+00
    0.00000E+00         0.00000E+00        -0.32679E+08
 
   -0.36646E+08        -0.40129E+06         0.00000E+00
   -0.40129E+06        -0.51100E+08         0.00000E+00
    0.00000E+00         0.00000E+00        -0.32679E+08
 
   -0.36475E+08        -0.28799E+06         0.00000E+00
   -0.28799E+06        -0.51170E+08         0.00000E+00
    0.00000E+00         0.00000E+00        -0.32679E+08
 
   -0.36302E+08        -0.16592E+06         0.00000E+00
   -0.16592E+06        -0.51240E+08         0.00000E+00
    0.00000E+00         0.00000E+00        -0.32679E+08
 
   -0.36129E+08        -0.35236E+05         0.00000E+00
   -0.35236E+05        -0.51311E+08         0.00000E+00
    0.00000E+00         0.00000E+00        -0.32679E+08
 
   -0.35956E+08         0.10394E+06         0.00000E+00
    0.10394E+06        -0.51383E+08         0.00000E+00
    0.00000E+00         0.00000E+00        -0.32679E+08
 
   -0.35784E+08         0.25157E+06         0.00000E+00
    0.25157E+06        -0.51455E+08         0.00000E+00
    0.00000E+00         0.00000E+00        -0.32679E+08
 
   -0.35611E+08         0.40770E+06         0.00000E+00
    0.40770E+06        -0.51529E+08         0.00000E+00
    0.00000E+00         0.00000E+00        -0.32679E+08
 
   -0.35440E+08         0.57232E+06         0.00000E+00
    0.57232E+06        -0.51603E+08         0.00000E+00
    0.00000E+00         0.00000E+00        -0.32679E+08
 
   -0.35271E+08         0.74526E+06         0.00000E+00
    0.74526E+06        -0.51677E+08         0.00000E+00
    0.00000E+00         0.00000E+00        -0.32679E+08
 
   -0.35103E+08         0.92606E+06         0.00000E+00
    0.92606E+06        -0.51752E+08         0.00000E+00
    0.00000E+00         0.00000E+00        -0.32679E+08
 
   -0.34937E+08         0.11154E+07         0.00000E+00
    0.11154E+07        -0.51829E+08         0.00000E+00
    0.00000E+00         0.00000E+00        -0.32679E+08
 
   -0.34774E+08         0.13147E+07         0.00000E+00
    0.13147E+07        -0.51907E+08         0.00000E+00
    0.00000E+00         0.00000E+00        -0.32679E+08
 
   -0.34617E+08         0.15251E+07         0.00000E+00
    0.15251E+07        -0.51984E+08         0.00000E+00
    0.00000E+00         0.00000E+00        -0.32679E+08
 
   -0.34468E+08         0.17416E+07         0.00000E+00
    0.17416E+07        -0.52052E+08         0.00000E+00
    0.00000E+00         0.00000E+00        -0.32679E+08
 
   -0.34322E+08         0.19584E+07         0.00000E+00
    0.19584E+07        -0.52119E+08         0.00000E+00
    0.00000E+00         0.00000E+00        -0.32679E+08
 
   -0.34177E+08         0.21779E+07         0.00000E+00
    0.21779E+07        -0.52209E+08         0.00000E+00
    0.00000E+00         0.00000E+00        -0.32684E+08
 
   -0.34065E+08         0.24010E+07         0.00000E+00
    0.24010E+07        -0.52316E+08         0.00000E+00
    0.00000E+00         0.00000E+00        -0.32736E+08
 
   -0.33975E+08         0.26277E+07         0.00000E+00
    0.26277E+07        -0.52417E+08         0.00000E+00
    0.00000E+00         0.00000E+00        -0.32821E+08
 
   -0.33929E+08         0.28518E+07         0.00000E+00
    0.28518E+07        -0.52497E+08         0.00000E+00
    0.00000E+00         0.00000E+00        -0.32964E+08
 
   -0.33949E+08         0.30703E+07         0.00000E+00
    0.30703E+07        -0.52569E+08         0.00000E+00
    0.00000E+00         0.00000E+00        -0.33184E+08
 
   -0.33982E+08         0.32817E+07         0.00000E+00
    0.32817E+07        -0.52650E+08         0.00000E+00
    0.00000E+00         0.00000E+00        -0.33411E+08
 
   -0.34040E+08         0.34846E+07         0.00000E+00
    0.34846E+07        -0.52748E+08         0.00000E+00
    0.00000E+00         0.00000E+00        -0.33640E+08
 
   -0.34124E+08         0.36809E+07         0.00000E+00
    0.36809E+07        -0.52851E+08         0.00000E+00
    0.00000E+00         0.00000E+00        -0.33862E+08
 
   -0.34222E+08         0.38769E+07         0.00000E+00
    0.38769E+07        -0.52953E+08         0.00000E+00
    0.00000E+00         0.00000E+00        -0.34065E+08
 
   -0.34339E+08         0.40789E+07         0.00000E+00
    0.40789E+07        -0.53044E+08         0.00000E+00
    0.00000E+00         0.00000E+00        -0.34259E+08
 
   -0.34472E+08         0.42876E+07         0.00000E+00
    0.42876E+07        -0.53128E+08         0.00000E+00
    0.00000E+00         0.00000E+00        -0.34445E+08
 
   -0.34620E+08         0.44972E+07         0.00000E+00
    0.44972E+07        -0.53207E+08         0.00000E+00
    0.00000E+00         0.00000E+00        -0.34622E+08
 
   -0.34785E+08         0.47069E+07         0.00000E+00
    0.47069E+07        -0.53283E+08         0.00000E+00
    0.00000E+00         0.00000E+00        -0.34790E+08
 
   -0.40055E+08        -0.12326E+06         0.00000E+00
   -0.12326E+06        -0.50002E+08         0.00000E+00
    0.00000E+00         0.00000E+00        -0.30920E+08
 
   -0.39969E+08        -0.31570E+06         0.00000E+00
   -0.31570E+06        -0.50011E+08         0.00000E+00
    0.00000E+00         0.00000E+00        -0.30920E+08
 
   -0.39867E+08        -0.48840E+06         0.00000E+00
   -0.48840E+06        -0.50025E+08         0.00000E+00
    0.00000E+00         0.00000E+00        -0.30920E+08
 
   -0.39750E+08        -0.64223E+06         0.00000E+00
   -0.64223E+06        -0.50046E+08         0.00000E+00
    0.00000E+00         0.00000E+00        -0.30920E+08
 
   -0.39618E+08        -0.77773E+06         0.00000E+00
   -0.77773E+06        -0.50071E+08         0.00000E+00
    0.00000E+00         0.00000E+00        -0.30920E+08
 
   -0.39475E+08        -0.89543E+06         0.00000E+00
   -0.89543E+06        -0.50101E+08         0.00000E+00
    0.00000E+00         0.00000E+00        -0.30920E+08
 
   -0.39320E+08        -0.99588E+06         0.00000E+00
   -0.99588E+06        -0.50135E+08         0.00000E+00
    0.00000E+00         0.00000E+00        -0.30920E+08
 
   -0.39156E+08        -0.10796E+07         0.00000E+00
   -0.10796E+07        -0.50172E+08         0.00000E+00
    0.00000E+00         0.00000E+00        -0.30920E+08
 
   -0.38983E+08        -0.11472E+07         0.00000E+00
   -0.11472E+07        -0.50212E+08         0.00000E+00
    0.00000E+00         0.00000E+00        -0.30920E+08
 
   -0.38802E+08        -0.11992E+07         0.00000E+00
   -0.11992E+07        -0.50254E+08         0.00000E+00
    0.00000E+00         0.00000E+00        -0.30920E+08
 
   -0.38614E+08        -0.12362E+07         0.00000E+00
   -0.12362E+07        -0.50298E+08         0.00000E+00
    0.00000E+00         0.00000E+00        -0.30920E+08
 
   -0.38421E+08        -0.12587E+07         0.00000E+00
   -0.12587E+07        -0.50344E+08         0.00000E+00
    0.00000E+00         0.00000E+00        -0.30920E+08
 
   -0.38223E+08        -0.12672E+07         0.00000E+00
   -0.12672E+07        -0.50391E+08         0.00000E+00
    0.00000E+00         0.00000E+00        -0.30920E+08
 
   -0.38021E+08        -0.12625E+07         0.00000E+00
   -0.12625E+07        -0.50439E+08         0.00000E+00
    0.00000E+00         0.00000E+00        -0.30920E+08
 
   -0.37815E+08        -0.12450E+07         0.00000E+00
   -0.12450E+07        -0.50488E+08         0.00000E+00
    0.00000E+00         0.00000E+00        -0.30920E+08
 
   -0.37607E+08        -0.12154E+07         0.00000E+00
   -0.12154E+07        -0.50538E+08         0.00000E+00
    0.00000E+00         0.00000E+00        -0.30920E+08
 
   -0.37397E+08        -0.11741E+07         0.00000E+00
   -0.11741E+07        -0.50588E+08         0.00000E+00
    0.00000E+00         0.00000E+00        -0.30920E+08
 
   -0.37185E+08        -0.11217E+07         0.00000E+00
   -0.11217E+07        -0.50639E+08         0.00000E+00
    0.00000E+00         0.00000E+00        -0.30920E+08
 
   -0.36971E+08        -0.10587E+07         0.00000E+00
   -0.10587E+07        -0.50689E+08         0.00000E+00
    0.00000E+00         0.00000E+00        -0.30920E+08
 
   -0.36757E+08        -0.98563E+06         0.00000E+00
   -0.98563E+06        -0.50740E+08         0.00000E+00
    0.00000E+00         0.00000E+00        -0.30920E+08
 
   -0.36542E+08        -0.90284E+06         0.00000E+00
   -0.90284E+06        -0.50792E+08         0.00000E+00
    0.00000E+00         0.00000E+00        -0.30920E+08
 
   -0.36327E+08        -0.81075E+06         0.00000E+00
   -0.81075E+06        -0.50844E+08         0.00000E+00
    0.00000E+00         0.00000E+00        -0.30920E+08
 
   -0.36112E+08        -0.70969E+06         0.00000E+00
   -0.70969E+06        -0.50896E+08         0.00000E+00
    0.00000E+00         0.00000E+00        -0.30920E+08
 
   -0.35896E+08        -0.59993E+06         0.00000E+00
   -0.59993E+06        -0.50949E+08         0.00000E+00
    0.00000E+00         0.00000E+00        -0.30920E+08
 
   -0.35681E+08        -0.48168E+06         0.00000E+00
   -0.48168E+06        -0.51003E+08         0.00000E+00
    0.00000E+00         0.00000E+00        -0.30920E+08
 
   -0.35466E+08        -0.35508E+06         0.00000E+00
   -0.35508E+06        -0.51058E+08         0.00000E+00
    0.00000E+00         0.00000E+00        -0.30920E+08
 
   -0.35251E+08        -0.22026E+06         0.00000E+00
   -0.22026E+06        -0.51114E+08         0.00000E+00
    0.00000E+00         0.00000E+00        -0.30920E+08
 
   -0.35037E+08        -0.77450E+05         0.00000E+00
   -0.77450E+05        -0.51170E+08         0.00000E+00
    0.00000E+00         0.00000E+00        -0.30920E+08
 
   -0.34823E+08         0.73213E+05         0.00000E+00
    0.73213E+05        -0.51228E+08         0.00000E+00
    0.00000E+00         0.00000E+00        -0.30920E+08
 
   -0.34609E+08         0.23206E+06         0.00000E+00
    0.23206E+06        -0.51287E+08         0.00000E+00
    0.00000E+00         0.00000E+00        -0.30920E+08
 
   -0.34396E+08         0.40001E+06         0.00000E+00
    0.40001E+06        -0.51348E+08         0.00000E+00
    0.00000E+00         0.00000E+00        -0.30920E+08
 
   -0.34186E+08         0.57843E+06         0.00000E+00
    0.57843E+06        -0.51413E+08         0.00000E+00
    0.00000E+00         0.00000E+00        -0.30920E+08
 
   -0.33978E+08         0.76479E+06         0.00000E+00
    0.76479E+06        -0.51473E+08         0.00000E+00
    0.00000E+00         0.00000E+00        -0.30920E+08
 
   -0.33772E+08         0.95491E+06         0.00000E+00
    0.95491E+06        -0.51531E+08         0.00000E+00
    0.00000E+00         0.00000E+00        -0.30920E+08
 
   -0.33564E+08         0.11480E+07         0.00000E+00
    0.11480E+07        -0.51595E+08         0.00000E+00
    0.00000E+00         0.00000E+00        -0.30927E+08
 
   -0.33377E+08         0.13484E+07         0.00000E+00
    0.13484E+07        -0.51687E+08         0.00000E+00
    0.00000E+00         0.00000E+00        -0.30974E+08
 
   -0.33212E+08         0.15571E+07         0.00000E+00
    0.15571E+07        -0.51774E+08         0.00000E+00
    0.00000E+00         0.00000E+00        -0.31064E+08
 
   -0.33085E+08         0.17700E+07         0.00000E+00
    0.17700E+07        -0.51844E+08         0.00000E+00
    0.00000E+00         0.00000E+00        -0.31214E+08
 
   -0.33012E+08         0.19819E+07         0.00000E+00
    0.19819E+07        -0.51911E+08         0.00000E+00
    0.00000E+00         0.00000E+00        -0.31437E+08
 
   -0.32960E+08         0.21899E+07         0.00000E+00
    0.21899E+07        -0.51993E+08         0.00000E+00
    0.00000E+00         0.00000E+00        -0.31675E+08
 
   -0.32933E+08         0.23921E+07         0.00000E+00
    0.23921E+07        -0.52087E+08         0.00000E+00
    0.00000E+00         0.00000E+00        -0.31914E+08
 
   -0.32935E+08         0.25929E+07         0.00000E+00
    0.25929E+07        -0.52184E+08         0.00000E+00
    0.00000E+00         0.00000E+00        -0.32148E+08
 
   -0.32959E+08         0.27981E+07         0.00000E+00
    0.27981E+07        -0.52282E+08         0.00000E+00
    0.00000E+00         0.00000E+00        -0.32368E+08
 
   -0.33005E+08         0.30086E+07         0.00000E+00
    0.30086E+07        -0.52375E+08         0.00000E+00
    0.00000E+00         0.00000E+00        -0.32580E+08
 
   -0.33070E+08         0.32279E+07         0.00000E+00
    0.32279E+07        -0.52462E+08         0.00000E+00
    0.00000E+00         0.00000E+00        -0.32784E+08
 
   -0.33157E+08         0.34501E+07         0.00000E+00
    0.34501E+07        -0.52545E+08         0.00000E+00
    0.00000E+00         0.00000E+00        -0.32979E+08
 
   -0.33263E+08         0.36730E+07         0.00000E+00
    0.36730E+07        -0.52626E+08         0.00000E+00
    0.00000E+00         0.00000E+00        -0.33163E+08
 
   -0.33388E+08         0.38955E+07         0.00000E+00
    0.38955E+07        -0.52707E+08         0.00000E+00
    0.00000E+00         0.00000E+00        -0.33339E+08
 
   -0.33528E+08         0.41226E+07         0.00000E+00
    0.41226E+07        -0.52783E+08         0.00000E+00
    0.00000E+00         0.00000E+00        -0.33511E+08
 
   -0.33682E+08         0.43522E+07         0.00000E+00
    0.43522E+07        -0.52853E+08         0.00000E+00
    0.00000E+00         0.00000E+00        -0.33678E+08
 
   -0.41152E+08        -0.14615E+06         0.00000E+00
   -0.14615E+06        -0.50004E+08         0.00000E+00
    0.00000E+00         0.00000E+00        -0.29071E+08
 
   -0.40957E+08        -0.36836E+06         0.00000E+00
   -0.36836E+06        -0.50009E+08         0.00000E+00
    0.00000E+00         0.00000E+00        -0.29071E+08
 
   -0.40750E+08        -0.56839E+06         0.00000E+00
   -0.56839E+06        -0.50020E+08         0.00000E+00
    0.00000E+00         0.00000E+00        -0.29071E+08
 
   -0.40532E+08        -0.74619E+06         0.00000E+00
   -0.74619E+06        -0.50037E+08         0.00000E+00
    0.00000E+00         0.00000E+00        -0.29071E+08
 
   -0.40303E+08        -0.90254E+06         0.00000E+00
   -0.90254E+06        -0.50056E+08         0.00000E+00
    0.00000E+00         0.00000E+00        -0.29071E+08
 
   -0.40064E+08        -0.10382E+07         0.00000E+00
   -0.10382E+07        -0.50080E+08         0.00000E+00
    0.00000E+00         0.00000E+00        -0.29071E+08
 
   -0.39818E+08        -0.11537E+07         0.00000E+00
   -0.11537E+07        -0.50105E+08         0.00000E+00
    0.00000E+00         0.00000E+00        -0.29071E+08
 
   -0.39565E+08        -0.12499E+07         0.00000E+00
   -0.12499E+07        -0.50133E+08         0.00000E+00
    0.00000E+00         0.00000E+00        -0.29071E+08
 
   -0.39306E+08        -0.13275E+07         0.00000E+00
   -0.13275E+07        -0.50163E+08         0.00000E+00
    0.00000E+00         0.00000E+00        -0.29071E+08
 
   -0.39044E+08        -0.13870E+07         0.00000E+00
   -0.13870E+07        -0.50194E+08         0.00000E+00
    0.00000E+00         0.00000E+00        -0.29071E+08
 
   -0.38778E+08        -0.14294E+07         0.00000E+00
   -0.14294E+07        -0.50225E+08         0.00000E+00
    0.00000E+00         0.00000E+00        -0.29071E+08
 
   -0.38509E+08        -0.14557E+07         0.00000E+00
   -0.14557E+07        -0.50256E+08         0.00000E+00
    0.00000E+00         0.00000E+00        -0.29071E+08
 
   -0.38240E+08        -0.14666E+07         0.00000E+00
   -0.14666E+07        -0.50287E+08         0.00000E+00
    0.00000E+00         0.00000E+00        -0.29071E+08
 
   -0.37970E+08        -0.14629E+07         0.00000E+00
   -0.14629E+07        -0.50317E+08         0.00000E+00
    0.00000E+00         0.00000E+00        -0.29071E+08
 
   -0.37701E+08        -0.14458E+07         0.00000E+00
   -0.14458E+07        -0.50347E+08         0.00000E+00
    0.00000E+00         0.00000E+00        -0.29071E+08
 
   -0.37432E+08        -0.14159E+07         0.00000E+00
   -0.14159E+07        -0.50376E+08         0.00000E+00
    0.00000E+00         0.00000E+00        -0.29071E+08
 
   -0.37164E+08        -0.13742E+07         0.00000E+00
   -0.13742E+07        -0.50405E+08         0.00000E+00
    0.00000E+00         0.00000E+00        -0.29071E+08
 
   -0.36898E+08        -0.13215E+07         0.00000E+00
   -0.13215E+07        -0.50433E+08         0.00000E+00
    0.00000E+00         0.00000E+00        -0.29071E+08
 
   -0.36634E+08        -0.12583E+07         0.00000E+00
   -0.12583E+07        -0.50460E+08         0.00000E+00
    0.00000E+00         0.00000E+00        -0.29071E+08
 
   -0.36371E+08        -0.11855E+07         0.00000E+00
   -0.11855E+07        -0.50488E+08         0.00000E+00
    0.00000E+00         0.00000E+00        -0.29071E+08
 
   -0.36110E+08        -0.11035E+07         0.00000E+00
   -0.11035E+07        -0.50515E+08         0.00000E+00
    0.00000E+00         0.00000E+00        -0.29071E+08
 
   -0.35851E+08        -0.10129E+07         0.00000E+00
   -0.10129E+07        -0.50542E+08         0.00000E+00
    0.00000E+00         0.00000E+00        -0.29071E+08
 
   -0.35593E+08        -0.91425E+06         0.00000E+00
   -0.91425E+06        -0.50569E+08         0.00000E+00
    0.00000E+00         0.00000E+00        -0.29071E+08
 
   -0.35337E+08        -0.80787E+06         0.00000E+00
   -0.80787E+06        -0.50597E+08         0.00000E+00
    0.00000E+00         0.00000E+00        -0.29071E+08
 
   -0.35082E+08        -0.69407E+06         0.00000E+00
   -0.69407E+06        -0.50626E+08         0.00000E+00
    0.00000E+00         0.00000E+00        -0.29071E+08
 
   -0.34828E+08        -0.57309E+06         0.00000E+00
   -0.57309E+06        -0.50656E+08         0.00000E+00
    0.00000E+00         0.00000E+00        -0.29071E+08
 
   -0.34574E+08        -0.44487E+06         0.00000E+00
   -0.44487E+06        -0.50687E+08         0.00000E+00
    0.00000E+00         0.00000E+00        -0.29071E+08
 
   -0.34321E+08        -0.30889E+06         0.00000E+00
   -0.30889E+06        -0.50721E+08         0.00000E+00
    0.00000E+00         0.00000E+00        -0.29071E+08
 
   -0.34068E+08        -0.16501E+06         0.00000E+00
   -0.16501E+06        -0.50758E+08         0.00000E+00
    0.00000E+00         0.00000E+00        -0.29071E+08
 
   -0.33816E+08        -0.14586E+05         0.00000E+00
   -0.14586E+05        -0.50796E+08         0.00000E+00
    0.00000E+00         0.00000E+00        -0.29071E+08
 
   -0.33562E+08         0.14079E+06         0.00000E+00
    0.14079E+06        -0.50831E+08         0.00000E+00
    0.00000E+00         0.00000E+00        -0.29071E+08
 
   -0.33306E+08         0.29971E+06         0.00000E+00
    0.29971E+06        -0.50866E+08         0.00000E+00
    0.00000E+00         0.00000E+00        -0.29078E+08
 
   -0.33060E+08         0.46521E+06         0.00000E+00
    0.46521E+06        -0.50916E+08         0.00000E+00
    0.00000E+00         0.00000E+00        -0.29118E+08
 
   -0.32824E+08         0.64013E+06         0.00000E+00
    0.64013E+06        -0.50975E+08         0.00000E+00
    0.00000E+00         0.00000E+00        -0.29191E+08
 
   -0.32596E+08         0.82415E+06         0.00000E+00
    0.82415E+06        -0.51034E+08         0.00000E+00
    0.00000E+00         0.00000E+00        -0.29294E+08
 
   -0.32428E+08         0.10099E+07         0.00000E+00
    0.10099E+07        -0.51080E+08         0.00000E+00
    0.00000E+00         0.00000E+00        -0.29497E+08
 
   -0.32278E+08         0.11928E+07         0.00000E+00
    0.11928E+07        -0.51147E+08         0.00000E+00
    0.00000E+00         0.00000E+00        -0.29721E+08
 
   -0.32152E+08         0.13714E+07         0.00000E+00
    0.13714E+07        -0.51224E+08         0.00000E+00
    0.00000E+00         0.00000E+00        -0.29955E+08
 
   -0.32050E+08         0.15522E+07         0.00000E+00
    0.15522E+07        -0.51308E+08         0.00000E+00
    0.00000E+00         0.00000E+00        -0.30185E+08
 
   -0.31974E+08         0.17399E+07         0.00000E+00
    0.17399E+07        -0.51395E+08         0.00000E+00
    0.00000E+00         0.00000E+00        -0.30413E+08
 
   -0.31922E+08         0.19362E+07         0.00000E+00
    0.19362E+07        -0.51482E+08         0.00000E+00
    0.00000E+00         0.00000E+00        -0.30639E+08
 
   -0.31893E+08         0.21416E+07         0.00000E+00
    0.21416E+07        -0.51570E+08         0.00000E+00
    0.00000E+00         0.00000E+00        -0.30861E+08
 
   -0.31887E+08         0.23551E+07         0.00000E+00
    0.23551E+07        -0.51656E+08         0.00000E+00
    0.00000E+00         0.00000E+00        -0.31079E+08
 
   -0.31905E+08         0.25765E+07         0.00000E+00
    0.25765E+07        -0.51744E+08         0.00000E+00
    0.00000E+00         0.00000E+00        -0.31291E+08
 
   -0.31948E+08         0.28014E+07         0.00000E+00
    0.28014E+07        -0.51832E+08         0.00000E+00
    0.00000E+00         0.00000E+00        -0.31497E+08
 
   -0.32013E+08         0.30342E+07         0.00000E+00
    0.30342E+07        -0.51920E+08         0.00000E+00
    0.00000E+00         0.00000E+00        -0.31697E+08
 
   -0.32099E+08         0.32740E+07         0.00000E+00
    0.32740E+07        -0.52004E+08         0.00000E+00
    0.00000E+00         0.00000E+00        -0.31892E+08
 
   -0.32203E+08         0.35202E+07         0.00000E+00
    0.35202E+07        -0.52084E+08         0.00000E+00
    0.00000E+00         0.00000E+00        -0.32082E+08
 
   -0.32323E+08         0.37702E+07         0.00000E+00
    0.37702E+07        -0.52160E+08         0.00000E+00
    0.00000E+00         0.00000E+00        -0.32267E+08
 
   -0.32462E+08         0.40301E+07         0.00000E+00
    0.40301E+07        -0.52226E+08         0.00000E+00
    0.00000E+00         0.00000E+00        -0.32447E+08
 
   -0.42389E+08        -0.15658E+06         0.00000E+00
   -0.15658E+06        -0.49993E+08         0.00000E+00
    0.00000E+00         0.00000E+00        -0.27144E+08
 
   -0.42073E+08        -0.40469E+06         0.00000E+00
   -0.40469E+06        -0.50000E+08         0.00000E+00
    0.00000E+00         0.00000E+00        -0.27144E+08
 
   -0.41747E+08        -0.62548E+06         0.00000E+00
   -0.62548E+06        -0.50008E+08         0.00000E+00
    0.00000E+00         0.00000E+00        -0.27144E+08
 
   -0.41411E+08        -0.82165E+06         0.00000E+00
   -0.82165E+06        -0.50018E+08         0.00000E+00
    0.00000E+00         0.00000E+00        -0.27144E+08
 
   -0.41068E+08        -0.99320E+06         0.00000E+00
   -0.99320E+06        -0.50032E+08         0.00000E+00
    0.00000E+00         0.00000E+00        -0.27144E+08
 
   -0.40719E+08        -0.11403E+07         0.00000E+00
   -0.11403E+07        -0.50048E+08         0.00000E+00
    0.00000E+00         0.00000E+00        -0.27144E+08
 
   -0.40364E+08        -0.12632E+07         0.00000E+00
   -0.12632E+07        -0.50064E+08         0.00000E+00
    0.00000E+00         0.00000E+00        -0.27144E+08
 
   -0.40007E+08        -0.13626E+07         0.00000E+00
   -0.13626E+07        -0.50080E+08         0.00000E+00
    0.00000E+00         0.00000E+00        -0.27144E+08
 
   -0.39650E+08        -0.14399E+07         0.00000E+00
   -0.14399E+07        -0.50095E+08         0.00000E+00
    0.00000E+00         0.00000E+00        -0.27144E+08
 
   -0.39294E+08        -0.14964E+07         0.00000E+00
   -0.14964E+07        -0.50107E+08         0.00000E+00
    0.00000E+00         0.00000E+00        -0.27144E+08
 
   -0.38940E+08        -0.15338E+07         0.00000E+00
   -0.15338E+07        -0.50117E+08         0.00000E+00
    0.00000E+00         0.00000E+00        -0.27144E+08
 
   -0.38590E+08        -0.15535E+07         0.00000E+00
   -0.15535E+07        -0.50124E+08         0.00000E+00
    0.00000E+00         0.00000E+00        -0.27144E+08
 
   -0.38245E+08        -0.15572E+07         0.00000E+00
   -0.15572E+07        -0.50129E+08         0.00000E+00
    0.00000E+00         0.00000E+00        -0.27144E+08
 
   -0.37905E+08        -0.15464E+07         0.00000E+00
   -0.15464E+07        -0.50131E+08         0.00000E+00
    0.00000E+00         0.00000E+00        -0.27144E+08
 
   -0.37571E+08        -0.15224E+07         0.00000E+00
   -0.15224E+07        -0.50131E+08         0.00000E+00
    0.00000E+00         0.00000E+00        -0.27144E+08
 
   -0.37243E+08        -0.14864E+07         0.00000E+00
   -0.14864E+07        -0.50129E+08         0.00000E+00
    0.00000E+00         0.00000E+00        -0.27144E+08
 
   -0.36920E+08        -0.14395E+07         0.00000E+00
   -0.14395E+07        -0.50125E+08         0.00000E+00
    0.00000E+00         0.00000E+00        -0.27144E+08
 
   -0.36603E+08        -0.13826E+07         0.00000E+00
   -0.13826E+07        -0.50120E+08         0.00000E+00
    0.00000E+00         0.00000E+00        -0.27144E+08
 
   -0.36291E+08        -0.13165E+07         0.00000E+00
   -0.13165E+07        -0.50115E+08         0.00000E+00
    0.00000E+00         0.00000E+00        -0.27144E+08
 
   -0.35984E+08        -0.12422E+07         0.00000E+00
   -0.12422E+07        -0.50109E+08         0.00000E+00
    0.00000E+00         0.00000E+00        -0.27144E+08
 
   -0.35682E+08        -0.11601E+07         0.00000E+00
   -0.11601E+07        -0.50103E+08         0.00000E+00
    0.00000E+00         0.00000E+00        -0.27144E+08
 
   -0.35385E+08        -0.10709E+07         0.00000E+00
   -0.10709E+07        -0.50097E+08         0.00000E+00
    0.00000E+00         0.00000E+00        -0.27144E+08
 
   -0.35091E+08        -0.97492E+06         0.00000E+00
   -0.97492E+06        -0.50092E+08         0.00000E+00
    0.00000E+00         0.00000E+00        -0.27144E+08
 
   -0.34801E+08        -0.87304E+06         0.00000E+00
   -0.87304E+06        -0.50089E+08         0.00000E+00
    0.00000E+00         0.00000E+00        -0.27144E+08
 
   -0.34514E+08        -0.76557E+06         0.00000E+00
   -0.76557E+06        -0.50087E+08         0.00000E+00
    0.00000E+00         0.00000E+00        -0.27144E+08
 
   -0.34228E+08        -0.65267E+06         0.00000E+00
   -0.65267E+06        -0.50088E+08         0.00000E+00
    0.00000E+00         0.00000E+00        -0.27144E+08
 
   -0.33942E+08        -0.53475E+06         0.00000E+00
   -0.53475E+06        -0.50089E+08         0.00000E+00
    0.00000E+00         0.00000E+00        -0.27144E+08
 
   -0.33655E+08        -0.41273E+06         0.00000E+00
   -0.41273E+06        -0.50092E+08         0.00000E+00
    0.00000E+00         0.00000E+00        -0.27144E+08
 
   -0.33372E+08        -0.28666E+06         0.00000E+00
   -0.28666E+06        -0.50090E+08         0.00000E+00
    0.00000E+00         0.00000E+00        -0.27163E+08
 
   -0.33090E+08        -0.15541E+06         0.00000E+00
   -0.15541E+06        -0.50094E+08         0.00000E+00
    0.00000E+00         0.00000E+00        -0.27194E+08
 
   -0.32809E+08        -0.17559E+05         0.00000E+00
   -0.17559E+05        -0.50113E+08         0.00000E+00
    0.00000E+00         0.00000E+00        -0.27244E+08
 
   -0.32527E+08         0.12760E+06         0.00000E+00
    0.12760E+06        -0.50139E+08         0.00000E+00
    0.00000E+00         0.00000E+00        -0.27307E+08
 
   -0.32271E+08         0.27644E+06         0.00000E+00
    0.27644E+06        -0.50165E+08         0.00000E+00
    0.00000E+00         0.00000E+00        -0.27435E+08
 
   -0.32040E+08         0.42279E+06         0.00000E+00
    0.42279E+06        -0.50198E+08         0.00000E+00
    0.00000E+00         0.00000E+00        -0.27614E+08
 
   -0.31825E+08         0.56302E+06         0.00000E+00
    0.56302E+06        -0.50241E+08         0.00000E+00
    0.00000E+00         0.00000E+00        -0.27806E+08
 
   -0.31630E+08         0.70247E+06         0.00000E+00
    0.70247E+06        -0.50295E+08         0.00000E+00
    0.00000E+00         0.00000E+00        -0.28004E+08
 
   -0.31455E+08         0.84767E+06         0.00000E+00
    0.84767E+06        -0.50354E+08         0.00000E+00
    0.00000E+00         0.00000E+00        -0.28207E+08
 
   -0.31300E+08         0.10013E+07         0.00000E+00
    0.10013E+07        -0.50418E+08         0.00000E+00
    0.00000E+00         0.00000E+00        -0.28416E+08
 
   -0.31162E+08         0.11633E+07         0.00000E+00
    0.11633E+07        -0.50487E+08         0.00000E+00
    0.00000E+00         0.00000E+00        -0.28630E+08
 
   -0.31044E+08         0.13346E+07         0.00000E+00
    0.13346E+07        -0.50561E+08         0.00000E+00
    0.00000E+00         0.00000E+00        -0.28849E+08
 
   -0.30945E+08         0.15160E+07         0.00000E+00
    0.15160E+07        -0.50641E+08         0.00000E+00
    0.00000E+00         0.00000E+00        -0.29072E+08
 
   -0.30869E+08         0.17074E+07         0.00000E+00
    0.17074E+07        -0.50725E+08         0.00000E+00
    0.00000E+00         0.00000E+00        -0.29299E+08
 
   -0.30816E+08         0.19112E+07         0.00000E+00
    0.19112E+07        -0.50815E+08         0.00000E+00
    0.00000E+00         0.00000E+00        -0.29529E+08
 
   -0.30787E+08         0.21270E+07         0.00000E+00
    0.21270E+07        -0.50909E+08         0.00000E+00
    0.00000E+00         0.00000E+00        -0.29760E+08
 
   -0.30782E+08         0.23562E+07         0.00000E+00
    0.23562E+07        -0.51003E+08         0.00000E+00
    0.00000E+00         0.00000E+00        -0.29991E+08
 
   -0.30801E+08         0.25976E+07         0.00000E+00
    0.25976E+07        -0.51098E+08         0.00000E+00
    0.00000E+00         0.00000E+00        -0.30221E+08
 
   -0.30843E+08         0.28498E+07         0.00000E+00
    0.28498E+07        -0.51193E+08         0.00000E+00
    0.00000E+00         0.00000E+00        -0.30449E+08
 
   -0.30910E+08         0.31127E+07         0.00000E+00
    0.31127E+07        -0.51285E+08         0.00000E+00
    0.00000E+00         0.00000E+00        -0.30675E+08
 
   -0.31006E+08         0.33821E+07         0.00000E+00
    0.33821E+07        -0.51376E+08         0.00000E+00
    0.00000E+00         0.00000E+00        -0.30892E+08
 
   -0.31133E+08         0.36512E+07         0.00000E+00
    0.36512E+07        -0.51471E+08         0.00000E+00
    0.00000E+00         0.00000E+00        -0.31100E+08
 
   -0.43732E+08        -0.17148E+06         0.00000E+00
   -0.17148E+06        -0.50033E+08         0.00000E+00
    0.00000E+00         0.00000E+00        -0.25152E+08
 
   -0.43282E+08        -0.43401E+06         0.00000E+00
   -0.43401E+06        -0.50025E+08         0.00000E+00
    0.00000E+00         0.00000E+00        -0.25152E+08
 
   -0.42818E+08        -0.67289E+06         0.00000E+00
   -0.67289E+06        -0.50034E+08         0.00000E+00
    0.00000E+00         0.00000E+00        -0.25152E+08
 
   -0.42340E+08        -0.87802E+06         0.00000E+00
   -0.87802E+06        -0.50048E+08         0.00000E+00
    0.00000E+00         0.00000E+00        -0.25152E+08
 
   -0.41854E+08        -0.10484E+07         0.00000E+00
   -0.10484E+07        -0.50056E+08         0.00000E+00
    0.00000E+00         0.00000E+00        -0.25152E+08
 
   -0.41367E+08        -0.11849E+07         0.00000E+00
   -0.11849E+07        -0.50059E+08         0.00000E+00
    0.00000E+00         0.00000E+00        -0.25152E+08
 
   -0.40883E+08        -0.12909E+07         0.00000E+00
   -0.12909E+07        -0.50052E+08         0.00000E+00
    0.00000E+00         0.00000E+00        -0.25152E+08
 
   -0.40407E+08        -0.13703E+07         0.00000E+00
   -0.13703E+07        -0.50037E+08         0.00000E+00
    0.00000E+00         0.00000E+00        -0.25152E+08
 
   -0.39940E+08        -0.14264E+07         0.00000E+00
   -0.14264E+07        -0.50015E+08         0.00000E+00
    0.00000E+00         0.00000E+00        -0.25152E+08
 
   -0.39485E+08        -0.14617E+07         0.00000E+00
   -0.14617E+07        -0.49988E+08         0.00000E+00
    0.00000E+00         0.00000E+00        -0.25152E+08
 
   -0.39043E+08        -0.14790E+07         0.00000E+00
   -0.14790E+07        -0.49954E+08         0.00000E+00
    0.00000E+00         0.00000E+00        -0.25152E+08
 
   -0.38614E+08        -0.14807E+07         0.00000E+00
   -0.14807E+07        -0.49914E+08         0.00000E+00
    0.00000E+00         0.00000E+00        -0.25152E+08
 
   -0.38197E+08        -0.14686E+07         0.00000E+00
   -0.14686E+07        -0.49874E+08         0.00000E+00
    0.00000E+00         0.00000E+00        -0.25152E+08
 
   -0.37793E+08        -0.14440E+07         0.00000E+00
   -0.14440E+07        -0.49831E+08         0.00000E+00
    0.00000E+00         0.00000E+00        -0.25152E+08
 
   -0.37401E+08        -0.14085E+07         0.00000E+00
   -0.14085E+07        -0.49784E+08         0.00000E+00
    0.00000E+00         0.00000E+00        -0.25152E+08
 
   -0.37020E+08        -0.13633E+07         0.00000E+00
   -0.13633E+07        -0.49736E+08         0.00000E+00
    0.00000E+00         0.00000E+00        -0.25152E+08
 
   -0.36651E+08        -0.13097E+07         0.00000E+00
   -0.13097E+07        -0.49686E+08         0.00000E+00
    0.00000E+00         0.00000E+00        -0.25152E+08
 
   -0.36292E+08        -0.12488E+07         0.00000E+00
   -0.12488E+07        -0.49636E+08         0.00000E+00
    0.00000E+00         0.00000E+00        -0.25152E+08
 
   -0.35943E+08        -0.11815E+07         0.00000E+00
   -0.11815E+07        -0.49585E+08         0.00000E+00
    0.00000E+00         0.00000E+00        -0.25152E+08
 
   -0.35603E+08        -0.11086E+07         0.00000E+00
   -0.11086E+07        -0.49536E+08         0.00000E+00
    0.00000E+00         0.00000E+00        -0.25152E+08
 
   -0.35270E+08        -0.10308E+07         0.00000E+00
   -0.10308E+07        -0.49488E+08         0.00000E+00
    0.00000E+00         0.00000E+00        -0.25152E+08
 
   -0.34944E+08        -0.94859E+06         0.00000E+00
   -0.94859E+06        -0.49442E+08         0.00000E+00
    0.00000E+00         0.00000E+00        -0.25152E+08
 
   -0.34624E+08        -0.86234E+06         0.00000E+00
   -0.86234E+06        -0.49396E+08         0.00000E+00
    0.00000E+00         0.00000E+00        -0.25159E+08
 
   -0.34310E+08        -0.77200E+06         0.00000E+00
   -0.77200E+06        -0.49352E+08         0.00000E+00
    0.00000E+00         0.00000E+00        -0.25171E+08
 
   -0.33999E+08        -0.67792E+06         0.00000E+00
   -0.67792E+06        -0.49309E+08         0.00000E+00
    0.00000E+00         0.00000E+00        -0.25186E+08
 
   -0.33691E+08        -0.58046E+06         0.00000E+00
   -0.58046E+06        -0.49270E+08         0.00000E+00
    0.00000E+00         0.00000E+00        -0.25203E+08
 
   -0.33385E+08        -0.47963E+06         0.00000E+00
   -0.47963E+06        -0.49239E+08         0.00000E+00
    0.00000E+00         0.00000E+00        -0.25222E+08
 
   -0.33080E+08        -0.37497E+06         0.00000E+00
   -0.37497E+06        -0.49215E+08         0.00000E+00
    0.00000E+00         0.00000E+00        -0.25251E+08
 
   -0.32777E+08        -0.26694E+06         0.00000E+00
   -0.26694E+06        -0.49205E+08         0.00000E+00
    0.00000E+00         0.00000E+00        -0.25288E+08
 
   -0.32478E+08        -0.15656E+06         0.00000E+00
   -0.15656E+06        -0.49201E+08         0.00000E+00
    0.00000E+00         0.00000E+00        -0.25348E+08
 
   -0.32199E+08        -0.47941E+05         0.00000E+00
   -0.47941E+05        -0.49195E+08         0.00000E+00
    0.00000E+00         0.00000E+00        -0.25465E+08
 
   -0.31930E+08         0.55268E+05         0.00000E+00
    0.55268E+05        -0.49201E+08         0.00000E+00
    0.00000E+00         0.00000E+00        -0.25596E+08
 
   -0.31674E+08         0.15397E+06         0.00000E+00
    0.15397E+06        -0.49215E+08         0.00000E+00
    0.00000E+00         0.00000E+00        -0.25736E+08
 
   -0.31433E+08         0.25355E+06         0.00000E+00
    0.25355E+06        -0.49238E+08         0.00000E+00
    0.00000E+00         0.00000E+00        -0.25884E+08
 
   -0.31206E+08         0.35699E+06         0.00000E+00
    0.35699E+06        -0.49268E+08         0.00000E+00
    0.00000E+00         0.00000E+00        -0.26041E+08
 
   -0.30991E+08         0.46464E+06         0.00000E+00
    0.46464E+06        -0.49304E+08         0.00000E+00
    0.00000E+00         0.00000E+00        -0.26208E+08
 
   -0.30786E+08         0.57709E+06         0.00000E+00
    0.57709E+06        -0.49348E+08         0.00000E+00
    0.00000E+00         0.00000E+00        -0.26385E+08
 
   -0.30591E+08         0.69569E+06         0.00000E+00
    0.69569E+06        -0.49399E+08         0.00000E+00
    0.00000E+00         0.00000E+00        -0.26574E+08
 
   -0.30409E+08         0.82221E+06         0.00000E+00
    0.82221E+06        -0.49458E+08         0.00000E+00
    0.00000E+00         0.00000E+00        -0.26774E+08
 
   -0.30241E+08         0.95803E+06         0.00000E+00
    0.95803E+06        -0.49526E+08         0.00000E+00
    0.00000E+00         0.00000E+00        -0.26986E+08
 
   -0.30087E+08         0.11045E+07         0.00000E+00
    0.11045E+07        -0.49603E+08         0.00000E+00
    0.00000E+00         0.00000E+00        -0.27210E+08
 
   -0.29948E+08         0.12638E+07         0.00000E+00
    0.12638E+07        -0.49688E+08         0.00000E+00
    0.00000E+00         0.00000E+00        -0.27446E+08
 
   -0.29825E+08         0.14379E+07         0.00000E+00
    0.14379E+07        -0.49781E+08         0.00000E+00
    0.00000E+00         0.00000E+00        -0.27696E+08
 
   -0.29720E+08         0.16286E+07         0.00000E+00
    0.16286E+07        -0.49883E+08         0.00000E+00
    0.00000E+00         0.00000E+00        -0.27959E+08
 
   -0.29639E+08         0.18375E+07         0.00000E+00
    0.18375E+07        -0.49994E+08         0.00000E+00
    0.00000E+00         0.00000E+00        -0.28232E+08
 
   -0.29586E+08         0.20653E+07         0.00000E+00
    0.20653E+07        -0.50113E+08         0.00000E+00
    0.00000E+00         0.00000E+00        -0.28515E+08
 
   -0.29564E+08         0.23114E+07         0.00000E+00
    0.23114E+07        -0.50238E+08         0.00000E+00
    0.00000E+00         0.00000E+00        -0.28801E+08
 
   -0.29579E+08         0.25684E+07         0.00000E+00
    0.25684E+07        -0.50369E+08         0.00000E+00
    0.00000E+00         0.00000E+00        -0.29086E+08
 
   -0.29636E+08         0.28464E+07         0.00000E+00
    0.28464E+07        -0.50502E+08         0.00000E+00
    0.00000E+00         0.00000E+00        -0.29363E+08
 
   -0.29716E+08         0.31312E+07         0.00000E+00
    0.31312E+07        -0.50626E+08         0.00000E+00
    0.00000E+00         0.00000E+00        -0.29629E+08
 
   -0.45175E+08        -0.19307E+06         0.00000E+00
   -0.19307E+06        -0.49955E+08         0.00000E+00
    0.00000E+00         0.00000E+00        -0.24138E+08
 
   -0.44552E+08        -0.49024E+06         0.00000E+00
   -0.49024E+06        -0.49998E+08         0.00000E+00
    0.00000E+00         0.00000E+00        -0.23991E+08
 
   -0.43875E+08        -0.71308E+06         0.00000E+00
   -0.71308E+06        -0.49998E+08         0.00000E+00
    0.00000E+00         0.00000E+00        -0.23890E+08
 
   -0.43192E+08        -0.87974E+06         0.00000E+00
   -0.87974E+06        -0.49968E+08         0.00000E+00
    0.00000E+00         0.00000E+00        -0.23808E+08
 
   -0.42516E+08        -0.99996E+06         0.00000E+00
   -0.99996E+06        -0.49929E+08         0.00000E+00
    0.00000E+00         0.00000E+00        -0.23734E+08
 
   -0.41861E+08        -0.10823E+07         0.00000E+00
   -0.10823E+07        -0.49875E+08         0.00000E+00
    0.00000E+00         0.00000E+00        -0.23666E+08
 
   -0.41235E+08        -0.11345E+07         0.00000E+00
   -0.11345E+07        -0.49816E+08         0.00000E+00
    0.00000E+00         0.00000E+00        -0.23605E+08
 
   -0.40640E+08        -0.11627E+07         0.00000E+00
   -0.11627E+07        -0.49748E+08         0.00000E+00
    0.00000E+00         0.00000E+00        -0.23550E+08
 
   -0.40076E+08        -0.11733E+07         0.00000E+00
   -0.11733E+07        -0.49670E+08         0.00000E+00
    0.00000E+00         0.00000E+00        -0.23497E+08
 
   -0.39539E+08        -0.11706E+07         0.00000E+00
   -0.11706E+07        -0.49580E+08         0.00000E+00
    0.00000E+00         0.00000E+00        -0.23445E+08
 
   -0.39025E+08        -0.11561E+07         0.00000E+00
   -0.11561E+07        -0.49487E+08         0.00000E+00
    0.00000E+00         0.00000E+00        -0.23398E+08
 
   -0.38535E+08        -0.11317E+07         0.00000E+00
   -0.11317E+07        -0.49388E+08         0.00000E+00
    0.00000E+00         0.00000E+00        -0.23352E+08
 
   -0.38067E+08        -0.10996E+07         0.00000E+00
   -0.10996E+07        -0.49283E+08         0.00000E+00
    0.00000E+00         0.00000E+00        -0.23323E+08
 
   -0.37620E+08        -0.10617E+07         0.00000E+00
   -0.10617E+07        -0.49177E+08         0.00000E+00
    0.00000E+00         0.00000E+00        -0.23298E+08
 
   -0.37190E+08        -0.10187E+07         0.00000E+00
   -0.10187E+07        -0.49071E+08         0.00000E+00
    0.00000E+00         0.00000E+00        -0.23275E+08
 
   -0.36777E+08        -0.97193E+06         0.00000E+00
   -0.97193E+06        -0.48965E+08         0.00000E+00
    0.00000E+00         0.00000E+00        -0.23254E+08
 
   -0.36380E+08        -0.92197E+06         0.00000E+00
   -0.92197E+06        -0.48862E+08         0.00000E+00
    0.00000E+00         0.00000E+00        -0.23236E+08
 
   -0.35997E+08        -0.86910E+06         0.00000E+00
   -0.86910E+06        -0.48763E+08         0.00000E+00
    0.00000E+00         0.00000E+00        -0.23221E+08
 
   -0.35627E+08        -0.81360E+06         0.00000E+00
   -0.81360E+06        -0.48667E+08         0.00000E+00
    0.00000E+00         0.00000E+00        -0.23208E+08
 
   -0.35267E+08        -0.75567E+06         0.00000E+00
   -0.75567E+06        -0.48575E+08         0.00000E+00
    0.00000E+00         0.00000E+00        -0.23199E+08
 
   -0.34917E+08        -0.69541E+06         0.00000E+00
   -0.69541E+06        -0.48489E+08         0.00000E+00
    0.00000E+00         0.00000E+00        -0.23193E+08
 
   -0.34575E+08        -0.63280E+06         0.00000E+00
   -0.63280E+06        -0.48408E+08         0.00000E+00
    0.00000E+00         0.00000E+00        -0.23192E+08
 
   -0.34240E+08        -0.56822E+06         0.00000E+00
   -0.56822E+06        -0.48336E+08         0.00000E+00
    0.00000E+00         0.00000E+00        -0.23194E+08
 
   -0.33912E+08        -0.50198E+06         0.00000E+00
   -0.50198E+06        -0.48272E+08         0.00000E+00
    0.00000E+00         0.00000E+00        -0.23198E+08
 
   -0.33588E+08        -0.43416E+06         0.00000E+00
   -0.43416E+06        -0.48216E+08         0.00000E+00
    0.00000E+00         0.00000E+00        -0.23208E+08
 
   -0.33268E+08        -0.36493E+06         0.00000E+00
   -0.36493E+06        -0.48168E+08         0.00000E+00
    0.00000E+00         0.00000E+00        -0.23223E+08
 
   -0.32955E+08        -0.29500E+06         0.00000E+00
   -0.29500E+06        -0.48125E+08         0.00000E+00
    0.00000E+00         0.00000E+00        -0.23257E+08
 
   -0.32650E+08        -0.22639E+06         0.00000E+00
   -0.22639E+06        -0.48088E+08         0.00000E+00
    0.00000E+00         0.00000E+00        -0.23315E+08
 
   -0.32353E+08        -0.16050E+06         0.00000E+00
   -0.16050E+06        -0.48060E+08         0.00000E+00
    0.00000E+00         0.00000E+00        -0.23386E+08
 
   -0.32065E+08        -0.98067E+05         0.00000E+00
   -0.98067E+05        -0.48040E+08         0.00000E+00
    0.00000E+00         0.00000E+00        -0.23465E+08
 
   -0.31788E+08        -0.36989E+05         0.00000E+00
   -0.36989E+05        -0.48031E+08         0.00000E+00
    0.00000E+00         0.00000E+00        -0.23554E+08
 
   -0.31522E+08         0.24677E+05         0.00000E+00
    0.24677E+05        -0.48029E+08         0.00000E+00
    0.00000E+00         0.00000E+00        -0.23653E+08
 
   -0.31265E+08         0.87284E+05         0.00000E+00
    0.87284E+05        -0.48035E+08         0.00000E+00
    0.00000E+00         0.00000E+00        -0.23761E+08
 
   -0.31016E+08         0.15072E+06         0.00000E+00
    0.15072E+06        -0.48049E+08         0.00000E+00
    0.00000E+00         0.00000E+00        -0.23880E+08
 
   -0.30775E+08         0.21564E+06         0.00000E+00
    0.21564E+06        -0.48070E+08         0.00000E+00
    0.00000E+00         0.00000E+00        -0.24008E+08
 
   -0.30541E+08         0.28299E+06         0.00000E+00
    0.28299E+06        -0.48099E+08         0.00000E+00
    0.00000E+00         0.00000E+00        -0.24148E+08
 
   -0.30311E+08         0.35349E+06         0.00000E+00
    0.35349E+06        -0.48138E+08         0.00000E+00
    0.00000E+00         0.00000E+00        -0.24301E+08
 
   -0.30087E+08         0.42814E+06         0.00000E+00
    0.42814E+06        -0.48185E+08         0.00000E+00
    0.00000E+00         0.00000E+00        -0.24468E+08
 
   -0.29867E+08         0.50807E+06         0.00000E+00
    0.50807E+06        -0.48241E+08         0.00000E+00
    0.00000E+00         0.00000E+00        -0.24650E+08
 
   -0.29653E+08         0.59464E+06         0.00000E+00
    0.59464E+06        -0.48308E+08         0.00000E+00
    0.00000E+00         0.00000E+00        -0.24848E+08
 
   -0.29444E+08         0.68992E+06         0.00000E+00
    0.68992E+06        -0.48385E+08         0.00000E+00
    0.00000E+00         0.00000E+00        -0.25065E+08
 
   -0.29241E+08         0.79592E+06         0.00000E+00
    0.79592E+06        -0.48474E+08         0.00000E+00
    0.00000E+00         0.00000E+00        -0.25302E+08
 
   -0.29042E+08         0.91281E+06         0.00000E+00
    0.91281E+06        -0.48576E+08         0.00000E+00
    0.00000E+00         0.00000E+00        -0.25563E+08
 
   -0.28852E+08         0.10441E+07         0.00000E+00
    0.10441E+07        -0.48691E+08         0.00000E+00
    0.00000E+00         0.00000E+00        -0.25849E+08
 
   -0.28671E+08         0.11937E+07         0.00000E+00
    0.11937E+07        -0.48821E+08         0.00000E+00
    0.00000E+00         0.00000E+00        -0.26163E+08
 
   -0.28509E+08         0.13656E+07         0.00000E+00
    0.13656E+07        -0.48966E+08         0.00000E+00
    0.00000E+00         0.00000E+00        -0.26503E+08
 
   -0.28374E+08         0.15643E+07         0.00000E+00
    0.15643E+07        -0.49129E+08         0.00000E+00
    0.00000E+00         0.00000E+00        -0.26867E+08
 
   -0.28274E+08         0.17986E+07         0.00000E+00
    0.17986E+07        -0.49307E+08         0.00000E+00
    0.00000E+00         0.00000E+00        -0.27252E+08
 
   -0.28214E+08         0.20576E+07         0.00000E+00
    0.20576E+07        -0.49503E+08         0.00000E+00
    0.00000E+00         0.00000E+00        -0.27656E+08
 
   -0.28233E+08         0.23679E+07         0.00000E+00
    0.23679E+07        -0.49726E+08         0.00000E+00
    0.00000E+00         0.00000E+00        -0.28066E+08
 
   -0.46375E+08        -0.26060E+06         0.00000E+00
   -0.26060E+06        -0.49999E+08         0.00000E+00
    0.00000E+00         0.00000E+00        -0.26190E+08
 
   -0.45442E+08        -0.33452E+06         0.00000E+00
   -0.33452E+06        -0.49903E+08         0.00000E+00
    0.00000E+00         0.00000E+00        -0.25119E+08
 
   -0.44540E+08        -0.38994E+06         0.00000E+00
   -0.38994E+06        -0.49787E+08         0.00000E+00
    0.00000E+00         0.00000E+00        -0.24260E+08
 
   -0.43686E+08        -0.43104E+06         0.00000E+00
   -0.43104E+06        -0.49654E+08         0.00000E+00
    0.00000E+00         0.00000E+00        -0.23549E+08
 
   -0.42872E+08        -0.46397E+06         0.00000E+00
   -0.46397E+06        -0.49497E+08         0.00000E+00
    0.00000E+00         0.00000E+00        -0.23007E+08
 
   -0.42099E+08        -0.48531E+06         0.00000E+00
   -0.48531E+06        -0.49328E+08         0.00000E+00
    0.00000E+00         0.00000E+00        -0.22629E+08
 
   -0.41377E+08        -0.49695E+06         0.00000E+00
   -0.49695E+06        -0.49145E+08         0.00000E+00
    0.00000E+00         0.00000E+00        -0.22370E+08
 
   -0.40707E+08        -0.49917E+06         0.00000E+00
   -0.49917E+06        -0.48959E+08         0.00000E+00
    0.00000E+00         0.00000E+00        -0.22215E+08
 
   -0.40087E+08        -0.49480E+06         0.00000E+00
   -0.49480E+06        -0.48773E+08         0.00000E+00
    0.00000E+00         0.00000E+00        -0.22079E+08
 
   -0.39502E+08        -0.48425E+06         0.00000E+00
   -0.48425E+06        -0.48593E+08         0.00000E+00
    0.00000E+00         0.00000E+00        -0.21954E+08
 
   -0.38948E+08        -0.46783E+06         0.00000E+00
   -0.46783E+06        -0.48415E+08         0.00000E+00
    0.00000E+00         0.00000E+00        -0.21837E+08
 
   -0.38429E+08        -0.44930E+06         0.00000E+00
   -0.44930E+06        -0.48242E+08         0.00000E+00
    0.00000E+00         0.00000E+00        -0.21731E+08
 
   -0.37938E+08        -0.42906E+06         0.00000E+00
   -0.42906E+06        -0.48077E+08         0.00000E+00
    0.00000E+00         0.00000E+00        -0.21634E+08
 
   -0.37471E+08        -0.40716E+06         0.00000E+00
   -0.40716E+06        -0.47919E+08         0.00000E+00
    0.00000E+00         0.00000E+00        -0.21545E+08
 
   -0.37028E+08        -0.38500E+06         0.00000E+00
   -0.38500E+06        -0.47767E+08         0.00000E+00
    0.00000E+00         0.00000E+00        -0.21465E+08
 
   -0.36604E+08        -0.36226E+06         0.00000E+00
   -0.36226E+06        -0.47625E+08         0.00000E+00
    0.00000E+00         0.00000E+00        -0.21394E+08
 
   -0.36197E+08        -0.33898E+06         0.00000E+00
   -0.33898E+06        -0.47490E+08         0.00000E+00
    0.00000E+00         0.00000E+00        -0.21330E+08
 
   -0.35805E+08        -0.31539E+06         0.00000E+00
   -0.31539E+06        -0.47363E+08         0.00000E+00
    0.00000E+00         0.00000E+00        -0.21275E+08
 
   -0.35426E+08        -0.29157E+06         0.00000E+00
   -0.29157E+06        -0.47245E+08         0.00000E+00
    0.00000E+00         0.00000E+00        -0.21229E+08
 
   -0.35060E+08        -0.26751E+06         0.00000E+00
   -0.26751E+06        -0.47137E+08         0.00000E+00
    0.00000E+00         0.00000E+00        -0.21190E+08
 
   -0.34703E+08        -0.24322E+06         0.00000E+00
   -0.24322E+06        -0.47037E+08         0.00000E+00
    0.00000E+00         0.00000E+00        -0.21161E+08
 
   -0.34355E+08        -0.21885E+06         0.00000E+00
   -0.21885E+06        -0.46947E+08         0.00000E+00
    0.00000E+00         0.00000E+00        -0.21141E+08
 
   -0.34015E+08        -0.19428E+06         0.00000E+00
   -0.19428E+06        -0.46865E+08         0.00000E+00
    0.00000E+00         0.00000E+00        -0.21130E+08
 
   -0.33683E+08        -0.16931E+06         0.00000E+00
   -0.16931E+06        -0.46793E+08         0.00000E+00
    0.00000E+00         0.00000E+00        -0.21129E+08
 
   -0.33358E+08        -0.14423E+06         0.00000E+00
   -0.14423E+06        -0.46731E+08         0.00000E+00
    0.00000E+00         0.00000E+00        -0.21137E+08
 
   -0.33040E+08        -0.11975E+06         0.00000E+00
   -0.11975E+06        -0.46679E+08         0.00000E+00
    0.00000E+00         0.00000E+00        -0.21156E+08
 
   -0.32731E+08        -0.96556E+05         0.00000E+00
   -0.96556E+05        -0.46637E+08         0.00000E+00
    0.00000E+00         0.00000E+00        -0.21184E+08
 
   -0.32431E+08        -0.74070E+05         0.00000E+00
   -0.74070E+05        -0.46604E+08         0.00000E+00
    0.00000E+00         0.00000E+00        -0.21223E+08
 
   -0.32140E+08        -0.52123E+05         0.00000E+00
   -0.52123E+05        -0.46581E+08         0.00000E+00
    0.00000E+00         0.00000E+00        -0.21271E+08
 
   -0.31857E+08        -0.30596E+05         0.00000E+00
   -0.30596E+05        -0.46566E+08         0.00000E+00
    0.00000E+00         0.00000E+00        -0.21328E+08
 
   -0.31582E+08        -0.94810E+04         0.00000E+00
   -0.94810E+04        -0.46559E+08         0.00000E+00
    0.00000E+00         0.00000E+00        -0.21394E+08
 
   -0.31314E+08         0.11498E+05         0.00000E+00
    0.11498E+05        -0.46561E+08         0.00000E+00
    0.00000E+00         0.00000E+00        -0.21470E+08
 
   -0.31054E+08         0.32738E+05         0.00000E+00
    0.32738E+05        -0.46571E+08         0.00000E+00
    0.00000E+00         0.00000E+00        -0.21555E+08
 
   -0.30800E+08         0.54520E+05         0.00000E+00
    0.54520E+05        -0.46590E+08         0.00000E+00
    0.00000E+00         0.00000E+00        -0.21651E+08
 
   -0.30552E+08         0.76860E+05         0.00000E+00
    0.76860E+05        -0.46618E+08         0.00000E+00
    0.00000E+00         0.00000E+00        -0.21757E+08
 
   -0.30309E+08         0.10007E+06         0.00000E+00
    0.10007E+06        -0.46655E+08         0.00000E+00
    0.00000E+00         0.00000E+00        -0.21875E+08
 
   -0.30068E+08         0.12434E+06         0.00000E+00
    0.12434E+06        -0.46701E+08         0.00000E+00
    0.00000E+00         0.00000E+00        -0.22007E+08
 
   -0.29827E+08         0.14979E+06         0.00000E+00
    0.14979E+06        -0.46757E+08         0.00000E+00
    0.00000E+00         0.00000E+00        -0.22153E+08
 
   -0.29586E+08         0.17706E+06         0.00000E+00
    0.17706E+06        -0.46824E+08         0.00000E+00
    0.00000E+00         0.00000E+00        -0.22316E+08
 
   -0.29345E+08         0.20676E+06         0.00000E+00
    0.20676E+06        -0.46903E+08         0.00000E+00
    0.00000E+00         0.00000E+00        -0.22497E+08
 
   -0.29102E+08         0.23927E+06         0.00000E+00
    0.23927E+06        -0.46994E+08         0.00000E+00
    0.00000E+00         0.00000E+00        -0.22699E+08
 
   -0.28857E+08         0.27533E+06         0.00000E+00
    0.27533E+06        -0.47099E+08         0.00000E+00
    0.00000E+00         0.00000E+00        -0.22925E+08
 
   -0.28608E+08         0.31688E+06         0.00000E+00
    0.31688E+06        -0.47219E+08         0.00000E+00
    0.00000E+00         0.00000E+00        -0.23180E+08
 
   -0.28354E+08         0.36443E+06         0.00000E+00
    0.36443E+06        -0.47357E+08         0.00000E+00
    0.00000E+00         0.00000E+00        -0.23468E+08
 
   -0.28090E+08         0.41952E+06         0.00000E+00
    0.41952E+06        -0.47514E+08         0.00000E+00
    0.00000E+00         0.00000E+00        -0.23797E+08
 
   -0.27819E+08         0.48595E+06         0.00000E+00
    0.48595E+06        -0.47693E+08         0.00000E+00
    0.00000E+00         0.00000E+00        -0.24175E+08
 
   -0.27542E+08         0.56799E+06         0.00000E+00
    0.56799E+06        -0.47898E+08         0.00000E+00
    0.00000E+00         0.00000E+00        -0.24608E+08
 
   -0.27270E+08         0.67182E+06         0.00000E+00
    0.67182E+06        -0.48133E+08         0.00000E+00
    0.00000E+00         0.00000E+00        -0.25104E+08
 
   -0.27006E+08         0.81258E+06         0.00000E+00
    0.81258E+06        -0.48402E+08         0.00000E+00
    0.00000E+00         0.00000E+00        -0.25673E+08
 
   -0.26744E+08         0.98189E+06         0.00000E+00
    0.98189E+06        -0.48705E+08         0.00000E+00
    0.00000E+00         0.00000E+00        -0.26331E+08
 
SCALARS stresss double 
LOOKUP_TABLE default
  -49999139.5881267     
  -49999135.0517534     
  -49999130.9836816     
  -49999127.3900626     
  -49999124.2755299     
  -49999121.6436715     
  -49999119.4973000     
  -49999117.8386133     
  -49999116.6692951     
  -49999115.9905807     
  -49999115.8033012     
  -49999116.1079140     
  -49999116.9045256     
  -49999118.1929078     
  -49999119.9725103     
  -49999122.2424711     
  -49999125.0016240     
  -49999128.2485053     
  -49999131.9813596     
  -49999136.1981444     
  -49999140.8965349     
  -49999146.0739277     
  -49999151.7274444     
  -49999157.8539357     
  -49999164.4499843     
  -49999171.5119088     
  -49999179.0357668     
  -49999187.0173584     
  -49999195.4522300     
  -49999204.3356773     
  -49999213.6627498     
  -49999223.4282539     
  -49999233.6267576     
  -49999244.2525944     
  -49999255.2998680     
  -49999266.7624569     
  -49999278.6340203     
  -49999290.9080033     
  -49999303.5776438     
  -49999316.6359797     
  -49999330.0758578     
  -49999343.8899444     
  -49999358.0707380     
  -49999372.6105873     
  -49999387.5017143     
  -49999402.7362489     
  -49999418.3062812     
  -49999434.2039472     
  -49999450.4215746     
  -49999466.9519475     
  -49999127.2788070     
  -49999122.6015648     
  -49999118.4213374     
  -49999114.7368446     
  -49999111.5482172     
  -49999108.8561938     
  -49999106.6617097     
  -49999104.9656819     
  -49999103.7688919     
  -49999103.0719213     
  -49999102.8751151     
  -49999103.1785606     
  -49999103.9820757     
  -49999105.2852021     
  -49999107.0872019     
  -49999109.3870561     
  -49999112.1834642     
  -49999115.4748451     
  -49999119.2593380     
  -49999123.5348040     
  -49999128.2988278     
  -49999133.5487201     
  -49999139.2815190     
  -49999145.4939931     
  -49999152.1826437     
  -49999159.3437072     
  -49999166.9731581     
  -49999175.0667115     
  -49999183.6198263     
  -49999192.6277084     
  -49999202.0853133     
  -49999211.9873499     
  -49999222.3282836     
  -49999233.1023399     
  -49999244.3035078     
  -49999255.9255436     
  -49999267.9619743     
  -49999280.4061011     
  -49999293.2510031     
  -49999306.4895399     
  -49999320.1143537     
  -49999334.1178708     
  -49999348.4922994     
  -49999363.2296242     
  -49999378.3215921     
  -49999393.7596836     
  -49999409.5350545     
  -49999425.6384204     
  -49999442.0598244     
  -49999458.7881613     
  -49999102.6071831     
  -49999097.7779650     
  -49999093.4569401     
  -49999089.6465180     
  -49999086.3482555     
  -49999083.5633005     
  -49999081.2925540     
  -49999079.5367172     
  -49999078.2962948     
  -49999077.5715840     
  -49999077.3626596     
  -49999077.6693607     
  -49999078.4912796     
  -49999079.8277531     
  -49999081.6778557     
  -49999084.0403950     
  -49999086.9139083     
  -49999090.2966605     
  -49999094.1866429     
  -49999098.5815723     
  -49999103.4788916     
  -49999108.8757698     
  -49999114.7691033     
  -49999121.1555171     
  -49999128.0313662     
  -49999135.3927376     
  -49999143.2354521     
  -49999151.5550668     
  -49999160.3468771     
  -49999169.6059194     
  -49999179.3269739     
  -49999189.5045670     
  -49999200.1329741     
  -49999211.2062228     
  -49999222.7180952     
  -49999234.6621311     
  -49999247.0316306     
  -49999259.8196563     
  -49999273.0190359     
  -49999286.6223638     
  -49999300.6220022     
  -49999315.0100821     
  -49999329.7785029     
  -49999344.9189319     
  -49999360.4228048     
  -49999376.2813298     
  -49999392.4855041     
  -49999409.0261627     
  -49999425.8941090     
  -49999443.0804436     
  -49999065.1684291     
  -49999060.1378386     
  -49999055.6364235     
  -49999051.6661237     
  -49999048.2287563     
  -49999045.3258585     
  -49999042.9586577     
  -49999041.1280781     
  -49999039.8347526     
  -49999039.0790311     
  -49999038.8609860     
  -49999039.1804140     
  -49999040.0368362     
  -49999041.4294971     
  -49999043.3573630     
  -49999045.8191214     
  -49999048.8131790     
  -49999052.3376613     
  -49999056.3904121     
  -49999060.9689931     
  -49999066.0706841     
  -49999071.6924840     
  -49999077.8311110     
  -49999084.4830039     
  -49999091.6443239     
  -49999099.3109557     
  -49999107.4785092     
  -49999116.1423224     
  -49999125.2974624     
  -49999134.9387289     
  -49999145.0606558     
  -49999155.6575142     
  -49999166.7233154     
  -49999178.2518133     
  -49999190.2365076     
  -49999202.6706465     
  -49999215.5472302     
  -49999228.8590137     
  -49999242.5985104     
  -49999256.7579951     
  -49999271.3295080     
  -49999286.3048591     
  -49999301.6756325     
  -49999317.4331934     
  -49999333.5686948     
  -49999350.0730874     
  -49999366.9371276     
  -49999384.1513776     
  -49999401.7061715     
  -49999419.5914750     
  -49999014.4327133     
  -49999009.1419766     
  -49999004.4082364     
  -49999000.2337733     
  -49998996.6205170     
  -49998993.5700960     
  -49998991.0838404     
  -49998989.1627775     
  -49998987.8076285     
  -49998987.0188081     
  -49998986.7964247     
  -49998987.1402820     
  -49998988.0498802     
  -49998989.5244166     
  -49998991.5627867     
  -49998994.1635851     
  -49998997.3251059     
  -49999001.0453434     
  -49999005.3219927     
  -49999010.1524509     
  -49999015.5338177     
  -49999021.4628968     
  -49999027.9361969     
  -49999034.9499337     
  -49999042.5000312     
  -49999050.5821235     
  -49999059.1915573     
  -49999068.3233937     
  -49999077.9724110     
  -49999088.1331068     
  -49999098.7997012     
  -49999109.9661393     
  -49999121.6260945     
  -49999133.7729716     
  -49999146.3999104     
  -49999159.4997885     
  -49999173.0652261     
  -49999187.0885888     
  -49999201.5619924     
  -49999216.4773070     
  -49999231.8261615     
  -49999247.5999485     
  -49999263.7898294     
  -49999280.3867391     
  -49999297.3813910     
  -49999314.7642812     
  -49999332.5256912     
  -49999350.6556931     
  -49999369.1441644     
  -49999387.9808503     
  -49998949.6766411     
  -49998944.0618479     
  -49998939.0396588     
  -49998934.6124936     
  -49998930.7824534     
  -49998927.5513059     
  -49998924.9204876     
  -49998922.8911053     
  -49998921.4639375     
  -49998920.6394345     
  -49998920.4177189     
  -49998920.7985857     
  -49998921.7815032     
  -49998923.3656134     
  -49998925.5497333     
  -49998928.3323556     
  -49998931.7116498     
  -49998935.6854639     
  -49998940.2513250     
  -49998945.4064415     
  -49998951.1477040     
  -49998957.4716874     
  -49998964.3746524     
  -49998971.8525478     
  -49998979.9010123     
  -49998988.5153771     
  -49998997.6906682     
  -49999007.4216087     
  -49999017.7026222     
  -49999028.5278353     
  -49999039.8910806     
  -49999051.7859004     
  -49999064.2055498     
  -49999077.1430003     
  -49999090.5909439     
  -49999104.5417964     
  -49999118.9877024     
  -49999133.9205387     
  -49999149.3319191     
  -49999165.2131994     
  -49999181.5554815     
  -49999198.3496184     
  -49999215.5862198     
  -49999233.2556562     
  -49999251.3480653     
  -49999269.8533568     
  -49999288.7612197     
  -49999308.0611282     
  -49999327.7423468     
  -49999347.7939168     
  -49998869.9794624     
  -49998863.9717057     
  -49998858.6004069     
  -49998853.8681662     
  -49998849.7772281     
  -49998846.3294847     
  -49998843.5264743     
  -49998841.3693810     
  -49998839.8590343     
  -49998838.9959099     
  -49998838.7801297     
  -49998839.2114628     
  -49998840.2893256     
  -49998842.0127835     
  -49998844.3805508     
  -49998847.3909929     
  -49998851.0421267     
  -49998855.3316227     
  -49998860.2568061     
  -49998865.8146588     
  -49998872.0018213     
  -49998878.8145945     
  -49998886.2489421     
  -49998894.3004929     
  -49998902.9645433     
  -49998912.2360599     
  -49998922.1096825     
  -49998932.5797267     
  -49998943.6401877     
  -49998955.2847429     
  -49998967.5067559     
  -49998980.2992800     
  -49998993.6550618     
  -49999007.5665457     
  -49999022.0258773     
  -49999037.0249086     
  -49999052.5552016     
  -49999068.6080335     
  -49999085.1744014     
  -49999102.2450270     
  -49999119.8103618     
  -49999137.8605926     
  -49999156.3856466     
  -49999175.3751969     
  -49999194.8186687     
  -49999214.7052445     
  -49999235.0238703     
  -49999255.7632611     
  -49999276.9119070     
  -49999298.4580856     
  -49998774.2083840     
  -49998767.7337473     
  -49998761.9482740     
  -49998756.8547530     
  -49998752.4555915     
  -49998748.7528133     
  -49998745.7480592     
  -49998743.4425867     
  -49998741.8372697     
  -49998740.9325993     
  -49998740.7286834     
  -49998741.2252480     
  -49998742.4216371     
  -49998744.3168144     
  -49998746.9093639     
  -49998750.1974914     
  -49998754.1790258     
  -49998758.8514209     
  -49998764.2117569     
  -49998770.2567429     
  -49998776.9827185     
  -49998784.3856562     
  -49998792.4611643     
  -49998801.2044891     
  -49998810.6105181     
  -49998820.6737826     
  -49998831.3884615     
  -49998842.7483839     
  -49998854.7470332     
  -49998867.3775507     
  -49998880.6327393     
  -49998894.5050676     
  -49998908.9866742     
  -49998924.0693721     
  -49998939.7446530     
  -49998956.0036924     
  -49998972.8373542     
  -49998990.2361956     
  -49999008.1904729     
  -49999026.6901460     
  -49999045.7248846     
  -49999065.2840737     
  -49999085.3568190     
  -49999105.9319534     
  -49999126.9980428     
  -49999148.5433923     
  -49999170.5560525     
  -49999193.0238266     
  -49999215.9342764     
  -49999239.2747279     
  -49998661.0024531     
  -49998653.9815283     
  -49998647.7120454     
  -49998642.1970019     
  -49998637.4389793     
  -49998633.4401429     
  -49998630.2022409     
  -49998627.7266040     
  -49998626.0141460     
  -49998625.0653635     
  -49998624.8803365     
  -49998625.4587289     
  -49998626.7997894     
  -49998628.9023527     
  -49998631.7648403     
  -49998635.3852624     
  -49998639.7612191     
  -49998644.8899026     
  -49998650.7680989     
  -49998657.3921903     
  -49998664.7581574     
  -49998672.8615824     
  -49998681.6976510     
  -49998691.2611563     
  -49998701.5465011     
  -49998712.5477020     
  -49998724.2583925     
  -49998736.6718268     
  -49998749.7808841     
  -49998763.5780721     
  -49998778.0555316     
  -49998793.2050411     
  -49998809.0180212     
  -49998825.4855394     
  -49998842.5983154     
  -49998860.3467258     
  -49998878.7208100     
  -49998897.7102750     
  -49998917.3045017     
  -49998937.4925504     
  -49998958.2631668     
  -49998979.6047883     
  -49999001.5055499     
  -49999023.9532913     
  -49999046.9355628     
  -49999070.4396324     
  -49999094.4524926     
  -49999118.9608673     
  -49999143.9512191     
  -49999169.4097567     
  -49998528.7530166     
  -49998521.1003222     
  -49998514.2717646     
  -49998508.2705714     
  -49998503.0995151     
  -49998498.7609128     
  -49998495.2566249     
  -49998492.5880558     
  -49998490.7561534     
  -49998489.7614097     
  -49998489.6038608     
  -49998490.2830881     
  -49998491.7982190     
  -49998494.1479281     
  -49998497.3304388     
  -49998501.3435245     
  -49998506.1845109     
  -49998511.8502778     
  -49998518.3372611     
  -49998525.6414561     
  -49998533.7584194     
  -49998542.6832720     
  -49998552.4107028     
  -49998562.9349716     
  -49998574.2499125     
  -49998586.3489380     
  -49998599.2250428     
  -49998612.8708080     
  -49998627.2784052     
  -49998642.4396013     
  -49998658.3457632     
  -49998674.9878626     
  -49998692.3564812     
  -49998710.4418161     
  -49998729.2336851     
  -49998748.7215325     
  -49998768.8944347     
  -49998789.7411067     
  -49998811.2499079     
  -49998833.4088485     
  -49998856.2055964     
  -49998879.6274832     
  -49998903.6615120     
  -49998928.2943633     
  -49998953.5124033     
  -49998979.3016904     
  -49999005.6479829     
  -49999032.5367469     
  -49999059.9531634     
  -49999087.8821370     
  -49998375.5807289     
  -49998367.2040443     
  -49998359.7355899     
  -49998353.1788458     
  -49998347.5367920     
  -49998342.8119077     
  -49998339.0061710     
  -49998336.1210584     
  -49998334.1575455     
  -49998333.1161066     
  -49998332.9967161     
  -49998333.7988487     
  -49998335.5214810     
  -49998338.1630925     
  -49998341.7216674     
  -49998346.1946964     
  -49998351.5791788     
  -49998357.8716250     
  -49998365.0680585     
  -49998373.1640193     
  -49998382.1545668     
  -49998392.0342829     
  -49998402.7972755     
  -49998414.4371824     
  -49998426.9471752     
  -49998440.3199632     
  -49998454.5477982     
  -49998469.6224788     
  -49998485.5353556     
  -49998502.2773356     
  -49998519.8388880     
  -49998538.2100494     
  -49998557.3804297     
  -49998577.3392174     
  -49998598.0751864     
  -49998619.5767015     
  -49998641.8317256     
  -49998664.8278255     
  -49998688.5521794     
  -49998712.9915835     
  -49998738.1324595     
  -49998763.9608613     
  -49998790.4624835     
  -49998817.6226681     
  -49998845.4264130     
  -49998873.8583796     
  -49998902.9029013     
  -49998932.5439914     
  -49998962.7653522     
  -49998993.5503827     
  -49998199.3087418     
  -49998190.1084027     
  -49998181.9129161     
  -49998174.7260376     
  -49998168.5509708     
  -49998163.3903673     
  -49998159.2463257     
  -49998156.1203921     
  -49998154.0135600     
  -49998152.9262711     
  -49998152.8584157     
  -49998153.8093340     
  -49998155.7778171     
  -49998158.7621092     
  -49998162.7599089     
  -49998167.7683714     
  -49998173.7841113     
  -49998180.8032045     
  -49998188.8211920     
  -49998197.8330823     
  -49998207.8333553     
  -49998218.8159659     
  -49998230.7743475     
  -49998243.7014170     
  -49998257.5895782     
  -49998272.4307275     
  -49998288.2162578     
  -49998304.9370645     
  -49998322.5835502     
  -49998341.1456308     
  -49998360.6127409     
  -49998380.9738401     
  -49998402.2174192     
  -49998424.3315066     
  -49998447.3036752     
  -49998471.1210491     
  -49998495.7703108     
  -49998521.2377083     
  -49998547.5090631     
  -49998574.5697773     
  -49998602.4048419     
  -49998630.9988449     
  -49998660.3359793     
  -49998690.4000517     
  -49998721.1744907     
  -49998752.6423561     
  -49998784.7863477     
  -49998817.5888141     
  -49998851.0317623     
  -49998885.0968671     
  -49997997.4317115     
  -49997987.2998820     
  -49997978.2833503     
  -49997970.3861695     
  -49997963.6117822     
  -49997957.9630204     
  -49997953.4421049     
  -49997950.0506453     
  -49997947.7896407     
  -49997946.6594800     
  -49997946.6599432     
  -49997947.7902024     
  -49997950.0488235     
  -49997953.4337683     
  -49997957.9423963     
  -49997963.5714670     
  -49997970.3171433     
  -49997978.1749942     
  -49997987.1399977     
  -49997997.2065452     
  -49998008.3684445     
  -49998020.6189248     
  -49998033.9506405     
  -49998048.3556761     
  -49998063.8255512     
  -49998080.3512257     
  -49998097.9231051     
  -49998116.5310465     
  -49998136.1643645     
  -49998156.8118373     
  -49998178.4617132     
  -49998201.1017176     
  -49998224.7190596     
  -49998249.3004394     
  -49998274.8320556     
  -49998301.2996129     
  -49998328.6883302     
  -49998356.9829482     
  -49998386.1677381     
  -49998416.2265098     
  -49998447.1426211     
  -49998478.8989862     
  -49998511.4780847     
  -49998544.8619715     
  -49998579.0322856     
  -49998613.9702604     
  -49998649.6567330     
  -49998686.0721547     
  -49998723.1966009     
  -49998761.0097816     
  -49997767.0801874     
  -49997755.9001263     
  -49997745.9611030     
  -49997737.2674895     
  -49997729.8229813     
  -49997723.6305965     
  -49997718.6926760     
  -49997715.0108836     
  -49997712.5862065     
  -49997711.4189563     
  -49997711.5087704     
  -49997712.8546129     
  -49997715.4547775     
  -49997719.3068887     
  -49997724.4079050     
  -49997730.7541215     
  -49997738.3411730     
  -49997747.1640377     
  -49997757.2170408     
  -49997768.4938587     
  -49997780.9875231     
  -49997794.6904264     
  -49997809.5943258     
  -49997825.6903493     
  -49997842.9690007     
  -49997861.4201663     
  -49997881.0331198     
  -49997901.7965300     
  -49997923.6984665     
  -49997946.7264073     
  -49997970.8672458     
  -49997996.1072982     
  -49998022.4323114     
  -49998049.8274709     
  -49998078.2774092     
  -49998107.7662140     
  -49998138.2774374     
  -49998169.7941042     
  -49998202.2987219     
  -49998235.7732895     
  -49998270.1993074     
  -49998305.5577872     
  -49998341.8292618     
  -49998378.9937959     
  -49998417.0309961     
  -49998455.9200217     
  -49998495.6395958     
  -49998536.1680162     
  -49998577.4831665     
  -49998619.5625279     
  -49997504.9798834     
  -49997492.6252186     
  -49997481.6542948     
  -49997472.0718227     
  -49997463.8817611     
  -49997457.0873171     
  -49997451.6909454     
  -49997447.6943494     
  -49997445.0984819     
  -49997443.9035458     
  -49997444.1089962     
  -49997445.7135422     
  -49997448.7151489     
  -49997453.1110400     
  -49997458.8977013     
  -49997466.0708834     
  -49997474.6256057     
  -49997484.5561604     
  -49997495.8561166     
  -49997508.5183252     
  -49997522.5349238     
  -49997537.8973422     
  -49997554.5963078     
  -49997572.6218517     
  -49997591.9633151     
  -49997612.6093555     
  -49997634.5479543     
  -49997657.7664234     
  -49997682.2514127     
  -49997707.9889185     
  -49997734.9642907     
  -49997763.1622421     
  -49997792.5668564     
  -49997823.1615972     
  -49997854.9293174     
  -49997887.8522687     
  -49997921.9121109     
  -49997957.0899224     
  -49997993.3662098     
  -49998030.7209192     
  -49998069.1334459     
  -49998108.5826462     
  -49998149.0468481     
  -49998190.5038627     
  -49998232.9309960     
  -49998276.3050605     
  -49998320.6023875     
  -49998365.7988390     
  -49998411.8698204     
  -49998458.7902928     
  -49997207.4052588     
  -49997193.7392908     
  -49997181.6186146     
  -49997171.0482961     
  -49997162.0325648     
  -49997154.5748142     
  -49997148.6776016     
  -49997144.3426493     
  -49997141.5708452     
  -49997140.3622449     
  -49997140.7160730     
  -49997142.6307260     
  -49997146.1037747     
  -49997151.1319674     
  -49997157.7112332     
  -49997165.8366863     
  -49997175.5026297     
  -49997186.7025602     
  -49997199.4291735     
  -49997213.6743688     
  -49997229.4292556     
  -49997246.6841589     
  -49997265.4286260     
  -49997285.6514332     
  -49997307.3405928     
  -49997330.4833609     
  -49997355.0662447     
  -49997381.0750110     
  -49997408.4946942     
  -49997437.3096054     
  -49997467.5033417     
  -49997499.0587946     
  -49997531.9581608     
  -49997566.1829515     
  -49997601.7140025     
  -49997638.5314853     
  -49997676.6149178     
  -49997715.9431749     
  -49997756.4945003     
  -49997798.2465181     
  -49997841.1762445     
  -49997885.2601001     
  -49997930.4739222     
  -49997976.7929774     
  -49998024.1919744     
  -49998072.6450774     
  -49998122.1259188     
  -49998172.6076134     
  -49998224.0627718     
  -49998276.4635141     
  -49996870.1267605     
  -49996855.0018186     
  -49996841.6046890     
  -49996829.9408050     
  -49996820.0146690     
  -49996811.8298526     
  -49996805.3889970     
  -49996800.6938145     
  -49996797.7450898     
  -49996796.5426817     
  -49996797.0855261     
  -49996799.3716382     
  -49996803.3981162     
  -49996809.1611448     
  -49996816.6559992     
  -49996825.8770499     
  -49996836.8177675     
  -49996849.4707279     
  -49996863.8276182     
  -49996879.8792429     
  -49996897.6155302     
  -49996917.0255391     
  -49996938.0974667     
  -49996960.8186557     
  -49996985.1756028     
  -49997011.1539668     
  -49997038.7385772     
  -49997067.9134440     
  -49997098.6617665     
  -49997130.9659434     
  -49997164.8075831     
  -49997200.1675140     
  -49997237.0257951     
  -49997275.3617278     
  -49997315.1538666     
  -49997356.3800313     
  -49997399.0173190     
  -49997443.0421162     
  -49997488.4301120     
  -49997535.1563103     
  -49997583.1950438     
  -49997632.5199865     
  -49997683.1041684     
  -49997734.9199891     
  -49997787.9392318     
  -49997842.1330781     
  -49997897.4721229     
  -49997953.9263888     
  -49998011.4653419     
  -49998070.0579068     
  -49996488.3509943     
  -49996471.6078760     
  -49996456.7984441     
  -49996443.9285060     
  -49996433.0028318     
  -49996424.0251550     
  -49996416.9981733     
  -49996411.9235504     
  -49996408.8019179     
  -49996407.6328775     
  -49996408.4150044     
  -49996411.1458504     
  -49996415.8219481     
  -49996422.4388151     
  -49996430.9909587     
  -49996441.4718815     
  -49996453.8740871     
  -49996468.1890860     
  -49996484.4074025     
  -49996502.5185815     
  -49996522.5111964     
  -49996544.3728565     
  -49996568.0902156     
  -49996593.6489808     
  -49996621.0339213     
  -49996650.2288782     
  -49996681.2167744     
  -49996713.9796245     
  -49996748.4985463     
  -49996784.7537708     
  -49996822.7246545     
  -49996862.3896907     
  -49996903.7265215     
  -49996946.7119509     
  -49996991.3219567     
  -49997037.5317044     
  -49997085.3155604     
  -49997134.6471055     
  -49997185.4991493     
  -49997237.8437445     
  -49997291.6522016     
  -49997346.8951038     
  -49997403.5423224     
  -49997461.5630321     
  -49997520.9257272     
  -49997581.5982372     
  -49997643.5477433     
  -49997706.7407952     
  -49997771.1433276     
  -49997836.7206775     
  -49996056.6529975     
  -49996038.1205300     
  -49996021.7536489     
  -49996007.5585342     
  -49995995.5402101     
  -49995985.7025455     
  -49995978.0482561     
  -49995972.5789059     
  -49995969.2949101     
  -49995968.1955385     
  -49995969.2789184     
  -49995972.5420395     
  -49995977.9807583     
  -49995985.5898034     
  -49995995.3627809     
  -49996007.2921810     
  -49996021.3693845     
  -49996037.5846698     
  -49996055.9272209     
  -49996076.3851353     
  -49996098.9454326     
  -49996123.5940634     
  -49996150.3159190     
  -49996179.0948412     
  -49996209.9136328     
  -49996242.7540682     
  -49996277.5969046     
  -49996314.4218937     
  -49996353.2077940     
  -49996393.9323825     
  -49996436.5724682     
  -49996481.1039053     
  -49996527.5016061     
  -49996575.7395557     
  -49996625.7908259     
  -49996677.6275900     
  -49996731.2211379     
  -49996786.5418913     
  -49996843.5594194     
  -49996902.2424549     
  -49996962.5589107     
  -49997024.4758961     
  -49997087.9597337     
  -49997152.9759772     
  -49997219.4894282     
  -49997287.4641548     
  -49997356.8635089     
  -49997427.6501453     
  -49997499.7860397     
  -49997573.2325079     
  -49995568.8996839     
  -49995548.3944554     
  -49995530.3157290     
  -49995514.6700457     
  -49995501.4626583     
  -49995490.6975321     
  -49995482.3773477     
  -49995476.5035036     
  -49995473.0761193     
  -49995472.0940396     
  -49995473.5548388     
  -49995477.4548258     
  -49995483.7890500     
  -49995492.5513070     
  -49995503.7341458     
  -49995517.3288756     
  -49995533.3255742     
  -49995551.7130955     
  -49995572.4790790     
  -49995595.6099591     
  -49995621.0909743     
  -49995648.9061784     
  -49995679.0384507     
  -49995711.4695074     
  -49995746.1799138     
  -49995783.1490959     
  -49995822.3553536     
  -49995863.7758732     
  -49995907.3867419     
  -49995953.1629608     
  -49996001.0784600     
  -49996051.1061131     
  -49996103.2177527     
  -49996157.3841855     
  -49996213.5752091     
  -49996271.7596277     
  -49996331.9052690     
  -49996393.9790019     
  -49996457.9467532     
  -49996523.7735258     
  -49996591.4234172     
  -49996660.8596373     
  -49996732.0445276     
  -49996804.9395807     
  -49996879.5054590     
  -49996955.7020150     
  -49997033.4883111     
  -49997112.8226403     
  -49997193.6625460     
  -49997275.9648437     
  -49995018.1634176     
  -49994995.4897388     
  -49994975.5358326     
  -49994958.3085762     
  -49994943.8134105     
  -49994932.0543421     
  -49994923.0339466     
  -49994916.7533720     
  -49994913.2123429     
  -49994912.4091655     
  -49994914.3407330     
  -49994919.0025318     
  -49994926.3886482     
  -49994936.4917756     
  -49994949.3032228     
  -49994964.8129220     
  -49994983.0094383     
  -49995003.8799791     
  -49995027.4104045     
  -49995053.5852378     
  -49995082.3876771     
  -49995113.7996070     
  -49995147.8016108     
  -49995184.3729836     
  -49995223.4917458     
  -49995265.1346563     
  -49995309.2772278     
  -49995355.8937410     
  -49995404.9572598     
  -49995456.4396476     
  -49995510.3115833     
  -49995566.5425776     
  -49995625.1009907     
  -49995685.9540492     
  -49995749.0678646     
  -49995814.4074511     
  -49995881.9367446     
  -49995951.6186220     
  -49996023.4149202     
  -49996097.2864564     
  -49996173.1930481     
  -49996251.0935336     
  -49996330.9457933     
  -49996412.7067704     
  -49996496.3324928     
  -49996581.7780950     
  -49996668.9978401     
  -49996757.9451426     
  -49996848.5725907     
  -49996940.8319698     
  -49994396.6245444     
  -49994371.5747142     
  -49994349.5740049     
  -49994330.6295878     
  -49994314.7470333     
  -49994301.9303140     
  -49994292.1818091     
  -49994285.5023085     
  -49994281.8910183     
  -49994281.3455673     
  -49994283.8620129     
  -49994289.4348491     
  -49994298.0570142     
  -49994309.7199000     
  -49994324.4133603     
  -49994342.1257216     
  -49994362.8437936     
  -49994386.5528798     
  -49994413.2367903     
  -49994442.8778533     
  -49994475.4569285     
  -49994510.9534208     
  -49994549.3452941     
  -49994590.6090861     
  -49994634.7199235     
  -49994681.6515378     
  -49994731.3762815     
  -49994783.8651450     
  -49994839.0877736     
  -49994897.0124855     
  -49994957.6062900     
  -49995020.8349063     
  -49995086.6627822     
  -49995155.0531144     
  -49995225.9678682     
  -49995299.3677980     
  -49995375.2124682     
  -49995453.4602745     
  -49995534.0684659     
  -49995616.9931662     
  -49995702.1893974     
  -49995789.6111015     
  -49995879.2111644     
  -49995970.9414395     
  -49996064.7527710     
  -49996160.5950190     
  -49996258.4170832     
  -49996358.1669284     
  -49996459.7916093     
  -49996563.2372962     
  -49993695.4615703     
  -49993667.8165367     
  -49993643.5901946     
  -49993622.7899456     
  -49993605.4214075     
  -49993591.4884191     
  -49993580.9930452     
  -49993573.9355826     
  -49993570.3145665     
  -49993570.1267784     
  -49993573.3672536     
  -49993580.0292907     
  -49993590.1044609     
  -49993603.5826183     
  -49993620.4519112     
  -49993640.6987932     
  -49993664.3080362     
  -49993691.2627431     
  -49993721.5443615     
  -49993755.1326979     
  -49993792.0059328     
  -49993832.1406363     
  -49993875.5117840     
  -49993922.0927739     
  -49993971.8554437     
  -49994024.7700884     
  -49994080.8054793     
  -49994139.9288823     
  -49994202.1060781     
  -49994267.3013815     
  -49994335.4776626     
  -49994406.5963672     
  -49994480.6175388     
  -49994557.4998404     
  -49994637.2005768     
  -49994719.6757179     
  -49994804.8799217     
  -49994892.7665580     
  -49994983.2877330     
  -49995076.3943133     
  -49995172.0359517     
  -49995270.1611118     
  -49995370.7170941     
  -49995473.6500622     
  -49995578.9050692     
  -49995686.4260845     
  -49995796.1560209     
  -49995908.0367622     
  -49996022.0091909     
  -49996138.0132166     
  -49992904.7275231     
  -49992874.2580512     
  -49992847.6216695     
  -49992824.8259189     
  -49992805.8763541     
  -49992790.7765494     
  -49992779.5281058     
  -49992772.1306580     
  -49992768.5818825     
  -49992768.8775075     
  -49992773.0113219     
  -49992780.9751864     
  -49992792.7590451     
  -49992808.3509373     
  -49992827.7370108     
  -49992850.9015355     
  -49992877.8269177     
  -49992908.4937155     
  -49992942.8806543     
  -49992980.9646434     
  -49993022.7207934     
  -49993068.1224336     
  -49993117.1411308     
  -49993169.7467084     
  -49993225.9072656     
  -49993285.5891984     
  -49993348.7572199     
  -49993415.3743823     
  -49993485.4020983     
  -49993558.8001641     
  -49993635.5267825     
  -49993715.5385862     
  -49993798.7906623     
  -49993885.2365767     
  -49993974.8283992     
  -49994067.5167294     
  -49994163.2507222     
  -49994261.9781149     
  -49994363.6452537     
  -49994468.1971212     
  -49994575.5773641     
  -49994685.7283215     
  -49994798.5910536     
  -49994914.1053700     
  -49995032.2098598     
  -49995152.8419207     
  -49995275.9377895     
  -49995401.4325719     
  -49995529.2602734     
  -49995659.3538307     
  -49992013.2108607     
  -49991979.6793426     
  -49991950.4452523     
  -49991925.5161452     
  -49991904.8973665     
  -49991888.5920588     
  -49991876.6011701     
  -49991868.9234635     
  -49991865.5555276     
  -49991866.4917870     
  -49991871.7245147     
  -49991881.2438448     
  -49991895.0377860     
  -49991913.0922364     
  -49991935.3909984     
  -49991961.9157948     
  -49991992.6462859     
  -49992027.5600866     
  -49992066.6327854     
  -49992109.8379625     
  -49992157.1472104     
  -49992208.5301538     
  -49992263.9544709     
  -49992323.3859153     
  -49992386.7883382     
  -49992454.1237115     
  -49992525.3521514     
  -49992600.4319430     
  -49992679.3195647     
  -49992761.9697140     
  -49992848.3353332     
  -49992938.3676363     
  -49993032.0161357     
  -49993129.2286700     
  -49993229.9514318     
  -49993334.1289970     
  -49993441.7043527     
  -49993552.6189279     
  -49993666.8126226     
  -49993784.2238388     
  -49993904.7895107     
  -49994028.4451368     
  -49994155.1248106     
  -49994284.7612534     
  -49994417.2858462     
  -49994552.6286629     
  -49994690.7185028     
  -49994831.4829249     
  -49994974.8482810     
  -49995120.7397501     
  -49991008.2791037     
  -49990971.4421755     
  -49990939.4226127     
  -49990912.2278193     
  -49990889.8627408     
  -49990872.3298746     
  -49990859.6292802     
  -49990851.7585911     
  -49990848.7130270     
  -49990850.4854074     
  -49990857.0661662     
  -49990868.4433669     
  -49990884.6027185     
  -49990905.5275932     
  -49990931.1990439     
  -49990961.5958233     
  -49990996.6944030     
  -49991036.4689945     
  -49991080.8915702     
  -49991129.9318849     
  -49991183.5574993     
  -49991241.7338027     
  -49991304.4240376     
  -49991371.5893244     
  -49991443.1886868     
  -49991519.1790783     
  -49991599.5154086     
  -49991684.1505713     
  -49991773.0354720     
  -49991866.1190568     
  -49991963.3483418     
  -49992064.6684425     
  -49992170.0226043     
  -49992279.3522338     
  -49992392.5969295     
  -49992509.6945143     
  -49992630.5810673     
  -49992755.1909573     
  -49992883.4568758     
  -49993015.3098705     
  -49993150.6793801     
  -49993289.4932684     
  -49993431.6778597     
  -49993577.1579738     
  -49993725.8569623     
  -49993877.6967445     
  -49994032.5978436     
  -49994190.4794244     
  -49994351.2593297     
  -49994514.8541181     
  -49989875.7031660     
  -49989835.3153296     
  -49989800.3266572     
  -49989770.7441830     
  -49989746.5722101     
  -49989727.8123224     
  -49989714.4633981     
  -49989706.5216238     
  -49989703.9805100     
  -49989706.8309071     
  -49989715.0610232     
  -49989728.6564421     
  -49989747.6001425     
  -49989771.8725186     
  -49989801.4514007     
  -49989836.3120774     
  -49989876.4273186     
  -49989921.7673990     
  -49989972.3001226     
  -49990027.9908480     
  -49990088.8025148     
  -49990154.6956701     
  -49990225.6284964     
  -49990301.5568396     
  -49990382.4342384     
  -49990468.2119539     
  -49990558.8389999     
  -49990654.2621740     
  -49990754.4260893     
  -49990859.2732067     
  -49990968.7438676     
  -49991082.7763277     
  -49991201.3067907     
  -49991324.2694429     
  -49991451.5964884     
  -49991583.2181847     
  -49991719.0628785     
  -49991859.0570427     
  -49992003.1253131     
  -49992151.1905260     
  -49992303.1737558     
  -49992458.9943541     
  -49992618.5699874     
  -49992781.8166772     
  -49992948.6488385     
  -49993118.9793208     
  -49993292.7194472     
  -49993469.7790558     
  -49993650.0665401     
  -49993833.4888903     
  -49988599.4601311     
  -49988555.2786199     
  -49988517.1468420     
  -49988485.0711820     
  -49988459.0549922     
  -49988439.0986084     
  -49988425.1993661     
  -49988417.3516178     
  -49988415.5467518     
  -49988419.7732124     
  -49988430.0165199     
  -49988446.2592929     
  -49988468.4812714     
  -49988496.6593397     
  -49988530.7675522     
  -49988570.7771585     
  -49988616.6566302     
  -49988668.3716882     
  -49988725.8853316     
  -49988789.1578661     
  -49988858.1469347     
  -49988932.8075483     
  -49989013.0921170     
  -49989098.9504828     
  -49989190.3299525     
  -49989287.1753313     
  -49989389.4289576     
  -49989497.0307377     
  -49989609.9181817     
  -49989728.0264399     
  -49989851.2883396     
  -49989979.6344230     
  -49990112.9929849     
  -49990251.2901113     
  -49990394.4497191     
  -49990542.3935952     
  -49990695.0414369     
  -49990852.3108927     
  -49991014.1176031     
  -49991180.3752423     
  -49991350.9955602     
  -49991525.8884246     
  -49991704.9618642     
  -49991888.1221115     
  -49992075.2736467     
  -49992266.3192411     
  -49992461.1600016     
  -49992659.6954150     
  -49992861.8233935     
  -49993067.4403188     
  -49987161.5119807     
  -49987113.3031532     
  -49987071.8710121     
  -49987037.2209355     
  -49987009.3549391     
  -49986988.2716951     
  -49986973.9665526     
  -49986966.4315590     
  -49986965.6554826     
  -49986971.6238363     
  -49986984.3189027     
  -49987003.7197598     
  -49987029.8023081     
  -49987062.5392989     
  -49987101.9003631     
  -49987147.8520412     
  -49987200.3578147     
  -49987259.3781375     
  -49987324.8704689     
  -49987396.7893073     
  -49987475.0862246     
  -49987559.7099019     
  -49987650.6061647     
  -49987747.7180208     
  -49987850.9856972     
  -49987960.3466786     
  -49988075.7357466     
  -49988197.0850190     
  -49988324.3239903     
  -49988457.3795727     
  -49988596.1761373     
  -49988740.6355566     
  -49988890.6772470     
  -49989046.2182117     
  -49989207.1730850     
  -49989373.4541758     
  -49989544.9715128     
  -49989721.6328895     
  -49989903.3439095     
  -49990090.0080331     
  -49990281.5266229     
  -49990477.7989914     
  -49990678.7224476     
  -49990884.1923447     
  -49991094.1021282     
  -49991308.3433838     
  -49991526.8058859     
  -49991749.3776468     
  -49991975.9449656     
  -49992206.3924775     
  -49985541.5575140     
  -49985489.1051178     
  -49985444.2411136     
  -49985406.9694237     
  -49985377.2902466     
  -49985355.2000793     
  -49985340.6917431     
  -49985333.7544090     
  -49985334.3736255     
  -49985342.5313469     
  -49985358.2059629     
  -49985381.3723297     
  -49985412.0018019     
  -49985450.0622654     
  -49985495.5181714     
  -49985548.3305720     
  -49985608.4571553     
  -49985675.8522834     
  -49985750.4670296     
  -49985832.2492175     
  -49985921.1434604     
  -49986017.0912022     
  -49986120.0307580     
  -49986229.8973569     
  -49986346.6231838     
  -49986470.1374237     
  -49986600.3663056     
  -49986737.2331470     
  -49986880.6583996     
  -49987030.5596953     
  -49987186.8518928     
  -49987349.4471249     
  -49987518.2548458     
  -49987693.1818800     
  -49987874.1324703     
  -49988061.0083276     
  -49988253.7086801     
  -49988452.1303235     
  -49988656.1676716     
  -49988865.7128071     
  -49989080.6555330     
  -49989300.8834236     
  -49989526.2818772     
  -49989756.7341683     
  -49989992.1214996     
  -49990232.3230553     
  -49990477.2160544     
  -49990726.6758039     
  -49990980.5757524     
  -49991238.7875444     
  -49983716.7544170     
  -49983659.8701267     
  -49983611.4798645     
  -49983571.5855371     
  -49983540.1849311     
  -49983517.2717419     
  -49983502.8356041     
  -49983496.8621229     
  -49983499.3329068     
  -49983510.2256027     
  -49983529.5139298     
  -49983557.1677178     
  -49983593.1529431     
  -49983637.4317688     
  -49983689.9625840     
  -49983750.7000445     
  -49983819.5951153     
  -49983896.5951131     
  -49983981.6437500     
  -49984074.6811784     
  -49984175.6440362     
  -49984284.4654936     
  -49984401.0752997     
  -49984525.3998307     
  -49984657.3621384     
  -49984796.8819995     
  -49984943.8759655     
  -49985098.2574131     
  -49985259.9365958     
  -49985428.8206955     
  -49985604.8138745     
  -49985787.8173287     
  -49985977.7293409     
  -49986174.4453344     
  -49986377.8579274     
  -49986587.8569876     
  -49986804.3296876     
  -49987027.1605598     
  -49987256.2315529     
  -49987491.4220876     
  -49987732.6091134     
  -49987979.6671652     
  -49988232.4684208     
  -49988490.8827578     
  -49988754.7778117     
  -49989024.0190336     
  -49989298.4697482     
  -49989577.9912126     
  -49989862.4426743     
  -49990151.6814306     
  -49981661.4081298     
  -49981599.9448384     
  -49981547.9851833     
  -49981505.5283609     
  -49981472.5690167     
  -49981449.0972800     
  -49981435.0988008     
  -49981430.5547884     
  -49981435.4420503     
  -49981449.7330333     
  -49981473.3958654     
  -49981506.3943992     
  -49981548.6882562     
  -49981600.2328726     
  -49981660.9795456     
  -49981730.8754811     
  -49981809.8638427     
  -49981897.8838008     
  -49981994.8705836     
  -49982100.7555282     
  -49982215.4661328     
  -49982338.9261101     
  -49982471.0554405     
  -49982611.7704271     
  -49982760.9837506     
  -49982918.6045255     
  -49983084.5383561     
  -49983258.6873938     
  -49983440.9503950     
  -49983631.2227786     
  -49983829.3966854     
  -49984035.3610365     
  -49984249.0015934     
  -49984470.2010178     
  -49984698.8389317     
  -49984934.7919787     
  -49985177.9338844     
  -49985428.1355186     
  -49985685.2649561     
  -49985949.1875394     
  -49986219.7659405     
  -49986496.8602238     
  -49986780.3279083     
  -49987070.0240309     
  -49987365.8012092     
  -49987667.5097050     
  -49987974.9974877     
  -49988288.1102979     
  -49988606.6917110     
  -49988930.5832012     
  -49979346.6238380     
  -49979280.4922684     
  -49979224.9888694     
  -49979180.1092733     
  -49979145.8440923     
  -49979122.1789621     
  -49979109.0945863     
  -49979106.5667818     
  -49979114.5665265     
  -49979133.0600079     
  -49979162.0086725     
  -49979201.3692773     
  -49979251.0939421     
  -49979311.1302023     
  -49979381.4210642     
  -49979461.9050596     
  -49979552.5163030     
  -49979653.1845483     
  -49979763.8352478     
  -49979884.3896104     
  -49980014.7646624     
  -49980154.8733075     
  -49980304.6243883     
  -49980463.9227486     
  -49980632.6692957     
  -49980810.7610638     
  -49980998.0912779     
  -49981194.5494181     
  -49981400.0212841     
  -49981614.3890609     
  -49981837.5313843     
  -49982069.3234072     
  -49982309.6368655     
  -49982558.3401454     
  -49982815.2983504     
  -49983080.3733685     
  -49983353.4239399     
  -49983634.3057248     
  -49983922.8713716     
  -49984218.9705852     
  -49984522.4501949     
  -49984833.1542237     
  -49985150.9239563     
  -49985475.5980086     
  -49985807.0123960     
  -49986145.0006025     
  -49986489.3936502     
  -49986840.0201680     
  -49987196.7064606     
  -49987559.2765784     
  -49976739.9175663     
  -49976669.1068680     
  -49976610.1757149     
  -49976563.1151290     
  -49976527.9106062     
  -49976504.5421672     
  -49976492.9844120     
  -49976493.2065742     
  -49976505.1725778     
  -49976528.8410944     
  -49976564.1656028     
  -49976611.0944486     
  -49976669.5709062     
  -49976739.5332404     
  -49976820.9147708     
  -49976913.6439355     
  -49977017.6443569     
  -49977132.8349080     
  -49977259.1297795     
  -49977396.4385474     
  -49977544.6662420     
  -49977703.7134169     
  -49977873.4762193     
  -49978053.8464600     
  -49978244.7116849     
  -49978445.9552463     
  -49978657.4563754     
  -49978879.0902539     
  -49979110.7280879     
  -49979352.2371801     
  -49979603.4810041     
  -49979864.3192776     
  -49980134.6080370     
  -49980414.1997111     
  -49980702.9431959     
  -49981000.6839293     
  -49981307.2639655     
  -49981622.5220501     
  -49981946.2936951     
  -49982278.4112537     
  -49982618.7039955     
  -49982966.9981817     
  -49983323.1171400     
  -49983686.8813396     
  -49984058.1084666     
  -49984436.6134989     
  -49984822.2087810     
  -49985214.7040991     
  -49985613.9067559     
  -49986019.6216455     
  -49973804.7819952     
  -49973729.3851072     
  -49973667.2588907     
  -49973618.3884860     
  -49973582.7529604     
  -49973560.3253705     
  -49973551.0728265     
  -49973554.9565582     
  -49973571.9319813     
  -49973601.9487667     
  -49973644.9509093     
  -49973700.8767992     
  -49973769.6592935     
  -49973851.2257892     
  -49973945.4982973     
  -49974052.3935173     
  -49974171.8229132     
  -49974303.6927898     
  -49974447.9043701     
  -49974604.3538729     
  -49974772.9325918     
  -49974953.5269739     
  -49975146.0186996     
  -49975350.2847628     
  -49975566.1975510     
  -49975793.6249270     
  -49976032.4303093     
  -49976282.4727541     
  -49976543.6070371     
  -49976815.6837351     
  -49977098.5493089     
  -49977392.0461847     
  -49977696.0128371     
  -49978010.2838715     
  -49978334.6901065     
  -49978669.0586563     
  -49979013.2130136     
  -49979366.9731316     
  -49979730.1555068     
  -49980102.5732607     
  -49980484.0362229     
  -49980874.3510123     
  -49981273.3211196     
  -49981680.7469885     
  -49982096.4260978     
  -49982520.1530426     
  -49982951.7196153     
  -49983390.9148867     
  -49983837.5252867     
  -49984291.3346850     
  -49970500.2022429     
  -49970420.4469324     
  -49970355.5071118     
  -49970305.3604989     
  -49970269.9781521     
  -49970249.3245451     
  -49970243.3576438     
  -49970252.0289843     
  -49970275.2837528     
  -49970313.0608660     
  -49970365.2930533     
  -49970431.9069397     
  -49970512.8231298     
  -49970607.9562933     
  -49970717.2152504     
  -49970840.5030588     
  -49970977.7171012     
  -49971128.7491733     
  -49971293.4855726     
  -49971471.8071878     
  -49971663.5895886     
  -49971868.7031157     
  -49972087.0129714     
  -49972318.3793110     
  -49972562.6573332     
  -49972819.6973719     
  -49973089.3449876     
  -49973371.4410593     
  -49973665.8218758     
  -49973972.3192276     
  -49974290.7604986     
  -49974620.9687581     
  -49974962.7628516     
  -49975315.9574931     
  -49975680.3633559     
  -49976055.7871637     
  -49976442.0317819     
  -49976838.8963075     
  -49977246.1761605     
  -49977663.6631730     
  -49978091.1456798     
  -49978528.4086073     
  -49978975.2335627     
  -49979431.3989232     
  -49979896.6799238     
  -49980370.8487456     
  -49980853.6746036     
  -49981344.9238333     
  -49981844.3599781     
  -49982351.7438757     
  -49966780.1164729     
  -49966696.4031114     
  -49966629.2187332     
  -49966578.5317770     
  -49966544.3033953     
  -49966526.4875446     
  -49966525.0310769     
  -49966539.8738319     
  -49966570.9487319     
  -49966618.1818762     
  -49966681.4926378     
  -49966760.7937609     
  -49966855.9914582     
  -49966966.9855107     
  -49967093.6693673     
  -49967235.9302446     
  -49967393.6492284     
  -49967566.7013750     
  -49967754.9558129     
  -49967958.2758452     
  -49968176.5190521     
  -49968409.5373936     
  -49968657.1773123     
  -49968919.2798366     
  -49969195.6806836     
  -49969486.2103622     
  -49969790.6942762     
  -49970108.9528267     
  -49970440.8015156     
  -49970786.0510470     
  -49971144.5074307     
  -49971515.9720829     
  -49971900.2419286     
  -49972297.1095027     
  -49972706.3630506     
  -49973127.7866287     
  -49973561.1602046     
  -49974006.2597562     
  -49974462.8573707     
  -49974930.7213431     
  -49975409.6162742     
  -49975899.3031675     
  -49976399.5395260     
  -49976910.0794486     
  -49977430.6737252     
  -49977961.0699317     
  -49978501.0125243     
  -49979050.2429329     
  -49979608.4996542     
  -49980175.5183440     
  -49962592.8158050     
  -49962505.7631080     
  -49962437.1375875     
  -49962386.8961734     
  -49962354.9878452     
  -49962341.3537385     
  -49962345.9272544     
  -49962368.6341683     
  -49962409.3927419     
  -49962468.1138342     
  -49962544.7010144     
  -49962639.0506762     
  -49962751.0521514     
  -49962880.5878252     
  -49963027.5332518     
  -49963191.7572699     
  -49963373.1221193     
  -49963571.4835576     
  -49963786.6909765     
  -49964018.5875188     
  -49964267.0101955     
  -49964531.7900025     
  -49964812.7520372     
  -49965109.7156152     
  -49965422.4943866     
  -49965750.8964522     
  -49966094.7244790     
  -49966453.7758153     
  -49966827.8426061     
  -49967216.7119069     
  -49967620.1657975     
  -49968037.9814955     
  -49968469.9314685     
  -49968915.7835463     
  -49969375.3010316     
  -49969848.2428107     
  -49970334.3634631     
  -49970833.4133705     
  -49971345.1388245     
  -49971869.2821340     
  -49972405.5817315     
  -49972953.7722787     
  -49973513.5847708     
  -49974084.7466403     
  -49974666.9818599     
  -49975260.0110442     
  -49975863.5515507     
  -49976477.3175799     
  -49977101.0202743     
  -49977734.3678167     
  -49957880.2776253     
  -49957790.7777744     
  -49957721.8050315     
  -49957673.3021530     
  -49957645.2032439     
  -49957637.4338857     
  -49957649.9112640     
  -49957682.5442989     
  -49957735.2337746     
  -49957807.8724712     
  -49957900.3452960     
  -49958012.5294165     
  -49958144.2943926     
  -49958295.5023107     
  -49958466.0079164     
  -49958655.6587487     
  -49958864.2952733     
  -49959091.7510167     
  -49959337.8526993     
  -49959602.4203690     
  -49959885.2675342     
  -49960186.2012966     
  -49960505.0224829     
  -49960841.5257772     
  -49961195.4998518     
  -49961566.7274976     
  -49961954.9857538     
  -49962360.0460374     
  -49962781.6742706     
  -49963219.6310088     
  -49963673.6715663     
  -49964143.5461425     
  -49964628.9999454     
  -49965129.7733156     
  -49965645.6018483     
  -49966176.2165146     
  -49966721.3437810     
  -49967280.7057290     
  -49967854.0201721     
  -49968441.0007726     
  -49969041.3571567     
  -49969654.7950283     
  -49970281.0162820     
  -49970919.7191144     
  -49971570.5981344     
  -49972233.3444721     
  -49972907.6458863     
  -49973593.1868713     
  -49974289.6487617     
  -49974996.7098366     
  -49952577.4260340     
  -49952486.7108089     
  -49952418.8423581     
  -49952373.7460906     
  -49952351.3380318     
  -49952351.5249747     
  -49952374.2046310     
  -49952419.2657833     
  -49952486.5884383     
  -49952576.0439799     
  -49952687.4953226     
  -49952820.7970663     
  -49952975.7956497     
  -49953152.3295046     
  -49953350.2292101     
  -49953569.3176460     
  -49953809.4101464     
  -49954070.3146528     
  -49954351.8318667     
  -49954653.7554011     
  -49954975.8719318     
  -49955317.9613480     
  -49955679.7969015     
  -49956061.1453556     
  -49956461.7671321     
  -49956881.4164585     
  -49957319.8415124     
  -49957776.7845661     
  -49958251.9821295     
  -49958745.1650911     
  -49959256.0588583     
  -49959784.3834963     
  -49960329.8538646     
  -49960892.1797536     
  -49961471.0660180     
  -49962066.2127096     
  -49962677.3152085     
  -49963304.0643522     
  -49963946.1465634     
  -49964603.2439760     
  -49965275.0345596     
  -49965961.1922422     
  -49966661.3870312     
  -49967375.2851328     
  -49968102.5490695     
  -49968842.8377964     
  -49969595.8068150     
  -49970361.1082865     
  -49971138.3911421     
  -49971927.3011930     
  -49946611.3128405     
  -49946521.0326252     
  -49946456.1574430     
  -49946416.5915903     
  -49946402.2292227     
  -49946412.9545320     
  -49946448.6419249     
  -49946509.1562008     
  -49946594.3527310     
  -49946704.0776369     
  -49946838.1679693     
  -49946996.4518867     
  -49947178.7488336     
  -49947384.8697183     
  -49947614.6170898     
  -49947867.7853151     
  -49948144.1607539     
  -49948443.5219343     
  -49948765.6397261     
  -49949110.2775132     
  -49949477.1913658     
  -49949866.1302096     
  -49950276.8359954     
  -49950709.0438654     
  -49951162.4823195     
  -49951636.8733791     
  -49952131.9327496     
  -49952647.3699806     
  -49953182.8886248     
  -49953738.1863950     
  -49954312.9553187     
  -49954906.8818915     
  -49955519.6472275     
  -49956150.9272085     
  -49956800.3926308     
  -49957467.7093497     
  -49958152.5384220     
  -49958854.5362466     
  -49959573.3547027     
  -49960308.6412853     
  -49961060.0392397     
  -49961827.1876927     
  -49962609.7217820     
  -49963407.2727836     
  -49964219.4682367     
  -49965045.9320665     
  -49965886.2847049     
  -49966740.1432090     
  -49967607.1213776     
  -49968486.8298653     
  -49939900.2122419     
  -49939812.5300249     
  -49939753.0692674     
  -49939721.7087040     
  -49939718.3161530     
  -49939742.7487256     
  -49939794.8530343     
  -49939874.4654008     
  -49939981.4120651     
  -49940115.5093926     
  -49940276.5640820     
  -49940464.3733711     
  -49940678.7252432     
  -49940919.3986308     
  -49941186.1636201     
  -49941478.7816522     
  -49941797.0057244     
  -49942140.5805893     
  -49942509.2429523     
  -49942902.7216676     
  -49943320.7379316     
  -49943763.0054757     
  -49944229.2307557     
  -49944719.1131397     
  -49945232.3450936     
  -49945768.6123648     
  -49946327.5941628     
  -49946908.9633376     
  -49947512.3865560     
  -49948137.5244752     
  -49948784.0319131     
  -49949451.5580172     
  -49950139.7464300     
  -49950848.2354513     
  -49951576.6581994     
  -49952324.6427674     
  -49953091.8123784     
  -49953877.7855373     
  -49954682.1761792     
  -49955504.5938163     
  -49956344.6436805     
  -49957201.9268643     
  -49958076.0404585     
  -49958966.5776869     
  -49959873.1280386     
  -49960795.2773968     
  -49961732.6081661     
  -49962684.6993960     
  -49963651.1269019     
  -49964631.4633837     
  -49932352.6221151     
  -49932270.3248861     
  -49932219.3438002     
  -49932199.5267900     
  -49932210.7100916     
  -49932252.7184889     
  -49932325.3655564     
  -49932428.4539026     
  -49932561.7754118     
  -49932725.1114849     
  -49932918.2332788     
  -49933140.9019447     
  -49933392.8688650     
  -49933673.8758874     
  -49933983.6555587     
  -49934321.9313547     
  -49934688.4179103     
  -49935082.8212446     
  -49935504.8389859     
  -49935954.1605930     
  -49936430.4675739     
  -49936933.4337021     
  -49937462.7252300     
  -49938018.0010994     
  -49938598.9131486     
  -49939205.1063169     
  -49939836.2188459     
  -49940491.8824773     
  -49941171.7226475     
  -49941875.3586793     
  -49942602.4039693     
  -49943352.4661730     
  -49944125.1473857     
  -49944920.0443196     
  -49945736.7484790     
  -49946574.8463295     
  -49947433.9194663     
  -49948313.5447765     
  -49949213.2945997     
  -49950132.7368841     
  -49951071.4353392     
  -49952028.9495852     
  -49953004.8352983     
  -49953998.6443532     
  -49955009.9249618     
  -49956038.2218081     
  -49957083.0761803     
  -49958144.0260991     
  -49959220.6064426     
  -49960312.3490684     
  -49923866.1647544     
  -49923792.7950042     
  -49923754.1346630     
  -49923749.9947148     
  -49923780.1736755     
  -49923844.4578779     
  -49923942.6217546     
  -49924074.4281202     
  -49924239.6284509     
  -49924437.9631634     
  -49924669.1618903     
  -49924932.9437544     
  -49925229.0176402     
  -49925557.0824618     
  -49925916.8274300     
  -49926307.9323144     
  -49926730.0677041     
  -49927182.8952640     
  -49927666.0679884     
  -49928179.2304507     
  -49928722.0190503     
  -49929294.0622551     
  -49929894.9808402     
  -49930524.3881233     
  -49931181.8901960     
  -49931867.0861503     
  -49932579.5683022     
  -49933318.9224104     
  -49934084.7278908     
  -49934876.5580271     
  -49935693.9801767     
  -49936536.5559725     
  -49937403.8415204     
  -49938295.3875917     
  -49939210.7398124     
  -49940149.4388467     
  -49941111.0205768     
  -49942095.0162781     
  -49943100.9527900     
  -49944128.3526823     
  -49945176.7344170     
  -49946245.6125056     
  -49947334.4976628     
  -49948442.8969548     
  -49949570.3139441     
  -49950716.2488298     
  -49951880.1985833     
  -49953061.6570807     
  -49954260.1152301     
  -49955475.0610958     
  -49914326.3799261     
  -49914266.3902748     
  -49914244.8220769     
  -49914261.4421834     
  -49914316.0042341     
  -49914408.2489884     
  -49914537.9046541     
  -49914704.6872131     
  -49914908.3007447     
  -49915148.4377460     
  -49915424.7794491     
  -49915736.9961346     
  -49916084.7474423     
  -49916467.6826776     
  -49916885.4411144     
  -49917337.6522937     
  -49917823.9363180     
  -49918343.9041419     
  -49918897.1578576     
  -49919483.2909762     
  -49920101.8887040     
  -49920752.5282147     
  -49921434.7789159     
  -49922148.2027109     
  -49922892.3542558     
  -49923666.7812107     
  -49924471.0244867     
  -49925304.6184865     
  -49926167.0913406     
  -49927057.9651379     
  -49927976.7561502     
  -49928922.9750527     
  -49929896.1271375     
  -49930895.7125226     
  -49931921.2263553     
  -49932972.1590097     
  -49934047.9962790     
  -49935148.2195628     
  -49936272.3060476     
  -49937419.7288837     
  -49938589.9573548     
  -49939782.4570439     
  -49940996.6899928     
  -49942232.1148566     
  -49943488.1870531     
  -49944764.3589069     
  -49946060.0797885     
  -49947374.7962481     
  -49948707.9521448     
  -49950058.9887704     
  -49903605.4033181     
  -49903564.3376373     
  -49903565.7438274     
  -49903609.3362406     
  -49903694.8153275     
  -49903821.8680208     
  -49903990.1681135     
  -49904199.3766354     
  -49904449.1422246     
  -49904739.1014950     
  -49905068.8793995     
  -49905438.0895879     
  -49905846.3347613     
  -49906293.2070205     
  -49906778.2882089     
  -49907301.1502514     
  -49907861.3554864     
  -49908458.4569933     
  -49909091.9989131     
  -49909761.5167643     
  -49910466.5377517     
  -49911206.5810701     
  -49911981.1582004     
  -49912789.7732014     
  -49913631.9229931     
  -49914507.0976349     
  -49915414.7805970     
  -49916354.4490250     
  -49917325.5739981     
  -49918327.6207807     
  -49919360.0490669     
  -49920422.3132190     
  -49921513.8624990     
  -49922634.1412930     
  -49923782.5893293     
  -49924958.6418900     
  -49926161.7300154     
  -49927391.2807022     
  -49928646.7170948     
  -49929927.4586700     
  -49931232.9214154     
  -49932562.5180011     
  -49933915.6579453     
  -49935291.7477727     
  -49936690.1911679     
  -49938110.3891210     
  -49939551.7400687     
  -49941013.6400278     
  -49942495.4827242     
  -49943996.6597144     
  -49891560.5239078     
  -49891545.2286490     
  -49891576.8124425     
  -49891654.9274392     
  -49891779.2112810     
  -49891949.2875429     
  -49892164.7661688     
  -49892425.2439034     
  -49892730.3047178     
  -49893079.5202296     
  -49893472.4501168     
  -49893908.6425258     
  -49894387.6344735     
  -49894908.9522415     
  -49895472.1117645     
  -49896076.6190119     
  -49896721.9703619     
  -49897407.6529685     
  -49898133.1451213     
  -49898897.9165974     
  -49899701.4290066     
  -49900543.1361278     
  -49901422.4842388     
  -49902338.9124372     
  -49903291.8529540     
  -49904280.7314590     
  -49905304.9673586     
  -49906363.9740848     
  -49907457.1593766     
  -49908583.9255533     
  -49909743.6697794     
  -49910935.7843218     
  -49912159.6567979     
  -49913414.6704170     
  -49914700.2042124     
  -49916015.6332658     
  -49917360.3289241     
  -49918733.6590075     
  -49920134.9880099     
  -49921563.6772916     
  -49923019.0852641     
  -49924500.5675666     
  -49926007.4772357     
  -49927539.1648672     
  -49929094.9787696     
  -49930674.2651113     
  -49932276.3680598     
  -49933900.6299140     
  -49935546.3912291     
  -49937212.9909350     
  -49878032.6145010     
  -49878051.4842853     
  -49878122.0135035     
  -49878243.7808961     
  -49878416.3502079     
  -49878639.2706950     
  -49878912.0776248     
  -49879234.2927693     
  -49879605.4248912     
  -49880024.9702217     
  -49880492.4129315     
  -49881007.2255924     
  -49881568.8696323     
  -49882176.7957803     
  -49882830.4445042     
  -49883529.2464387     
  -49884272.6228045     
  -49885059.9858193     
  -49885890.7390986     
  -49886764.2780476     
  -49887679.9902435     
  -49888637.2558089     
  -49889635.4477750     
  -49890673.9324353     
  -49891752.0696897     
  -49892869.2133790     
  -49894024.7116094     
  -49895217.9070674     
  -49896448.1373243     
  -49897714.7351321     
  -49899017.0287082     
  -49900354.3420114     
  -49901725.9950073     
  -49903131.3039247     
  -49904569.5815014     
  -49906040.1372214     
  -49907542.2775418     
  -49909075.3061102     
  -49910638.5239727     
  -49912231.2297730     
  -49913852.7199411     
  -49915502.2888742     
  -49917179.2291072     
  -49918882.8314751     
  -49920612.3852662     
  -49922367.1783662     
  -49924146.4973943     
  -49925949.6278304     
  -49927775.8541340     
  -49929624.4598548     
  -49862844.4307706     
  -49862907.6926317     
  -49863027.7810575     
  -49863204.1884836     
  -49863436.3920286     
  -49863723.8540738     
  -49864066.0228342     
  -49864462.3329202     
  -49864912.2058890     
  -49865415.0507874     
  -49865970.2646837     
  -49866577.2331894     
  -49867235.3309711     
  -49867943.9222509     
  -49868702.3612968     
  -49869509.9929015     
  -49870366.1528507     
  -49871270.1683794     
  -49872221.3586178     
  -49873219.0350250     
  -49874262.5018118     
  -49875351.0563512     
  -49876483.9895777     
  -49877660.5863752     
  -49878880.1259525     
  -49880141.8822073     
  -49881445.1240786     
  -49882789.1158873     
  -49884173.1176646     
  -49885596.3854693     
  -49887058.1716929     
  -49888557.7253531     
  -49890094.2923759     
  -49891667.1158660     
  -49893275.4363652     
  -49894918.4921007     
  -49896595.5192203     
  -49898305.7520177     
  -49900048.4231457     
  -49901822.7638194     
  -49903628.0040075     
  -49905463.3726132     
  -49907328.0976443     
  -49909221.4063728     
  -49911142.5254845     
  -49913090.6812171     
  -49915065.0994901     
  -49917065.0060227     
  -49919089.6264439     
  -49921138.1863908     
  -49845798.7756485     
  -49845918.8166236     
  -49846101.2475657     
  -49846345.4598354     
  -49846650.8293758     
  -49847016.7173735     
  -49847442.4709060     
  -49847927.4235790     
  -49848470.8961503     
  -49849072.1971411     
  -49849730.6234364     
  -49850445.4608701     
  -49851215.9847993     
  -49852041.4606638     
  -49852921.1445332     
  -49853854.2836400     
  -49854840.1168993     
  -49855877.8754148     
  -49856966.7829705     
  -49858106.0565095     
  -49859294.9065978     
  -49860532.5378747     
  -49861818.1494888     
  -49863150.9355205     
  -49864530.0853899     
  -49865954.7842505     
  -49867424.2133696     
  -49868937.5504939     
  -49870493.9702017     
  -49872092.6442406     
  -49873732.7418522     
  -49875413.4300818     
  -49877133.8740750     
  -49878893.2373616     
  -49880690.6821239     
  -49882525.3694535     
  -49884396.4595936     
  -49886303.1121690     
  -49888244.4864020     
  -49890219.7413165     
  -49892228.0359287     
  -49894268.5294250     
  -49896340.3813285     
  -49898442.7516518     
  -49900574.8010389     
  -49902735.6908946     
  -49904924.5835023     
  -49907140.6421304     
  -49909383.0311271     
  -49911650.9160043     
  -49826676.5279748     
  -49826868.2709943     
  -49827128.3677650     
  -49827456.0917317     
  -49827850.7011097     
  -49828311.4396321     
  -49828837.5372830     
  -49829428.2110148     
  -49830082.6654514     
  -49830800.0935745     
  -49831579.6773955     
  -49832420.5886105     
  -49833321.9892402     
  -49834283.0322525     
  -49835302.8621698     
  -49836380.6156590     
  -49837515.4221058     
  -49838706.4041717     
  -49839952.6783344     
  -49841253.3554123     
  -49842607.5410706     
  -49844014.3363128     
  -49845472.8379533     
  -49846982.1390749     
  -49848541.3294687     
  -49850149.4960576     
  -49851805.7233032     
  -49853509.0935960     
  -49855258.6876293     
  -49857053.5847567     
  -49858892.8633334     
  -49860775.6010407     
  -49862700.8751956     
  -49864667.7630435     
  -49866675.3420355     
  -49868722.6900901     
  -49870808.8858394     
  -49872933.0088600     
  -49875094.1398887     
  -49877291.3610232     
  -49879523.7559084     
  -49881790.4099078     
  -49884090.4102606     
  -49886422.8462246     
  -49888786.8092055     
  -49891181.3928722     
  -49893605.6932585     
  -49896058.8088519     
  -49898539.8406692     
  -49901047.8923192     
  -49805234.5369962     
  -49805515.8701994     
  -49805871.9183533     
  -49806301.8178800     
  -49806804.6905259     
  -49807379.6442035     
  -49808025.7738154     
  -49808742.1620597     
  -49809527.8802164     
  -49810381.9889144     
  -49811303.5388797     
  -49812291.5716641     
  -49813345.1203537     
  -49814463.2102589     
  -49815644.8595836     
  -49816889.0800749     
  -49818194.8776532     
  -49819561.2530223     
  -49820987.2022588     
  -49822471.7173831     
  -49824013.7869088     
  -49825612.3963736     
  -49827266.5288495     
  -49828975.1654338     
  -49830737.2857198     
  -49832551.8682487     
  -49834417.8909414     
  -49836334.3315109     
  -49838300.1678563     
  -49840314.3784363     
  -49842375.9426253     
  -49844483.8410494     
  -49846637.0559047     
  -49848834.5712566     
  -49851075.3733212     
  -49853358.4507286     
  -49855682.7947681     
  -49858047.3996161     
  -49860451.2625467     
  -49862893.3841246     
  -49865372.7683816     
  -49867888.4229760     
  -49870439.3593363     
  -49873024.5927877     
  -49875643.1426632     
  -49878294.0323997     
  -49880976.2896170     
  -49883688.9461837     
  -49886431.0382670     
  -49889201.6063681     
  -49781203.3877636     
  -49781595.6524349     
  -49782069.3786413     
  -49782623.5442174     
  -49783257.1133340     
  -49783969.0374427     
  -49784758.2561960     
  -49785623.6983465     
  -49786564.2826210     
  -49787578.9185727     
  -49788666.5074096     
  -49789825.9427988     
  -49791056.1116487     
  -49792355.8948656     
  -49793724.1680885     
  -49795159.8023987     
  -49796661.6650071     
  -49798228.6199163     
  -49799859.5285608     
  -49801553.2504220     
  -49803308.6436211     
  -49805124.5654879     
  -49806999.8731062     
  -49808933.4238368     
  -49810924.0758170     
  -49812970.6884369     
  -49815072.1227941     
  -49817227.2421250     
  -49819434.9122141     
  -49821694.0017812     
  -49824003.3828471     
  -49826361.9310767     
  -49828768.5261021     
  -49831222.0518228     
  -49833721.3966869     
  -49836265.4539497     
  -49838853.1219137     
  -49841483.3041471     
  -49844154.9096833     
  -49846866.8532004     
  -49849618.0551816     
  -49852407.4420568     
  -49855233.9463254     
  -49858096.5066605     
  -49860994.0679955     
  -49863925.5815929     
  -49866890.0050953     
  -49869886.3025599     
  -49872913.4444757     
  -49875970.4077648     
  -49754285.0468380     
  -49754813.5890706     
  -49755430.7013618     
  -49756135.1787550     
  -49756925.8042116     
  -49757801.3496614     
  -49758760.5770258     
  -49759802.2392129     
  -49760925.0810855     
  -49762127.8403993     
  -49763409.2487148     
  -49764768.0322799     
  -49766202.9128848     
  -49767712.6086882     
  -49769295.8350167     
  -49770951.3051342     
  -49772677.7309850     
  -49774473.8239083     
  -49776338.2953252     
  -49778269.8573977     
  -49780267.2236609     
  -49782329.1096274     
  -49784454.2333650     
  -49786641.3160471     
  -49788889.0824773     
  -49791196.2615866     
  -49793561.5869050     
  -49795983.7970072     
  -49798461.6359329     
  -49800993.8535810     
  -49803579.2060793     
  -49806216.4561299     
  -49808904.3733291     
  -49811641.7344642     
  -49814427.3237856     
  -49817259.9332563     
  -49820138.3627776     
  -49823061.4203927     
  -49826027.9224670     
  -49829036.6938472     
  -49832086.5679980     
  -49835176.3871179     
  -49838305.0022336     
  -49841471.2732743     
  -49844674.0691254     
  -49847912.2676621     
  -49851184.7557642     
  -49854490.4293108     
  -49857828.1931575     
  -49861196.9610939     
  -49724150.4031417     
  -49724845.1940448     
  -49725635.9878399     
  -49726521.3697846     
  -49727499.9153305     
  -49728570.1912854     
  -49729730.7569413     
  -49730980.1651703     
  -49732316.9634856     
  -49733739.6950695     
  -49735246.8997679     
  -49736837.1150514     
  -49738508.8769426     
  -49740260.7209109     
  -49742091.1827335     
  -49743998.7993235     
  -49745982.1095260     
  -49748039.6548808     
  -49750169.9803529     
  -49752371.6350316     
  -49754643.1727969     
  -49756983.1529550     
  -49759390.1408421     
  -49761862.7083979     
  -49764399.4347076     
  -49766998.9065145     
  -49769659.7187019     
  -49772380.4747465     
  -49775159.7871410     
  -49777996.2777898     
  -49780888.5783745     
  -49783835.3306924     
  -49786835.1869671     
  -49789886.8101322     
  -49792988.8740869     
  -49796140.0639271     
  -49799339.0761490     
  -49802584.6188278     
  -49805875.4117710     
  -49809210.1866472     
  -49812587.6870907     
  -49816006.6687819     
  -49819465.8995044     
  -49822964.1591794     
  -49826500.2398777     
  -49830072.9458084     
  -49833681.0932879     
  -49837323.5106860     
  -49840999.0383517     
  -49844706.5285196     
  -49690436.7254542     
  -49691333.0541545     
  -49692333.0878552     
  -49693435.1721223     
  -49694637.6458338     
  -49695938.8424555     
  -49697337.0912753     
  -49698830.7185996     
  -49700418.0489073     
  -49702097.4059665     
  -49703867.1139092     
  -49705725.4982690     
  -49707670.8869775     
  -49709701.6113230     
  -49711816.0068702     
  -49714012.4143414     
  -49716289.1804598     
  -49718644.6587550     
  -49721077.2103309     
  -49723585.2045973     
  -49726167.0199640     
  -49728821.0444993     
  -49731545.6765527     
  -49734339.3253418     
  -49737200.4115052     
  -49740127.3676197     
  -49743118.6386847     
  -49746172.6825726     
  -49749287.9704462     
  -49752462.9871436     
  -49755696.2315311     
  -49758986.2168247     
  -49762331.4708806     
  -49765730.5364549     
  -49769181.9714337     
  -49772684.3490335     
  -49776236.2579729     
  -49779836.3026156     
  -49783483.1030855     
  -49787175.2953550     
  -49790911.5313052     
  -49794690.4787614     
  -49798510.8215011     
  -49802371.2592380     
  -49806270.5075803     
  -49810207.2979654     
  -49814180.3775700     
  -49818188.5091978     
  -49822230.4711433     
  -49826305.0570350     
  -49652745.0661500     
  -49653884.3089396     
  -49655135.1519362     
  -49656495.6681341     
  -49657963.9279680     
  -49659538.0007004     
  -49661215.9557617     
  -49662995.8640426     
  -49664875.7991390     
  -49666853.8385514     
  -49668928.0648365     
  -49671096.5667138     
  -49673357.4401262     
  -49675708.7892546     
  -49678148.7274892     
  -49680675.3783548     
  -49683286.8763935     
  -49685981.3680030     
  -49688757.0122332     
  -49691611.9815390     
  -49694544.4624927     
  -49697552.6564546     
  -49700634.7802026     
  -49703789.0665227     
  -49707013.7647589     
  -49710307.1413254     
  -49713667.4801798     
  -49717093.0832590     
  -49720582.2708782     
  -49724133.3820930     
  -49727744.7750270     
  -49731414.8271629     
  -49735141.9356000     
  -49738924.5172777     
  -49742761.0091660     
  -49746649.8684230     
  -49750589.5725212     
  -49754578.6193414     
  -49758615.5272375     
  -49762698.8350697     
  -49766827.1022095     
  -49770998.9085149     
  -49775212.8542784     
  -49779467.5601465     
  -49783761.6670124     
  -49788093.8358830     
  -49792462.7477189     
  -49796867.1032500     
  -49801305.6227659     
  -49805777.0458823     
  -49610637.6505294     
  -49612068.1181708     
  -49613618.1727144     
  -49615285.5787403     
  -49617068.1035990     
  -49618963.5189055     
  -49620969.6019773     
  -49623084.1372177     
  -49625304.9174435     
  -49627629.7451576     
  -49630056.4337691     
  -49632582.8087584     
  -49635206.7087911     
  -49637925.9867779     
  -49640738.5108846     
  -49643642.1654902     
  -49646634.8520954     
  -49649714.4901811     
  -49652879.0180185     
  -49656126.3934310     
  -49659454.5945092     
  -49662861.6202787     
  -49666345.4913226     
  -49669904.2503592     
  -49673535.9627749     
  -49677238.7171143     
  -49681010.6255273     
  -49684849.8241746     
  -49688754.4735920     
  -49692722.7590145     
  -49696752.8906611     
  -49700843.1039807     
  -49704991.6598605     
  -49709196.8447967     
  -49713456.9710294     
  -49717770.3766420     
  -49722135.4256253     
  -49726550.5079079     
  -49731014.0393535     
  -49735524.4617250     
  -49740080.2426177     
  -49744679.8753604     
  -49749321.8788866     
  -49754004.7975763     
  -49758727.2010678     
  -49763487.6840420     
  -49768284.8659790     
  -49773117.3908865     
  -49777983.9270032     
  -49782883.1664758     
  -49563635.3027106     
  -49565413.1660347     
  -49567318.5625109     
  -49569348.9096145     
  -49571501.6343374     
  -49573774.1747790     
  -49576163.9816716     
  -49578668.5198412     
  -49581285.2696040     
  -49584011.7281013     
  -49586845.4105698     
  -49589783.8515529     
  -49592824.6060498     
  -49595965.2506051     
  -49599203.3843407     
  -49602536.6299282     
  -49605962.6345057     
  -49609479.0705380     
  -49613083.6366221     
  -49616774.0582380     
  -49620548.0884477     
  -49624403.5085405     
  -49628338.1286290     
  -49632349.7881936     
  -49636436.3565789     
  -49640595.7334416     
  -49644825.8491513     
  -49649124.6651455     
  -49653490.1742392     
  -49657920.4008911     
  -49662413.4014259     
  -49666967.2642146     
  -49671580.1098142     
  -49676250.0910667     
  -49680975.3931588     
  -49685754.2336432     
  -49690584.8624230     
  -49695465.5616985     
  -49700394.6458794     
  -49705370.4614614     
  -49710391.3868691     
  -49715455.8322662     
  -49720562.2393323     
  -49725709.0810092     
  -49730894.8612158     
  -49736118.1145334     
  -49741377.4058616     
  -49746671.3300454     
  -49751998.5114748     
  -49757357.6036574     
  -49511214.9727923     
  -49513405.2641913     
  -49515730.8267599     
  -49518188.6895752     
  -49520775.8996348     
  -49523489.5235275     
  -49526326.6490271     
  -49529284.3866124     
  -49532359.8709135     
  -49535550.2620855     
  -49538852.7471112     
  -49542264.5410336     
  -49545782.8881196     
  -49549405.0629556     
  -49553128.3714770     
  -49556950.1519325     
  -49560867.7757837     
  -49564878.6485428     
  -49568980.2105482     
  -49573169.9376802     
  -49577445.3420177     
  -49581803.9724368     
  -49586243.4151536     
  -49590761.2942116     
  -49595355.2719149     
  -49600023.0492097     
  -49604762.3660128     
  -49609571.0014917     
  -49614446.7742948     
  -49619387.5427336     
  -49624391.2049196     
  -49629455.6988546     
  -49634579.0024772     
  -49639759.1336668     
  -49644994.1502047     
  -49650282.1496952     
  -49655621.2694465     
  -49661009.6863132     
  -49666445.6165003     
  -49671927.3153322     
  -49677453.0769843     
  -49683021.2341805     
  -49688630.1578578     
  -49694278.2567962     
  -49699963.9772181     
  -49705685.8023563     
  -49711442.2519908     
  -49717231.8819574     
  -49723053.2836261     
  -49728905.0833528     
  -49452807.4461150     
  -49455485.1311963     
  -49458305.4073960     
  -49461264.8719140     
  -49464360.1501994     
  -49467587.8976737     
  -49470944.8013679     
  -49474427.5814732     
  -49478032.9928092     
  -49481757.8262078     
  -49485598.9098181     
  -49489553.1103304     
  -49493617.3341236     
  -49497788.5283358     
  -49502063.6818604     
  -49506439.8262696     
  -49510914.0366662     
  -49515483.4324656     
  -49520145.1781104     
  -49524896.4837176     
  -49529734.6056615     
  -49534656.8470932     
  -49539660.5583985     
  -49544743.1375958     
  -49549902.0306748     
  -49555134.7318792     
  -49560438.7839335     
  -49565811.7782157     
  -49571251.3548779     
  -49576755.2029157     
  -49582321.0601882     
  -49587946.7133901     
  -49593629.9979765     
  -49599368.7980429     
  -49605161.0461609     
  -49611004.7231713     
  -49616897.8579355     
  -49622838.5270471     
  -49628824.8545042     
  -49634855.0113435     
  -49640927.2152383     
  -49647039.7300606     
  -49653190.8654085     
  -49659378.9760999     
  -49665602.4616344     
  -49671859.7656224     
  -49678149.3751846     
  -49684469.8203207     
  -49690819.6732503     
  -49697197.5477242     
  -49387795.3341912     
  -49391046.4435636     
  -49394446.7871747     
  -49397992.4853154     
  -49401679.6990692     
  -49405504.6320533     
  -49409463.5320610     
  -49413552.6926056     
  -49417768.4543714     
  -49422107.2065695     
  -49426565.3882043     
  -49431139.4892500     
  -49435826.0517406     
  -49440621.6707746     
  -49445522.9954376     
  -49450526.7296436     
  -49455629.6328974     
  -49460828.5209814     
  -49466120.2665665     
  -49471501.7997510     
  -49476970.1085293     
  -49482522.2391916     
  -49488155.2966567     
  -49493866.4447409     
  -49499652.9063639     
  -49505511.9636931     
  -49511440.9582306     
  -49517437.2908411     
  -49523498.4217262     
  -49529621.8703440     
  -49535805.2152773     
  -49542046.0940516     
  -49548342.2029050     
  -49554691.2965102     
  -49561091.1876522     
  -49567539.7468619     
  -49574034.9020069     
  -49580574.6378420     
  -49587156.9955201     
  -49593780.0720643     
  -49600442.0198041     
  -49607141.0457754     
  -49613875.4110855     
  -49620643.4302463     
  -49627443.4704736     
  -49634273.9509564     
  -49641133.3420955     
  -49648020.1647132     
  -49654932.9892340     
  -49661870.4348392     
  -49315511.4685131     
  -49319434.2742458     
  -49323511.9652788     
  -49327740.1393076     
  -49332114.4498947     
  -49336630.6081792     
  -49341284.3844739     
  -49346071.6097533     
  -49350988.1770352     
  -49356030.0426579     
  -49361193.2274557     
  -49366473.8178364     
  -49371867.9667613     
  -49377371.8946328     
  -49382981.8900899     
  -49388694.3107160     
  -49394505.5836607     
  -49400412.2061779     
  -49406410.7460837     
  -49412497.8421353     
  -49418670.2043348     
  -49424924.6141595     
  -49431257.9247211     
  -49437667.0608564     
  -49444149.0191519     
  -49450700.8679043     
  -49457319.7470198     
  -49464002.8678532     
  -49470747.5129905     
  -49477551.0359754     
  -49484410.8609840     
  -49491324.4824464     
  -49498289.4646212     
  -49505303.4411210     
  -49512364.1143934     
  -49519469.2551579     
  -49526616.7018006     
  -49533804.3597289     
  -49541030.2006872     
  -49548292.2620353     
  -49555588.6459908     
  -49562917.5188378     
  -49570277.1101016     
  -49577665.7116920     
  -49585081.6770162     
  -49592523.4200615     
  -49599989.4144509     
  -49607478.1924695     
  -49614988.3440663     
  -49622518.5158293     
  -49235237.8432362     
  -49239944.0577601     
  -49244809.4366995     
  -49249829.0100415     
  -49254997.8815812     
  -49260311.2305342     
  -49265764.3130244     
  -49271352.4634491     
  -49277071.0957263     
  -49282915.7044260     
  -49288881.8657899     
  -49294965.2386417     
  -49301161.5651932     
  -49307466.6717467     
  -49313876.4692998     
  -49320386.9540535     
  -49326994.2078287     
  -49333694.3983919     
  -49340483.7796967     
  -49347358.6920398     
  -49354315.5621387     
  -49361350.9031311     
  -49368461.3145007     
  -49375643.4819308     
  -49382894.1770902     
  -49390210.2573526     
  -49397588.6654532     
  -49405026.4290847     
  -49412520.6604349     
  -49420068.5556695     
  -49427667.3943613     
  -49435314.5388692     
  -49443007.4336676     
  -49450743.6046310     
  -49458520.6582734     
  -49466336.2809460     
  -49474188.2379944     
  -49482074.3728776     
  -49489992.6062512     
  -49497940.9350145     
  -49505917.4313256     
  -49513920.2415842     
  -49521947.5853847     
  -49529997.7544405     
  -49538069.1114805     
  -49546160.0891199     
  -49554269.1887057     
  -49562394.9791383     
  -49570536.0956701     
  -49578691.2386819     
  -49146205.2808948     
  -49151821.2477910     
  -49157598.8329669     
  -49163532.4557871     
  -49169616.6305822     
  -49175845.9680826     
  -49182215.1767117     
  -49188719.0637452     
  -49195352.5363399     
  -49202110.6024355     
  -49208988.3715347     
  -49215981.0553648     
  -49223083.9684246     
  -49230292.5284225     
  -49237602.2566072     
  -49245008.7779971     
  -49252507.8215105     
  -49260095.2200026     
  -49267766.9102105     
  -49275518.9326121     
  -49283347.4312016     
  -49291248.6531848     
  -49299218.9485990     
  -49307254.7698590     
  -49315352.6712348     
  -49323509.3082625     
  -49331721.4370920     
  -49339985.9137757     
  -49348299.6934992     
  -49356659.8297588     
  -49365063.4734876     
  -49373507.8721333     
  -49381990.3686895     
  -49390508.4006848     
  -49399059.4991305     
  -49407641.2874296     
  -49416251.4802495     
  -49424887.8823612     
  -49433548.3874452     
  -49442230.9768688     
  -49450933.7184328     
  -49459654.7650937     
  -49468392.3536591     
  -49477144.8034609     
  -49485910.5150048     
  -49494687.9686005     
  -49503475.7229712     
  -49512272.4138446     
  -49521076.7525269     
  -49529887.5244594     
  -49047594.0270522     
  -49054261.8630569     
  -49061091.4100109     
  -49068076.4380424     
  -49075210.8369830     
  -49082488.6175155     
  -49089903.9121685     
  -49097450.9761638     
  -49105124.1881222     
  -49112918.0506315     
  -49120827.1906835     
  -49128846.3599833     
  -49136970.4351373     
  -49145194.4177242     
  -49153513.4342533     
  -49161922.7360159     
  -49170417.6988344     
  -49178993.8227125     
  -49187646.7313930     
  -49196372.1718253     
  -49205166.0135499     
  -49214024.2480010     
  -49222942.9877337     
  -49231918.4655791     
  -49240947.0337306     
  -49250025.1627670     
  -49259149.4406133     
  -49268316.5714468     
  -49277523.3745470     
  -49286766.7830982     
  -49296043.8429433     
  -49305351.7112946     
  -49314687.6554044     
  -49324049.0511968     
  -49333433.3818658     
  -49342838.2364397     
  -49352261.3083169     
  -49361700.3937734     
  -49371153.3904451     
  -49380618.2957881     
  -49390093.2055164     
  -49399576.3120213     
  -49409065.9027735     
  -49418560.3587083     
  -49428058.1525978     
  -49437557.8474091     
  -49447058.0946506     
  -49456557.6327088     
  -49466055.2851742     
  -49475549.9591588     
  -48938535.5152610     
  -48946414.1506599     
  -48954451.6003761     
  -48962640.9536576     
  -48970975.4481329     
  -48979448.4705407     
  -48988053.5572943     
  -48996784.3948876     
  -49005634.8201478     
  -49014598.8203427     
  -49023670.5331457     
  -49032844.2464694     
  -49042114.3981687     
  -49051475.5756232     
  -49060922.5152025     
  -49070450.1016217     
  -49080053.3671907     
  -49089727.4909658     
  -49099467.7978054     
  -49109269.7573391     
  -49119128.9828510     
  -49129041.2300867     
  -49139002.3959851     
  -49149008.5173421     
  -49159055.7694107     
  -49169140.4644403     
  -49179259.0501611     
  -49189408.1082188     
  -49199584.3525596     
  -49209784.6277745     
  -49220005.9074035     
  -49230245.2922033     
  -49240500.0083837     
  -49250767.4058144     
  -49261044.9562064     
  -49271330.2512696     
  -49281621.0008512     
  -49291915.0310565     
  -49302210.2823538     
  -49312504.8076682     
  -49322796.7704633     
  -49333084.4428155     
  -49343366.2034814     
  -49353640.5359601     
  -49363906.0265524     
  -49374161.3624177     
  -49384405.3296303     
  -49394636.8112358     
  -49404854.7853092     
  -49415058.3230149     
  -48818115.5830204     
  -48827381.6331447     
  -48836799.8817812     
  -48846362.7159611     
  -48856062.7040595     
  -48865892.5959464     
  -48875845.3229604     
  -48885913.9977129     
  -48896091.9137312     
  -48906372.5449471     
  -48916749.5450390     
  -48927216.7466345     
  -48937768.1603816     
  -48948397.9738940     
  -48959100.5505791     
  -48969870.4283546     
  -48980702.3182609     
  -48991591.1029753     
  -49002531.8352345     
  -49013519.7361728     
  -49024550.1935802     
  -49035618.7600875     
  -49046721.1512844     
  -49057853.2437748     
  -49069011.0731769     
  -49080190.8320704     
  -49091388.8678984     
  -49102601.6808285     
  -49113825.9215757     
  -49125058.3891940     
  -49136296.0288403     
  -49147535.9295134     
  -49158775.3217739     
  -49170011.5754472     
  -49181242.1973146     
  -49192464.8287940     
  -49203677.2436143     
  -49214877.3454876     
  -49226063.1657792     
  -49237232.8611796     
  -49248384.7113820     
  -49259517.1167639     
  -49270628.5960794     
  -49281717.7841586     
  -49292783.4296212     
  -49303824.3926013     
  -49314839.6424870     
  -49325828.2556743     
  -49336789.4133379     
  -49347722.3992180     
  -48685379.4625624     
  -48696227.8460639     
  -48707217.2520853     
  -48718339.3585225     
  -48729586.0621872     
  -48740949.4781818     
  -48752421.9390863     
  -48763995.9939694     
  -48775664.4072302     
  -48787420.1572820     
  -48799256.4350844     
  -48811166.6425351     
  -48823144.3907283     
  -48835183.4980888     
  -48847277.9883895     
  -48859422.0886615     
  -48871610.2270034     
  -48883837.0302983     
  -48896097.3218455     
  -48908386.1189149     
  -48920698.6302309     
  -48933030.2533917     
  -48945376.5722329     
  -48957733.3541395     
  -48970096.5473142     
  -48982462.2780069     
  -48994826.8477121     
  -49007186.7303391     
  -49019538.5693610     
  -49031879.1749463     
  -49044205.5210800     
  -49056514.7426763     
  -49068804.1326896     
  -49081071.1392263     
  -49093313.3626628     
  -49105528.5527713     
  -49117714.6058584     
  -49129869.5619200     
  -49141991.6018138     
  -49154079.0444533     
  -49166130.3440254     
  -49178144.0872338     
  -49190118.9905708     
  -49202053.8976177     
  -49213947.7763771     
  -49225799.7166380     
  -49237608.9273732     
  -49249374.7341720     
  -49261096.5767080     
  -49272774.0062416     
  -48539338.9172076     
  -48551983.1169151     
  -48564751.6420243     
  -48577635.4738091     
  -48590625.8549121     
  -48603714.2877061     
  -48616892.5324611     
  -48630152.6053297     
  -48643486.7761614     
  -48656887.5661553     
  -48670347.7453640     
  -48683860.3300571     
  -48697418.5799552     
  -48711015.9953445     
  -48724646.3140811     
  -48738303.5084956     
  -48751981.7822056     
  -48765675.5668464     
  -48779379.5187287     
  -48793088.5154306     
  -48806797.6523331     
  -48820502.2391075     
  -48834197.7961612     
  -48847880.0510496     
  -48861544.9348628     
  -48875188.5785914     
  -48888807.3094802     
  -48902397.6473754     
  -48915956.3010705     
  -48929480.1646579     
  -48942966.3138909     
  -48956412.0025619     
  -48969814.6589003     
  -48983171.8819965     
  -48996481.4382550     
  -49009741.2578809     
  -49022949.4314038     
  -49036104.2062420     
  -49049203.9833108     
  -49062247.3136769     
  -49075232.8952622     
  -49088159.5695989     
  -49101026.3186376     
  -49113832.2616115     
  -49126576.6519555     
  -49139258.8742846     
  -49151878.4414298     
  -49164434.9915335     
  -49176928.2852047     
  -49189358.2027334     
  -48378981.9445579     
  -48393653.7837111     
  -48408426.6414495     
  -48423290.8404110     
  -48438237.0121409     
  -48453256.0941557     
  -48468339.3268116     
  -48483478.2499894     
  -48498664.6996107     
  -48513890.8039958     
  -48529148.9800773     
  -48544431.9294807     
  -48559732.6344844     
  -48575044.3538705     
  -48590360.6186775     
  -48605675.2278668     
  -48620982.2439122     
  -48636275.9883250     
  -48651551.0371225     
  -48666802.2162517     
  -48682024.5969769     
  -48697213.4912397     
  -48712364.4470016     
  -48727473.2435767     
  -48742535.8869632     
  -48757548.6051809     
  -48772507.8436231     
  -48787410.2604292     
  -48802252.7218850     
  -48817032.2978576     
  -48831746.2572701     
  -48846392.0636223     
  -48860967.3705634     
  -48875470.0175200     
  -48889898.0253857     
  -48904249.5922764     
  -48918523.0893536     
  -48932717.0567220     
  -48946830.1994020     
  -48960861.3833822     
  -48974809.6317530     
  -48988674.1209242     
  -49002454.1769286     
  -49016149.2718124     
  -49029759.0201155     
  -49043283.1754399     
  -49056721.6271097     
  -49070074.3969207     
  -49083341.6359811     
  -49096523.6216424     
  -48203285.5216990     
  -48220234.3019417     
  -48237252.9619635     
  -48254331.2364461     
  -48271459.2217086     
  -48288627.3711395     
  -48305826.4904358     
  -48323047.7326645     
  -48340282.5931613     
  -48357522.9042816     
  -48374760.8300180     
  -48391988.8604988     
  -48409199.8063814     
  -48426386.7931541     
  -48443543.2553588     
  -48460662.9307494     
  -48477739.8543955     
  -48494768.3527460     
  -48511743.0376632     
  -48528658.8004386     
  -48545510.8058017     
  -48562294.4859320     
  -48579005.5344848     
  -48595639.9006396     
  -48612193.7831811     
  -48628663.6246214     
  -48645046.1053714     
  -48661338.1379706     
  -48677536.8613806     
  -48693639.6353523     
  -48709644.0348704     
  -48725547.8446845     
  -48741349.0539298     
  -48757045.8508452     
  -48772636.6175921     
  -48788119.9251792     
  -48803494.5284976     
  -48818759.3614690     
  -48833913.5323122     
  -48848956.3189284     
  -48863887.1644097     
  -48878705.6726727     
  -48893411.6042176     
  -48908004.8720161     
  -48922485.5375278     
  -48936853.8068457     
  -48951110.0269724     
  -48965254.6822251     
  -48979288.3907701     
  -48993211.9012855     
  -48011231.9246825     
  -48030722.7420272     
  -48050243.1085327     
  -48069782.2828559     
  -48089329.9431931     
  -48108876.1806872     
  -48128411.4926485     
  -48147926.7756127     
  -48167413.3182475     
  -48186862.7941320     
  -48206267.2544190     
  -48225619.1204029     
  -48244911.1760045     
  -48264136.5601923     
  -48283288.7593522     
  -48302361.5996240     
  -48321349.2392151     
  -48340246.1607098     
  -48359047.1633837     
  -48377747.3555382     
  -48396342.1468677     
  -48414827.2408704     
  -48433198.6273149     
  -48451452.5747733     
  -48469585.6232306     
  -48487594.5767819     
  -48505476.4964251     
  -48523228.6929585     
  -48540848.7199912     
  -48558334.3670759     
  -48575683.6529682     
  -48592894.8190223     
  -48609966.3227269     
  -48626896.8313887     
  -48643685.2159679     
  -48660330.5450702     
  -48676832.0791006     
  -48693189.2645816     
  -48709401.7286395     
  -48725469.2736621     
  -48741391.8721297     
  -48757169.6616207     
  -48772802.9399951     
  -48788292.1607545     
  -48803637.9285810     
  -48818840.9950554     
  -48833902.2545518     
  -48848822.7403120     
  -48863603.6206941     
  -48878246.1955989     
  -47801829.2148054     
  -47824140.2354010     
  -47846429.7845326     
  -47868686.8081040     
  -47890900.7344581     
  -47913061.4652934     
  -47935159.3664140     
  -47957185.2583348     
  -47979130.4067616     
  -48000986.5129675     
  -48022745.7040849     
  -48044400.5233325     
  -48065943.9201964     
  -48087369.2405834     
  -48108670.2169640     
  -48129840.9585240     
  -48150875.9413384     
  -48171769.9985869     
  -48192518.3108242     
  -48213116.3963201     
  -48233560.1014856     
  -48253845.5913955     
  -48273969.3404232     
  -48293928.1229978     
  -48313719.0044965     
  -48333339.3322828     
  -48352786.7269004     
  -48372059.0734330     
  -48391154.5130386     
  -48410071.4346669     
  -48428808.4669671     
  -48447364.4703943     
  -48465738.5295187     
  -48483929.9455467     
  -48501938.2290563     
  -48519763.0929526     
  -48537404.4456482     
  -48554862.3844707     
  -48572137.1893019     
  -48589229.3164495     
  -48606139.3927548     
  -48622868.2099370     
  -48639416.7191751     
  -48655786.0259283     
  -48671977.3849953     
  -48687992.1958097     
  -48703831.9979751     
  -48719498.4670314     
  -48734993.4104634     
  -48750318.7639271     
  -47574136.5479438     
  -47599554.9861297     
  -47624888.6085149     
  -47650126.2747292     
  -47675257.3943705     
  -47700271.9148866     
  -47725160.3093190     
  -47749913.5639313     
  -47774523.1657482     
  -47798981.0900283     
  -47823279.7876945     
  -47847412.1727443     
  -47871371.6096635     
  -47895151.9008624     
  -47918747.2741577     
  -47942152.3703188     
  -47965362.2306988     
  -47988372.2849670     
  -48011178.3389626     
  -48033776.5626855     
  -48056163.4784406     
  -48078335.9491504     
  -48100291.1668515     
  -48122026.6413870     
  -48143540.1893093     
  -48164829.9230028     
  -48185894.2400419     
  -48206731.8127886     
  -48227341.5782451     
  -48247722.7281659     
  -48267874.6994394     
  -48287797.1647456     
  -48307490.0234964     
  -48326953.3930637     
  -48346187.6003017     
  -48365193.1733652     
  -48383970.8338314     
  -48402521.4891237     
  -48420846.2252436     
  -48438946.2998109     
  -48456823.1354140     
  -48474478.3132707     
  -48491913.5671986     
  -48509130.7778991     
  -48526131.9675461     
  -48542919.2946901     
  -48559495.0494594     
  -48575861.6490827     
  -48592021.6336792     
  -48607977.6624028     
  -47327295.0314255     
  -47356111.5268422     
  -47384765.7764695     
  -47413246.8573289     
  -47441544.4679793     
  -47469648.9127198     
  -47497551.0856924     
  -47525242.4549131     
  -47552715.0462612     
  -47579961.4274548     
  -47606974.6920426     
  -47633748.4434359     
  -47660276.7790105     
  -47686554.2743010     
  -47712575.9673140     
  -47738337.3429833     
  -47763834.3177890     
  -47789063.2245624     
  -47814020.7974979     
  -47838704.1573891     
  -47863110.7971102     
  -47887238.5673577     
  -47911085.6626688     
  -47934650.6077321     
  -47957932.2440040     
  -47980929.7166433     
  -48003642.4617763     
  -48026070.1941019     
  -48048212.8948475     
  -48070070.8000839     
  -48091644.3894060     
  -48112934.3749871     
  -48133941.6910122     
  -48154667.4834948     
  -48175113.1004825     
  -48195280.0826527     
  -48215170.1543034     
  -48234785.2147393     
  -48254127.3300551     
  -48273198.7253170     
  -48292001.7771413     
  -48310539.0066692     
  -48328813.0729427     
  -48346826.7666637     
  -48364583.0043697     
  -48382084.8229607     
  -48399335.3746626     
  -48416337.9223081     
  -48433095.8351175     
  -48449612.5846563     
  -47060564.9273402     
  -47093065.9631570     
  -47125311.3597065     
  -47157290.8088740     
  -47188994.6988452     
  -47220414.0938533     
  -47251540.7138774     
  -47282366.9143281     
  -47312885.6657565     
  -47343090.5336221     
  -47372975.6581538     
  -47402535.7343354     
  -47431765.9920496     
  -47460662.1764102     
  -47489220.5283105     
  -47517437.7652188     
  -47545311.0622448     
  -47572838.0335023     
  -47600016.7137942     
  -47626845.5406385     
  -47653323.3366578     
  -47679449.2923515     
  -47705222.9492671     
  -47730644.1835867     
  -47755713.1901442     
  -47780430.4668854     
  -47804796.7997823     
  -47828813.2482128     
  -47852481.1308136     
  -47875802.0118150     
  -47898777.6878626     
  -47921410.1753328     
  -47943701.6981445     
  -47965654.6760711     
  -47987271.7135555     
  -48008555.5890274     
  -48029509.2447255     
  -48050135.7770225     
  -48070438.4272533     
  -48090420.5730436     
  -48110085.7201379     
  -48129437.4947291     
  -48148479.6362620     
  -48167215.9907668     
  -48185650.5045994     
  -48203787.2187988     
  -48221630.2637421     
  -48239183.8545115     
  -48256452.2863048     
  -48273439.9310418     
  -46773370.0835568     
  -46809828.0191541     
  -46845918.9828482     
  -46881633.7927767     
  -46916964.0401787     
  -46951902.0637259     
  -46986440.9238748     
  -47020574.3772859     
  -47054296.8513558     
  -47087603.4189066     
  -47120489.7730744     
  -47152952.2024380     
  -47184987.5664280     
  -47216593.2710528     
  -47247767.2449772     
  -47278507.9159879     
  -47308814.1878762     
  -47338685.4177680     
  -47368121.3939286     
  -47397122.3140664     
  -47425688.7641590     
  -47453821.6978223     
  -47481522.4162410     
  -47508792.5486772     
  -47535634.0335707     
  -47562049.1002445     
  -47588040.2512248     
  -47613610.2451845     
  -47638762.0805170     
  -47663498.9795451     
  -47687824.3733679     
  -47711741.8873497     
  -47735255.3272488     
  -47758368.6659870     
  -47781086.0310583     
  -47803411.6925725     
  -47825350.0519321     
  -47846905.6311384     
  -47868083.0627175     
  -47888887.0802668     
  -47909322.5096095     
  -47929394.2605369     
  -47949107.3192214     
  -47968466.7410701     
  -47987477.6444533     
  -48006145.2045006     
  -48024474.6481656     
  -48042471.2489754     
  -48060140.3238400     
  -48077487.2277322     
  -46465350.5626823     
  -46506010.7623697     
  -46546172.6696701     
  -46585828.8792871     
  -46624972.8362943     
  -46663598.8038251     
  -46701701.8308800     
  -46739277.7203144     
  -46776322.9970642     
  -46812834.8766664     
  -46848811.2341299     
  -46884250.5732076     
  -46919151.9961198     
  -46953515.1737747     
  -46987340.3165307     
  -47020628.1455398     
  -47053379.8647102     
  -47085597.1333231     
  -47117282.0393334     
  -47148437.0733836     
  -47179065.1035558     
  -47209169.3508825     
  -47238753.3656359     
  -47267821.0044116     
  -47296376.4080180     
  -47324423.9801832     
  -47351968.3670847     
  -47379014.4377084     
  -47405567.2650369     
  -47431632.1080696     
  -47457214.3946688     
  -47482319.7052308     
  -47506953.7571717     
  -47531122.3902293     
  -47554831.5525584     
  -47578087.2876245     
  -47600895.7218674     
  -47623263.0531353     
  -47645195.5398791     
  -47666699.4910853     
  -47687781.2569458     
  -47708447.2202941     
  -47728703.7884931     
  -47748557.3865720     
  -47768014.4499965     
  -47787081.4200068     
  -47805764.7369284     
  -47824070.8374079     
  -47842006.1470111     
  -47859577.0831670     
  -46136424.5214258     
  -46181488.9306493     
  -46225901.6514543     
  -46269657.8765158     
  -46312753.7243825     
  -46355186.1989081     
  -46396953.1489492     
  -46438053.2284081     
  -46478485.8566998     
  -46518251.1797166     
  -46557350.0313623     
  -46595783.8957202     
  -46633554.8699188     
  -46670665.6277520     
  -46707119.3841075     
  -46742919.8602522     
  -46778071.2500181     
  -46812578.1869303     
  -46846445.7123097     
  -46879679.2443841     
  -46912284.5484304     
  -46944267.7079740     
  -46975635.0970582     
  -47006393.3536005     
  -47036549.3538423     
  -47066110.1878984     
  -47095083.1364062     
  -47123475.6482735     
  -47151295.3195156     
  -47178549.8731743     
  -47205247.1403082     
  -47231395.0420348     
  -47257001.5726121     
  -47282074.7835195     
  -47306622.7685557     
  -47330653.6498834     
  -47354175.5650533     
  -47377196.6549334     
  -47399725.0525068     
  -47421768.8725624     
  -47443336.2022001     
  -47464435.0920374     
  -47485073.5490696     
  -47505259.5282541     
  -47525000.9286464     
  -47544305.5832915     
  -47563181.2601657     
  -47581635.6515066     
  -47599676.3823835     
  -47617310.9851581     
  -45786860.4214043     
  -45836466.7499338     
  -45885243.8414280     
  -45933190.5217281     
  -45980306.6128109     
  -46026592.8818042     
  -46072050.9904948     
  -46116683.4454503     
  -46160493.5488522     
  -46203485.3501384     
  -46245663.5985408     
  -46287033.6966053     
  -46327601.6547648     
  -46367374.0470409     
  -46406357.9679323     
  -46444560.9905505     
  -46481991.1260514     
  -46518656.7844087     
  -46554566.7365673     
  -46589730.0780084     
  -46624156.1937542     
  -46657854.7248307     
  -46690835.5362059     
  -46723108.6862088     
  -46754684.3974346     
  -46785573.0291312     
  -46815785.0510597     
  -46845331.0188139     
  -46874221.5505816     
  -46902467.3053230     
  -46930078.9623255     
  -46957067.2021168     
  -46983442.6886823     
  -47009216.0530163     
  -47034397.8778002     
  -47058998.6833565     
  -47083028.9146111     
  -47106498.9292327     
  -47129418.9869158     
  -47151799.2395207     
  -47173649.7222441     
  -47194980.3459454     
  -47215800.8874954     
  -47236120.9885133     
  -47255950.1409588     
  -47275297.6990098     
  -47294172.8521228     
  -47312584.6456759     
  -47330541.9370909     
  -47348053.4758861     
  -45417360.5018925     
  -45471555.8895426     
  -45524718.3537339     
  -45576851.6599677     
  -45627960.6289997     
  -45678051.0725293     
  -45727129.7298359     
  -45775204.2054546     
  -45822282.9080248     
  -45868374.9904346     
  -45913490.2913575     
  -45957639.2782808     
  -46000832.9921096     
  -46043082.9934247     
  -46084401.3104634     
  -46124800.3888833     
  -46164293.0433663     
  -46202892.4111066     
  -46240611.9072255     
  -46277465.1821456     
  -46313466.0809503     
  -46348628.6047507     
  -46382966.8740683     
  -46416495.0942412     
  -46449227.5228508     
  -46481178.4391559     
  -46512362.1155188     
  -46542792.7907883     
  -46572484.6456039     
  -46601451.7795799     
  -46629708.1903515     
  -46657267.7543562     
  -46684144.2093396     
  -46710351.1382842     
  -46735901.9552859     
  -46760809.8925170     
  -46785087.9889975     
  -46808749.0801766     
  -46831805.7883339     
  -46854270.5147630     
  -46876155.4326744     
  -46897472.4804484     
  -46918233.3646921     
  -46938449.5361951     
  -46958132.2181491     
  -46977292.3418853     
  -46995940.6332257     
  -47014087.5191232     
  -47031743.2651174     
  -47048917.6818987     
  -45029155.8308474     
  -45087863.4708261     
  -45145306.6167202     
  -45201495.6277473     
  -45256441.9555107     
  -45310158.0629306     
  -45362657.3446883     
  -45413954.0494933     
  -45464063.2042723     
  -45513000.5403824     
  -45560782.4219621     
  -45607425.7765047     
  -45652948.0277292     
  -45697367.0308254     
  -45740701.0101207     
  -45782968.4992378     
  -45824188.2837767     
  -45864379.3465769     
  -45903560.8155912     
  -45941751.9144105     
  -45978971.9154684     
  -46015240.0959518     
  -46050575.6964397     
  -46084997.8822812     
  -46118525.7077166     
  -46151178.0827331     
  -46182973.7426384     
  -46213931.2203355     
  -46244068.8212437     
  -46273404.6007874     
  -46301956.3442634     
  -46329741.5492669     
  -46356777.4103443     
  -46383080.8064452     
  -46408668.2888167     
  -46433556.0723053     
  -46457760.0268237     
  -46481295.6723764     
  -46504178.1763549     
  -46526422.3484620     
  -46548042.6377134     
  -46569053.1316225     
  -46589467.5285737     
  -46609299.2115000     
  -46628561.1282806     
  -46647266.0113720     
  -46665426.0334812     
  -46683053.1599537     
  -46700158.6789424     
  -46716754.2208891     
  -44624111.6149605     
  -44687088.3095187     
  -44748539.8268450     
  -44808485.2150886     
  -44866944.6109672     
  -44923939.1376346     
  -44979490.8058440     
  -45033622.4179735     
  -45086357.4750756     
  -45137720.0870804     
  -45187734.8861528     
  -45236426.9432500     
  -45283821.6879150     
  -45329944.8312975     
  -45374822.2924598     
  -45418480.1279361     
  -45460944.4646121     
  -45502241.4359141     
  -45542397.1213514     
  -45581437.4894471     
  -45619388.3440993     
  -45656275.2744234     
  -45692123.6081249     
  -45726958.3684697     
  -45760804.2349142     
  -45793685.5074476     
  -45825626.0746912     
  -45856649.3857131     
  -45886778.4256252     
  -45916035.6949904     
  -45944443.1932549     
  -45972022.4050232     
  -45998794.2899554     
  -46024779.2739822     
  -46049997.2494933     
  -46074467.5717285     
  -46098209.0630525     
  -46121240.0112429     
  -46143578.1683466     
  -46165240.7670803     
  -46186244.5318058     
  -46206605.6843368     
  -46226340.0313543     
  -46245462.6937921     
  -46263988.5690100     
  -46281931.5512760     
  -46299305.8474712     
  -46316124.5944254     
  -46332401.4544457     
  -46348147.1365565     
  -44204837.8650080     
  -44271620.0223647     
  -44336587.0149006     
  -44399769.2147772     
  -44461198.0030519     
  -44520905.6458446     
  -44578925.1737610     
  -44635290.2663439     
  -44690035.1413131     
  -44743194.4482572     
  -44794803.1668297     
  -44844896.5093001     
  -44893509.8273094     
  -44940678.5228453     
  -44986437.9631740     
  -45030823.3998370     
  -45073869.8914720     
  -45115612.2305448     
  -45156084.8739222     
  -45195321.8773128     
  -45233356.8336247     
  -45270222.8153249     
  -45305952.3209415     
  -45340577.2258309     
  -45374128.7373950     
  -45406637.3549995     
  -45438132.8348557     
  -45468644.1603392     
  -45498199.5176768     
  -45526826.2770556     
  -45554550.9786894     
  -45581399.3278043     
  -45607396.1943247     
  -45632565.6233600     
  -45656930.8289572     
  -45680514.2201888     
  -45703337.4109994     
  -45725421.2633455     
  -45746785.9284263     
  -45767450.8230965     
  -45787434.6482815     
  -45806755.4372655     
  -45825430.3615281     
  -45843476.7733728     
  -45860910.4596817     
  -45877748.4837021     
  -45894004.3199194     
  -45909693.3839278     
  -45924827.5465130     
  -45939426.6932850     
  -43774793.7740312     
  -43844629.2862728     
  -43912332.0904666     
  -43977947.1132260     
  -44041520.0889513     
  -44103097.4092567     
  -44162725.9849186     
  -44220453.1140493     
  -44276326.3563017     
  -44330393.4136691     
  -44382702.0169600     
  -44433299.8177685     
  -44482234.2856978     
  -44529552.6100553     
  -44575301.6063923     
  -44619527.6268315     
  -44662276.4746587     
  -44703593.3225108     
  -44743522.6342013     
  -44782108.0900739     
  -44819392.5158598     
  -44855417.8150847     
  -44890224.9051054     
  -44923853.6571614     
  -44956342.8407750     
  -44987730.0728135     
  -45018051.7717635     
  -45047343.1173598     
  -45075638.0179363     
  -45102969.0868172     
  -45129367.6298758     
  -45154863.6322023     
  -45179485.7633314     
  -45203261.3818737     
  -45226216.6301415     
  -45248376.4249741     
  -45269764.5407654     
  -45290403.5981069     
  -45310315.1060626     
  -45329519.7607105     
  -45348037.5111109     
  -45365887.4960850     
  -45383088.7447991     
  -45399656.7006827     
  -45415610.2788863     
  -45430961.6636706     
  -45445734.1414603     
  -45459940.2142741     
  -45473601.2653055     
  -45486710.5149827     
  -43338363.3621424     
  -43410127.8438945     
  -43479419.5927104     
  -43546301.8804149     
  -43610838.3722366     
  -43673092.9835446     
  -43733129.7294545     
  -43791012.5852241     
  -43846805.3573570     
  -43900571.5611023     
  -43952374.3054390     
  -44002276.1839865     
  -44050339.1708032     
  -44096624.5221329     
  -44141192.6807282     
  -44184103.1853128     
  -44225414.5818623     
  -44265184.3379245     
  -44303468.7589499     
  -44340322.9062888     
  -44375800.5165723     
  -44409953.9223061     
  -44442833.9737490     
  -44474489.9615224     
  -44504969.5403331     
  -44534318.6548805     
  -44562581.4685261     
  -44589800.2970436     
  -44616015.5426440     
  -44641265.6308617     
  -44665586.9530327     
  -44689013.8597464     
  -44711578.6318013     
  -44733311.5052476     
  -44754240.4676140     
  -44774391.5684002     
  -44793788.9236490     
  -44812455.1034189     
  -44830411.3093419     
  -44847676.7116348     
  -44864269.0014049     
  -44880205.3668606     
  -44895500.7613659     
  -44910179.9834825     
  -44924250.4375417     
  -44937740.8288563     
  -44950638.1996514     
  -44962974.2499251     
  -44974751.6879285     
  -44986058.1267618     
  -42900865.9154442     
  -42972964.8051390     
  -43042238.7602697     
  -43108773.4017625     
  -43172654.1254362     
  -43233965.9058007     
  -43292793.1684015     
  -43349219.6718150     
  -43403328.3905237     
  -43455201.4100265     
  -43504919.8265108     
  -43552563.6535475     
  -43598211.7355919     
  -43641941.6607262     
  -43683829.6827207     
  -43723950.6387364     
  -43762377.8725231     
  -43799183.1560202     
  -43834436.6102848     
  -43868206.6249276     
  -43900559.7751278     
  -43931560.7352147     
  -43961272.1875443     
  -43989754.7280364     
  -44017066.7663505     
  -44043264.4173592     
  -44068401.3848845     
  -44092528.8346829     
  -44115695.2791472     
  -44137946.4618113     
  -44159325.2301703     
  -44179871.2736118     
  -44199621.0413558     
  -44218607.5567906     
  -44236861.0394792     
  -44254407.6327809     
  -44271269.7439890     
  -44287465.3989263     
  -44303008.7485541     
  -44317913.5072609     
  -44332191.0908808     
  -44345848.2884378     
  -44358895.5566665     
  -44371309.4234857     
  -44383138.3714130     
  -44394353.1550038     
  -44405066.6301672     
  -44415203.4485517     
  -44424793.1890843     
  -44433639.2678031     
  -42468451.9122014     
  -42538715.8752195     
  -42605807.7529823     
  -42669839.4245547     
  -42730921.3793213     
  -42789162.7836085     
  -42844671.3798726     
  -42897553.3845711     
  -42947913.4252592     
  -42995854.4715881     
  -43041477.7822169     
  -43084882.8514138     
  -43126167.3530235     
  -43165427.1054502     
  -43202756.0120093     
  -43238246.0269338     
  -43271987.1041120     
  -43304067.1492827     
  -43334571.9688478     
  -43363585.2130825     
  -43391188.3123054     
  -43417460.4050662     
  -43442478.2577277     
  -43466316.1661279     
  -43489045.8442690     
  -43510736.3075316     
  -43531453.7371812     
  -43551261.3277697     
  -43570219.0389371     
  -43588383.3286452     
  -43605806.9279134     
  -43622538.9760586     
  -43638624.3092146     
  -43654103.1444361     
  -43669008.3378541     
  -43683369.8686659     
  -43697211.9518708     
  -43710553.4333068     
  -43723404.9424564     
  -43735758.3626970     
  -43747599.7067597     
  -43758919.0289411     
  -43769678.6879829     
  -43779939.6101668     
  -43789476.0897716     
  -43798384.6140669     
  -43806330.0584279     
  -43813769.1639769     
  -43820734.0047975     
  -43827736.7645128     
  -42047833.5776222     
  -42113421.6580122     
  -42175521.6679236     
  -42234273.6897720     
  -42289815.7752524     
  -42342283.3759608     
  -42391809.3244571     
  -42438523.9097897     
  -42482554.8505706     
  -42524027.3171283     
  -42563063.9186114     
  -42599784.7171120     
  -42634307.2647428     
  -42666746.5702197     
  -42697215.1736708     
  -42725823.1209272     
  -42752677.9967892     
  -42777884.9385932     
  -42801546.6440462     
  -42823763.3757673     
  -42844632.9601191     
  -42864250.7748140     
  -42882709.7196845     
  -42900100.1923335     
  -42916510.0332026     
  -42932024.4061333     
  -42946725.6709401     
  -42960693.2355802     
  -42974003.6152147     
  -42986730.2837361     
  -42998943.0968594     
  -43010706.6277723     
  -43022081.8016660     
  -43033125.2498305     
  -43043895.3103265     
  -43054431.4318592     
  -43064766.7421309     
  -43074928.0091454     
  -43084940.0257909     
  -43094847.0022450     
  -43104643.6145217     
  -43114249.3995438     
  -43123654.7170291     
  -43132504.7301136     
  -43141481.0310919     
  -43149846.1963600     
  -43158120.3199325     
  -43163817.4792321     
  -43166646.5286404     
  -43166206.3590788     
  -41645818.4986841     
  -41703152.8737662     
  -41756745.2441931     
  -41806766.7824304     
  -41853383.0205682     
  -41896755.6646522     
  -41937042.8464827     
  -41974398.9109823     
  -42008974.5758163     
  -42040916.9406356     
  -42070369.6494225     
  -42097472.9516622     
  -42122363.7094584     
  -42145175.6951792     
  -42166039.4554262     
  -42185082.5783215     
  -42202429.7477368     
  -42218202.8511272     
  -42232521.0995962     
  -42245501.1402517     
  -42257257.1611494     
  -42267901.0004288     
  -42277542.2633454     
  -42286288.3628271     
  -42294244.6121577     
  -42301514.4435830     
  -42308199.4578041     
  -42314399.3523132     
  -42320211.0712481     
  -42325728.9717936     
  -42331046.4242461     
  -42336259.3149026     
  -42341456.3118227     
  -42346720.5733040     
  -42352112.8235626     
  -42357746.1280244     
  -42363713.3479114     
  -42370070.0356218     
  -42376839.4402102     
  -42383985.9754303     
  -42391692.8876338     
  -42400321.3081598     
  -42409684.8210194     
  -42420454.0621028     
  -42429354.1570587     
  -42439052.3360459     
  -42448390.1530065     
  -42466572.0493697     
  -42506032.9849768     
  -42589598.0942003     
  -41268671.1744856     
  -41313414.2971125     
  -41354268.6348070     
  -41391426.3793319     
  -41425079.8482762     
  -41455416.3967030     
  -41482617.4581452     
  -41506859.6729167     
  -41528314.7442001     
  -41547149.8374794     
  -41563527.4281265     
  -41577605.6153417     
  -41589538.5854168     
  -41599475.9557283     
  -41607563.9194421     
  -41613944.8273380     
  -41618757.5581589     
  -41622137.7706579     
  -41624218.1278142     
  -41625128.5652079     
  -41624996.5894487     
  -41623947.5500752     
  -41622104.8797667     
  -41619590.5692649     
  -41616525.3694171     
  -41613028.5716383     
  -41609218.5990032     
  -41605213.9349640     
  -41601136.0406363     
  -41597107.0949624     
  -41593243.1033480     
  -41589646.7502820     
  -41586448.4413414     
  -41583788.8594725     
  -41581853.4049586     
  -41580604.3523745     
  -41580140.4310967     
  -41580776.2054488     
  -41582859.1327746     
  -41586640.3881662     
  -41591275.5475591     
  -41595635.2643737     
  -41601633.7613698     
  -41608920.5475207     
  -41635793.5539769     
  -41693702.2012952     
  -41771391.7409675     
  -41881011.8128369     
  -42023091.0008136     
  -42191944.5922536     
  -40921364.6829899     
  -40948485.5932885     
  -40971683.0544505     
  -40991195.9828042     
  -41007239.3688911     
  -41020019.2002792     
  -41029737.8412699     
  -41036590.7959468     
  -41040767.9152662     
  -41042452.6693344     
  -41041823.4323359     
  -41039052.7910142     
  -41034306.6673663     
  -41027747.9131905     
  -41019532.6398729     
  -41009812.7720158     
  -40998735.9095384     
  -40986445.5228983     
  -40973081.3497026     
  -40958779.7391863     
  -40943674.0261471     
  -40927895.1398802     
  -40911572.3728410     
  -40894833.4160984     
  -40877805.4943393     
  -40860617.6475488     
  -40843399.3656298     
  -40826278.7766262     
  -40809376.4462080     
  -40792820.8778530     
  -40776774.5673232     
  -40761437.3539865     
  -40746885.8660873     
  -40733193.9784739     
  -40720390.5544340     
  -40709356.9873814     
  -40700147.5618848     
  -40691760.0275450     
  -40683598.6073007     
  -40676681.1787357     
  -40676640.2568215     
  -40710059.3459408     
  -40757982.0915049     
  -40824856.2099998     
  -40939176.4146316     
  -41073520.0214240     
  -41221059.4302108     
  -41372427.0750187     
  -41524334.0045509     
  -41670451.6397554     
  -40606953.1516702     
  -40610693.3257545     
  -40610732.8174310     
  -40607257.4874354     
  -40600496.7711164     
  -40590685.5808723     
  -40578042.3312396     
  -40562780.6900378     
  -40545105.3282030     
  -40525214.6252025     
  -40503296.3813226     
  -40479532.0830717     
  -40454100.6980791     
  -40427165.0805118     
  -40398888.0916125     
  -40369424.5573275     
  -40338922.6698949     
  -40307524.9453510     
  -40275368.5912205     
  -40242586.1585592     
  -40209306.1096302     
  -40175652.6739750     
  -40141745.6772232     
  -40107703.3050772     
  -40073641.3436813     
  -40039670.0803030     
  -40005906.0025602     
  -39972480.3061703     
  -39939554.3999174     
  -39907254.3635027     
  -39875597.4446636     
  -39844571.8190035     
  -39814727.4694428     
  -39786493.0815180     
  -39760119.1176755     
  -39732888.5357522     
  -39706548.3478252     
  -39690216.9155831     
  -39705571.9544052     
  -39737358.9036171     
  -39796580.0871895     
  -39900336.1311636     
  -40014434.2754988     
  -40142714.8916190     
  -40279078.4397389     
  -40413059.4775845     
  -40547409.0899843     
  -40681669.1924528     
  -40816121.2746107     
  -40952389.4450116     
  -40325642.8536379     
  -40300011.3161120     
  -40270779.1759503     
  -40238387.7222814     
  -40203128.5738614     
  -40165228.2561538     
  -40124933.0943760     
  -40082465.7427719     
  -40038041.7161838     
  -39991861.9055658     
  -39944129.7192319     
  -39895032.7764062     
  -39844731.6706978     
  -39793416.6285804     
  -39741243.5107762     
  -39688363.4683448     
  -39634920.5067923     
  -39581048.9199888     
  -39526873.2315781     
  -39472507.8090569     
  -39418057.7756406     
  -39363622.9149808     
  -39309300.7896177     
  -39255179.8237937     
  -39201344.8708350     
  -39147887.9098452     
  -39094866.4417168     
  -39042297.0728981     
  -38990145.9291312     
  -38938592.9424657     
  -38888210.0086046     
  -38839404.1391020     
  -38790431.0021979     
  -38740865.7178067     
  -38695218.0008845     
  -38679660.1464870     
  -38683153.6250680     
  -38714276.9930083     
  -38786875.9167516     
  -38875788.4405965     
  -38978194.6455757     
  -39088930.3065891     
  -39203116.7702677     
  -39320242.5184038     
  -39438839.9700029     
  -39560380.0084007     
  -39684285.8838297     
  -39811275.3917212     
  -39940595.3910909     
  -40071029.0869299     
  -40075599.5592695     
  -40012610.5305053     
  -39947449.0636194     
  -39879910.1234672     
  -39810119.8368520     
  -39738392.2784999     
  -39664912.0442938     
  -39589905.3231815     
  -39513583.6913711     
  -39436170.9305400     
  -39357843.1441539     
  -39278810.7593437     
  -39199350.5452154     
  -39119571.0261355     
  -39039664.0873209     
  -38959796.1529888     
  -38880107.9560336     
  -38800721.7014825     
  -38721740.6559121     
  -38643251.2636902     
  -38565321.5410926     
  -38487991.8292998     
  -38411274.2943057     
  -38335186.6052237     
  -38259742.5959976     
  -38184932.4044251     
  -38110875.9561245     
  -38037767.3434089     
  -37965814.0467843     
  -37894343.9680103     
  -37821576.4459962     
  -37750104.0770594     
  -37698159.5150115     
  -37663367.2177689     
  -37641406.7074490     
  -37668274.9912489     
  -37715417.3201518     
  -37776856.7741199     
  -37847636.0626177     
  -37927332.6037963     
  -38014380.3162694     
  -38107924.9267411     
  -38207380.4435090     
  -38313248.5807609     
  -38425785.8358286     
  -38543328.8830064     
  -38664978.8789300     
  -38789759.3413277     
  -38916836.1069762     
  -39044813.5645501     
  -39842143.8494123     
  -39739213.2623200     
  -39632887.1268353     
  -39524553.2646367     
  -39414773.9449638     
  -39303389.1941277     
  -39190754.7839193     
  -39077107.6957278     
  -38962781.5677636     
  -38848108.3260556     
  -38733600.1851505     
  -38619558.7480674     
  -38505955.1925129     
  -38393357.6304816     
  -38281921.0141365     
  -38171764.3352963     
  -38062992.4686145     
  -37955680.0836587     
  -37849883.7935237     
  -37745641.2010978     
  -37642978.3362270     
  -37541933.8750657     
  -37442541.3983330     
  -37344714.5786935     
  -37248285.6944594     
  -37153067.2459594     
  -37058366.0964762     
  -36963502.1152651     
  -36874934.5166758     
  -36792528.2648901     
  -36722121.2254197     
  -36657911.4475453     
  -36623939.2876826     
  -36617055.0655271     
  -36624254.8952305     
  -36642948.7087118     
  -36671970.5963356     
  -36711090.9960650     
  -36759770.7043386     
  -36818022.5374558     
  -36886132.2850131     
  -36964678.2981471     
  -37053516.0342532     
  -37151861.8843628     
  -37258587.6864824     
  -37373172.1965538     
  -37495060.7630590     
  -37623380.6828193     
  -37757764.1657105     
  -37901314.3539714     
  -39638662.5137260     
  -39486364.4282785     
  -39334783.5215366     
  -39180032.7347508     
  -39020751.2636380     
  -38859023.6147969     
  -38695546.7167769     
  -38531827.6689119     
  -38369073.0239102     
  -38208266.8812048     
  -38049409.7080628     
  -37893107.0449155     
  -37740923.8666745     
  -37591699.3249264     
  -37445554.6423257     
  -37302623.1105264     
  -37162955.8769580     
  -37026586.1105122     
  -36893477.3445589     
  -36763533.6543557     
  -36636599.6686416     
  -36512668.5898521     
  -36392959.6484368     
  -36277650.0758308     
  -36164959.3894764     
  -36054707.2983870     
  -35948314.5485609     
  -35848731.9884852     
  -35756456.1827913     
  -35675617.3730594     
  -35619902.8539273     
  -35575724.9203466     
  -35541756.1015170     
  -35518470.7242270     
  -35505123.2377581     
  -35501101.7382735     
  -35506254.2466584     
  -35521320.1010660     
  -35547193.8654313     
  -35584360.7681756     
  -35633237.0305703     
  -35694000.5756867     
  -35767213.9821065     
  -35853945.1225209     
  -35955145.0310663     
  -36071112.7775608     
  -36201154.1760403     
  -36344452.1533423     
  -36500237.1878990     
  -36656982.5863579     
  -39755905.2161908     
  -39513405.5307045     
  -39254349.8826107     
  -38989408.5189936     
  -38726547.4893349     
  -38467423.5772210     
  -38218774.3273123     
  -37979265.1310086     
  -37747688.8666157     
  -37521393.6804724     
  -37303073.3512301     
  -37091739.7671510     
  -36891024.2442775     
  -36698056.6372893     
  -36511741.4383031     
  -36332206.3104583     
  -36159547.2480100     
  -35993505.0357952     
  -35833857.0334511     
  -35680405.6953583     
  -35532939.7740931     
  -35391724.1727606     
  -35256523.5289387     
  -35127320.1696866     
  -35004153.9713475     
  -34886466.6280566     
  -34778967.6824455     
  -34684626.6865122     
  -34599412.5670834     
  -34523212.8431455     
  -34457541.1524401     
  -34401302.4102857     
  -34353952.9009493     
  -34314888.1568743     
  -34284284.4935606     
  -34262689.2971149     
  -34250104.5800917     
  -34246602.4307997     
  -34252813.4662386     
  -34269647.0559086     
  -34297992.8225877     
  -34338982.1396275     
  -34393833.7568562     
  -34464125.8615299     
  -34551702.5521781     
  -34659239.6212374     
  -34789785.9461944     
  -34944640.1188038     
  -35124132.5846421     
  -35341805.0396537     
  -40854777.7739476     
  -40154902.2898710     
  -39528965.8704713     
  -38963082.9001716     
  -38458904.0603218     
  -38018455.4059075     
  -37630743.9801668     
  -37293457.7217781     
  -36979666.5677022     
  -36682801.1429545     
  -36399941.5404060     
  -36133965.9500182     
  -35883151.8404636     
  -35644981.5302053     
  -35420075.6386736     
  -35207261.1626303     
  -35005526.7746814     
  -34814372.1282376     
  -34633436.6173234     
  -34462205.0193312     
  -34300319.2187110     
  -34147661.5614615     
  -34003697.3270199     
  -33868321.0434188     
  -33742065.2244477     
  -33625020.6347731     
  -33517501.7396961     
  -33419307.4074989     
  -33330357.9804040     
  -33250170.4674643     
  -33178362.1836909     
  -33114994.5786209     
  -33060103.1590923     
  -33013723.9570225     
  -32975734.5110665     
  -32946190.3244024     
  -32925081.7978199     
  -32912424.2405290     
  -32908794.3650917     
  -32914921.4139702     
  -32931772.3792119     
  -32960443.2407924     
  -33002355.7419118     
  -33059318.3234535     
  -33133601.7211412     
  -33228868.8094459     
  -33349393.7691828     
  -33502067.2755884     
  -33693800.8342854     
  -33926774.6181618     
SCALARS 2waySource double 
LOOKUP_TABLE default
  0.000000000000000E+000
  0.000000000000000E+000
  0.000000000000000E+000
  0.000000000000000E+000
  0.000000000000000E+000
  0.000000000000000E+000
  0.000000000000000E+000
  0.000000000000000E+000
  0.000000000000000E+000
  0.000000000000000E+000
  0.000000000000000E+000
  0.000000000000000E+000
  0.000000000000000E+000
  0.000000000000000E+000
  0.000000000000000E+000
  0.000000000000000E+000
  0.000000000000000E+000
  0.000000000000000E+000
  0.000000000000000E+000
  0.000000000000000E+000
  0.000000000000000E+000
  0.000000000000000E+000
  0.000000000000000E+000
  0.000000000000000E+000
  0.000000000000000E+000
  0.000000000000000E+000
  0.000000000000000E+000
  0.000000000000000E+000
  0.000000000000000E+000
  0.000000000000000E+000
  0.000000000000000E+000
  0.000000000000000E+000
  0.000000000000000E+000
  0.000000000000000E+000
  0.000000000000000E+000
  0.000000000000000E+000
  0.000000000000000E+000
  0.000000000000000E+000
  0.000000000000000E+000
  0.000000000000000E+000
  0.000000000000000E+000
  0.000000000000000E+000
  0.000000000000000E+000
  0.000000000000000E+000
  0.000000000000000E+000
  0.000000000000000E+000
  0.000000000000000E+000
  0.000000000000000E+000
  0.000000000000000E+000
  0.000000000000000E+000
  0.000000000000000E+000
  0.000000000000000E+000
  0.000000000000000E+000
  0.000000000000000E+000
  0.000000000000000E+000
  0.000000000000000E+000
  0.000000000000000E+000
  0.000000000000000E+000
  0.000000000000000E+000
  0.000000000000000E+000
  0.000000000000000E+000
  0.000000000000000E+000
  0.000000000000000E+000
  0.000000000000000E+000
  0.000000000000000E+000
  0.000000000000000E+000
  0.000000000000000E+000
  0.000000000000000E+000
  0.000000000000000E+000
  0.000000000000000E+000
  0.000000000000000E+000
  0.000000000000000E+000
  0.000000000000000E+000
  0.000000000000000E+000
  0.000000000000000E+000
  0.000000000000000E+000
  0.000000000000000E+000
  0.000000000000000E+000
  0.000000000000000E+000
  0.000000000000000E+000
  0.000000000000000E+000
  0.000000000000000E+000
  0.000000000000000E+000
  0.000000000000000E+000
  0.000000000000000E+000
  0.000000000000000E+000
  0.000000000000000E+000
  0.000000000000000E+000
  0.000000000000000E+000
  0.000000000000000E+000
  0.000000000000000E+000
  0.000000000000000E+000
  0.000000000000000E+000
  0.000000000000000E+000
  0.000000000000000E+000
  0.000000000000000E+000
  0.000000000000000E+000
  0.000000000000000E+000
  0.000000000000000E+000
  0.000000000000000E+000
  0.000000000000000E+000
  0.000000000000000E+000
  0.000000000000000E+000
  0.000000000000000E+000
  0.000000000000000E+000
  0.000000000000000E+000
  0.000000000000000E+000
  0.000000000000000E+000
  0.000000000000000E+000
  0.000000000000000E+000
  0.000000000000000E+000
  0.000000000000000E+000
  0.000000000000000E+000
  0.000000000000000E+000
  0.000000000000000E+000
  0.000000000000000E+000
  0.000000000000000E+000
  0.000000000000000E+000
  0.000000000000000E+000
  0.000000000000000E+000
  0.000000000000000E+000
  0.000000000000000E+000
  0.000000000000000E+000
  0.000000000000000E+000
  0.000000000000000E+000
  0.000000000000000E+000
  0.000000000000000E+000
  0.000000000000000E+000
  0.000000000000000E+000
  0.000000000000000E+000
  0.000000000000000E+000
  0.000000000000000E+000
  0.000000000000000E+000
  0.000000000000000E+000
  0.000000000000000E+000
  0.000000000000000E+000
  0.000000000000000E+000
  0.000000000000000E+000
  0.000000000000000E+000
  0.000000000000000E+000
  0.000000000000000E+000
  0.000000000000000E+000
  0.000000000000000E+000
  0.000000000000000E+000
  0.000000000000000E+000
  0.000000000000000E+000
  0.000000000000000E+000
  0.000000000000000E+000
  0.000000000000000E+000
  0.000000000000000E+000
  0.000000000000000E+000
  0.000000000000000E+000
  0.000000000000000E+000
  0.000000000000000E+000
  0.000000000000000E+000
  0.000000000000000E+000
  0.000000000000000E+000
  0.000000000000000E+000
  0.000000000000000E+000
  0.000000000000000E+000
  0.000000000000000E+000
  0.000000000000000E+000
  0.000000000000000E+000
  0.000000000000000E+000
  0.000000000000000E+000
  0.000000000000000E+000
  0.000000000000000E+000
  0.000000000000000E+000
  0.000000000000000E+000
  0.000000000000000E+000
  0.000000000000000E+000
  0.000000000000000E+000
  0.000000000000000E+000
  0.000000000000000E+000
  0.000000000000000E+000
  0.000000000000000E+000
  0.000000000000000E+000
  0.000000000000000E+000
  0.000000000000000E+000
  0.000000000000000E+000
  0.000000000000000E+000
  0.000000000000000E+000
  0.000000000000000E+000
  0.000000000000000E+000
  0.000000000000000E+000
  0.000000000000000E+000
  0.000000000000000E+000
  0.000000000000000E+000
  0.000000000000000E+000
  0.000000000000000E+000
  0.000000000000000E+000
  0.000000000000000E+000
  0.000000000000000E+000
  0.000000000000000E+000
  0.000000000000000E+000
  0.000000000000000E+000
  0.000000000000000E+000
  0.000000000000000E+000
  0.000000000000000E+000
  0.000000000000000E+000
  0.000000000000000E+000
  0.000000000000000E+000
  0.000000000000000E+000
  0.000000000000000E+000
  0.000000000000000E+000
  0.000000000000000E+000
  0.000000000000000E+000
  0.000000000000000E+000
  0.000000000000000E+000
  0.000000000000000E+000
  0.000000000000000E+000
  0.000000000000000E+000
  0.000000000000000E+000
  0.000000000000000E+000
  0.000000000000000E+000
  0.000000000000000E+000
  0.000000000000000E+000
  0.000000000000000E+000
  0.000000000000000E+000
  0.000000000000000E+000
  0.000000000000000E+000
  0.000000000000000E+000
  0.000000000000000E+000
  0.000000000000000E+000
  0.000000000000000E+000
  0.000000000000000E+000
  0.000000000000000E+000
  0.000000000000000E+000
  0.000000000000000E+000
  0.000000000000000E+000
  0.000000000000000E+000
  0.000000000000000E+000
  0.000000000000000E+000
  0.000000000000000E+000
  0.000000000000000E+000
  0.000000000000000E+000
  0.000000000000000E+000
  0.000000000000000E+000
  0.000000000000000E+000
  0.000000000000000E+000
  0.000000000000000E+000
  0.000000000000000E+000
  0.000000000000000E+000
  0.000000000000000E+000
  0.000000000000000E+000
  0.000000000000000E+000
  0.000000000000000E+000
  0.000000000000000E+000
  0.000000000000000E+000
  0.000000000000000E+000
  0.000000000000000E+000
  0.000000000000000E+000
  0.000000000000000E+000
  0.000000000000000E+000
  0.000000000000000E+000
  0.000000000000000E+000
  0.000000000000000E+000
  0.000000000000000E+000
  0.000000000000000E+000
  0.000000000000000E+000
  0.000000000000000E+000
  0.000000000000000E+000
  0.000000000000000E+000
  0.000000000000000E+000
  0.000000000000000E+000
  0.000000000000000E+000
  0.000000000000000E+000
  0.000000000000000E+000
  0.000000000000000E+000
  0.000000000000000E+000
  0.000000000000000E+000
  0.000000000000000E+000
  0.000000000000000E+000
  0.000000000000000E+000
  0.000000000000000E+000
  0.000000000000000E+000
  0.000000000000000E+000
  0.000000000000000E+000
  0.000000000000000E+000
  0.000000000000000E+000
  0.000000000000000E+000
  0.000000000000000E+000
  0.000000000000000E+000
  0.000000000000000E+000
  0.000000000000000E+000
  0.000000000000000E+000
  0.000000000000000E+000
  0.000000000000000E+000
  0.000000000000000E+000
  0.000000000000000E+000
  0.000000000000000E+000
  0.000000000000000E+000
  0.000000000000000E+000
  0.000000000000000E+000
  0.000000000000000E+000
  0.000000000000000E+000
  0.000000000000000E+000
  0.000000000000000E+000
  0.000000000000000E+000
  0.000000000000000E+000
  0.000000000000000E+000
  0.000000000000000E+000
  0.000000000000000E+000
  0.000000000000000E+000
  0.000000000000000E+000
  0.000000000000000E+000
  0.000000000000000E+000
  0.000000000000000E+000
  0.000000000000000E+000
  0.000000000000000E+000
  0.000000000000000E+000
  0.000000000000000E+000
  0.000000000000000E+000
  0.000000000000000E+000
  0.000000000000000E+000
  0.000000000000000E+000
  0.000000000000000E+000
  0.000000000000000E+000
  0.000000000000000E+000
  0.000000000000000E+000
  0.000000000000000E+000
  0.000000000000000E+000
  0.000000000000000E+000
  0.000000000000000E+000
  0.000000000000000E+000
  0.000000000000000E+000
  0.000000000000000E+000
  0.000000000000000E+000
  0.000000000000000E+000
  0.000000000000000E+000
  0.000000000000000E+000
  0.000000000000000E+000
  0.000000000000000E+000
  0.000000000000000E+000
  0.000000000000000E+000
  0.000000000000000E+000
  0.000000000000000E+000
  0.000000000000000E+000
  0.000000000000000E+000
  0.000000000000000E+000
  0.000000000000000E+000
  0.000000000000000E+000
  0.000000000000000E+000
  0.000000000000000E+000
  0.000000000000000E+000
  0.000000000000000E+000
  0.000000000000000E+000
  0.000000000000000E+000
  0.000000000000000E+000
  0.000000000000000E+000
  0.000000000000000E+000
  0.000000000000000E+000
  0.000000000000000E+000
  0.000000000000000E+000
  0.000000000000000E+000
  0.000000000000000E+000
  0.000000000000000E+000
  0.000000000000000E+000
  0.000000000000000E+000
  0.000000000000000E+000
  0.000000000000000E+000
  0.000000000000000E+000
  0.000000000000000E+000
  0.000000000000000E+000
  0.000000000000000E+000
  0.000000000000000E+000
  0.000000000000000E+000
  0.000000000000000E+000
  0.000000000000000E+000
  0.000000000000000E+000
  0.000000000000000E+000
  0.000000000000000E+000
  0.000000000000000E+000
  0.000000000000000E+000
  0.000000000000000E+000
  0.000000000000000E+000
  0.000000000000000E+000
  0.000000000000000E+000
  0.000000000000000E+000
  0.000000000000000E+000
  0.000000000000000E+000
  0.000000000000000E+000
  0.000000000000000E+000
  0.000000000000000E+000
  0.000000000000000E+000
  0.000000000000000E+000
  0.000000000000000E+000
  0.000000000000000E+000
  0.000000000000000E+000
  0.000000000000000E+000
  0.000000000000000E+000
  0.000000000000000E+000
  0.000000000000000E+000
  0.000000000000000E+000
  0.000000000000000E+000
  0.000000000000000E+000
  0.000000000000000E+000
  0.000000000000000E+000
  0.000000000000000E+000
  0.000000000000000E+000
  0.000000000000000E+000
  0.000000000000000E+000
  0.000000000000000E+000
  0.000000000000000E+000
  0.000000000000000E+000
  0.000000000000000E+000
  0.000000000000000E+000
  0.000000000000000E+000
  0.000000000000000E+000
  0.000000000000000E+000
  0.000000000000000E+000
  0.000000000000000E+000
  0.000000000000000E+000
  0.000000000000000E+000
  0.000000000000000E+000
  0.000000000000000E+000
  0.000000000000000E+000
  0.000000000000000E+000
  0.000000000000000E+000
  0.000000000000000E+000
  0.000000000000000E+000
  0.000000000000000E+000
  0.000000000000000E+000
  0.000000000000000E+000
  0.000000000000000E+000
  0.000000000000000E+000
  0.000000000000000E+000
  0.000000000000000E+000
  0.000000000000000E+000
  0.000000000000000E+000
  0.000000000000000E+000
  0.000000000000000E+000
  0.000000000000000E+000
  0.000000000000000E+000
  0.000000000000000E+000
  0.000000000000000E+000
  0.000000000000000E+000
  0.000000000000000E+000
  0.000000000000000E+000
  0.000000000000000E+000
  0.000000000000000E+000
  0.000000000000000E+000
  0.000000000000000E+000
  0.000000000000000E+000
  0.000000000000000E+000
  0.000000000000000E+000
  0.000000000000000E+000
  0.000000000000000E+000
  0.000000000000000E+000
  0.000000000000000E+000
  0.000000000000000E+000
  0.000000000000000E+000
  0.000000000000000E+000
  0.000000000000000E+000
  0.000000000000000E+000
  0.000000000000000E+000
  0.000000000000000E+000
  0.000000000000000E+000
  0.000000000000000E+000
  0.000000000000000E+000
  0.000000000000000E+000
  0.000000000000000E+000
  0.000000000000000E+000
  0.000000000000000E+000
  0.000000000000000E+000
  0.000000000000000E+000
  0.000000000000000E+000
  0.000000000000000E+000
  0.000000000000000E+000
  0.000000000000000E+000
  0.000000000000000E+000
  0.000000000000000E+000
  0.000000000000000E+000
  0.000000000000000E+000
  0.000000000000000E+000
  0.000000000000000E+000
  0.000000000000000E+000
  0.000000000000000E+000
  0.000000000000000E+000
  0.000000000000000E+000
  0.000000000000000E+000
  0.000000000000000E+000
  0.000000000000000E+000
  0.000000000000000E+000
  0.000000000000000E+000
  0.000000000000000E+000
  0.000000000000000E+000
  0.000000000000000E+000
  0.000000000000000E+000
  0.000000000000000E+000
  0.000000000000000E+000
  0.000000000000000E+000
  0.000000000000000E+000
  0.000000000000000E+000
  0.000000000000000E+000
  0.000000000000000E+000
  0.000000000000000E+000
  0.000000000000000E+000
  0.000000000000000E+000
  0.000000000000000E+000
  0.000000000000000E+000
  0.000000000000000E+000
  0.000000000000000E+000
  0.000000000000000E+000
  0.000000000000000E+000
  0.000000000000000E+000
  0.000000000000000E+000
  0.000000000000000E+000
  0.000000000000000E+000
  0.000000000000000E+000
  0.000000000000000E+000
  0.000000000000000E+000
  0.000000000000000E+000
  0.000000000000000E+000
  0.000000000000000E+000
  0.000000000000000E+000
  0.000000000000000E+000
  0.000000000000000E+000
  0.000000000000000E+000
  0.000000000000000E+000
  0.000000000000000E+000
  0.000000000000000E+000
  0.000000000000000E+000
  0.000000000000000E+000
  0.000000000000000E+000
  0.000000000000000E+000
  0.000000000000000E+000
  0.000000000000000E+000
  0.000000000000000E+000
  0.000000000000000E+000
  0.000000000000000E+000
  0.000000000000000E+000
  0.000000000000000E+000
  0.000000000000000E+000
  0.000000000000000E+000
  0.000000000000000E+000
  0.000000000000000E+000
  0.000000000000000E+000
  0.000000000000000E+000
  0.000000000000000E+000
  0.000000000000000E+000
  0.000000000000000E+000
  0.000000000000000E+000
  0.000000000000000E+000
  0.000000000000000E+000
  0.000000000000000E+000
  0.000000000000000E+000
  0.000000000000000E+000
  0.000000000000000E+000
  0.000000000000000E+000
  0.000000000000000E+000
  0.000000000000000E+000
  0.000000000000000E+000
  0.000000000000000E+000
  0.000000000000000E+000
  0.000000000000000E+000
  0.000000000000000E+000
  0.000000000000000E+000
  0.000000000000000E+000
  0.000000000000000E+000
  0.000000000000000E+000
  0.000000000000000E+000
  0.000000000000000E+000
  0.000000000000000E+000
  0.000000000000000E+000
  0.000000000000000E+000
  0.000000000000000E+000
  0.000000000000000E+000
  0.000000000000000E+000
  0.000000000000000E+000
  0.000000000000000E+000
  0.000000000000000E+000
  0.000000000000000E+000
  0.000000000000000E+000
  0.000000000000000E+000
  0.000000000000000E+000
  0.000000000000000E+000
  0.000000000000000E+000
  0.000000000000000E+000
  0.000000000000000E+000
  0.000000000000000E+000
  0.000000000000000E+000
  0.000000000000000E+000
  0.000000000000000E+000
  0.000000000000000E+000
  0.000000000000000E+000
  0.000000000000000E+000
  0.000000000000000E+000
  0.000000000000000E+000
  0.000000000000000E+000
  0.000000000000000E+000
  0.000000000000000E+000
  0.000000000000000E+000
  0.000000000000000E+000
  0.000000000000000E+000
  0.000000000000000E+000
  0.000000000000000E+000
  0.000000000000000E+000
  0.000000000000000E+000
  0.000000000000000E+000
  0.000000000000000E+000
  0.000000000000000E+000
  0.000000000000000E+000
  0.000000000000000E+000
  0.000000000000000E+000
  0.000000000000000E+000
  0.000000000000000E+000
  0.000000000000000E+000
  0.000000000000000E+000
  0.000000000000000E+000
  0.000000000000000E+000
  0.000000000000000E+000
  0.000000000000000E+000
  0.000000000000000E+000
  0.000000000000000E+000
  0.000000000000000E+000
  0.000000000000000E+000
  0.000000000000000E+000
  0.000000000000000E+000
  0.000000000000000E+000
  0.000000000000000E+000
  0.000000000000000E+000
  0.000000000000000E+000
  0.000000000000000E+000
  0.000000000000000E+000
  0.000000000000000E+000
  0.000000000000000E+000
  0.000000000000000E+000
  0.000000000000000E+000
  0.000000000000000E+000
  0.000000000000000E+000
  0.000000000000000E+000
  0.000000000000000E+000
  0.000000000000000E+000
  0.000000000000000E+000
  0.000000000000000E+000
  0.000000000000000E+000
  0.000000000000000E+000
  0.000000000000000E+000
  0.000000000000000E+000
  0.000000000000000E+000
  0.000000000000000E+000
  0.000000000000000E+000
  0.000000000000000E+000
  0.000000000000000E+000
  0.000000000000000E+000
  0.000000000000000E+000
  0.000000000000000E+000
  0.000000000000000E+000
  0.000000000000000E+000
  0.000000000000000E+000
  0.000000000000000E+000
  0.000000000000000E+000
  0.000000000000000E+000
  0.000000000000000E+000
  0.000000000000000E+000
  0.000000000000000E+000
  0.000000000000000E+000
  0.000000000000000E+000
  0.000000000000000E+000
  0.000000000000000E+000
  0.000000000000000E+000
  0.000000000000000E+000
  0.000000000000000E+000
  0.000000000000000E+000
  0.000000000000000E+000
  0.000000000000000E+000
  0.000000000000000E+000
  0.000000000000000E+000
  0.000000000000000E+000
  0.000000000000000E+000
  0.000000000000000E+000
  0.000000000000000E+000
  0.000000000000000E+000
  0.000000000000000E+000
  0.000000000000000E+000
  0.000000000000000E+000
  0.000000000000000E+000
  0.000000000000000E+000
  0.000000000000000E+000
  0.000000000000000E+000
  0.000000000000000E+000
  0.000000000000000E+000
  0.000000000000000E+000
  0.000000000000000E+000
  0.000000000000000E+000
  0.000000000000000E+000
  0.000000000000000E+000
  0.000000000000000E+000
  0.000000000000000E+000
  0.000000000000000E+000
  0.000000000000000E+000
  0.000000000000000E+000
  0.000000000000000E+000
  0.000000000000000E+000
  0.000000000000000E+000
  0.000000000000000E+000
  0.000000000000000E+000
  0.000000000000000E+000
  0.000000000000000E+000
  0.000000000000000E+000
  0.000000000000000E+000
  0.000000000000000E+000
  0.000000000000000E+000
  0.000000000000000E+000
  0.000000000000000E+000
  0.000000000000000E+000
  0.000000000000000E+000
  0.000000000000000E+000
  0.000000000000000E+000
  0.000000000000000E+000
  0.000000000000000E+000
  0.000000000000000E+000
  0.000000000000000E+000
  0.000000000000000E+000
  0.000000000000000E+000
  0.000000000000000E+000
  0.000000000000000E+000
  0.000000000000000E+000
  0.000000000000000E+000
  0.000000000000000E+000
  0.000000000000000E+000
  0.000000000000000E+000
  0.000000000000000E+000
  0.000000000000000E+000
  0.000000000000000E+000
  0.000000000000000E+000
  0.000000000000000E+000
  0.000000000000000E+000
  0.000000000000000E+000
  0.000000000000000E+000
  0.000000000000000E+000
  0.000000000000000E+000
  0.000000000000000E+000
  0.000000000000000E+000
  0.000000000000000E+000
  0.000000000000000E+000
  0.000000000000000E+000
  0.000000000000000E+000
  0.000000000000000E+000
  0.000000000000000E+000
  0.000000000000000E+000
  0.000000000000000E+000
  0.000000000000000E+000
  0.000000000000000E+000
  0.000000000000000E+000
  0.000000000000000E+000
  0.000000000000000E+000
  0.000000000000000E+000
  0.000000000000000E+000
  0.000000000000000E+000
  0.000000000000000E+000
  0.000000000000000E+000
  0.000000000000000E+000
  0.000000000000000E+000
  0.000000000000000E+000
  0.000000000000000E+000
  0.000000000000000E+000
  0.000000000000000E+000
  0.000000000000000E+000
  0.000000000000000E+000
  0.000000000000000E+000
  0.000000000000000E+000
  0.000000000000000E+000
  0.000000000000000E+000
  0.000000000000000E+000
  0.000000000000000E+000
  0.000000000000000E+000
  0.000000000000000E+000
  0.000000000000000E+000
  0.000000000000000E+000
  0.000000000000000E+000
  0.000000000000000E+000
  0.000000000000000E+000
  0.000000000000000E+000
  0.000000000000000E+000
  0.000000000000000E+000
  0.000000000000000E+000
  0.000000000000000E+000
  0.000000000000000E+000
  0.000000000000000E+000
  0.000000000000000E+000
  0.000000000000000E+000
  0.000000000000000E+000
  0.000000000000000E+000
  0.000000000000000E+000
  0.000000000000000E+000
  0.000000000000000E+000
  0.000000000000000E+000
  0.000000000000000E+000
  0.000000000000000E+000
  0.000000000000000E+000
  0.000000000000000E+000
  0.000000000000000E+000
  0.000000000000000E+000
  0.000000000000000E+000
  0.000000000000000E+000
  0.000000000000000E+000
  0.000000000000000E+000
  0.000000000000000E+000
  0.000000000000000E+000
  0.000000000000000E+000
  0.000000000000000E+000
  0.000000000000000E+000
  0.000000000000000E+000
  0.000000000000000E+000
  0.000000000000000E+000
  0.000000000000000E+000
  0.000000000000000E+000
  0.000000000000000E+000
  0.000000000000000E+000
  0.000000000000000E+000
  0.000000000000000E+000
  0.000000000000000E+000
  0.000000000000000E+000
  0.000000000000000E+000
  0.000000000000000E+000
  0.000000000000000E+000
  0.000000000000000E+000
  0.000000000000000E+000
  0.000000000000000E+000
  0.000000000000000E+000
  0.000000000000000E+000
  0.000000000000000E+000
  0.000000000000000E+000
  0.000000000000000E+000
  0.000000000000000E+000
  0.000000000000000E+000
  0.000000000000000E+000
  0.000000000000000E+000
  0.000000000000000E+000
  0.000000000000000E+000
  0.000000000000000E+000
  0.000000000000000E+000
  0.000000000000000E+000
  0.000000000000000E+000
  0.000000000000000E+000
  0.000000000000000E+000
  0.000000000000000E+000
  0.000000000000000E+000
  0.000000000000000E+000
  0.000000000000000E+000
  0.000000000000000E+000
  0.000000000000000E+000
  0.000000000000000E+000
  0.000000000000000E+000
  0.000000000000000E+000
  0.000000000000000E+000
  0.000000000000000E+000
  0.000000000000000E+000
  0.000000000000000E+000
  0.000000000000000E+000
  0.000000000000000E+000
  0.000000000000000E+000
  0.000000000000000E+000
  0.000000000000000E+000
  0.000000000000000E+000
  0.000000000000000E+000
  0.000000000000000E+000
  0.000000000000000E+000
  0.000000000000000E+000
  0.000000000000000E+000
  0.000000000000000E+000
  0.000000000000000E+000
  0.000000000000000E+000
  0.000000000000000E+000
  0.000000000000000E+000
  0.000000000000000E+000
  0.000000000000000E+000
  0.000000000000000E+000
  0.000000000000000E+000
  0.000000000000000E+000
  0.000000000000000E+000
  0.000000000000000E+000
  0.000000000000000E+000
  0.000000000000000E+000
  0.000000000000000E+000
  0.000000000000000E+000
  0.000000000000000E+000
  0.000000000000000E+000
  0.000000000000000E+000
  0.000000000000000E+000
  0.000000000000000E+000
  0.000000000000000E+000
  0.000000000000000E+000
  0.000000000000000E+000
  0.000000000000000E+000
  0.000000000000000E+000
  0.000000000000000E+000
  0.000000000000000E+000
  0.000000000000000E+000
  0.000000000000000E+000
  0.000000000000000E+000
  0.000000000000000E+000
  0.000000000000000E+000
  0.000000000000000E+000
  0.000000000000000E+000
  0.000000000000000E+000
  0.000000000000000E+000
  0.000000000000000E+000
  0.000000000000000E+000
  0.000000000000000E+000
  0.000000000000000E+000
  0.000000000000000E+000
  0.000000000000000E+000
  0.000000000000000E+000
  0.000000000000000E+000
  0.000000000000000E+000
  0.000000000000000E+000
  0.000000000000000E+000
  0.000000000000000E+000
  0.000000000000000E+000
  0.000000000000000E+000
  0.000000000000000E+000
  0.000000000000000E+000
  0.000000000000000E+000
  0.000000000000000E+000
  0.000000000000000E+000
  0.000000000000000E+000
  0.000000000000000E+000
  0.000000000000000E+000
  0.000000000000000E+000
  0.000000000000000E+000
  0.000000000000000E+000
  0.000000000000000E+000
  0.000000000000000E+000
  0.000000000000000E+000
  0.000000000000000E+000
  0.000000000000000E+000
  0.000000000000000E+000
  0.000000000000000E+000
  0.000000000000000E+000
  0.000000000000000E+000
  0.000000000000000E+000
  0.000000000000000E+000
  0.000000000000000E+000
  0.000000000000000E+000
  0.000000000000000E+000
  0.000000000000000E+000
  0.000000000000000E+000
  0.000000000000000E+000
  0.000000000000000E+000
  0.000000000000000E+000
  0.000000000000000E+000
  0.000000000000000E+000
  0.000000000000000E+000
  0.000000000000000E+000
  0.000000000000000E+000
  0.000000000000000E+000
  0.000000000000000E+000
  0.000000000000000E+000
  0.000000000000000E+000
  0.000000000000000E+000
  0.000000000000000E+000
  0.000000000000000E+000
  0.000000000000000E+000
  0.000000000000000E+000
  0.000000000000000E+000
  0.000000000000000E+000
  0.000000000000000E+000
  0.000000000000000E+000
  0.000000000000000E+000
  0.000000000000000E+000
  0.000000000000000E+000
  0.000000000000000E+000
  0.000000000000000E+000
  0.000000000000000E+000
  0.000000000000000E+000
  0.000000000000000E+000
  0.000000000000000E+000
  0.000000000000000E+000
  0.000000000000000E+000
  0.000000000000000E+000
  0.000000000000000E+000
  0.000000000000000E+000
  0.000000000000000E+000
  0.000000000000000E+000
  0.000000000000000E+000
  0.000000000000000E+000
  0.000000000000000E+000
  0.000000000000000E+000
  0.000000000000000E+000
  0.000000000000000E+000
  0.000000000000000E+000
  0.000000000000000E+000
  0.000000000000000E+000
  0.000000000000000E+000
  0.000000000000000E+000
  0.000000000000000E+000
  0.000000000000000E+000
  0.000000000000000E+000
  0.000000000000000E+000
  0.000000000000000E+000
  0.000000000000000E+000
  0.000000000000000E+000
  0.000000000000000E+000
  0.000000000000000E+000
  0.000000000000000E+000
  0.000000000000000E+000
  0.000000000000000E+000
  0.000000000000000E+000
  0.000000000000000E+000
  0.000000000000000E+000
  0.000000000000000E+000
  0.000000000000000E+000
  0.000000000000000E+000
  0.000000000000000E+000
  0.000000000000000E+000
  0.000000000000000E+000
  0.000000000000000E+000
  0.000000000000000E+000
  0.000000000000000E+000
  0.000000000000000E+000
  0.000000000000000E+000
  0.000000000000000E+000
  0.000000000000000E+000
  0.000000000000000E+000
  0.000000000000000E+000
  0.000000000000000E+000
  0.000000000000000E+000
  0.000000000000000E+000
  0.000000000000000E+000
  0.000000000000000E+000
  0.000000000000000E+000
  0.000000000000000E+000
  0.000000000000000E+000
  0.000000000000000E+000
  0.000000000000000E+000
  0.000000000000000E+000
  0.000000000000000E+000
  0.000000000000000E+000
  0.000000000000000E+000
  0.000000000000000E+000
  0.000000000000000E+000
  0.000000000000000E+000
  0.000000000000000E+000
  0.000000000000000E+000
  0.000000000000000E+000
  0.000000000000000E+000
  0.000000000000000E+000
  0.000000000000000E+000
  0.000000000000000E+000
  0.000000000000000E+000
  0.000000000000000E+000
  0.000000000000000E+000
  0.000000000000000E+000
  0.000000000000000E+000
  0.000000000000000E+000
  0.000000000000000E+000
  0.000000000000000E+000
  0.000000000000000E+000
  0.000000000000000E+000
  0.000000000000000E+000
  0.000000000000000E+000
  0.000000000000000E+000
  0.000000000000000E+000
  0.000000000000000E+000
  0.000000000000000E+000
  0.000000000000000E+000
  0.000000000000000E+000
  0.000000000000000E+000
  0.000000000000000E+000
  0.000000000000000E+000
  0.000000000000000E+000
  0.000000000000000E+000
  0.000000000000000E+000
  0.000000000000000E+000
  0.000000000000000E+000
  0.000000000000000E+000
  0.000000000000000E+000
  0.000000000000000E+000
  0.000000000000000E+000
  0.000000000000000E+000
  0.000000000000000E+000
  0.000000000000000E+000
  0.000000000000000E+000
  0.000000000000000E+000
  0.000000000000000E+000
  0.000000000000000E+000
  0.000000000000000E+000
  0.000000000000000E+000
  0.000000000000000E+000
  0.000000000000000E+000
  0.000000000000000E+000
  0.000000000000000E+000
  0.000000000000000E+000
  0.000000000000000E+000
  0.000000000000000E+000
  0.000000000000000E+000
  0.000000000000000E+000
  0.000000000000000E+000
  0.000000000000000E+000
  0.000000000000000E+000
  0.000000000000000E+000
  0.000000000000000E+000
  0.000000000000000E+000
  0.000000000000000E+000
  0.000000000000000E+000
  0.000000000000000E+000
  0.000000000000000E+000
  0.000000000000000E+000
  0.000000000000000E+000
  0.000000000000000E+000
  0.000000000000000E+000
  0.000000000000000E+000
  0.000000000000000E+000
  0.000000000000000E+000
  0.000000000000000E+000
  0.000000000000000E+000
  0.000000000000000E+000
  0.000000000000000E+000
  0.000000000000000E+000
  0.000000000000000E+000
  0.000000000000000E+000
  0.000000000000000E+000
  0.000000000000000E+000
  0.000000000000000E+000
  0.000000000000000E+000
  0.000000000000000E+000
  0.000000000000000E+000
  0.000000000000000E+000
  0.000000000000000E+000
  0.000000000000000E+000
  0.000000000000000E+000
  0.000000000000000E+000
  0.000000000000000E+000
  0.000000000000000E+000
  0.000000000000000E+000
  0.000000000000000E+000
  0.000000000000000E+000
  0.000000000000000E+000
  0.000000000000000E+000
  0.000000000000000E+000
  0.000000000000000E+000
  0.000000000000000E+000
  0.000000000000000E+000
  0.000000000000000E+000
  0.000000000000000E+000
  0.000000000000000E+000
  0.000000000000000E+000
  0.000000000000000E+000
  0.000000000000000E+000
  0.000000000000000E+000
  0.000000000000000E+000
  0.000000000000000E+000
  0.000000000000000E+000
  0.000000000000000E+000
  0.000000000000000E+000
  0.000000000000000E+000
  0.000000000000000E+000
  0.000000000000000E+000
  0.000000000000000E+000
  0.000000000000000E+000
  0.000000000000000E+000
  0.000000000000000E+000
  0.000000000000000E+000
  0.000000000000000E+000
  0.000000000000000E+000
  0.000000000000000E+000
  0.000000000000000E+000
  0.000000000000000E+000
  0.000000000000000E+000
  0.000000000000000E+000
  0.000000000000000E+000
  0.000000000000000E+000
  0.000000000000000E+000
  0.000000000000000E+000
  0.000000000000000E+000
  0.000000000000000E+000
  0.000000000000000E+000
  0.000000000000000E+000
  0.000000000000000E+000
  0.000000000000000E+000
  0.000000000000000E+000
  0.000000000000000E+000
  0.000000000000000E+000
  0.000000000000000E+000
  0.000000000000000E+000
  0.000000000000000E+000
  0.000000000000000E+000
  0.000000000000000E+000
  0.000000000000000E+000
  0.000000000000000E+000
  0.000000000000000E+000
  0.000000000000000E+000
  0.000000000000000E+000
  0.000000000000000E+000
  0.000000000000000E+000
  0.000000000000000E+000
  0.000000000000000E+000
  0.000000000000000E+000
  0.000000000000000E+000
  0.000000000000000E+000
  0.000000000000000E+000
  0.000000000000000E+000
  0.000000000000000E+000
  0.000000000000000E+000
  0.000000000000000E+000
  0.000000000000000E+000
  0.000000000000000E+000
  0.000000000000000E+000
  0.000000000000000E+000
  0.000000000000000E+000
  0.000000000000000E+000
  0.000000000000000E+000
  0.000000000000000E+000
  0.000000000000000E+000
  0.000000000000000E+000
  0.000000000000000E+000
  0.000000000000000E+000
  0.000000000000000E+000
  0.000000000000000E+000
  0.000000000000000E+000
  0.000000000000000E+000
  0.000000000000000E+000
  0.000000000000000E+000
  0.000000000000000E+000
  0.000000000000000E+000
  0.000000000000000E+000
  0.000000000000000E+000
  0.000000000000000E+000
  0.000000000000000E+000
  0.000000000000000E+000
  0.000000000000000E+000
  0.000000000000000E+000
  0.000000000000000E+000
  0.000000000000000E+000
  0.000000000000000E+000
  0.000000000000000E+000
  0.000000000000000E+000
  0.000000000000000E+000
  0.000000000000000E+000
  0.000000000000000E+000
  0.000000000000000E+000
  0.000000000000000E+000
  0.000000000000000E+000
  0.000000000000000E+000
  0.000000000000000E+000
  0.000000000000000E+000
  0.000000000000000E+000
  0.000000000000000E+000
  0.000000000000000E+000
  0.000000000000000E+000
  0.000000000000000E+000
  0.000000000000000E+000
  0.000000000000000E+000
  0.000000000000000E+000
  0.000000000000000E+000
  0.000000000000000E+000
  0.000000000000000E+000
  0.000000000000000E+000
  0.000000000000000E+000
  0.000000000000000E+000
  0.000000000000000E+000
  0.000000000000000E+000
  0.000000000000000E+000
  0.000000000000000E+000
  0.000000000000000E+000
  0.000000000000000E+000
  0.000000000000000E+000
  0.000000000000000E+000
  0.000000000000000E+000
  0.000000000000000E+000
  0.000000000000000E+000
  0.000000000000000E+000
  0.000000000000000E+000
  0.000000000000000E+000
  0.000000000000000E+000
  0.000000000000000E+000
  0.000000000000000E+000
  0.000000000000000E+000
  0.000000000000000E+000
  0.000000000000000E+000
  0.000000000000000E+000
  0.000000000000000E+000
  0.000000000000000E+000
  0.000000000000000E+000
  0.000000000000000E+000
  0.000000000000000E+000
  0.000000000000000E+000
  0.000000000000000E+000
  0.000000000000000E+000
  0.000000000000000E+000
  0.000000000000000E+000
  0.000000000000000E+000
  0.000000000000000E+000
  0.000000000000000E+000
  0.000000000000000E+000
  0.000000000000000E+000
  0.000000000000000E+000
  0.000000000000000E+000
  0.000000000000000E+000
  0.000000000000000E+000
  0.000000000000000E+000
  0.000000000000000E+000
  0.000000000000000E+000
  0.000000000000000E+000
  0.000000000000000E+000
  0.000000000000000E+000
  0.000000000000000E+000
  0.000000000000000E+000
  0.000000000000000E+000
  0.000000000000000E+000
  0.000000000000000E+000
  0.000000000000000E+000
  0.000000000000000E+000
  0.000000000000000E+000
  0.000000000000000E+000
  0.000000000000000E+000
  0.000000000000000E+000
  0.000000000000000E+000
  0.000000000000000E+000
  0.000000000000000E+000
  0.000000000000000E+000
  0.000000000000000E+000
  0.000000000000000E+000
  0.000000000000000E+000
  0.000000000000000E+000
  0.000000000000000E+000
  0.000000000000000E+000
  0.000000000000000E+000
  0.000000000000000E+000
  0.000000000000000E+000
  0.000000000000000E+000
  0.000000000000000E+000
  0.000000000000000E+000
  0.000000000000000E+000
  0.000000000000000E+000
  0.000000000000000E+000
  0.000000000000000E+000
  0.000000000000000E+000
  0.000000000000000E+000
  0.000000000000000E+000
  0.000000000000000E+000
  0.000000000000000E+000
  0.000000000000000E+000
  0.000000000000000E+000
  0.000000000000000E+000
  0.000000000000000E+000
  0.000000000000000E+000
  0.000000000000000E+000
  0.000000000000000E+000
  0.000000000000000E+000
  0.000000000000000E+000
  0.000000000000000E+000
  0.000000000000000E+000
  0.000000000000000E+000
  0.000000000000000E+000
  0.000000000000000E+000
  0.000000000000000E+000
  0.000000000000000E+000
  0.000000000000000E+000
  0.000000000000000E+000
  0.000000000000000E+000
  0.000000000000000E+000
  0.000000000000000E+000
  0.000000000000000E+000
  0.000000000000000E+000
  0.000000000000000E+000
  0.000000000000000E+000
  0.000000000000000E+000
  0.000000000000000E+000
  0.000000000000000E+000
  0.000000000000000E+000
  0.000000000000000E+000
  0.000000000000000E+000
  0.000000000000000E+000
  0.000000000000000E+000
  0.000000000000000E+000
  0.000000000000000E+000
  0.000000000000000E+000
  0.000000000000000E+000
  0.000000000000000E+000
  0.000000000000000E+000
  0.000000000000000E+000
  0.000000000000000E+000
  0.000000000000000E+000
  0.000000000000000E+000
  0.000000000000000E+000
  0.000000000000000E+000
  0.000000000000000E+000
  0.000000000000000E+000
  0.000000000000000E+000
  0.000000000000000E+000
  0.000000000000000E+000
  0.000000000000000E+000
  0.000000000000000E+000
  0.000000000000000E+000
  0.000000000000000E+000
  0.000000000000000E+000
  0.000000000000000E+000
  0.000000000000000E+000
  0.000000000000000E+000
  0.000000000000000E+000
  0.000000000000000E+000
  0.000000000000000E+000
  0.000000000000000E+000
  0.000000000000000E+000
  0.000000000000000E+000
  0.000000000000000E+000
  0.000000000000000E+000
  0.000000000000000E+000
  0.000000000000000E+000
  0.000000000000000E+000
  0.000000000000000E+000
  0.000000000000000E+000
  0.000000000000000E+000
  0.000000000000000E+000
  0.000000000000000E+000
  0.000000000000000E+000
  0.000000000000000E+000
  0.000000000000000E+000
  0.000000000000000E+000
  0.000000000000000E+000
  0.000000000000000E+000
  0.000000000000000E+000
  0.000000000000000E+000
  0.000000000000000E+000
  0.000000000000000E+000
  0.000000000000000E+000
  0.000000000000000E+000
  0.000000000000000E+000
  0.000000000000000E+000
  0.000000000000000E+000
  0.000000000000000E+000
  0.000000000000000E+000
  0.000000000000000E+000
  0.000000000000000E+000
  0.000000000000000E+000
  0.000000000000000E+000
  0.000000000000000E+000
  0.000000000000000E+000
  0.000000000000000E+000
  0.000000000000000E+000
  0.000000000000000E+000
  0.000000000000000E+000
  0.000000000000000E+000
  0.000000000000000E+000
  0.000000000000000E+000
  0.000000000000000E+000
  0.000000000000000E+000
  0.000000000000000E+000
  0.000000000000000E+000
  0.000000000000000E+000
  0.000000000000000E+000
  0.000000000000000E+000
  0.000000000000000E+000
  0.000000000000000E+000
  0.000000000000000E+000
  0.000000000000000E+000
  0.000000000000000E+000
  0.000000000000000E+000
  0.000000000000000E+000
  0.000000000000000E+000
  0.000000000000000E+000
  0.000000000000000E+000
  0.000000000000000E+000
  0.000000000000000E+000
  0.000000000000000E+000
  0.000000000000000E+000
  0.000000000000000E+000
  0.000000000000000E+000
  0.000000000000000E+000
  0.000000000000000E+000
  0.000000000000000E+000
  0.000000000000000E+000
  0.000000000000000E+000
  0.000000000000000E+000
  0.000000000000000E+000
  0.000000000000000E+000
  0.000000000000000E+000
  0.000000000000000E+000
  0.000000000000000E+000
  0.000000000000000E+000
  0.000000000000000E+000
  0.000000000000000E+000
  0.000000000000000E+000
  0.000000000000000E+000
  0.000000000000000E+000
  0.000000000000000E+000
  0.000000000000000E+000
  0.000000000000000E+000
  0.000000000000000E+000
  0.000000000000000E+000
  0.000000000000000E+000
  0.000000000000000E+000
  0.000000000000000E+000
  0.000000000000000E+000
  0.000000000000000E+000
  0.000000000000000E+000
  0.000000000000000E+000
  0.000000000000000E+000
  0.000000000000000E+000
  0.000000000000000E+000
  0.000000000000000E+000
  0.000000000000000E+000
  0.000000000000000E+000
  0.000000000000000E+000
  0.000000000000000E+000
  0.000000000000000E+000
  0.000000000000000E+000
  0.000000000000000E+000
  0.000000000000000E+000
  0.000000000000000E+000
  0.000000000000000E+000
  0.000000000000000E+000
  0.000000000000000E+000
  0.000000000000000E+000
  0.000000000000000E+000
  0.000000000000000E+000
  0.000000000000000E+000
  0.000000000000000E+000
  0.000000000000000E+000
  0.000000000000000E+000
  0.000000000000000E+000
  0.000000000000000E+000
  0.000000000000000E+000
  0.000000000000000E+000
  0.000000000000000E+000
  0.000000000000000E+000
  0.000000000000000E+000
  0.000000000000000E+000
  0.000000000000000E+000
  0.000000000000000E+000
  0.000000000000000E+000
  0.000000000000000E+000
  0.000000000000000E+000
  0.000000000000000E+000
  0.000000000000000E+000
  0.000000000000000E+000
  0.000000000000000E+000
  0.000000000000000E+000
  0.000000000000000E+000
  0.000000000000000E+000
  0.000000000000000E+000
  0.000000000000000E+000
  0.000000000000000E+000
  0.000000000000000E+000
  0.000000000000000E+000
  0.000000000000000E+000
  0.000000000000000E+000
  0.000000000000000E+000
  0.000000000000000E+000
  0.000000000000000E+000
  0.000000000000000E+000
  0.000000000000000E+000
  0.000000000000000E+000
  0.000000000000000E+000
  0.000000000000000E+000
  0.000000000000000E+000
  0.000000000000000E+000
  0.000000000000000E+000
  0.000000000000000E+000
  0.000000000000000E+000
  0.000000000000000E+000
  0.000000000000000E+000
  0.000000000000000E+000
  0.000000000000000E+000
  0.000000000000000E+000
  0.000000000000000E+000
  0.000000000000000E+000
  0.000000000000000E+000
  0.000000000000000E+000
  0.000000000000000E+000
  0.000000000000000E+000
  0.000000000000000E+000
  0.000000000000000E+000
  0.000000000000000E+000
  0.000000000000000E+000
  0.000000000000000E+000
  0.000000000000000E+000
  0.000000000000000E+000
  0.000000000000000E+000
  0.000000000000000E+000
  0.000000000000000E+000
  0.000000000000000E+000
  0.000000000000000E+000
  0.000000000000000E+000
  0.000000000000000E+000
  0.000000000000000E+000
  0.000000000000000E+000
  0.000000000000000E+000
  0.000000000000000E+000
  0.000000000000000E+000
  0.000000000000000E+000
  0.000000000000000E+000
  0.000000000000000E+000
  0.000000000000000E+000
  0.000000000000000E+000
  0.000000000000000E+000
  0.000000000000000E+000
  0.000000000000000E+000
  0.000000000000000E+000
  0.000000000000000E+000
  0.000000000000000E+000
  0.000000000000000E+000
  0.000000000000000E+000
  0.000000000000000E+000
  0.000000000000000E+000
  0.000000000000000E+000
  0.000000000000000E+000
  0.000000000000000E+000
  0.000000000000000E+000
  0.000000000000000E+000
  0.000000000000000E+000
  0.000000000000000E+000
  0.000000000000000E+000
  0.000000000000000E+000
  0.000000000000000E+000
  0.000000000000000E+000
  0.000000000000000E+000
  0.000000000000000E+000
  0.000000000000000E+000
  0.000000000000000E+000
  0.000000000000000E+000
  0.000000000000000E+000
  0.000000000000000E+000
  0.000000000000000E+000
  0.000000000000000E+000
  0.000000000000000E+000
  0.000000000000000E+000
  0.000000000000000E+000
  0.000000000000000E+000
  0.000000000000000E+000
  0.000000000000000E+000
  0.000000000000000E+000
  0.000000000000000E+000
  0.000000000000000E+000
  0.000000000000000E+000
  0.000000000000000E+000
  0.000000000000000E+000
  0.000000000000000E+000
  0.000000000000000E+000
  0.000000000000000E+000
  0.000000000000000E+000
  0.000000000000000E+000
  0.000000000000000E+000
  0.000000000000000E+000
  0.000000000000000E+000
  0.000000000000000E+000
  0.000000000000000E+000
  0.000000000000000E+000
  0.000000000000000E+000
  0.000000000000000E+000
  0.000000000000000E+000
  0.000000000000000E+000
  0.000000000000000E+000
  0.000000000000000E+000
  0.000000000000000E+000
  0.000000000000000E+000
  0.000000000000000E+000
  0.000000000000000E+000
  0.000000000000000E+000
  0.000000000000000E+000
  0.000000000000000E+000
  0.000000000000000E+000
  0.000000000000000E+000
  0.000000000000000E+000
  0.000000000000000E+000
  0.000000000000000E+000
  0.000000000000000E+000
  0.000000000000000E+000
  0.000000000000000E+000
  0.000000000000000E+000
  0.000000000000000E+000
  0.000000000000000E+000
  0.000000000000000E+000
  0.000000000000000E+000
  0.000000000000000E+000
  0.000000000000000E+000
  0.000000000000000E+000
  0.000000000000000E+000
  0.000000000000000E+000
  0.000000000000000E+000
  0.000000000000000E+000
  0.000000000000000E+000
  0.000000000000000E+000
  0.000000000000000E+000
  0.000000000000000E+000
  0.000000000000000E+000
  0.000000000000000E+000
  0.000000000000000E+000
  0.000000000000000E+000
  0.000000000000000E+000
  0.000000000000000E+000
  0.000000000000000E+000
  0.000000000000000E+000
  0.000000000000000E+000
  0.000000000000000E+000
  0.000000000000000E+000
  0.000000000000000E+000
  0.000000000000000E+000
  0.000000000000000E+000
  0.000000000000000E+000
  0.000000000000000E+000
  0.000000000000000E+000
  0.000000000000000E+000
  0.000000000000000E+000
  0.000000000000000E+000
  0.000000000000000E+000
  0.000000000000000E+000
  0.000000000000000E+000
  0.000000000000000E+000
  0.000000000000000E+000
  0.000000000000000E+000
  0.000000000000000E+000
  0.000000000000000E+000
  0.000000000000000E+000
  0.000000000000000E+000
  0.000000000000000E+000
  0.000000000000000E+000
  0.000000000000000E+000
  0.000000000000000E+000
  0.000000000000000E+000
  0.000000000000000E+000
  0.000000000000000E+000
  0.000000000000000E+000
  0.000000000000000E+000
  0.000000000000000E+000
  0.000000000000000E+000
  0.000000000000000E+000
  0.000000000000000E+000
  0.000000000000000E+000
  0.000000000000000E+000
  0.000000000000000E+000
  0.000000000000000E+000
  0.000000000000000E+000
  0.000000000000000E+000
  0.000000000000000E+000
  0.000000000000000E+000
  0.000000000000000E+000
  0.000000000000000E+000
  0.000000000000000E+000
  0.000000000000000E+000
  0.000000000000000E+000
  0.000000000000000E+000
  0.000000000000000E+000
  0.000000000000000E+000
  0.000000000000000E+000
  0.000000000000000E+000
  0.000000000000000E+000
  0.000000000000000E+000
  0.000000000000000E+000
  0.000000000000000E+000
  0.000000000000000E+000
  0.000000000000000E+000
  0.000000000000000E+000
  0.000000000000000E+000
  0.000000000000000E+000
  0.000000000000000E+000
  0.000000000000000E+000
  0.000000000000000E+000
  0.000000000000000E+000
  0.000000000000000E+000
  0.000000000000000E+000
  0.000000000000000E+000
  0.000000000000000E+000
  0.000000000000000E+000
  0.000000000000000E+000
  0.000000000000000E+000
  0.000000000000000E+000
  0.000000000000000E+000
  0.000000000000000E+000
  0.000000000000000E+000
  0.000000000000000E+000
  0.000000000000000E+000
  0.000000000000000E+000
  0.000000000000000E+000
  0.000000000000000E+000
  0.000000000000000E+000
  0.000000000000000E+000
  0.000000000000000E+000
  0.000000000000000E+000
  0.000000000000000E+000
  0.000000000000000E+000
  0.000000000000000E+000
  0.000000000000000E+000
  0.000000000000000E+000
  0.000000000000000E+000
  0.000000000000000E+000
  0.000000000000000E+000
  0.000000000000000E+000
  0.000000000000000E+000
  0.000000000000000E+000
  0.000000000000000E+000
  0.000000000000000E+000
  0.000000000000000E+000
  0.000000000000000E+000
  0.000000000000000E+000
  0.000000000000000E+000
  0.000000000000000E+000
  0.000000000000000E+000
  0.000000000000000E+000
  0.000000000000000E+000
  0.000000000000000E+000
  0.000000000000000E+000
  0.000000000000000E+000
  0.000000000000000E+000
  0.000000000000000E+000
  0.000000000000000E+000
  0.000000000000000E+000
  0.000000000000000E+000
  0.000000000000000E+000
  0.000000000000000E+000
  0.000000000000000E+000
  0.000000000000000E+000
  0.000000000000000E+000
  0.000000000000000E+000
  0.000000000000000E+000
  0.000000000000000E+000
  0.000000000000000E+000
  0.000000000000000E+000
  0.000000000000000E+000
  0.000000000000000E+000
  0.000000000000000E+000
  0.000000000000000E+000
  0.000000000000000E+000
  0.000000000000000E+000
  0.000000000000000E+000
  0.000000000000000E+000
  0.000000000000000E+000
  0.000000000000000E+000
  0.000000000000000E+000
  0.000000000000000E+000
  0.000000000000000E+000
  0.000000000000000E+000
  0.000000000000000E+000
  0.000000000000000E+000
  0.000000000000000E+000
  0.000000000000000E+000
  0.000000000000000E+000
  0.000000000000000E+000
  0.000000000000000E+000
  0.000000000000000E+000
  0.000000000000000E+000
  0.000000000000000E+000
  0.000000000000000E+000
  0.000000000000000E+000
  0.000000000000000E+000
  0.000000000000000E+000
  0.000000000000000E+000
  0.000000000000000E+000
  0.000000000000000E+000
  0.000000000000000E+000
  0.000000000000000E+000
  0.000000000000000E+000
  0.000000000000000E+000
  0.000000000000000E+000
  0.000000000000000E+000
  0.000000000000000E+000
  0.000000000000000E+000
  0.000000000000000E+000
  0.000000000000000E+000
  0.000000000000000E+000
  0.000000000000000E+000
  0.000000000000000E+000
  0.000000000000000E+000
  0.000000000000000E+000
  0.000000000000000E+000
  0.000000000000000E+000
  0.000000000000000E+000
  0.000000000000000E+000
  0.000000000000000E+000
  0.000000000000000E+000
  0.000000000000000E+000
  0.000000000000000E+000
  0.000000000000000E+000
  0.000000000000000E+000
  0.000000000000000E+000
  0.000000000000000E+000
  0.000000000000000E+000
  0.000000000000000E+000
  0.000000000000000E+000
  0.000000000000000E+000
  0.000000000000000E+000
  0.000000000000000E+000
  0.000000000000000E+000
  0.000000000000000E+000
  0.000000000000000E+000
  0.000000000000000E+000
  0.000000000000000E+000
  0.000000000000000E+000
  0.000000000000000E+000
  0.000000000000000E+000
  0.000000000000000E+000
  0.000000000000000E+000
  0.000000000000000E+000
  0.000000000000000E+000
  0.000000000000000E+000
  0.000000000000000E+000
  0.000000000000000E+000
  0.000000000000000E+000
  0.000000000000000E+000
  0.000000000000000E+000
  0.000000000000000E+000
  0.000000000000000E+000
  0.000000000000000E+000
  0.000000000000000E+000
  0.000000000000000E+000
  0.000000000000000E+000
  0.000000000000000E+000
  0.000000000000000E+000
  0.000000000000000E+000
  0.000000000000000E+000
  0.000000000000000E+000
  0.000000000000000E+000
  0.000000000000000E+000
  0.000000000000000E+000
  0.000000000000000E+000
  0.000000000000000E+000
  0.000000000000000E+000
  0.000000000000000E+000
  0.000000000000000E+000
  0.000000000000000E+000
  0.000000000000000E+000
  0.000000000000000E+000
  0.000000000000000E+000
  0.000000000000000E+000
  0.000000000000000E+000
  0.000000000000000E+000
  0.000000000000000E+000
  0.000000000000000E+000
  0.000000000000000E+000
  0.000000000000000E+000
  0.000000000000000E+000
  0.000000000000000E+000
  0.000000000000000E+000
  0.000000000000000E+000
  0.000000000000000E+000
  0.000000000000000E+000
  0.000000000000000E+000
  0.000000000000000E+000
  0.000000000000000E+000
  0.000000000000000E+000
  0.000000000000000E+000
  0.000000000000000E+000
  0.000000000000000E+000
  0.000000000000000E+000
  0.000000000000000E+000
  0.000000000000000E+000
  0.000000000000000E+000
  0.000000000000000E+000
  0.000000000000000E+000
  0.000000000000000E+000
  0.000000000000000E+000
  0.000000000000000E+000
  0.000000000000000E+000
  0.000000000000000E+000
  0.000000000000000E+000
  0.000000000000000E+000
  0.000000000000000E+000
  0.000000000000000E+000
  0.000000000000000E+000
  0.000000000000000E+000
  0.000000000000000E+000
  0.000000000000000E+000
  0.000000000000000E+000
  0.000000000000000E+000
  0.000000000000000E+000
  0.000000000000000E+000
  0.000000000000000E+000
  0.000000000000000E+000
  0.000000000000000E+000
  0.000000000000000E+000
  0.000000000000000E+000
  0.000000000000000E+000
  0.000000000000000E+000
  0.000000000000000E+000
  0.000000000000000E+000
  0.000000000000000E+000
  0.000000000000000E+000
  0.000000000000000E+000
  0.000000000000000E+000
  0.000000000000000E+000
  0.000000000000000E+000
  0.000000000000000E+000
  0.000000000000000E+000
  0.000000000000000E+000
  0.000000000000000E+000
  0.000000000000000E+000
  0.000000000000000E+000
  0.000000000000000E+000
  0.000000000000000E+000
  0.000000000000000E+000
  0.000000000000000E+000
  0.000000000000000E+000
  0.000000000000000E+000
  0.000000000000000E+000
  0.000000000000000E+000
  0.000000000000000E+000
  0.000000000000000E+000
  0.000000000000000E+000
  0.000000000000000E+000
  0.000000000000000E+000
  0.000000000000000E+000
  0.000000000000000E+000
  0.000000000000000E+000
  0.000000000000000E+000
  0.000000000000000E+000
  0.000000000000000E+000
  0.000000000000000E+000
  0.000000000000000E+000
  0.000000000000000E+000
  0.000000000000000E+000
  0.000000000000000E+000
  0.000000000000000E+000
  0.000000000000000E+000
  0.000000000000000E+000
  0.000000000000000E+000
  0.000000000000000E+000
  0.000000000000000E+000
  0.000000000000000E+000
  0.000000000000000E+000
  0.000000000000000E+000
  0.000000000000000E+000
  0.000000000000000E+000
  0.000000000000000E+000
  0.000000000000000E+000
  0.000000000000000E+000
  0.000000000000000E+000
  0.000000000000000E+000
  0.000000000000000E+000
  0.000000000000000E+000
  0.000000000000000E+000
  0.000000000000000E+000
  0.000000000000000E+000
  0.000000000000000E+000
  0.000000000000000E+000
  0.000000000000000E+000
  0.000000000000000E+000
  0.000000000000000E+000
  0.000000000000000E+000
  0.000000000000000E+000
  0.000000000000000E+000
  0.000000000000000E+000
  0.000000000000000E+000
  0.000000000000000E+000
  0.000000000000000E+000
  0.000000000000000E+000
  0.000000000000000E+000
  0.000000000000000E+000
  0.000000000000000E+000
  0.000000000000000E+000
  0.000000000000000E+000
  0.000000000000000E+000
  0.000000000000000E+000
  0.000000000000000E+000
  0.000000000000000E+000
  0.000000000000000E+000
  0.000000000000000E+000
  0.000000000000000E+000
  0.000000000000000E+000
  0.000000000000000E+000
  0.000000000000000E+000
  0.000000000000000E+000
  0.000000000000000E+000
  0.000000000000000E+000
  0.000000000000000E+000
  0.000000000000000E+000
  0.000000000000000E+000
  0.000000000000000E+000
  0.000000000000000E+000
  0.000000000000000E+000
  0.000000000000000E+000
  0.000000000000000E+000
  0.000000000000000E+000
  0.000000000000000E+000
  0.000000000000000E+000
  0.000000000000000E+000
  0.000000000000000E+000
  0.000000000000000E+000
  0.000000000000000E+000
  0.000000000000000E+000
  0.000000000000000E+000
  0.000000000000000E+000
  0.000000000000000E+000
  0.000000000000000E+000
  0.000000000000000E+000
  0.000000000000000E+000
  0.000000000000000E+000
  0.000000000000000E+000
  0.000000000000000E+000
  0.000000000000000E+000
  0.000000000000000E+000
  0.000000000000000E+000
  0.000000000000000E+000
  0.000000000000000E+000
  0.000000000000000E+000
  0.000000000000000E+000
  0.000000000000000E+000
  0.000000000000000E+000
  0.000000000000000E+000
  0.000000000000000E+000
  0.000000000000000E+000
  0.000000000000000E+000
  0.000000000000000E+000
  0.000000000000000E+000
  0.000000000000000E+000
  0.000000000000000E+000
  0.000000000000000E+000
  0.000000000000000E+000
  0.000000000000000E+000
  0.000000000000000E+000
  0.000000000000000E+000
  0.000000000000000E+000
  0.000000000000000E+000
  0.000000000000000E+000
  0.000000000000000E+000
  0.000000000000000E+000
  0.000000000000000E+000
  0.000000000000000E+000
  0.000000000000000E+000
  0.000000000000000E+000
  0.000000000000000E+000
  0.000000000000000E+000
  0.000000000000000E+000
  0.000000000000000E+000
  0.000000000000000E+000
  0.000000000000000E+000
  0.000000000000000E+000
  0.000000000000000E+000
  0.000000000000000E+000
  0.000000000000000E+000
  0.000000000000000E+000
  0.000000000000000E+000
  0.000000000000000E+000
  0.000000000000000E+000
  0.000000000000000E+000
  0.000000000000000E+000
  0.000000000000000E+000
  0.000000000000000E+000
  0.000000000000000E+000
  0.000000000000000E+000
  0.000000000000000E+000
  0.000000000000000E+000
  0.000000000000000E+000
  0.000000000000000E+000
  0.000000000000000E+000
  0.000000000000000E+000
  0.000000000000000E+000
  0.000000000000000E+000
  0.000000000000000E+000
  0.000000000000000E+000
  0.000000000000000E+000
  0.000000000000000E+000
  0.000000000000000E+000
  0.000000000000000E+000
  0.000000000000000E+000
  0.000000000000000E+000
  0.000000000000000E+000
  0.000000000000000E+000
  0.000000000000000E+000
  0.000000000000000E+000
  0.000000000000000E+000
  0.000000000000000E+000
  0.000000000000000E+000
  0.000000000000000E+000
  0.000000000000000E+000
  0.000000000000000E+000
  0.000000000000000E+000
  0.000000000000000E+000
  0.000000000000000E+000
  0.000000000000000E+000
  0.000000000000000E+000
  0.000000000000000E+000
  0.000000000000000E+000
  0.000000000000000E+000
  0.000000000000000E+000
  0.000000000000000E+000
  0.000000000000000E+000
  0.000000000000000E+000
  0.000000000000000E+000
  0.000000000000000E+000
  0.000000000000000E+000
  0.000000000000000E+000
  0.000000000000000E+000
  0.000000000000000E+000
  0.000000000000000E+000
  0.000000000000000E+000
  0.000000000000000E+000
  0.000000000000000E+000
  0.000000000000000E+000
  0.000000000000000E+000
  0.000000000000000E+000
  0.000000000000000E+000
  0.000000000000000E+000
  0.000000000000000E+000
  0.000000000000000E+000
  0.000000000000000E+000
  0.000000000000000E+000
  0.000000000000000E+000
  0.000000000000000E+000
  0.000000000000000E+000
  0.000000000000000E+000
  0.000000000000000E+000
  0.000000000000000E+000
  0.000000000000000E+000
  0.000000000000000E+000
  0.000000000000000E+000
  0.000000000000000E+000
  0.000000000000000E+000
  0.000000000000000E+000
  0.000000000000000E+000
  0.000000000000000E+000
  0.000000000000000E+000
  0.000000000000000E+000
  0.000000000000000E+000
  0.000000000000000E+000
  0.000000000000000E+000
  0.000000000000000E+000
  0.000000000000000E+000
  0.000000000000000E+000
  0.000000000000000E+000
  0.000000000000000E+000
  0.000000000000000E+000
  0.000000000000000E+000
  0.000000000000000E+000
  0.000000000000000E+000
  0.000000000000000E+000
  0.000000000000000E+000
  0.000000000000000E+000
  0.000000000000000E+000
  0.000000000000000E+000
  0.000000000000000E+000
  0.000000000000000E+000
  0.000000000000000E+000
  0.000000000000000E+000
  0.000000000000000E+000
  0.000000000000000E+000
  0.000000000000000E+000
  0.000000000000000E+000
  0.000000000000000E+000
  0.000000000000000E+000
  0.000000000000000E+000
  0.000000000000000E+000
  0.000000000000000E+000
  0.000000000000000E+000
  0.000000000000000E+000
  0.000000000000000E+000
  0.000000000000000E+000
  0.000000000000000E+000
  0.000000000000000E+000
  0.000000000000000E+000
  0.000000000000000E+000
  0.000000000000000E+000
  0.000000000000000E+000
  0.000000000000000E+000
  0.000000000000000E+000
  0.000000000000000E+000
  0.000000000000000E+000
  0.000000000000000E+000
  0.000000000000000E+000
  0.000000000000000E+000
  0.000000000000000E+000
  0.000000000000000E+000
  0.000000000000000E+000
  0.000000000000000E+000
  0.000000000000000E+000
  0.000000000000000E+000
  0.000000000000000E+000
  0.000000000000000E+000
  0.000000000000000E+000
  0.000000000000000E+000
  0.000000000000000E+000
  0.000000000000000E+000
  0.000000000000000E+000
  0.000000000000000E+000
  0.000000000000000E+000
  0.000000000000000E+000
  0.000000000000000E+000
  0.000000000000000E+000
  0.000000000000000E+000
  0.000000000000000E+000
  0.000000000000000E+000
  0.000000000000000E+000
  0.000000000000000E+000
  0.000000000000000E+000
  0.000000000000000E+000
  0.000000000000000E+000
  0.000000000000000E+000
  0.000000000000000E+000
  0.000000000000000E+000
  0.000000000000000E+000
  0.000000000000000E+000
  0.000000000000000E+000
  0.000000000000000E+000
  0.000000000000000E+000
  0.000000000000000E+000
  0.000000000000000E+000
  0.000000000000000E+000
  0.000000000000000E+000
  0.000000000000000E+000
  0.000000000000000E+000
  0.000000000000000E+000
  0.000000000000000E+000
  0.000000000000000E+000
  0.000000000000000E+000
  0.000000000000000E+000
  0.000000000000000E+000
  0.000000000000000E+000
  0.000000000000000E+000
  0.000000000000000E+000
  0.000000000000000E+000
  0.000000000000000E+000
  0.000000000000000E+000
  0.000000000000000E+000
  0.000000000000000E+000
  0.000000000000000E+000
  0.000000000000000E+000
  0.000000000000000E+000
  0.000000000000000E+000
  0.000000000000000E+000
  0.000000000000000E+000
  0.000000000000000E+000
  0.000000000000000E+000
  0.000000000000000E+000
  0.000000000000000E+000
  0.000000000000000E+000
  0.000000000000000E+000
  0.000000000000000E+000
  0.000000000000000E+000
  0.000000000000000E+000
  0.000000000000000E+000
  0.000000000000000E+000
  0.000000000000000E+000
  0.000000000000000E+000
  0.000000000000000E+000
  0.000000000000000E+000
  0.000000000000000E+000
  0.000000000000000E+000
  0.000000000000000E+000
  0.000000000000000E+000
  0.000000000000000E+000
  0.000000000000000E+000
  0.000000000000000E+000
  0.000000000000000E+000
  0.000000000000000E+000
  0.000000000000000E+000
  0.000000000000000E+000
  0.000000000000000E+000
  0.000000000000000E+000
  0.000000000000000E+000
  0.000000000000000E+000
  0.000000000000000E+000
  0.000000000000000E+000
  0.000000000000000E+000
  0.000000000000000E+000
  0.000000000000000E+000
  0.000000000000000E+000
  0.000000000000000E+000
  0.000000000000000E+000
  0.000000000000000E+000
  0.000000000000000E+000
  0.000000000000000E+000
  0.000000000000000E+000
  0.000000000000000E+000
  0.000000000000000E+000
  0.000000000000000E+000
  0.000000000000000E+000
  0.000000000000000E+000
  0.000000000000000E+000
  0.000000000000000E+000
  0.000000000000000E+000
  0.000000000000000E+000
  0.000000000000000E+000
  0.000000000000000E+000
  0.000000000000000E+000
  0.000000000000000E+000
  0.000000000000000E+000
  0.000000000000000E+000
  0.000000000000000E+000
  0.000000000000000E+000
  0.000000000000000E+000
  0.000000000000000E+000
  0.000000000000000E+000
  0.000000000000000E+000
  0.000000000000000E+000
  0.000000000000000E+000
  0.000000000000000E+000
  0.000000000000000E+000
  0.000000000000000E+000
  0.000000000000000E+000
  0.000000000000000E+000
  0.000000000000000E+000
  0.000000000000000E+000
  0.000000000000000E+000
  0.000000000000000E+000
  0.000000000000000E+000
  0.000000000000000E+000
  0.000000000000000E+000
  0.000000000000000E+000
  0.000000000000000E+000
  0.000000000000000E+000
  0.000000000000000E+000
  0.000000000000000E+000
  0.000000000000000E+000
  0.000000000000000E+000
  0.000000000000000E+000
  0.000000000000000E+000
  0.000000000000000E+000
  0.000000000000000E+000
  0.000000000000000E+000
  0.000000000000000E+000
  0.000000000000000E+000
  0.000000000000000E+000
  0.000000000000000E+000
  0.000000000000000E+000
  0.000000000000000E+000
  0.000000000000000E+000
  0.000000000000000E+000
  0.000000000000000E+000
  0.000000000000000E+000
  0.000000000000000E+000
  0.000000000000000E+000
  0.000000000000000E+000
  0.000000000000000E+000
  0.000000000000000E+000
  0.000000000000000E+000
  0.000000000000000E+000
  0.000000000000000E+000
  0.000000000000000E+000
  0.000000000000000E+000
  0.000000000000000E+000
  0.000000000000000E+000
  0.000000000000000E+000
  0.000000000000000E+000
  0.000000000000000E+000
  0.000000000000000E+000
  0.000000000000000E+000
  0.000000000000000E+000
  0.000000000000000E+000
  0.000000000000000E+000
  0.000000000000000E+000
  0.000000000000000E+000
  0.000000000000000E+000
  0.000000000000000E+000
  0.000000000000000E+000
  0.000000000000000E+000
  0.000000000000000E+000
  0.000000000000000E+000
  0.000000000000000E+000
  0.000000000000000E+000
  0.000000000000000E+000
  0.000000000000000E+000
  0.000000000000000E+000
  0.000000000000000E+000
  0.000000000000000E+000
  0.000000000000000E+000
  0.000000000000000E+000
  0.000000000000000E+000
  0.000000000000000E+000
  0.000000000000000E+000
  0.000000000000000E+000
  0.000000000000000E+000
  0.000000000000000E+000
  0.000000000000000E+000
  0.000000000000000E+000
  0.000000000000000E+000
  0.000000000000000E+000
  0.000000000000000E+000
  0.000000000000000E+000
  0.000000000000000E+000
  0.000000000000000E+000
  0.000000000000000E+000
  0.000000000000000E+000
  0.000000000000000E+000
  0.000000000000000E+000
  0.000000000000000E+000
  0.000000000000000E+000
  0.000000000000000E+000
  0.000000000000000E+000
  0.000000000000000E+000
  0.000000000000000E+000
  0.000000000000000E+000
  0.000000000000000E+000
  0.000000000000000E+000
  0.000000000000000E+000
  0.000000000000000E+000
  0.000000000000000E+000
  0.000000000000000E+000
  0.000000000000000E+000
  0.000000000000000E+000
  0.000000000000000E+000
  0.000000000000000E+000
  0.000000000000000E+000
  0.000000000000000E+000
  0.000000000000000E+000
  0.000000000000000E+000
  0.000000000000000E+000
  0.000000000000000E+000
  0.000000000000000E+000
  0.000000000000000E+000
  0.000000000000000E+000
  0.000000000000000E+000
  0.000000000000000E+000
  0.000000000000000E+000
  0.000000000000000E+000
  0.000000000000000E+000
  0.000000000000000E+000
  0.000000000000000E+000
  0.000000000000000E+000
  0.000000000000000E+000
  0.000000000000000E+000
  0.000000000000000E+000
  0.000000000000000E+000
  0.000000000000000E+000
  0.000000000000000E+000
  0.000000000000000E+000
  0.000000000000000E+000
  0.000000000000000E+000
  0.000000000000000E+000
  0.000000000000000E+000
  0.000000000000000E+000
  0.000000000000000E+000
  0.000000000000000E+000
  0.000000000000000E+000
  0.000000000000000E+000
  0.000000000000000E+000
  0.000000000000000E+000
  0.000000000000000E+000
  0.000000000000000E+000
  0.000000000000000E+000
  0.000000000000000E+000
  0.000000000000000E+000
  0.000000000000000E+000
  0.000000000000000E+000
  0.000000000000000E+000
  0.000000000000000E+000
  0.000000000000000E+000
  0.000000000000000E+000
  0.000000000000000E+000
  0.000000000000000E+000
  0.000000000000000E+000
  0.000000000000000E+000
  0.000000000000000E+000
  0.000000000000000E+000
  0.000000000000000E+000
  0.000000000000000E+000
  0.000000000000000E+000
  0.000000000000000E+000
  0.000000000000000E+000
  0.000000000000000E+000
  0.000000000000000E+000
  0.000000000000000E+000
  0.000000000000000E+000
  0.000000000000000E+000
  0.000000000000000E+000
  0.000000000000000E+000
  0.000000000000000E+000
  0.000000000000000E+000
  0.000000000000000E+000
  0.000000000000000E+000
  0.000000000000000E+000
  0.000000000000000E+000
  0.000000000000000E+000
  0.000000000000000E+000
  0.000000000000000E+000
  0.000000000000000E+000
  0.000000000000000E+000
  0.000000000000000E+000
  0.000000000000000E+000
  0.000000000000000E+000
  0.000000000000000E+000
  0.000000000000000E+000
  0.000000000000000E+000
  0.000000000000000E+000
  0.000000000000000E+000
  0.000000000000000E+000
  0.000000000000000E+000
  0.000000000000000E+000
  0.000000000000000E+000
  0.000000000000000E+000
  0.000000000000000E+000
  0.000000000000000E+000
  0.000000000000000E+000
  0.000000000000000E+000
  0.000000000000000E+000
  0.000000000000000E+000
  0.000000000000000E+000
  0.000000000000000E+000
  0.000000000000000E+000
  0.000000000000000E+000
  0.000000000000000E+000
  0.000000000000000E+000
  0.000000000000000E+000
  0.000000000000000E+000
  0.000000000000000E+000
  0.000000000000000E+000
  0.000000000000000E+000
  0.000000000000000E+000
  0.000000000000000E+000
  0.000000000000000E+000
  0.000000000000000E+000
  0.000000000000000E+000
  0.000000000000000E+000
  0.000000000000000E+000
  0.000000000000000E+000
  0.000000000000000E+000
  0.000000000000000E+000
  0.000000000000000E+000
  0.000000000000000E+000
  0.000000000000000E+000
  0.000000000000000E+000
  0.000000000000000E+000
  0.000000000000000E+000
  0.000000000000000E+000
  0.000000000000000E+000
  0.000000000000000E+000
  0.000000000000000E+000
  0.000000000000000E+000
  0.000000000000000E+000
  0.000000000000000E+000
  0.000000000000000E+000
  0.000000000000000E+000
  0.000000000000000E+000
  0.000000000000000E+000
  0.000000000000000E+000
  0.000000000000000E+000
  0.000000000000000E+000
  0.000000000000000E+000
  0.000000000000000E+000
  0.000000000000000E+000
  0.000000000000000E+000
  0.000000000000000E+000
  0.000000000000000E+000
  0.000000000000000E+000
  0.000000000000000E+000
  0.000000000000000E+000
  0.000000000000000E+000
  0.000000000000000E+000
  0.000000000000000E+000
  0.000000000000000E+000
  0.000000000000000E+000
  0.000000000000000E+000
  0.000000000000000E+000
  0.000000000000000E+000
  0.000000000000000E+000
  0.000000000000000E+000
  0.000000000000000E+000
  0.000000000000000E+000
  0.000000000000000E+000
  0.000000000000000E+000
  0.000000000000000E+000
  0.000000000000000E+000
  0.000000000000000E+000
  0.000000000000000E+000
  0.000000000000000E+000
  0.000000000000000E+000
  0.000000000000000E+000
  0.000000000000000E+000
  0.000000000000000E+000
  0.000000000000000E+000
  0.000000000000000E+000
  0.000000000000000E+000
  0.000000000000000E+000
  0.000000000000000E+000
  0.000000000000000E+000
  0.000000000000000E+000
  0.000000000000000E+000
  0.000000000000000E+000
  0.000000000000000E+000
  0.000000000000000E+000
  0.000000000000000E+000
  0.000000000000000E+000
  0.000000000000000E+000
  0.000000000000000E+000
  0.000000000000000E+000
  0.000000000000000E+000
  0.000000000000000E+000
  0.000000000000000E+000
  0.000000000000000E+000
  0.000000000000000E+000
  0.000000000000000E+000
  0.000000000000000E+000
  0.000000000000000E+000
  0.000000000000000E+000
  0.000000000000000E+000
  0.000000000000000E+000
  0.000000000000000E+000
  0.000000000000000E+000
  0.000000000000000E+000
  0.000000000000000E+000
  0.000000000000000E+000
  0.000000000000000E+000
  0.000000000000000E+000
  0.000000000000000E+000
  0.000000000000000E+000
  0.000000000000000E+000
  0.000000000000000E+000
  0.000000000000000E+000
  0.000000000000000E+000
  0.000000000000000E+000
  0.000000000000000E+000
  0.000000000000000E+000
  0.000000000000000E+000
  0.000000000000000E+000
  0.000000000000000E+000
  0.000000000000000E+000
  0.000000000000000E+000
  0.000000000000000E+000
  0.000000000000000E+000
  0.000000000000000E+000
  0.000000000000000E+000
  0.000000000000000E+000
  0.000000000000000E+000
  0.000000000000000E+000
  0.000000000000000E+000
  0.000000000000000E+000
  0.000000000000000E+000
  0.000000000000000E+000
  0.000000000000000E+000
  0.000000000000000E+000
  0.000000000000000E+000
  0.000000000000000E+000
  0.000000000000000E+000
  0.000000000000000E+000
  0.000000000000000E+000
  0.000000000000000E+000
  0.000000000000000E+000
  0.000000000000000E+000
  0.000000000000000E+000
  0.000000000000000E+000
  0.000000000000000E+000
  0.000000000000000E+000
  0.000000000000000E+000
  0.000000000000000E+000
  0.000000000000000E+000
  0.000000000000000E+000
  0.000000000000000E+000
  0.000000000000000E+000
  0.000000000000000E+000
  0.000000000000000E+000
  0.000000000000000E+000
  0.000000000000000E+000
  0.000000000000000E+000
  0.000000000000000E+000
  0.000000000000000E+000
  0.000000000000000E+000
  0.000000000000000E+000
  0.000000000000000E+000
  0.000000000000000E+000
  0.000000000000000E+000
  0.000000000000000E+000
  0.000000000000000E+000
  0.000000000000000E+000
  0.000000000000000E+000
  0.000000000000000E+000
  0.000000000000000E+000
  0.000000000000000E+000
  0.000000000000000E+000
  0.000000000000000E+000
  0.000000000000000E+000
  0.000000000000000E+000
  0.000000000000000E+000
  0.000000000000000E+000
  0.000000000000000E+000
  0.000000000000000E+000
  0.000000000000000E+000
  0.000000000000000E+000
  0.000000000000000E+000
  0.000000000000000E+000
  0.000000000000000E+000
  0.000000000000000E+000
  0.000000000000000E+000
  0.000000000000000E+000
  0.000000000000000E+000
  0.000000000000000E+000
  0.000000000000000E+000
  0.000000000000000E+000
  0.000000000000000E+000
  0.000000000000000E+000
  0.000000000000000E+000
  0.000000000000000E+000
  0.000000000000000E+000
  0.000000000000000E+000
  0.000000000000000E+000
  0.000000000000000E+000
  0.000000000000000E+000
  0.000000000000000E+000
  0.000000000000000E+000
  0.000000000000000E+000
  0.000000000000000E+000
  0.000000000000000E+000
  0.000000000000000E+000
  0.000000000000000E+000
  0.000000000000000E+000
  0.000000000000000E+000
  0.000000000000000E+000
  0.000000000000000E+000
  0.000000000000000E+000
  0.000000000000000E+000
  0.000000000000000E+000
  0.000000000000000E+000
  0.000000000000000E+000
  0.000000000000000E+000
  0.000000000000000E+000
  0.000000000000000E+000
  0.000000000000000E+000
  0.000000000000000E+000
  0.000000000000000E+000
  0.000000000000000E+000
  0.000000000000000E+000
  0.000000000000000E+000
  0.000000000000000E+000
  0.000000000000000E+000
  0.000000000000000E+000
  0.000000000000000E+000
  0.000000000000000E+000
  0.000000000000000E+000
  0.000000000000000E+000
  0.000000000000000E+000
  0.000000000000000E+000
  0.000000000000000E+000
  0.000000000000000E+000
  0.000000000000000E+000
  0.000000000000000E+000
  0.000000000000000E+000
  0.000000000000000E+000
  0.000000000000000E+000
  0.000000000000000E+000
  0.000000000000000E+000
  0.000000000000000E+000
  0.000000000000000E+000
  0.000000000000000E+000
  0.000000000000000E+000
  0.000000000000000E+000
  0.000000000000000E+000
  0.000000000000000E+000
  0.000000000000000E+000
  0.000000000000000E+000
  0.000000000000000E+000
  0.000000000000000E+000
  0.000000000000000E+000
  0.000000000000000E+000
  0.000000000000000E+000
  0.000000000000000E+000
  0.000000000000000E+000
  0.000000000000000E+000
  0.000000000000000E+000
  0.000000000000000E+000
  0.000000000000000E+000
  0.000000000000000E+000
  0.000000000000000E+000
  0.000000000000000E+000
  0.000000000000000E+000
  0.000000000000000E+000
  0.000000000000000E+000
  0.000000000000000E+000
  0.000000000000000E+000
  0.000000000000000E+000
  0.000000000000000E+000
  0.000000000000000E+000
  0.000000000000000E+000
  0.000000000000000E+000
  0.000000000000000E+000
  0.000000000000000E+000
  0.000000000000000E+000
  0.000000000000000E+000
  0.000000000000000E+000
  0.000000000000000E+000
  0.000000000000000E+000
  0.000000000000000E+000
  0.000000000000000E+000
  0.000000000000000E+000
  0.000000000000000E+000
  0.000000000000000E+000
  0.000000000000000E+000
  0.000000000000000E+000
  0.000000000000000E+000
  0.000000000000000E+000
  0.000000000000000E+000
  0.000000000000000E+000
  0.000000000000000E+000
  0.000000000000000E+000
  0.000000000000000E+000
  0.000000000000000E+000
  0.000000000000000E+000
  0.000000000000000E+000
  0.000000000000000E+000
  0.000000000000000E+000
  0.000000000000000E+000
  0.000000000000000E+000
  0.000000000000000E+000
  0.000000000000000E+000
  0.000000000000000E+000
  0.000000000000000E+000
  0.000000000000000E+000
  0.000000000000000E+000
  0.000000000000000E+000
  0.000000000000000E+000
  0.000000000000000E+000
  0.000000000000000E+000
  0.000000000000000E+000
  0.000000000000000E+000
  0.000000000000000E+000
  0.000000000000000E+000
  0.000000000000000E+000
  0.000000000000000E+000
  0.000000000000000E+000
  0.000000000000000E+000
  0.000000000000000E+000
  0.000000000000000E+000
  0.000000000000000E+000
  0.000000000000000E+000
  0.000000000000000E+000
  0.000000000000000E+000
  0.000000000000000E+000
  0.000000000000000E+000
  0.000000000000000E+000
  0.000000000000000E+000
  0.000000000000000E+000
  0.000000000000000E+000
  0.000000000000000E+000
  0.000000000000000E+000
  0.000000000000000E+000
  0.000000000000000E+000
  0.000000000000000E+000
  0.000000000000000E+000
  0.000000000000000E+000
  0.000000000000000E+000
  0.000000000000000E+000
  0.000000000000000E+000
  0.000000000000000E+000
  0.000000000000000E+000
  0.000000000000000E+000
  0.000000000000000E+000
  0.000000000000000E+000
  0.000000000000000E+000
  0.000000000000000E+000
  0.000000000000000E+000
  0.000000000000000E+000
  0.000000000000000E+000
  0.000000000000000E+000
  0.000000000000000E+000
  0.000000000000000E+000
  0.000000000000000E+000
  0.000000000000000E+000
  0.000000000000000E+000
  0.000000000000000E+000
  0.000000000000000E+000
  0.000000000000000E+000
  0.000000000000000E+000
  0.000000000000000E+000
  0.000000000000000E+000
  0.000000000000000E+000
  0.000000000000000E+000
  0.000000000000000E+000
  0.000000000000000E+000
  0.000000000000000E+000
  0.000000000000000E+000
  0.000000000000000E+000
  0.000000000000000E+000
  0.000000000000000E+000
  0.000000000000000E+000
  0.000000000000000E+000
  0.000000000000000E+000
  0.000000000000000E+000
  0.000000000000000E+000
  0.000000000000000E+000
  0.000000000000000E+000
  0.000000000000000E+000
  0.000000000000000E+000
  0.000000000000000E+000
  0.000000000000000E+000
  0.000000000000000E+000
  0.000000000000000E+000
  0.000000000000000E+000
  0.000000000000000E+000
  0.000000000000000E+000
  0.000000000000000E+000
  0.000000000000000E+000
  0.000000000000000E+000
  0.000000000000000E+000
  0.000000000000000E+000
  0.000000000000000E+000
  0.000000000000000E+000
  0.000000000000000E+000
  0.000000000000000E+000
  0.000000000000000E+000
  0.000000000000000E+000
  0.000000000000000E+000
  0.000000000000000E+000
  0.000000000000000E+000
  0.000000000000000E+000
  0.000000000000000E+000
  0.000000000000000E+000
  0.000000000000000E+000
  0.000000000000000E+000
  0.000000000000000E+000
  0.000000000000000E+000
  0.000000000000000E+000
  0.000000000000000E+000
  0.000000000000000E+000
  0.000000000000000E+000
  0.000000000000000E+000
  0.000000000000000E+000
  0.000000000000000E+000
  0.000000000000000E+000
  0.000000000000000E+000
  0.000000000000000E+000
  0.000000000000000E+000
  0.000000000000000E+000
  0.000000000000000E+000
  0.000000000000000E+000
  0.000000000000000E+000
  0.000000000000000E+000
  0.000000000000000E+000
  0.000000000000000E+000
  0.000000000000000E+000
  0.000000000000000E+000
  0.000000000000000E+000
  0.000000000000000E+000
  0.000000000000000E+000
  0.000000000000000E+000
  0.000000000000000E+000
  0.000000000000000E+000
  0.000000000000000E+000
  0.000000000000000E+000
  0.000000000000000E+000
  0.000000000000000E+000
  0.000000000000000E+000
  0.000000000000000E+000
  0.000000000000000E+000
  0.000000000000000E+000
  0.000000000000000E+000
  0.000000000000000E+000
  0.000000000000000E+000
  0.000000000000000E+000
  0.000000000000000E+000
  0.000000000000000E+000
  0.000000000000000E+000
  0.000000000000000E+000
  0.000000000000000E+000
  0.000000000000000E+000
  0.000000000000000E+000
  0.000000000000000E+000
  0.000000000000000E+000
  0.000000000000000E+000
  0.000000000000000E+000
  0.000000000000000E+000
  0.000000000000000E+000
  0.000000000000000E+000
  0.000000000000000E+000
  0.000000000000000E+000
  0.000000000000000E+000
  0.000000000000000E+000
  0.000000000000000E+000
  0.000000000000000E+000
  0.000000000000000E+000
  0.000000000000000E+000
  0.000000000000000E+000
  0.000000000000000E+000
  0.000000000000000E+000
  0.000000000000000E+000
  0.000000000000000E+000
  0.000000000000000E+000
  0.000000000000000E+000
  0.000000000000000E+000
  0.000000000000000E+000
  0.000000000000000E+000
  0.000000000000000E+000
  0.000000000000000E+000
  0.000000000000000E+000
  0.000000000000000E+000
  0.000000000000000E+000
  0.000000000000000E+000
  0.000000000000000E+000
  0.000000000000000E+000
  0.000000000000000E+000
  0.000000000000000E+000
  0.000000000000000E+000
  0.000000000000000E+000
  0.000000000000000E+000
  0.000000000000000E+000
  0.000000000000000E+000
  0.000000000000000E+000
  0.000000000000000E+000
  0.000000000000000E+000
  0.000000000000000E+000
  0.000000000000000E+000
  0.000000000000000E+000
  0.000000000000000E+000
  0.000000000000000E+000
  0.000000000000000E+000
  0.000000000000000E+000
  0.000000000000000E+000
  0.000000000000000E+000
  0.000000000000000E+000
  0.000000000000000E+000
  0.000000000000000E+000
  0.000000000000000E+000
  0.000000000000000E+000
  0.000000000000000E+000
  0.000000000000000E+000
  0.000000000000000E+000
  0.000000000000000E+000
  0.000000000000000E+000
  0.000000000000000E+000
  0.000000000000000E+000
  0.000000000000000E+000
  0.000000000000000E+000
  0.000000000000000E+000
  0.000000000000000E+000
  0.000000000000000E+000
  0.000000000000000E+000
  0.000000000000000E+000
  0.000000000000000E+000
  0.000000000000000E+000
  0.000000000000000E+000
  0.000000000000000E+000
  0.000000000000000E+000
  0.000000000000000E+000
  0.000000000000000E+000
  0.000000000000000E+000
  0.000000000000000E+000
  0.000000000000000E+000
  0.000000000000000E+000
  0.000000000000000E+000
  0.000000000000000E+000
  0.000000000000000E+000
  0.000000000000000E+000
  0.000000000000000E+000
  0.000000000000000E+000
  0.000000000000000E+000
  0.000000000000000E+000
  0.000000000000000E+000
  0.000000000000000E+000
  0.000000000000000E+000
  0.000000000000000E+000
  0.000000000000000E+000
  0.000000000000000E+000
  0.000000000000000E+000
  0.000000000000000E+000
  0.000000000000000E+000
  0.000000000000000E+000
  0.000000000000000E+000
  0.000000000000000E+000
  0.000000000000000E+000
  0.000000000000000E+000
  0.000000000000000E+000
  0.000000000000000E+000
  0.000000000000000E+000
  0.000000000000000E+000
  0.000000000000000E+000
  0.000000000000000E+000
  0.000000000000000E+000
  0.000000000000000E+000
  0.000000000000000E+000
  0.000000000000000E+000
  0.000000000000000E+000
  0.000000000000000E+000
  0.000000000000000E+000
  0.000000000000000E+000
  0.000000000000000E+000
  0.000000000000000E+000
  0.000000000000000E+000
  0.000000000000000E+000
  0.000000000000000E+000
  0.000000000000000E+000
  0.000000000000000E+000
  0.000000000000000E+000
  0.000000000000000E+000
  0.000000000000000E+000
  0.000000000000000E+000
  0.000000000000000E+000
  0.000000000000000E+000
  0.000000000000000E+000
  0.000000000000000E+000
  0.000000000000000E+000
  0.000000000000000E+000
  0.000000000000000E+000
  0.000000000000000E+000
  0.000000000000000E+000
  0.000000000000000E+000
  0.000000000000000E+000
  0.000000000000000E+000
  0.000000000000000E+000
  0.000000000000000E+000
  0.000000000000000E+000
  0.000000000000000E+000
  0.000000000000000E+000
  0.000000000000000E+000
  0.000000000000000E+000
  0.000000000000000E+000
  0.000000000000000E+000
  0.000000000000000E+000
  0.000000000000000E+000
  0.000000000000000E+000
  0.000000000000000E+000
  0.000000000000000E+000
  0.000000000000000E+000
  0.000000000000000E+000
  0.000000000000000E+000
  0.000000000000000E+000
  0.000000000000000E+000
  0.000000000000000E+000
  0.000000000000000E+000
  0.000000000000000E+000
  0.000000000000000E+000
  0.000000000000000E+000
  0.000000000000000E+000
  0.000000000000000E+000
  0.000000000000000E+000
  0.000000000000000E+000
  0.000000000000000E+000
  0.000000000000000E+000
  0.000000000000000E+000
  0.000000000000000E+000
  0.000000000000000E+000
  0.000000000000000E+000
  0.000000000000000E+000
  0.000000000000000E+000
  0.000000000000000E+000
  0.000000000000000E+000
  0.000000000000000E+000
  0.000000000000000E+000
  0.000000000000000E+000
  0.000000000000000E+000
  0.000000000000000E+000
  0.000000000000000E+000
  0.000000000000000E+000
  0.000000000000000E+000
  0.000000000000000E+000
  0.000000000000000E+000
  0.000000000000000E+000
  0.000000000000000E+000
  0.000000000000000E+000
  0.000000000000000E+000
  0.000000000000000E+000
  0.000000000000000E+000
  0.000000000000000E+000
  0.000000000000000E+000
  0.000000000000000E+000
  0.000000000000000E+000
  0.000000000000000E+000
  0.000000000000000E+000
  0.000000000000000E+000
  0.000000000000000E+000
  0.000000000000000E+000
  0.000000000000000E+000
  0.000000000000000E+000
  0.000000000000000E+000
  0.000000000000000E+000
  0.000000000000000E+000
  0.000000000000000E+000
  0.000000000000000E+000
  0.000000000000000E+000
  0.000000000000000E+000
  0.000000000000000E+000
  0.000000000000000E+000
  0.000000000000000E+000
  0.000000000000000E+000
  0.000000000000000E+000
  0.000000000000000E+000
  0.000000000000000E+000
  0.000000000000000E+000
  0.000000000000000E+000
  0.000000000000000E+000
  0.000000000000000E+000
  0.000000000000000E+000
  0.000000000000000E+000
  0.000000000000000E+000
  0.000000000000000E+000
  0.000000000000000E+000
  0.000000000000000E+000
  0.000000000000000E+000
  0.000000000000000E+000
  0.000000000000000E+000
  0.000000000000000E+000
  0.000000000000000E+000
  0.000000000000000E+000
  0.000000000000000E+000
  0.000000000000000E+000
  0.000000000000000E+000
  0.000000000000000E+000
  0.000000000000000E+000
  0.000000000000000E+000
  0.000000000000000E+000
  0.000000000000000E+000
  0.000000000000000E+000
  0.000000000000000E+000
  0.000000000000000E+000
  0.000000000000000E+000
  0.000000000000000E+000
  0.000000000000000E+000
  0.000000000000000E+000
  0.000000000000000E+000
  0.000000000000000E+000
  0.000000000000000E+000
  0.000000000000000E+000
  0.000000000000000E+000
  0.000000000000000E+000
  0.000000000000000E+000
  0.000000000000000E+000
  0.000000000000000E+000
  0.000000000000000E+000
  0.000000000000000E+000
  0.000000000000000E+000
  0.000000000000000E+000
  0.000000000000000E+000
  0.000000000000000E+000
  0.000000000000000E+000
  0.000000000000000E+000
  0.000000000000000E+000
  0.000000000000000E+000
  0.000000000000000E+000
  0.000000000000000E+000
  0.000000000000000E+000
  0.000000000000000E+000
  0.000000000000000E+000
  0.000000000000000E+000
  0.000000000000000E+000
  0.000000000000000E+000
  0.000000000000000E+000
  0.000000000000000E+000
  0.000000000000000E+000
  0.000000000000000E+000
  0.000000000000000E+000
  0.000000000000000E+000
  0.000000000000000E+000
  0.000000000000000E+000
  0.000000000000000E+000
  0.000000000000000E+000
  0.000000000000000E+000
  0.000000000000000E+000
  0.000000000000000E+000
  0.000000000000000E+000
  0.000000000000000E+000
  0.000000000000000E+000
  0.000000000000000E+000
  0.000000000000000E+000
  0.000000000000000E+000
  0.000000000000000E+000
  0.000000000000000E+000
  0.000000000000000E+000
  0.000000000000000E+000
  0.000000000000000E+000
  0.000000000000000E+000
  0.000000000000000E+000
  0.000000000000000E+000
  0.000000000000000E+000
  0.000000000000000E+000
  0.000000000000000E+000
  0.000000000000000E+000
  0.000000000000000E+000
  0.000000000000000E+000
  0.000000000000000E+000
  0.000000000000000E+000
  0.000000000000000E+000
  0.000000000000000E+000
  0.000000000000000E+000
  0.000000000000000E+000
  0.000000000000000E+000
  0.000000000000000E+000
  0.000000000000000E+000
  0.000000000000000E+000
  0.000000000000000E+000
  0.000000000000000E+000
  0.000000000000000E+000
  0.000000000000000E+000
  0.000000000000000E+000
  0.000000000000000E+000
  0.000000000000000E+000
  0.000000000000000E+000
  0.000000000000000E+000
  0.000000000000000E+000
  0.000000000000000E+000
  0.000000000000000E+000
  0.000000000000000E+000
  0.000000000000000E+000
  0.000000000000000E+000
  0.000000000000000E+000
  0.000000000000000E+000
  0.000000000000000E+000
  0.000000000000000E+000
  0.000000000000000E+000
  0.000000000000000E+000
  0.000000000000000E+000
  0.000000000000000E+000
  0.000000000000000E+000
  0.000000000000000E+000
  0.000000000000000E+000
  0.000000000000000E+000
  0.000000000000000E+000
  0.000000000000000E+000
  0.000000000000000E+000
  0.000000000000000E+000
  0.000000000000000E+000
  0.000000000000000E+000
  0.000000000000000E+000
  0.000000000000000E+000
  0.000000000000000E+000
  0.000000000000000E+000
  0.000000000000000E+000
  0.000000000000000E+000
  0.000000000000000E+000
  0.000000000000000E+000
  0.000000000000000E+000
  0.000000000000000E+000
  0.000000000000000E+000
  0.000000000000000E+000
  0.000000000000000E+000
  0.000000000000000E+000
  0.000000000000000E+000
  0.000000000000000E+000
  0.000000000000000E+000
  0.000000000000000E+000
  0.000000000000000E+000
  0.000000000000000E+000
  0.000000000000000E+000
  0.000000000000000E+000
  0.000000000000000E+000
  0.000000000000000E+000
  0.000000000000000E+000
  0.000000000000000E+000
  0.000000000000000E+000
  0.000000000000000E+000
  0.000000000000000E+000
  0.000000000000000E+000
  0.000000000000000E+000
  0.000000000000000E+000
  0.000000000000000E+000
  0.000000000000000E+000
  0.000000000000000E+000
  0.000000000000000E+000
  0.000000000000000E+000
  0.000000000000000E+000
  0.000000000000000E+000
  0.000000000000000E+000
  0.000000000000000E+000
  0.000000000000000E+000
  0.000000000000000E+000
  0.000000000000000E+000
  0.000000000000000E+000
  0.000000000000000E+000
  0.000000000000000E+000
  0.000000000000000E+000
  0.000000000000000E+000
  0.000000000000000E+000
  0.000000000000000E+000
  0.000000000000000E+000
  0.000000000000000E+000
  0.000000000000000E+000
  0.000000000000000E+000
  0.000000000000000E+000
  0.000000000000000E+000
  0.000000000000000E+000
  0.000000000000000E+000
  0.000000000000000E+000
  0.000000000000000E+000
  0.000000000000000E+000
  0.000000000000000E+000
  0.000000000000000E+000
  0.000000000000000E+000
  0.000000000000000E+000
  0.000000000000000E+000
  0.000000000000000E+000
  0.000000000000000E+000
  0.000000000000000E+000
  0.000000000000000E+000
  0.000000000000000E+000
  0.000000000000000E+000
  0.000000000000000E+000
  0.000000000000000E+000
  0.000000000000000E+000
  0.000000000000000E+000
  0.000000000000000E+000
  0.000000000000000E+000
  0.000000000000000E+000
  0.000000000000000E+000
  0.000000000000000E+000
  0.000000000000000E+000
  0.000000000000000E+000
  0.000000000000000E+000
  0.000000000000000E+000
  0.000000000000000E+000
  0.000000000000000E+000
  0.000000000000000E+000
  0.000000000000000E+000
  0.000000000000000E+000
  0.000000000000000E+000
  0.000000000000000E+000
  0.000000000000000E+000
  0.000000000000000E+000
  0.000000000000000E+000
  0.000000000000000E+000
  0.000000000000000E+000
  0.000000000000000E+000
  0.000000000000000E+000
  0.000000000000000E+000
  0.000000000000000E+000
  0.000000000000000E+000
  0.000000000000000E+000
  0.000000000000000E+000
  0.000000000000000E+000
  0.000000000000000E+000
  0.000000000000000E+000
  0.000000000000000E+000
  0.000000000000000E+000
  0.000000000000000E+000
  0.000000000000000E+000
  0.000000000000000E+000
  0.000000000000000E+000
  0.000000000000000E+000
  0.000000000000000E+000
  0.000000000000000E+000
  0.000000000000000E+000
  0.000000000000000E+000
  0.000000000000000E+000
  0.000000000000000E+000
  0.000000000000000E+000
  0.000000000000000E+000
  0.000000000000000E+000
  0.000000000000000E+000
  0.000000000000000E+000
  0.000000000000000E+000
  0.000000000000000E+000
  0.000000000000000E+000
  0.000000000000000E+000
  0.000000000000000E+000
  0.000000000000000E+000
  0.000000000000000E+000
  0.000000000000000E+000
  0.000000000000000E+000
  0.000000000000000E+000
  0.000000000000000E+000
  0.000000000000000E+000
  0.000000000000000E+000
  0.000000000000000E+000
  0.000000000000000E+000
  0.000000000000000E+000
  0.000000000000000E+000
  0.000000000000000E+000
  0.000000000000000E+000
  0.000000000000000E+000
  0.000000000000000E+000
  0.000000000000000E+000
  0.000000000000000E+000
  0.000000000000000E+000
  0.000000000000000E+000
  0.000000000000000E+000
  0.000000000000000E+000
  0.000000000000000E+000
  0.000000000000000E+000
  0.000000000000000E+000
  0.000000000000000E+000
  0.000000000000000E+000
  0.000000000000000E+000
  0.000000000000000E+000
  0.000000000000000E+000
  0.000000000000000E+000
  0.000000000000000E+000
  0.000000000000000E+000
  0.000000000000000E+000
  0.000000000000000E+000
  0.000000000000000E+000
  0.000000000000000E+000
  0.000000000000000E+000
  0.000000000000000E+000
  0.000000000000000E+000
  0.000000000000000E+000
  0.000000000000000E+000
  0.000000000000000E+000
  0.000000000000000E+000
  0.000000000000000E+000
  0.000000000000000E+000
  0.000000000000000E+000
  0.000000000000000E+000
  0.000000000000000E+000
  0.000000000000000E+000
  0.000000000000000E+000
  0.000000000000000E+000
  0.000000000000000E+000
  0.000000000000000E+000
  0.000000000000000E+000
  0.000000000000000E+000
  0.000000000000000E+000
  0.000000000000000E+000
  0.000000000000000E+000
  0.000000000000000E+000
  0.000000000000000E+000
  0.000000000000000E+000
  0.000000000000000E+000
  0.000000000000000E+000
  0.000000000000000E+000
  0.000000000000000E+000
  0.000000000000000E+000
  0.000000000000000E+000
  0.000000000000000E+000
  0.000000000000000E+000
  0.000000000000000E+000
  0.000000000000000E+000
  0.000000000000000E+000
  0.000000000000000E+000
  0.000000000000000E+000
  0.000000000000000E+000
  0.000000000000000E+000
  0.000000000000000E+000
  0.000000000000000E+000
  0.000000000000000E+000
  0.000000000000000E+000
  0.000000000000000E+000
  0.000000000000000E+000
  0.000000000000000E+000
  0.000000000000000E+000
  0.000000000000000E+000
  0.000000000000000E+000
  0.000000000000000E+000
  0.000000000000000E+000
  0.000000000000000E+000
  0.000000000000000E+000
  0.000000000000000E+000
  0.000000000000000E+000
  0.000000000000000E+000
  0.000000000000000E+000
  0.000000000000000E+000
  0.000000000000000E+000
  0.000000000000000E+000
  0.000000000000000E+000
  0.000000000000000E+000
  0.000000000000000E+000
  0.000000000000000E+000
  0.000000000000000E+000
  0.000000000000000E+000
  0.000000000000000E+000
  0.000000000000000E+000
  0.000000000000000E+000
  0.000000000000000E+000
  0.000000000000000E+000
  0.000000000000000E+000
  0.000000000000000E+000
  0.000000000000000E+000
  0.000000000000000E+000
  0.000000000000000E+000
  0.000000000000000E+000
  0.000000000000000E+000
  0.000000000000000E+000
  0.000000000000000E+000
  0.000000000000000E+000
  0.000000000000000E+000
  0.000000000000000E+000
  0.000000000000000E+000
  0.000000000000000E+000
  0.000000000000000E+000
  0.000000000000000E+000
  0.000000000000000E+000
  0.000000000000000E+000
  0.000000000000000E+000
  0.000000000000000E+000
  0.000000000000000E+000
  0.000000000000000E+000
  0.000000000000000E+000
  0.000000000000000E+000
  0.000000000000000E+000
  0.000000000000000E+000
  0.000000000000000E+000
  0.000000000000000E+000
  0.000000000000000E+000
  0.000000000000000E+000
  0.000000000000000E+000
  0.000000000000000E+000
  0.000000000000000E+000
  0.000000000000000E+000
  0.000000000000000E+000
  0.000000000000000E+000
  0.000000000000000E+000
  0.000000000000000E+000
  0.000000000000000E+000
  0.000000000000000E+000
  0.000000000000000E+000
  0.000000000000000E+000
  0.000000000000000E+000
  0.000000000000000E+000
  0.000000000000000E+000
  0.000000000000000E+000
  0.000000000000000E+000
  0.000000000000000E+000
  0.000000000000000E+000
  0.000000000000000E+000
  0.000000000000000E+000
  0.000000000000000E+000
  0.000000000000000E+000
  0.000000000000000E+000
  0.000000000000000E+000
  0.000000000000000E+000
  0.000000000000000E+000
  0.000000000000000E+000
  0.000000000000000E+000
  0.000000000000000E+000
  0.000000000000000E+000
  0.000000000000000E+000
  0.000000000000000E+000
  0.000000000000000E+000
  0.000000000000000E+000
  0.000000000000000E+000
  0.000000000000000E+000
  0.000000000000000E+000
  0.000000000000000E+000
  0.000000000000000E+000
  0.000000000000000E+000
  0.000000000000000E+000
  0.000000000000000E+000
  0.000000000000000E+000
  0.000000000000000E+000
  0.000000000000000E+000
  0.000000000000000E+000
  0.000000000000000E+000
  0.000000000000000E+000
  0.000000000000000E+000
  0.000000000000000E+000
  0.000000000000000E+000
  0.000000000000000E+000
  0.000000000000000E+000
  0.000000000000000E+000
  0.000000000000000E+000
  0.000000000000000E+000
  0.000000000000000E+000
  0.000000000000000E+000
  0.000000000000000E+000
  0.000000000000000E+000
  0.000000000000000E+000
  0.000000000000000E+000
  0.000000000000000E+000
  0.000000000000000E+000
  0.000000000000000E+000
  0.000000000000000E+000
  0.000000000000000E+000
  0.000000000000000E+000
  0.000000000000000E+000
  0.000000000000000E+000
  0.000000000000000E+000
  0.000000000000000E+000
  0.000000000000000E+000
  0.000000000000000E+000
  0.000000000000000E+000
  0.000000000000000E+000
  0.000000000000000E+000
  0.000000000000000E+000
  0.000000000000000E+000
  0.000000000000000E+000
  0.000000000000000E+000
  0.000000000000000E+000
  0.000000000000000E+000
  0.000000000000000E+000
  0.000000000000000E+000
  0.000000000000000E+000
  0.000000000000000E+000
  0.000000000000000E+000
  0.000000000000000E+000
  0.000000000000000E+000
  0.000000000000000E+000
  0.000000000000000E+000
  0.000000000000000E+000
  0.000000000000000E+000
  0.000000000000000E+000
  0.000000000000000E+000
  0.000000000000000E+000
  0.000000000000000E+000
  0.000000000000000E+000
  0.000000000000000E+000
  0.000000000000000E+000
  0.000000000000000E+000
  0.000000000000000E+000
  0.000000000000000E+000
  0.000000000000000E+000
  0.000000000000000E+000
  0.000000000000000E+000
  0.000000000000000E+000
  0.000000000000000E+000
  0.000000000000000E+000
  0.000000000000000E+000
  0.000000000000000E+000
  0.000000000000000E+000
  0.000000000000000E+000
  0.000000000000000E+000
  0.000000000000000E+000
  0.000000000000000E+000
  0.000000000000000E+000
  0.000000000000000E+000
  0.000000000000000E+000
  0.000000000000000E+000
  0.000000000000000E+000
  0.000000000000000E+000
  0.000000000000000E+000
  0.000000000000000E+000
  0.000000000000000E+000
  0.000000000000000E+000
  0.000000000000000E+000
  0.000000000000000E+000
  0.000000000000000E+000
  0.000000000000000E+000
  0.000000000000000E+000
  0.000000000000000E+000
  0.000000000000000E+000
  0.000000000000000E+000
  0.000000000000000E+000
  0.000000000000000E+000
  0.000000000000000E+000
  0.000000000000000E+000
  0.000000000000000E+000
  0.000000000000000E+000
  0.000000000000000E+000
  0.000000000000000E+000
  0.000000000000000E+000
  0.000000000000000E+000
  0.000000000000000E+000
  0.000000000000000E+000
  0.000000000000000E+000
  0.000000000000000E+000
  0.000000000000000E+000
  0.000000000000000E+000
  0.000000000000000E+000
  0.000000000000000E+000
  0.000000000000000E+000
  0.000000000000000E+000
  0.000000000000000E+000
  0.000000000000000E+000
  0.000000000000000E+000
  0.000000000000000E+000
  0.000000000000000E+000
  0.000000000000000E+000
  0.000000000000000E+000
  0.000000000000000E+000
  0.000000000000000E+000
  0.000000000000000E+000
  0.000000000000000E+000
  0.000000000000000E+000
  0.000000000000000E+000
  0.000000000000000E+000
  0.000000000000000E+000
  0.000000000000000E+000
  0.000000000000000E+000
  0.000000000000000E+000
  0.000000000000000E+000
  0.000000000000000E+000
  0.000000000000000E+000
  0.000000000000000E+000
  0.000000000000000E+000
  0.000000000000000E+000
  0.000000000000000E+000
  0.000000000000000E+000
  0.000000000000000E+000
  0.000000000000000E+000
  0.000000000000000E+000
  0.000000000000000E+000
  0.000000000000000E+000
  0.000000000000000E+000
  0.000000000000000E+000
  0.000000000000000E+000
  0.000000000000000E+000
  0.000000000000000E+000
  0.000000000000000E+000
  0.000000000000000E+000
  0.000000000000000E+000
  0.000000000000000E+000
  0.000000000000000E+000
  0.000000000000000E+000
  0.000000000000000E+000
  0.000000000000000E+000
  0.000000000000000E+000
  0.000000000000000E+000
  0.000000000000000E+000
  0.000000000000000E+000
  0.000000000000000E+000
  0.000000000000000E+000
  0.000000000000000E+000
  0.000000000000000E+000
  0.000000000000000E+000
  0.000000000000000E+000
  0.000000000000000E+000
  0.000000000000000E+000
  0.000000000000000E+000
  0.000000000000000E+000
  0.000000000000000E+000
  0.000000000000000E+000
  0.000000000000000E+000
  0.000000000000000E+000
  0.000000000000000E+000
  0.000000000000000E+000
  0.000000000000000E+000
  0.000000000000000E+000
  0.000000000000000E+000
  0.000000000000000E+000
  0.000000000000000E+000
  0.000000000000000E+000
  0.000000000000000E+000
  0.000000000000000E+000
  0.000000000000000E+000
  0.000000000000000E+000
  0.000000000000000E+000
  0.000000000000000E+000
  0.000000000000000E+000
  0.000000000000000E+000
  0.000000000000000E+000
  0.000000000000000E+000
  0.000000000000000E+000
  0.000000000000000E+000
  0.000000000000000E+000
  0.000000000000000E+000
  0.000000000000000E+000
  0.000000000000000E+000
  0.000000000000000E+000
  0.000000000000000E+000
  0.000000000000000E+000
  0.000000000000000E+000
  0.000000000000000E+000
  0.000000000000000E+000
  0.000000000000000E+000
  0.000000000000000E+000
  0.000000000000000E+000
  0.000000000000000E+000
  0.000000000000000E+000
  0.000000000000000E+000
  0.000000000000000E+000
  0.000000000000000E+000
  0.000000000000000E+000
  0.000000000000000E+000
  0.000000000000000E+000
  0.000000000000000E+000
  0.000000000000000E+000
  0.000000000000000E+000
  0.000000000000000E+000
  0.000000000000000E+000
  0.000000000000000E+000
  0.000000000000000E+000
  0.000000000000000E+000
  0.000000000000000E+000
  0.000000000000000E+000
  0.000000000000000E+000
  0.000000000000000E+000
  0.000000000000000E+000
  0.000000000000000E+000
  0.000000000000000E+000
  0.000000000000000E+000
  0.000000000000000E+000
  0.000000000000000E+000
  0.000000000000000E+000
  0.000000000000000E+000
  0.000000000000000E+000
  0.000000000000000E+000
  0.000000000000000E+000
  0.000000000000000E+000
  0.000000000000000E+000
  0.000000000000000E+000
  0.000000000000000E+000
  0.000000000000000E+000
  0.000000000000000E+000
  0.000000000000000E+000
  0.000000000000000E+000
  0.000000000000000E+000
  0.000000000000000E+000
  0.000000000000000E+000
  0.000000000000000E+000
  0.000000000000000E+000
  0.000000000000000E+000
  0.000000000000000E+000
  0.000000000000000E+000
  0.000000000000000E+000
  0.000000000000000E+000
  0.000000000000000E+000
  0.000000000000000E+000
  0.000000000000000E+000
  0.000000000000000E+000
  0.000000000000000E+000
  0.000000000000000E+000
  0.000000000000000E+000
  0.000000000000000E+000
  0.000000000000000E+000
  0.000000000000000E+000
  0.000000000000000E+000
  0.000000000000000E+000
  0.000000000000000E+000
  0.000000000000000E+000
  0.000000000000000E+000
  0.000000000000000E+000
  0.000000000000000E+000
  0.000000000000000E+000
  0.000000000000000E+000
  0.000000000000000E+000
  0.000000000000000E+000
  0.000000000000000E+000
  0.000000000000000E+000
  0.000000000000000E+000
  0.000000000000000E+000
  0.000000000000000E+000
  0.000000000000000E+000
  0.000000000000000E+000
  0.000000000000000E+000
  0.000000000000000E+000
  0.000000000000000E+000
  0.000000000000000E+000
  0.000000000000000E+000
  0.000000000000000E+000
  0.000000000000000E+000
  0.000000000000000E+000
  0.000000000000000E+000
  0.000000000000000E+000
  0.000000000000000E+000
  0.000000000000000E+000
  0.000000000000000E+000
  0.000000000000000E+000
  0.000000000000000E+000
  0.000000000000000E+000
  0.000000000000000E+000
  0.000000000000000E+000
  0.000000000000000E+000
  0.000000000000000E+000
  0.000000000000000E+000
  0.000000000000000E+000
  0.000000000000000E+000
  0.000000000000000E+000
  0.000000000000000E+000
  0.000000000000000E+000
  0.000000000000000E+000
  0.000000000000000E+000
  0.000000000000000E+000
  0.000000000000000E+000
  0.000000000000000E+000
  0.000000000000000E+000
  0.000000000000000E+000
  0.000000000000000E+000
  0.000000000000000E+000
  0.000000000000000E+000
  0.000000000000000E+000
  0.000000000000000E+000
  0.000000000000000E+000
  0.000000000000000E+000
  0.000000000000000E+000
  0.000000000000000E+000
  0.000000000000000E+000
  0.000000000000000E+000
  0.000000000000000E+000
  0.000000000000000E+000
  0.000000000000000E+000
  0.000000000000000E+000
  0.000000000000000E+000
  0.000000000000000E+000
  0.000000000000000E+000
  0.000000000000000E+000
  0.000000000000000E+000
  0.000000000000000E+000
  0.000000000000000E+000
  0.000000000000000E+000
  0.000000000000000E+000
  0.000000000000000E+000
  0.000000000000000E+000
  0.000000000000000E+000
  0.000000000000000E+000
  0.000000000000000E+000
  0.000000000000000E+000
  0.000000000000000E+000
  0.000000000000000E+000
  0.000000000000000E+000
  0.000000000000000E+000
  0.000000000000000E+000
  0.000000000000000E+000
  0.000000000000000E+000
  0.000000000000000E+000
  0.000000000000000E+000
  0.000000000000000E+000
  0.000000000000000E+000
  0.000000000000000E+000
  0.000000000000000E+000
  0.000000000000000E+000
  0.000000000000000E+000
  0.000000000000000E+000
  0.000000000000000E+000
  0.000000000000000E+000
  0.000000000000000E+000
  0.000000000000000E+000
  0.000000000000000E+000
  0.000000000000000E+000
  0.000000000000000E+000
  0.000000000000000E+000
  0.000000000000000E+000
  0.000000000000000E+000
  0.000000000000000E+000
  0.000000000000000E+000
  0.000000000000000E+000
  0.000000000000000E+000
  0.000000000000000E+000
  0.000000000000000E+000
  0.000000000000000E+000
  0.000000000000000E+000
  0.000000000000000E+000
  0.000000000000000E+000
  0.000000000000000E+000
  0.000000000000000E+000
  0.000000000000000E+000
  0.000000000000000E+000
  0.000000000000000E+000
  0.000000000000000E+000
  0.000000000000000E+000
  0.000000000000000E+000
  0.000000000000000E+000
  0.000000000000000E+000
  0.000000000000000E+000
  0.000000000000000E+000
  0.000000000000000E+000
  0.000000000000000E+000
  0.000000000000000E+000
  0.000000000000000E+000
  0.000000000000000E+000
  0.000000000000000E+000
  0.000000000000000E+000
  0.000000000000000E+000
  0.000000000000000E+000
  0.000000000000000E+000
  0.000000000000000E+000
  0.000000000000000E+000
  0.000000000000000E+000
  0.000000000000000E+000
  0.000000000000000E+000
  0.000000000000000E+000
  0.000000000000000E+000
  0.000000000000000E+000
  0.000000000000000E+000
  0.000000000000000E+000
  0.000000000000000E+000
  0.000000000000000E+000
  0.000000000000000E+000
  0.000000000000000E+000
  0.000000000000000E+000
  0.000000000000000E+000
  0.000000000000000E+000
  0.000000000000000E+000
  0.000000000000000E+000
  0.000000000000000E+000
  0.000000000000000E+000
  0.000000000000000E+000
  0.000000000000000E+000
  0.000000000000000E+000
  0.000000000000000E+000
  0.000000000000000E+000
  0.000000000000000E+000
  0.000000000000000E+000
  0.000000000000000E+000
  0.000000000000000E+000
  0.000000000000000E+000
  0.000000000000000E+000
  0.000000000000000E+000
  0.000000000000000E+000
  0.000000000000000E+000
  0.000000000000000E+000
  0.000000000000000E+000
  0.000000000000000E+000
  0.000000000000000E+000
  0.000000000000000E+000
  0.000000000000000E+000
  0.000000000000000E+000
  0.000000000000000E+000
  0.000000000000000E+000
  0.000000000000000E+000
  0.000000000000000E+000
  0.000000000000000E+000
  0.000000000000000E+000
  0.000000000000000E+000
  0.000000000000000E+000
  0.000000000000000E+000
  0.000000000000000E+000
  0.000000000000000E+000
  0.000000000000000E+000
  0.000000000000000E+000
  0.000000000000000E+000
  0.000000000000000E+000
  0.000000000000000E+000
  0.000000000000000E+000
  0.000000000000000E+000
  0.000000000000000E+000
  0.000000000000000E+000
  0.000000000000000E+000
  0.000000000000000E+000
  0.000000000000000E+000
  0.000000000000000E+000
  0.000000000000000E+000
  0.000000000000000E+000
  0.000000000000000E+000
  0.000000000000000E+000
  0.000000000000000E+000
  0.000000000000000E+000
  0.000000000000000E+000
  0.000000000000000E+000
  0.000000000000000E+000
  0.000000000000000E+000
  0.000000000000000E+000
  0.000000000000000E+000
  0.000000000000000E+000
  0.000000000000000E+000
  0.000000000000000E+000
  0.000000000000000E+000
  0.000000000000000E+000
  0.000000000000000E+000
  0.000000000000000E+000
  0.000000000000000E+000
  0.000000000000000E+000
  0.000000000000000E+000
  0.000000000000000E+000
  0.000000000000000E+000
  0.000000000000000E+000
  0.000000000000000E+000
  0.000000000000000E+000
  0.000000000000000E+000
  0.000000000000000E+000
  0.000000000000000E+000
  0.000000000000000E+000
  0.000000000000000E+000
  0.000000000000000E+000
  0.000000000000000E+000
  0.000000000000000E+000
  0.000000000000000E+000
  0.000000000000000E+000
  0.000000000000000E+000
  0.000000000000000E+000
  0.000000000000000E+000
  0.000000000000000E+000
  0.000000000000000E+000
  0.000000000000000E+000
  0.000000000000000E+000
  0.000000000000000E+000
  0.000000000000000E+000
  0.000000000000000E+000
  0.000000000000000E+000
  0.000000000000000E+000
  0.000000000000000E+000
  0.000000000000000E+000
  0.000000000000000E+000
  0.000000000000000E+000
  0.000000000000000E+000
  0.000000000000000E+000
  0.000000000000000E+000
  0.000000000000000E+000
  0.000000000000000E+000
  0.000000000000000E+000
  0.000000000000000E+000
  0.000000000000000E+000
  0.000000000000000E+000
  0.000000000000000E+000
  0.000000000000000E+000
  0.000000000000000E+000
  0.000000000000000E+000
  0.000000000000000E+000
  0.000000000000000E+000
  0.000000000000000E+000
  0.000000000000000E+000
  0.000000000000000E+000
  0.000000000000000E+000
  0.000000000000000E+000
  0.000000000000000E+000
  0.000000000000000E+000
  0.000000000000000E+000
  0.000000000000000E+000
  0.000000000000000E+000
  0.000000000000000E+000
  0.000000000000000E+000
  0.000000000000000E+000
  0.000000000000000E+000
  0.000000000000000E+000
  0.000000000000000E+000
  0.000000000000000E+000
  0.000000000000000E+000
  0.000000000000000E+000
  0.000000000000000E+000
  0.000000000000000E+000
  0.000000000000000E+000
  0.000000000000000E+000
  0.000000000000000E+000
  0.000000000000000E+000
  0.000000000000000E+000
  0.000000000000000E+000
  0.000000000000000E+000
  0.000000000000000E+000
  0.000000000000000E+000
  0.000000000000000E+000
  0.000000000000000E+000
  0.000000000000000E+000
  0.000000000000000E+000
  0.000000000000000E+000
  0.000000000000000E+000
  0.000000000000000E+000
  0.000000000000000E+000
  0.000000000000000E+000
  0.000000000000000E+000
  0.000000000000000E+000
  0.000000000000000E+000
  0.000000000000000E+000
  0.000000000000000E+000
  0.000000000000000E+000
  0.000000000000000E+000
  0.000000000000000E+000
  0.000000000000000E+000
  0.000000000000000E+000
  0.000000000000000E+000
  0.000000000000000E+000
  0.000000000000000E+000
  0.000000000000000E+000
  0.000000000000000E+000
  0.000000000000000E+000
  0.000000000000000E+000
  0.000000000000000E+000
  0.000000000000000E+000
  0.000000000000000E+000
  0.000000000000000E+000
  0.000000000000000E+000
  0.000000000000000E+000
  0.000000000000000E+000
  0.000000000000000E+000
  0.000000000000000E+000
  0.000000000000000E+000
  0.000000000000000E+000
  0.000000000000000E+000
  0.000000000000000E+000
  0.000000000000000E+000
  0.000000000000000E+000
  0.000000000000000E+000
  0.000000000000000E+000
  0.000000000000000E+000
  0.000000000000000E+000
  0.000000000000000E+000
  0.000000000000000E+000
  0.000000000000000E+000
  0.000000000000000E+000
  0.000000000000000E+000
  0.000000000000000E+000
  0.000000000000000E+000
  0.000000000000000E+000
  0.000000000000000E+000
  0.000000000000000E+000
  0.000000000000000E+000
  0.000000000000000E+000
  0.000000000000000E+000
  0.000000000000000E+000
  0.000000000000000E+000
  0.000000000000000E+000
  0.000000000000000E+000
  0.000000000000000E+000
  0.000000000000000E+000
  0.000000000000000E+000
  0.000000000000000E+000
  0.000000000000000E+000
  0.000000000000000E+000
  0.000000000000000E+000
  0.000000000000000E+000
  0.000000000000000E+000
  0.000000000000000E+000
  0.000000000000000E+000
  0.000000000000000E+000
  0.000000000000000E+000
  0.000000000000000E+000
  0.000000000000000E+000
  0.000000000000000E+000
  0.000000000000000E+000
  0.000000000000000E+000
  0.000000000000000E+000
  0.000000000000000E+000
  0.000000000000000E+000
  0.000000000000000E+000
  0.000000000000000E+000
  0.000000000000000E+000
  0.000000000000000E+000
  0.000000000000000E+000
  0.000000000000000E+000
  0.000000000000000E+000
  0.000000000000000E+000
  0.000000000000000E+000
  0.000000000000000E+000
  0.000000000000000E+000
  0.000000000000000E+000
  0.000000000000000E+000
  0.000000000000000E+000
  0.000000000000000E+000
  0.000000000000000E+000
  0.000000000000000E+000
  0.000000000000000E+000
  0.000000000000000E+000
  0.000000000000000E+000
  0.000000000000000E+000
  0.000000000000000E+000
  0.000000000000000E+000
  0.000000000000000E+000
  0.000000000000000E+000
  0.000000000000000E+000
  0.000000000000000E+000
  0.000000000000000E+000
  0.000000000000000E+000
  0.000000000000000E+000
  0.000000000000000E+000
  0.000000000000000E+000
  0.000000000000000E+000
  0.000000000000000E+000
  0.000000000000000E+000
  0.000000000000000E+000
  0.000000000000000E+000
  0.000000000000000E+000
  0.000000000000000E+000
  0.000000000000000E+000
  0.000000000000000E+000
  0.000000000000000E+000
  0.000000000000000E+000
  0.000000000000000E+000
  0.000000000000000E+000
  0.000000000000000E+000
  0.000000000000000E+000
  0.000000000000000E+000
  0.000000000000000E+000
  0.000000000000000E+000
  0.000000000000000E+000
  0.000000000000000E+000
  0.000000000000000E+000
  0.000000000000000E+000
  0.000000000000000E+000
  0.000000000000000E+000
  0.000000000000000E+000
  0.000000000000000E+000
  0.000000000000000E+000
  0.000000000000000E+000
  0.000000000000000E+000
  0.000000000000000E+000
  0.000000000000000E+000
  0.000000000000000E+000
  0.000000000000000E+000
  0.000000000000000E+000
  0.000000000000000E+000
  0.000000000000000E+000
  0.000000000000000E+000
  0.000000000000000E+000
  0.000000000000000E+000
  0.000000000000000E+000
  0.000000000000000E+000
  0.000000000000000E+000
  0.000000000000000E+000
  0.000000000000000E+000
  0.000000000000000E+000
  0.000000000000000E+000
  0.000000000000000E+000
  0.000000000000000E+000
  0.000000000000000E+000
  0.000000000000000E+000
  0.000000000000000E+000
  0.000000000000000E+000
  0.000000000000000E+000
  0.000000000000000E+000
  0.000000000000000E+000
  0.000000000000000E+000
  0.000000000000000E+000
  0.000000000000000E+000
  0.000000000000000E+000
  0.000000000000000E+000
  0.000000000000000E+000
  0.000000000000000E+000
  0.000000000000000E+000
  0.000000000000000E+000
  0.000000000000000E+000
  0.000000000000000E+000
  0.000000000000000E+000
  0.000000000000000E+000
  0.000000000000000E+000
  0.000000000000000E+000
  0.000000000000000E+000
  0.000000000000000E+000
  0.000000000000000E+000
  0.000000000000000E+000
  0.000000000000000E+000
  0.000000000000000E+000
  0.000000000000000E+000
  0.000000000000000E+000
  0.000000000000000E+000
  0.000000000000000E+000
  0.000000000000000E+000
  0.000000000000000E+000
  0.000000000000000E+000
  0.000000000000000E+000
  0.000000000000000E+000
  0.000000000000000E+000
  0.000000000000000E+000
  0.000000000000000E+000
  0.000000000000000E+000
  0.000000000000000E+000
  0.000000000000000E+000
  0.000000000000000E+000
  0.000000000000000E+000
  0.000000000000000E+000
  0.000000000000000E+000
  0.000000000000000E+000
  0.000000000000000E+000
  0.000000000000000E+000
  0.000000000000000E+000
  0.000000000000000E+000
  0.000000000000000E+000
  0.000000000000000E+000
  0.000000000000000E+000
  0.000000000000000E+000
  0.000000000000000E+000
  0.000000000000000E+000
  0.000000000000000E+000
  0.000000000000000E+000
  0.000000000000000E+000
  0.000000000000000E+000
  0.000000000000000E+000
  0.000000000000000E+000
  0.000000000000000E+000
  0.000000000000000E+000
  0.000000000000000E+000
  0.000000000000000E+000
  0.000000000000000E+000
  0.000000000000000E+000
  0.000000000000000E+000
  0.000000000000000E+000
  0.000000000000000E+000
  0.000000000000000E+000
  0.000000000000000E+000
  0.000000000000000E+000
  0.000000000000000E+000
  0.000000000000000E+000
  0.000000000000000E+000
  0.000000000000000E+000
  0.000000000000000E+000
  0.000000000000000E+000
  0.000000000000000E+000
  0.000000000000000E+000
  0.000000000000000E+000
  0.000000000000000E+000
  0.000000000000000E+000
  0.000000000000000E+000
  0.000000000000000E+000
  0.000000000000000E+000
  0.000000000000000E+000
  0.000000000000000E+000
  0.000000000000000E+000
  0.000000000000000E+000
  0.000000000000000E+000
  0.000000000000000E+000
  0.000000000000000E+000
  0.000000000000000E+000
  0.000000000000000E+000
  0.000000000000000E+000
  0.000000000000000E+000
  0.000000000000000E+000
  0.000000000000000E+000
  0.000000000000000E+000
  0.000000000000000E+000
  0.000000000000000E+000
  0.000000000000000E+000
  0.000000000000000E+000
  0.000000000000000E+000
  0.000000000000000E+000
  0.000000000000000E+000
  0.000000000000000E+000
  0.000000000000000E+000
  0.000000000000000E+000
  0.000000000000000E+000
  0.000000000000000E+000
  0.000000000000000E+000
  0.000000000000000E+000
  0.000000000000000E+000
  0.000000000000000E+000
  0.000000000000000E+000
  0.000000000000000E+000
  0.000000000000000E+000
  0.000000000000000E+000
  0.000000000000000E+000
  0.000000000000000E+000
  0.000000000000000E+000
  0.000000000000000E+000
  0.000000000000000E+000
  0.000000000000000E+000
  0.000000000000000E+000
  0.000000000000000E+000
  0.000000000000000E+000
  0.000000000000000E+000
  0.000000000000000E+000
  0.000000000000000E+000
  0.000000000000000E+000
  0.000000000000000E+000
  0.000000000000000E+000
  0.000000000000000E+000
  0.000000000000000E+000
  0.000000000000000E+000
  0.000000000000000E+000
  0.000000000000000E+000
  0.000000000000000E+000
  0.000000000000000E+000
  0.000000000000000E+000
  0.000000000000000E+000
  0.000000000000000E+000
  0.000000000000000E+000
  0.000000000000000E+000
  0.000000000000000E+000
  0.000000000000000E+000
  0.000000000000000E+000
  0.000000000000000E+000
  0.000000000000000E+000
  0.000000000000000E+000
  0.000000000000000E+000
  0.000000000000000E+000
  0.000000000000000E+000
  0.000000000000000E+000
  0.000000000000000E+000
  0.000000000000000E+000
  0.000000000000000E+000
  0.000000000000000E+000
  0.000000000000000E+000
  0.000000000000000E+000
  0.000000000000000E+000
  0.000000000000000E+000
  0.000000000000000E+000
  0.000000000000000E+000
  0.000000000000000E+000
  0.000000000000000E+000
  0.000000000000000E+000
  0.000000000000000E+000
  0.000000000000000E+000
  0.000000000000000E+000
  0.000000000000000E+000
  0.000000000000000E+000
  0.000000000000000E+000
  0.000000000000000E+000
  0.000000000000000E+000
  0.000000000000000E+000
  0.000000000000000E+000
  0.000000000000000E+000
  0.000000000000000E+000
  0.000000000000000E+000
  0.000000000000000E+000
  0.000000000000000E+000
  0.000000000000000E+000
  0.000000000000000E+000
  0.000000000000000E+000
  0.000000000000000E+000
  0.000000000000000E+000
  0.000000000000000E+000
  0.000000000000000E+000
  0.000000000000000E+000
  0.000000000000000E+000
  0.000000000000000E+000
  0.000000000000000E+000
  0.000000000000000E+000
  0.000000000000000E+000
  0.000000000000000E+000
  0.000000000000000E+000
  0.000000000000000E+000
  0.000000000000000E+000
  0.000000000000000E+000
  0.000000000000000E+000
  0.000000000000000E+000
  0.000000000000000E+000
  0.000000000000000E+000
  0.000000000000000E+000
  0.000000000000000E+000
  0.000000000000000E+000
  0.000000000000000E+000
  0.000000000000000E+000
  0.000000000000000E+000
  0.000000000000000E+000
  0.000000000000000E+000
  0.000000000000000E+000
  0.000000000000000E+000
  0.000000000000000E+000
  0.000000000000000E+000
  0.000000000000000E+000
  0.000000000000000E+000
  0.000000000000000E+000
  0.000000000000000E+000
  0.000000000000000E+000
  0.000000000000000E+000
  0.000000000000000E+000
  0.000000000000000E+000
  0.000000000000000E+000
  0.000000000000000E+000
  0.000000000000000E+000
  0.000000000000000E+000
  0.000000000000000E+000
  0.000000000000000E+000
  0.000000000000000E+000
  0.000000000000000E+000
  0.000000000000000E+000
  0.000000000000000E+000
  0.000000000000000E+000
  0.000000000000000E+000
  0.000000000000000E+000
  0.000000000000000E+000
  0.000000000000000E+000
  0.000000000000000E+000
  0.000000000000000E+000
  0.000000000000000E+000
  0.000000000000000E+000
  0.000000000000000E+000
  0.000000000000000E+000
  0.000000000000000E+000
  0.000000000000000E+000
  0.000000000000000E+000
  0.000000000000000E+000
  0.000000000000000E+000
  0.000000000000000E+000
  0.000000000000000E+000
  0.000000000000000E+000
  0.000000000000000E+000
  0.000000000000000E+000
  0.000000000000000E+000
  0.000000000000000E+000
  0.000000000000000E+000
  0.000000000000000E+000
  0.000000000000000E+000
  0.000000000000000E+000
  0.000000000000000E+000
  0.000000000000000E+000
  0.000000000000000E+000
  0.000000000000000E+000
  0.000000000000000E+000
  0.000000000000000E+000
  0.000000000000000E+000
  0.000000000000000E+000
  0.000000000000000E+000
  0.000000000000000E+000
  0.000000000000000E+000
  0.000000000000000E+000
  0.000000000000000E+000
  0.000000000000000E+000
  0.000000000000000E+000
  0.000000000000000E+000
  0.000000000000000E+000
  0.000000000000000E+000
  0.000000000000000E+000
  0.000000000000000E+000
  0.000000000000000E+000
  0.000000000000000E+000
  0.000000000000000E+000
  0.000000000000000E+000
  0.000000000000000E+000
  0.000000000000000E+000
  0.000000000000000E+000
  0.000000000000000E+000
  0.000000000000000E+000
  0.000000000000000E+000
  0.000000000000000E+000
  0.000000000000000E+000
  0.000000000000000E+000
  0.000000000000000E+000
  0.000000000000000E+000
  0.000000000000000E+000
  0.000000000000000E+000
  0.000000000000000E+000
  0.000000000000000E+000
  0.000000000000000E+000
  0.000000000000000E+000
  0.000000000000000E+000
  0.000000000000000E+000
  0.000000000000000E+000
  0.000000000000000E+000
  0.000000000000000E+000
  0.000000000000000E+000
  0.000000000000000E+000
  0.000000000000000E+000
  0.000000000000000E+000
  0.000000000000000E+000
  0.000000000000000E+000
  0.000000000000000E+000
  0.000000000000000E+000
  0.000000000000000E+000
  0.000000000000000E+000
  0.000000000000000E+000
  0.000000000000000E+000
  0.000000000000000E+000
  0.000000000000000E+000
  0.000000000000000E+000
  0.000000000000000E+000
  0.000000000000000E+000
  0.000000000000000E+000
  0.000000000000000E+000
  0.000000000000000E+000
  0.000000000000000E+000
  0.000000000000000E+000
  0.000000000000000E+000
  0.000000000000000E+000
  0.000000000000000E+000
  0.000000000000000E+000
  0.000000000000000E+000
  0.000000000000000E+000
  0.000000000000000E+000
  0.000000000000000E+000
  0.000000000000000E+000
  0.000000000000000E+000
  0.000000000000000E+000
  0.000000000000000E+000
  0.000000000000000E+000
  0.000000000000000E+000
  0.000000000000000E+000
  0.000000000000000E+000
  0.000000000000000E+000
  0.000000000000000E+000
  0.000000000000000E+000
  0.000000000000000E+000
  0.000000000000000E+000
  0.000000000000000E+000
  0.000000000000000E+000
  0.000000000000000E+000
  0.000000000000000E+000
  0.000000000000000E+000
  0.000000000000000E+000
  0.000000000000000E+000
  0.000000000000000E+000
  0.000000000000000E+000
  0.000000000000000E+000
  0.000000000000000E+000
  0.000000000000000E+000
  0.000000000000000E+000
  0.000000000000000E+000
  0.000000000000000E+000
  0.000000000000000E+000
  0.000000000000000E+000
  0.000000000000000E+000
  0.000000000000000E+000
  0.000000000000000E+000
  0.000000000000000E+000
  0.000000000000000E+000
  0.000000000000000E+000
  0.000000000000000E+000
  0.000000000000000E+000
  0.000000000000000E+000
  0.000000000000000E+000
  0.000000000000000E+000
  0.000000000000000E+000
  0.000000000000000E+000
  0.000000000000000E+000
  0.000000000000000E+000
  0.000000000000000E+000
  0.000000000000000E+000
  0.000000000000000E+000
  0.000000000000000E+000
  0.000000000000000E+000
  0.000000000000000E+000
  0.000000000000000E+000
  0.000000000000000E+000
  0.000000000000000E+000
  0.000000000000000E+000
  0.000000000000000E+000
  0.000000000000000E+000
  0.000000000000000E+000
  0.000000000000000E+000
  0.000000000000000E+000
  0.000000000000000E+000
  0.000000000000000E+000
  0.000000000000000E+000
  0.000000000000000E+000
  0.000000000000000E+000
  0.000000000000000E+000
  0.000000000000000E+000
  0.000000000000000E+000
  0.000000000000000E+000
  0.000000000000000E+000
  0.000000000000000E+000
  0.000000000000000E+000
  0.000000000000000E+000
  0.000000000000000E+000
  0.000000000000000E+000
  0.000000000000000E+000
  0.000000000000000E+000
  0.000000000000000E+000
  0.000000000000000E+000
  0.000000000000000E+000
  0.000000000000000E+000
  0.000000000000000E+000
  0.000000000000000E+000
  0.000000000000000E+000
  0.000000000000000E+000
  0.000000000000000E+000
  0.000000000000000E+000
  0.000000000000000E+000
  0.000000000000000E+000
  0.000000000000000E+000
  0.000000000000000E+000
  0.000000000000000E+000
  0.000000000000000E+000
  0.000000000000000E+000
  0.000000000000000E+000
  0.000000000000000E+000
  0.000000000000000E+000
  0.000000000000000E+000
  0.000000000000000E+000
  0.000000000000000E+000
  0.000000000000000E+000
  0.000000000000000E+000
  0.000000000000000E+000
  0.000000000000000E+000
  0.000000000000000E+000
  0.000000000000000E+000
  0.000000000000000E+000
  0.000000000000000E+000
  0.000000000000000E+000
  0.000000000000000E+000
  0.000000000000000E+000
  0.000000000000000E+000
  0.000000000000000E+000
  0.000000000000000E+000
  0.000000000000000E+000
  0.000000000000000E+000
  0.000000000000000E+000
  0.000000000000000E+000
  0.000000000000000E+000
  0.000000000000000E+000
  0.000000000000000E+000
  0.000000000000000E+000
  0.000000000000000E+000
  0.000000000000000E+000
  0.000000000000000E+000
  0.000000000000000E+000
  0.000000000000000E+000
  0.000000000000000E+000
  0.000000000000000E+000
  0.000000000000000E+000
  0.000000000000000E+000
  0.000000000000000E+000
  0.000000000000000E+000
  0.000000000000000E+000
  0.000000000000000E+000
  0.000000000000000E+000
  0.000000000000000E+000
  0.000000000000000E+000
  0.000000000000000E+000
  0.000000000000000E+000
  0.000000000000000E+000
  0.000000000000000E+000
  0.000000000000000E+000
  0.000000000000000E+000
  0.000000000000000E+000
  0.000000000000000E+000
  0.000000000000000E+000
  0.000000000000000E+000
  0.000000000000000E+000
  0.000000000000000E+000
  0.000000000000000E+000
  0.000000000000000E+000
  0.000000000000000E+000
  0.000000000000000E+000
  0.000000000000000E+000
  0.000000000000000E+000
  0.000000000000000E+000
  0.000000000000000E+000
  0.000000000000000E+000
  0.000000000000000E+000
  0.000000000000000E+000
  0.000000000000000E+000
  0.000000000000000E+000
  0.000000000000000E+000
  0.000000000000000E+000
  0.000000000000000E+000
  0.000000000000000E+000
  0.000000000000000E+000
  0.000000000000000E+000
  0.000000000000000E+000
  0.000000000000000E+000
  0.000000000000000E+000
  0.000000000000000E+000
  0.000000000000000E+000
  0.000000000000000E+000
  0.000000000000000E+000
  0.000000000000000E+000
  0.000000000000000E+000
  0.000000000000000E+000
  0.000000000000000E+000
  0.000000000000000E+000
  0.000000000000000E+000
  0.000000000000000E+000
  0.000000000000000E+000
  0.000000000000000E+000
  0.000000000000000E+000
  0.000000000000000E+000
  0.000000000000000E+000
  0.000000000000000E+000
  0.000000000000000E+000
  0.000000000000000E+000
  0.000000000000000E+000
  0.000000000000000E+000
  0.000000000000000E+000
  0.000000000000000E+000
  0.000000000000000E+000
  0.000000000000000E+000
  0.000000000000000E+000
  0.000000000000000E+000
  0.000000000000000E+000
  0.000000000000000E+000
  0.000000000000000E+000
  0.000000000000000E+000
  0.000000000000000E+000
  0.000000000000000E+000
  0.000000000000000E+000
  0.000000000000000E+000
  0.000000000000000E+000
  0.000000000000000E+000
  0.000000000000000E+000
  0.000000000000000E+000
  0.000000000000000E+000
  0.000000000000000E+000
  0.000000000000000E+000
  0.000000000000000E+000
  0.000000000000000E+000
  0.000000000000000E+000
  0.000000000000000E+000
  0.000000000000000E+000
  0.000000000000000E+000
  0.000000000000000E+000
SCALARS elementIsPlast double 
LOOKUP_TABLE default
  0.000000000000000E+000
  0.000000000000000E+000
  0.000000000000000E+000
  0.000000000000000E+000
  0.000000000000000E+000
  0.000000000000000E+000
  0.000000000000000E+000
  0.000000000000000E+000
  0.000000000000000E+000
  0.000000000000000E+000
  0.000000000000000E+000
  0.000000000000000E+000
  0.000000000000000E+000
  0.000000000000000E+000
  0.000000000000000E+000
  0.000000000000000E+000
  0.000000000000000E+000
  0.000000000000000E+000
  0.000000000000000E+000
  0.000000000000000E+000
  0.000000000000000E+000
  0.000000000000000E+000
  0.000000000000000E+000
  0.000000000000000E+000
  0.000000000000000E+000
  0.000000000000000E+000
  0.000000000000000E+000
  0.000000000000000E+000
  0.000000000000000E+000
  0.000000000000000E+000
  0.000000000000000E+000
  0.000000000000000E+000
  0.000000000000000E+000
  0.000000000000000E+000
  0.000000000000000E+000
  0.000000000000000E+000
  0.000000000000000E+000
  0.000000000000000E+000
  0.000000000000000E+000
  0.000000000000000E+000
  0.000000000000000E+000
  0.000000000000000E+000
  0.000000000000000E+000
  0.000000000000000E+000
  0.000000000000000E+000
  0.000000000000000E+000
  0.000000000000000E+000
  0.000000000000000E+000
  0.000000000000000E+000
  0.000000000000000E+000
  0.000000000000000E+000
  0.000000000000000E+000
  0.000000000000000E+000
  0.000000000000000E+000
  0.000000000000000E+000
  0.000000000000000E+000
  0.000000000000000E+000
  0.000000000000000E+000
  0.000000000000000E+000
  0.000000000000000E+000
  0.000000000000000E+000
  0.000000000000000E+000
  0.000000000000000E+000
  0.000000000000000E+000
  0.000000000000000E+000
  0.000000000000000E+000
  0.000000000000000E+000
  0.000000000000000E+000
  0.000000000000000E+000
  0.000000000000000E+000
  0.000000000000000E+000
  0.000000000000000E+000
  0.000000000000000E+000
  0.000000000000000E+000
  0.000000000000000E+000
  0.000000000000000E+000
  0.000000000000000E+000
  0.000000000000000E+000
  0.000000000000000E+000
  0.000000000000000E+000
  0.000000000000000E+000
  0.000000000000000E+000
  0.000000000000000E+000
  0.000000000000000E+000
  0.000000000000000E+000
  0.000000000000000E+000
  0.000000000000000E+000
  0.000000000000000E+000
  0.000000000000000E+000
  0.000000000000000E+000
  0.000000000000000E+000
  0.000000000000000E+000
  0.000000000000000E+000
  0.000000000000000E+000
  0.000000000000000E+000
  0.000000000000000E+000
  0.000000000000000E+000
  0.000000000000000E+000
  0.000000000000000E+000
  0.000000000000000E+000
  0.000000000000000E+000
  0.000000000000000E+000
  0.000000000000000E+000
  0.000000000000000E+000
  0.000000000000000E+000
  0.000000000000000E+000
  0.000000000000000E+000
  0.000000000000000E+000
  0.000000000000000E+000
  0.000000000000000E+000
  0.000000000000000E+000
  0.000000000000000E+000
  0.000000000000000E+000
  0.000000000000000E+000
  0.000000000000000E+000
  0.000000000000000E+000
  0.000000000000000E+000
  0.000000000000000E+000
  0.000000000000000E+000
  0.000000000000000E+000
  0.000000000000000E+000
  0.000000000000000E+000
  0.000000000000000E+000
  0.000000000000000E+000
  0.000000000000000E+000
  0.000000000000000E+000
  0.000000000000000E+000
  0.000000000000000E+000
  0.000000000000000E+000
  0.000000000000000E+000
  0.000000000000000E+000
  0.000000000000000E+000
  0.000000000000000E+000
  0.000000000000000E+000
  0.000000000000000E+000
  0.000000000000000E+000
  0.000000000000000E+000
  0.000000000000000E+000
  0.000000000000000E+000
  0.000000000000000E+000
  0.000000000000000E+000
  0.000000000000000E+000
  0.000000000000000E+000
  0.000000000000000E+000
  0.000000000000000E+000
  0.000000000000000E+000
  0.000000000000000E+000
  0.000000000000000E+000
  0.000000000000000E+000
  0.000000000000000E+000
  0.000000000000000E+000
  0.000000000000000E+000
  0.000000000000000E+000
  0.000000000000000E+000
  0.000000000000000E+000
  0.000000000000000E+000
  0.000000000000000E+000
  0.000000000000000E+000
  0.000000000000000E+000
  0.000000000000000E+000
  0.000000000000000E+000
  0.000000000000000E+000
  0.000000000000000E+000
  0.000000000000000E+000
  0.000000000000000E+000
  0.000000000000000E+000
  0.000000000000000E+000
  0.000000000000000E+000
  0.000000000000000E+000
  0.000000000000000E+000
  0.000000000000000E+000
  0.000000000000000E+000
  0.000000000000000E+000
  0.000000000000000E+000
  0.000000000000000E+000
  0.000000000000000E+000
  0.000000000000000E+000
  0.000000000000000E+000
  0.000000000000000E+000
  0.000000000000000E+000
  0.000000000000000E+000
  0.000000000000000E+000
  0.000000000000000E+000
  0.000000000000000E+000
  0.000000000000000E+000
  0.000000000000000E+000
  0.000000000000000E+000
  0.000000000000000E+000
  0.000000000000000E+000
  0.000000000000000E+000
  0.000000000000000E+000
  0.000000000000000E+000
  0.000000000000000E+000
  0.000000000000000E+000
  0.000000000000000E+000
  0.000000000000000E+000
  0.000000000000000E+000
  0.000000000000000E+000
  0.000000000000000E+000
  0.000000000000000E+000
  0.000000000000000E+000
  0.000000000000000E+000
  0.000000000000000E+000
  0.000000000000000E+000
  0.000000000000000E+000
  0.000000000000000E+000
  0.000000000000000E+000
  0.000000000000000E+000
  0.000000000000000E+000
  0.000000000000000E+000
  0.000000000000000E+000
  0.000000000000000E+000
  0.000000000000000E+000
  0.000000000000000E+000
  0.000000000000000E+000
  0.000000000000000E+000
  0.000000000000000E+000
  0.000000000000000E+000
  0.000000000000000E+000
  0.000000000000000E+000
  0.000000000000000E+000
  0.000000000000000E+000
  0.000000000000000E+000
  0.000000000000000E+000
  0.000000000000000E+000
  0.000000000000000E+000
  0.000000000000000E+000
  0.000000000000000E+000
  0.000000000000000E+000
  0.000000000000000E+000
  0.000000000000000E+000
  0.000000000000000E+000
  0.000000000000000E+000
  0.000000000000000E+000
  0.000000000000000E+000
  0.000000000000000E+000
  0.000000000000000E+000
  0.000000000000000E+000
  0.000000000000000E+000
  0.000000000000000E+000
  0.000000000000000E+000
  0.000000000000000E+000
  0.000000000000000E+000
  0.000000000000000E+000
  0.000000000000000E+000
  0.000000000000000E+000
  0.000000000000000E+000
  0.000000000000000E+000
  0.000000000000000E+000
  0.000000000000000E+000
  0.000000000000000E+000
  0.000000000000000E+000
  0.000000000000000E+000
  0.000000000000000E+000
  0.000000000000000E+000
  0.000000000000000E+000
  0.000000000000000E+000
  0.000000000000000E+000
  0.000000000000000E+000
  0.000000000000000E+000
  0.000000000000000E+000
  0.000000000000000E+000
  0.000000000000000E+000
  0.000000000000000E+000
  0.000000000000000E+000
  0.000000000000000E+000
  0.000000000000000E+000
  0.000000000000000E+000
  0.000000000000000E+000
  0.000000000000000E+000
  0.000000000000000E+000
  0.000000000000000E+000
  0.000000000000000E+000
  0.000000000000000E+000
  0.000000000000000E+000
  0.000000000000000E+000
  0.000000000000000E+000
  0.000000000000000E+000
  0.000000000000000E+000
  0.000000000000000E+000
  0.000000000000000E+000
  0.000000000000000E+000
  0.000000000000000E+000
  0.000000000000000E+000
  0.000000000000000E+000
  0.000000000000000E+000
  0.000000000000000E+000
  0.000000000000000E+000
  0.000000000000000E+000
  0.000000000000000E+000
  0.000000000000000E+000
  0.000000000000000E+000
  0.000000000000000E+000
  0.000000000000000E+000
  0.000000000000000E+000
  0.000000000000000E+000
  0.000000000000000E+000
  0.000000000000000E+000
  0.000000000000000E+000
  0.000000000000000E+000
  0.000000000000000E+000
  0.000000000000000E+000
  0.000000000000000E+000
  0.000000000000000E+000
  0.000000000000000E+000
  0.000000000000000E+000
  0.000000000000000E+000
  0.000000000000000E+000
  0.000000000000000E+000
  0.000000000000000E+000
  0.000000000000000E+000
  0.000000000000000E+000
  0.000000000000000E+000
  0.000000000000000E+000
  0.000000000000000E+000
  0.000000000000000E+000
  0.000000000000000E+000
  0.000000000000000E+000
  0.000000000000000E+000
  0.000000000000000E+000
  0.000000000000000E+000
  0.000000000000000E+000
  0.000000000000000E+000
  0.000000000000000E+000
  0.000000000000000E+000
  0.000000000000000E+000
  0.000000000000000E+000
  0.000000000000000E+000
  0.000000000000000E+000
  0.000000000000000E+000
  0.000000000000000E+000
  0.000000000000000E+000
  0.000000000000000E+000
  0.000000000000000E+000
  0.000000000000000E+000
  0.000000000000000E+000
  0.000000000000000E+000
  0.000000000000000E+000
  0.000000000000000E+000
  0.000000000000000E+000
  0.000000000000000E+000
  0.000000000000000E+000
  0.000000000000000E+000
  0.000000000000000E+000
  0.000000000000000E+000
  0.000000000000000E+000
  0.000000000000000E+000
  0.000000000000000E+000
  0.000000000000000E+000
  0.000000000000000E+000
  0.000000000000000E+000
  0.000000000000000E+000
  0.000000000000000E+000
  0.000000000000000E+000
  0.000000000000000E+000
  0.000000000000000E+000
  0.000000000000000E+000
  0.000000000000000E+000
  0.000000000000000E+000
  0.000000000000000E+000
  0.000000000000000E+000
  0.000000000000000E+000
  0.000000000000000E+000
  0.000000000000000E+000
  0.000000000000000E+000
  0.000000000000000E+000
  0.000000000000000E+000
  0.000000000000000E+000
  0.000000000000000E+000
  0.000000000000000E+000
  0.000000000000000E+000
  0.000000000000000E+000
  0.000000000000000E+000
  0.000000000000000E+000
  0.000000000000000E+000
  0.000000000000000E+000
  0.000000000000000E+000
  0.000000000000000E+000
  0.000000000000000E+000
  0.000000000000000E+000
  0.000000000000000E+000
  0.000000000000000E+000
  0.000000000000000E+000
  0.000000000000000E+000
  0.000000000000000E+000
  0.000000000000000E+000
  0.000000000000000E+000
  0.000000000000000E+000
  0.000000000000000E+000
  0.000000000000000E+000
  0.000000000000000E+000
  0.000000000000000E+000
  0.000000000000000E+000
  0.000000000000000E+000
  0.000000000000000E+000
  0.000000000000000E+000
  0.000000000000000E+000
  0.000000000000000E+000
  0.000000000000000E+000
  0.000000000000000E+000
  0.000000000000000E+000
  0.000000000000000E+000
  0.000000000000000E+000
  0.000000000000000E+000
  0.000000000000000E+000
  0.000000000000000E+000
  0.000000000000000E+000
  0.000000000000000E+000
  0.000000000000000E+000
  0.000000000000000E+000
  0.000000000000000E+000
  0.000000000000000E+000
  0.000000000000000E+000
  0.000000000000000E+000
  0.000000000000000E+000
  0.000000000000000E+000
  0.000000000000000E+000
  0.000000000000000E+000
  0.000000000000000E+000
  0.000000000000000E+000
  0.000000000000000E+000
  0.000000000000000E+000
  0.000000000000000E+000
  0.000000000000000E+000
  0.000000000000000E+000
  0.000000000000000E+000
  0.000000000000000E+000
  0.000000000000000E+000
  0.000000000000000E+000
  0.000000000000000E+000
  0.000000000000000E+000
  0.000000000000000E+000
  0.000000000000000E+000
  0.000000000000000E+000
  0.000000000000000E+000
  0.000000000000000E+000
  0.000000000000000E+000
  0.000000000000000E+000
  0.000000000000000E+000
  0.000000000000000E+000
  0.000000000000000E+000
  0.000000000000000E+000
  0.000000000000000E+000
  0.000000000000000E+000
  0.000000000000000E+000
  0.000000000000000E+000
  0.000000000000000E+000
  0.000000000000000E+000
  0.000000000000000E+000
  0.000000000000000E+000
  0.000000000000000E+000
  0.000000000000000E+000
  0.000000000000000E+000
  0.000000000000000E+000
  0.000000000000000E+000
  0.000000000000000E+000
  0.000000000000000E+000
  0.000000000000000E+000
  0.000000000000000E+000
  0.000000000000000E+000
  0.000000000000000E+000
  0.000000000000000E+000
  0.000000000000000E+000
  0.000000000000000E+000
  0.000000000000000E+000
  0.000000000000000E+000
  0.000000000000000E+000
  0.000000000000000E+000
  0.000000000000000E+000
  0.000000000000000E+000
  0.000000000000000E+000
  0.000000000000000E+000
  0.000000000000000E+000
  0.000000000000000E+000
  0.000000000000000E+000
  0.000000000000000E+000
  0.000000000000000E+000
  0.000000000000000E+000
  0.000000000000000E+000
  0.000000000000000E+000
  0.000000000000000E+000
  0.000000000000000E+000
  0.000000000000000E+000
  0.000000000000000E+000
  0.000000000000000E+000
  0.000000000000000E+000
  0.000000000000000E+000
  0.000000000000000E+000
  0.000000000000000E+000
  0.000000000000000E+000
  0.000000000000000E+000
  0.000000000000000E+000
  0.000000000000000E+000
  0.000000000000000E+000
  0.000000000000000E+000
  0.000000000000000E+000
  0.000000000000000E+000
  0.000000000000000E+000
  0.000000000000000E+000
  0.000000000000000E+000
  0.000000000000000E+000
  0.000000000000000E+000
  0.000000000000000E+000
  0.000000000000000E+000
  0.000000000000000E+000
  0.000000000000000E+000
  0.000000000000000E+000
  0.000000000000000E+000
  0.000000000000000E+000
  0.000000000000000E+000
  0.000000000000000E+000
  0.000000000000000E+000
  0.000000000000000E+000
  0.000000000000000E+000
  0.000000000000000E+000
  0.000000000000000E+000
  0.000000000000000E+000
  0.000000000000000E+000
  0.000000000000000E+000
  0.000000000000000E+000
  0.000000000000000E+000
  0.000000000000000E+000
  0.000000000000000E+000
  0.000000000000000E+000
  0.000000000000000E+000
  0.000000000000000E+000
  0.000000000000000E+000
  0.000000000000000E+000
  0.000000000000000E+000
  0.000000000000000E+000
  0.000000000000000E+000
  0.000000000000000E+000
  0.000000000000000E+000
  0.000000000000000E+000
  0.000000000000000E+000
  0.000000000000000E+000
  0.000000000000000E+000
  0.000000000000000E+000
  0.000000000000000E+000
  0.000000000000000E+000
  0.000000000000000E+000
  0.000000000000000E+000
  0.000000000000000E+000
  0.000000000000000E+000
  0.000000000000000E+000
  0.000000000000000E+000
  0.000000000000000E+000
  0.000000000000000E+000
  0.000000000000000E+000
  0.000000000000000E+000
  0.000000000000000E+000
  0.000000000000000E+000
  0.000000000000000E+000
  0.000000000000000E+000
  0.000000000000000E+000
  0.000000000000000E+000
  0.000000000000000E+000
  0.000000000000000E+000
  0.000000000000000E+000
  0.000000000000000E+000
  0.000000000000000E+000
  0.000000000000000E+000
  0.000000000000000E+000
  0.000000000000000E+000
  0.000000000000000E+000
  0.000000000000000E+000
  0.000000000000000E+000
  0.000000000000000E+000
  0.000000000000000E+000
  0.000000000000000E+000
  0.000000000000000E+000
  0.000000000000000E+000
  0.000000000000000E+000
  0.000000000000000E+000
  0.000000000000000E+000
  0.000000000000000E+000
  0.000000000000000E+000
  0.000000000000000E+000
  0.000000000000000E+000
  0.000000000000000E+000
  0.000000000000000E+000
  0.000000000000000E+000
  0.000000000000000E+000
  0.000000000000000E+000
  0.000000000000000E+000
  0.000000000000000E+000
  0.000000000000000E+000
  0.000000000000000E+000
  0.000000000000000E+000
  0.000000000000000E+000
  0.000000000000000E+000
  0.000000000000000E+000
  0.000000000000000E+000
  0.000000000000000E+000
  0.000000000000000E+000
  0.000000000000000E+000
  0.000000000000000E+000
  0.000000000000000E+000
  0.000000000000000E+000
  0.000000000000000E+000
  0.000000000000000E+000
  0.000000000000000E+000
  0.000000000000000E+000
  0.000000000000000E+000
  0.000000000000000E+000
  0.000000000000000E+000
  0.000000000000000E+000
  0.000000000000000E+000
  0.000000000000000E+000
  0.000000000000000E+000
  0.000000000000000E+000
  0.000000000000000E+000
  0.000000000000000E+000
  0.000000000000000E+000
  0.000000000000000E+000
  0.000000000000000E+000
  0.000000000000000E+000
  0.000000000000000E+000
  0.000000000000000E+000
  0.000000000000000E+000
  0.000000000000000E+000
  0.000000000000000E+000
  0.000000000000000E+000
  0.000000000000000E+000
  0.000000000000000E+000
  0.000000000000000E+000
  0.000000000000000E+000
  0.000000000000000E+000
  0.000000000000000E+000
  0.000000000000000E+000
  0.000000000000000E+000
  0.000000000000000E+000
  0.000000000000000E+000
  0.000000000000000E+000
  0.000000000000000E+000
  0.000000000000000E+000
  0.000000000000000E+000
  0.000000000000000E+000
  0.000000000000000E+000
  0.000000000000000E+000
  0.000000000000000E+000
  0.000000000000000E+000
  0.000000000000000E+000
  0.000000000000000E+000
  0.000000000000000E+000
  0.000000000000000E+000
  0.000000000000000E+000
  0.000000000000000E+000
  0.000000000000000E+000
  0.000000000000000E+000
  0.000000000000000E+000
  0.000000000000000E+000
  0.000000000000000E+000
  0.000000000000000E+000
  0.000000000000000E+000
  0.000000000000000E+000
  0.000000000000000E+000
  0.000000000000000E+000
  0.000000000000000E+000
  0.000000000000000E+000
  0.000000000000000E+000
  0.000000000000000E+000
  0.000000000000000E+000
  0.000000000000000E+000
  0.000000000000000E+000
  0.000000000000000E+000
  0.000000000000000E+000
  0.000000000000000E+000
  0.000000000000000E+000
  0.000000000000000E+000
  0.000000000000000E+000
  0.000000000000000E+000
  0.000000000000000E+000
  0.000000000000000E+000
  0.000000000000000E+000
  0.000000000000000E+000
  0.000000000000000E+000
  0.000000000000000E+000
  0.000000000000000E+000
  0.000000000000000E+000
  0.000000000000000E+000
  0.000000000000000E+000
  0.000000000000000E+000
  0.000000000000000E+000
  0.000000000000000E+000
  0.000000000000000E+000
  0.000000000000000E+000
  0.000000000000000E+000
  0.000000000000000E+000
  0.000000000000000E+000
  0.000000000000000E+000
  0.000000000000000E+000
  0.000000000000000E+000
  0.000000000000000E+000
  0.000000000000000E+000
  0.000000000000000E+000
  0.000000000000000E+000
  0.000000000000000E+000
  0.000000000000000E+000
  0.000000000000000E+000
  0.000000000000000E+000
  0.000000000000000E+000
  0.000000000000000E+000
  0.000000000000000E+000
  0.000000000000000E+000
  0.000000000000000E+000
  0.000000000000000E+000
  0.000000000000000E+000
  0.000000000000000E+000
  0.000000000000000E+000
  0.000000000000000E+000
  0.000000000000000E+000
  0.000000000000000E+000
  0.000000000000000E+000
  0.000000000000000E+000
  0.000000000000000E+000
  0.000000000000000E+000
  0.000000000000000E+000
  0.000000000000000E+000
  0.000000000000000E+000
  0.000000000000000E+000
  0.000000000000000E+000
  0.000000000000000E+000
  0.000000000000000E+000
  0.000000000000000E+000
  0.000000000000000E+000
  0.000000000000000E+000
  0.000000000000000E+000
  0.000000000000000E+000
  0.000000000000000E+000
  0.000000000000000E+000
  0.000000000000000E+000
  0.000000000000000E+000
  0.000000000000000E+000
  0.000000000000000E+000
  0.000000000000000E+000
  0.000000000000000E+000
  0.000000000000000E+000
  0.000000000000000E+000
  0.000000000000000E+000
  0.000000000000000E+000
  0.000000000000000E+000
  0.000000000000000E+000
  0.000000000000000E+000
  0.000000000000000E+000
  0.000000000000000E+000
  0.000000000000000E+000
  0.000000000000000E+000
  0.000000000000000E+000
  0.000000000000000E+000
  0.000000000000000E+000
  0.000000000000000E+000
  0.000000000000000E+000
  0.000000000000000E+000
  0.000000000000000E+000
  0.000000000000000E+000
  0.000000000000000E+000
  0.000000000000000E+000
  0.000000000000000E+000
  0.000000000000000E+000
  0.000000000000000E+000
  0.000000000000000E+000
  0.000000000000000E+000
  0.000000000000000E+000
  0.000000000000000E+000
  0.000000000000000E+000
  0.000000000000000E+000
  0.000000000000000E+000
  0.000000000000000E+000
  0.000000000000000E+000
  0.000000000000000E+000
  0.000000000000000E+000
  0.000000000000000E+000
  0.000000000000000E+000
  0.000000000000000E+000
  0.000000000000000E+000
  0.000000000000000E+000
  0.000000000000000E+000
  0.000000000000000E+000
  0.000000000000000E+000
  0.000000000000000E+000
  0.000000000000000E+000
  0.000000000000000E+000
  0.000000000000000E+000
  0.000000000000000E+000
  0.000000000000000E+000
  0.000000000000000E+000
  0.000000000000000E+000
  0.000000000000000E+000
  0.000000000000000E+000
  0.000000000000000E+000
  0.000000000000000E+000
  0.000000000000000E+000
  0.000000000000000E+000
  0.000000000000000E+000
  0.000000000000000E+000
  0.000000000000000E+000
  0.000000000000000E+000
  0.000000000000000E+000
  0.000000000000000E+000
  0.000000000000000E+000
  0.000000000000000E+000
  0.000000000000000E+000
  0.000000000000000E+000
  0.000000000000000E+000
  0.000000000000000E+000
  0.000000000000000E+000
  0.000000000000000E+000
  0.000000000000000E+000
  0.000000000000000E+000
  0.000000000000000E+000
  0.000000000000000E+000
  0.000000000000000E+000
  0.000000000000000E+000
  0.000000000000000E+000
  0.000000000000000E+000
  0.000000000000000E+000
  0.000000000000000E+000
  0.000000000000000E+000
  0.000000000000000E+000
  0.000000000000000E+000
  0.000000000000000E+000
  0.000000000000000E+000
  0.000000000000000E+000
  0.000000000000000E+000
  0.000000000000000E+000
  0.000000000000000E+000
  0.000000000000000E+000
  0.000000000000000E+000
  0.000000000000000E+000
  0.000000000000000E+000
  0.000000000000000E+000
  0.000000000000000E+000
  0.000000000000000E+000
  0.000000000000000E+000
  0.000000000000000E+000
  0.000000000000000E+000
  0.000000000000000E+000
  0.000000000000000E+000
  0.000000000000000E+000
  0.000000000000000E+000
  0.000000000000000E+000
  0.000000000000000E+000
  0.000000000000000E+000
  0.000000000000000E+000
  0.000000000000000E+000
  0.000000000000000E+000
  0.000000000000000E+000
  0.000000000000000E+000
  0.000000000000000E+000
  0.000000000000000E+000
  0.000000000000000E+000
  0.000000000000000E+000
  0.000000000000000E+000
  0.000000000000000E+000
  0.000000000000000E+000
  0.000000000000000E+000
  0.000000000000000E+000
  0.000000000000000E+000
  0.000000000000000E+000
  0.000000000000000E+000
  0.000000000000000E+000
  0.000000000000000E+000
  0.000000000000000E+000
  0.000000000000000E+000
  0.000000000000000E+000
  0.000000000000000E+000
  0.000000000000000E+000
  0.000000000000000E+000
  0.000000000000000E+000
  0.000000000000000E+000
  0.000000000000000E+000
  0.000000000000000E+000
  0.000000000000000E+000
  0.000000000000000E+000
  0.000000000000000E+000
  0.000000000000000E+000
  0.000000000000000E+000
  0.000000000000000E+000
  0.000000000000000E+000
  0.000000000000000E+000
  0.000000000000000E+000
  0.000000000000000E+000
  0.000000000000000E+000
  0.000000000000000E+000
  0.000000000000000E+000
  0.000000000000000E+000
  0.000000000000000E+000
  0.000000000000000E+000
  0.000000000000000E+000
  0.000000000000000E+000
  0.000000000000000E+000
  0.000000000000000E+000
  0.000000000000000E+000
  0.000000000000000E+000
  0.000000000000000E+000
  0.000000000000000E+000
  0.000000000000000E+000
  0.000000000000000E+000
  0.000000000000000E+000
  0.000000000000000E+000
  0.000000000000000E+000
  0.000000000000000E+000
  0.000000000000000E+000
  0.000000000000000E+000
  0.000000000000000E+000
  0.000000000000000E+000
  0.000000000000000E+000
  0.000000000000000E+000
  0.000000000000000E+000
  0.000000000000000E+000
  0.000000000000000E+000
  0.000000000000000E+000
  0.000000000000000E+000
  0.000000000000000E+000
  0.000000000000000E+000
  0.000000000000000E+000
  0.000000000000000E+000
  0.000000000000000E+000
  0.000000000000000E+000
  0.000000000000000E+000
  0.000000000000000E+000
  0.000000000000000E+000
  0.000000000000000E+000
  0.000000000000000E+000
  0.000000000000000E+000
  0.000000000000000E+000
  0.000000000000000E+000
  0.000000000000000E+000
  0.000000000000000E+000
  0.000000000000000E+000
  0.000000000000000E+000
  0.000000000000000E+000
  0.000000000000000E+000
  0.000000000000000E+000
  0.000000000000000E+000
  0.000000000000000E+000
  0.000000000000000E+000
  0.000000000000000E+000
  0.000000000000000E+000
  0.000000000000000E+000
  0.000000000000000E+000
  0.000000000000000E+000
  0.000000000000000E+000
  0.000000000000000E+000
  0.000000000000000E+000
  0.000000000000000E+000
  0.000000000000000E+000
  0.000000000000000E+000
  0.000000000000000E+000
  0.000000000000000E+000
  0.000000000000000E+000
  0.000000000000000E+000
  0.000000000000000E+000
  0.000000000000000E+000
  0.000000000000000E+000
  0.000000000000000E+000
  0.000000000000000E+000
  0.000000000000000E+000
  0.000000000000000E+000
  0.000000000000000E+000
  0.000000000000000E+000
  0.000000000000000E+000
  0.000000000000000E+000
  0.000000000000000E+000
  0.000000000000000E+000
  0.000000000000000E+000
  0.000000000000000E+000
  0.000000000000000E+000
  0.000000000000000E+000
  0.000000000000000E+000
  0.000000000000000E+000
  0.000000000000000E+000
  0.000000000000000E+000
  0.000000000000000E+000
  0.000000000000000E+000
  0.000000000000000E+000
  0.000000000000000E+000
  0.000000000000000E+000
  0.000000000000000E+000
  0.000000000000000E+000
  0.000000000000000E+000
  0.000000000000000E+000
  0.000000000000000E+000
  0.000000000000000E+000
  0.000000000000000E+000
  0.000000000000000E+000
  0.000000000000000E+000
  0.000000000000000E+000
  0.000000000000000E+000
  0.000000000000000E+000
  0.000000000000000E+000
  0.000000000000000E+000
  0.000000000000000E+000
  0.000000000000000E+000
  0.000000000000000E+000
  0.000000000000000E+000
  0.000000000000000E+000
  0.000000000000000E+000
  0.000000000000000E+000
  0.000000000000000E+000
  0.000000000000000E+000
  0.000000000000000E+000
  0.000000000000000E+000
  0.000000000000000E+000
  0.000000000000000E+000
  0.000000000000000E+000
  0.000000000000000E+000
  0.000000000000000E+000
  0.000000000000000E+000
  0.000000000000000E+000
  0.000000000000000E+000
  0.000000000000000E+000
  0.000000000000000E+000
  0.000000000000000E+000
  0.000000000000000E+000
  0.000000000000000E+000
  0.000000000000000E+000
  0.000000000000000E+000
  0.000000000000000E+000
  0.000000000000000E+000
  0.000000000000000E+000
  0.000000000000000E+000
  0.000000000000000E+000
  0.000000000000000E+000
  0.000000000000000E+000
  0.000000000000000E+000
  0.000000000000000E+000
  0.000000000000000E+000
  0.000000000000000E+000
  0.000000000000000E+000
  0.000000000000000E+000
  0.000000000000000E+000
  0.000000000000000E+000
  0.000000000000000E+000
  0.000000000000000E+000
  0.000000000000000E+000
  0.000000000000000E+000
  0.000000000000000E+000
  0.000000000000000E+000
  0.000000000000000E+000
  0.000000000000000E+000
  0.000000000000000E+000
  0.000000000000000E+000
  0.000000000000000E+000
  0.000000000000000E+000
  0.000000000000000E+000
  0.000000000000000E+000
  0.000000000000000E+000
  0.000000000000000E+000
  0.000000000000000E+000
  0.000000000000000E+000
  0.000000000000000E+000
  0.000000000000000E+000
  0.000000000000000E+000
  0.000000000000000E+000
  0.000000000000000E+000
  0.000000000000000E+000
  0.000000000000000E+000
  0.000000000000000E+000
  0.000000000000000E+000
  0.000000000000000E+000
  0.000000000000000E+000
  0.000000000000000E+000
  0.000000000000000E+000
  0.000000000000000E+000
  0.000000000000000E+000
  0.000000000000000E+000
  0.000000000000000E+000
  0.000000000000000E+000
  0.000000000000000E+000
  0.000000000000000E+000
  0.000000000000000E+000
  0.000000000000000E+000
  0.000000000000000E+000
  0.000000000000000E+000
  0.000000000000000E+000
  0.000000000000000E+000
  0.000000000000000E+000
  0.000000000000000E+000
  0.000000000000000E+000
  0.000000000000000E+000
  0.000000000000000E+000
  0.000000000000000E+000
  0.000000000000000E+000
  0.000000000000000E+000
  0.000000000000000E+000
  0.000000000000000E+000
  0.000000000000000E+000
  0.000000000000000E+000
  0.000000000000000E+000
  0.000000000000000E+000
  0.000000000000000E+000
  0.000000000000000E+000
  0.000000000000000E+000
  0.000000000000000E+000
  0.000000000000000E+000
  0.000000000000000E+000
  0.000000000000000E+000
  0.000000000000000E+000
  0.000000000000000E+000
  0.000000000000000E+000
  0.000000000000000E+000
  0.000000000000000E+000
  0.000000000000000E+000
  0.000000000000000E+000
  0.000000000000000E+000
  0.000000000000000E+000
  0.000000000000000E+000
  0.000000000000000E+000
  0.000000000000000E+000
  0.000000000000000E+000
  0.000000000000000E+000
  0.000000000000000E+000
  0.000000000000000E+000
  0.000000000000000E+000
  0.000000000000000E+000
  0.000000000000000E+000
  0.000000000000000E+000
  0.000000000000000E+000
  0.000000000000000E+000
  0.000000000000000E+000
  0.000000000000000E+000
  0.000000000000000E+000
  0.000000000000000E+000
  0.000000000000000E+000
  0.000000000000000E+000
  0.000000000000000E+000
  0.000000000000000E+000
  0.000000000000000E+000
  0.000000000000000E+000
  0.000000000000000E+000
  0.000000000000000E+000
  0.000000000000000E+000
  0.000000000000000E+000
  0.000000000000000E+000
  0.000000000000000E+000
  0.000000000000000E+000
  0.000000000000000E+000
  0.000000000000000E+000
  0.000000000000000E+000
  0.000000000000000E+000
  0.000000000000000E+000
  0.000000000000000E+000
  0.000000000000000E+000
  0.000000000000000E+000
  0.000000000000000E+000
  0.000000000000000E+000
  0.000000000000000E+000
  0.000000000000000E+000
  0.000000000000000E+000
  0.000000000000000E+000
  0.000000000000000E+000
  0.000000000000000E+000
  0.000000000000000E+000
  0.000000000000000E+000
  0.000000000000000E+000
  0.000000000000000E+000
  0.000000000000000E+000
  0.000000000000000E+000
  0.000000000000000E+000
  0.000000000000000E+000
  0.000000000000000E+000
  0.000000000000000E+000
  0.000000000000000E+000
  0.000000000000000E+000
  0.000000000000000E+000
  0.000000000000000E+000
  0.000000000000000E+000
  0.000000000000000E+000
  0.000000000000000E+000
  0.000000000000000E+000
  0.000000000000000E+000
  0.000000000000000E+000
  0.000000000000000E+000
  0.000000000000000E+000
  0.000000000000000E+000
  0.000000000000000E+000
  0.000000000000000E+000
  0.000000000000000E+000
  0.000000000000000E+000
  0.000000000000000E+000
  0.000000000000000E+000
  0.000000000000000E+000
  0.000000000000000E+000
  0.000000000000000E+000
  0.000000000000000E+000
  0.000000000000000E+000
  0.000000000000000E+000
  0.000000000000000E+000
  0.000000000000000E+000
  0.000000000000000E+000
  0.000000000000000E+000
  0.000000000000000E+000
  0.000000000000000E+000
  0.000000000000000E+000
  0.000000000000000E+000
  0.000000000000000E+000
  0.000000000000000E+000
  0.000000000000000E+000
  0.000000000000000E+000
  0.000000000000000E+000
  0.000000000000000E+000
  0.000000000000000E+000
  0.000000000000000E+000
  0.000000000000000E+000
  0.000000000000000E+000
  0.000000000000000E+000
  0.000000000000000E+000
  0.000000000000000E+000
  0.000000000000000E+000
  0.000000000000000E+000
  0.000000000000000E+000
  0.000000000000000E+000
  0.000000000000000E+000
  0.000000000000000E+000
  0.000000000000000E+000
  0.000000000000000E+000
  0.000000000000000E+000
  0.000000000000000E+000
  0.000000000000000E+000
  0.000000000000000E+000
  0.000000000000000E+000
  0.000000000000000E+000
  0.000000000000000E+000
  0.000000000000000E+000
  0.000000000000000E+000
  0.000000000000000E+000
  0.000000000000000E+000
  0.000000000000000E+000
  0.000000000000000E+000
  0.000000000000000E+000
  0.000000000000000E+000
  0.000000000000000E+000
  0.000000000000000E+000
  0.000000000000000E+000
  0.000000000000000E+000
  0.000000000000000E+000
  0.000000000000000E+000
  0.000000000000000E+000
  0.000000000000000E+000
  0.000000000000000E+000
  0.000000000000000E+000
  0.000000000000000E+000
  0.000000000000000E+000
  0.000000000000000E+000
  0.000000000000000E+000
  0.000000000000000E+000
  0.000000000000000E+000
  0.000000000000000E+000
  0.000000000000000E+000
  0.000000000000000E+000
  0.000000000000000E+000
  0.000000000000000E+000
  0.000000000000000E+000
  0.000000000000000E+000
  0.000000000000000E+000
  0.000000000000000E+000
  0.000000000000000E+000
  0.000000000000000E+000
  0.000000000000000E+000
  0.000000000000000E+000
  0.000000000000000E+000
  0.000000000000000E+000
  0.000000000000000E+000
  0.000000000000000E+000
  0.000000000000000E+000
  0.000000000000000E+000
  0.000000000000000E+000
  0.000000000000000E+000
  0.000000000000000E+000
  0.000000000000000E+000
  0.000000000000000E+000
  0.000000000000000E+000
  0.000000000000000E+000
  0.000000000000000E+000
  0.000000000000000E+000
  0.000000000000000E+000
  0.000000000000000E+000
  0.000000000000000E+000
  0.000000000000000E+000
  0.000000000000000E+000
  0.000000000000000E+000
  0.000000000000000E+000
  0.000000000000000E+000
  0.000000000000000E+000
  0.000000000000000E+000
  0.000000000000000E+000
  0.000000000000000E+000
  0.000000000000000E+000
  0.000000000000000E+000
  0.000000000000000E+000
  0.000000000000000E+000
  0.000000000000000E+000
  0.000000000000000E+000
  0.000000000000000E+000
  0.000000000000000E+000
  0.000000000000000E+000
  0.000000000000000E+000
  0.000000000000000E+000
  0.000000000000000E+000
  0.000000000000000E+000
  0.000000000000000E+000
  0.000000000000000E+000
  0.000000000000000E+000
  0.000000000000000E+000
  0.000000000000000E+000
  0.000000000000000E+000
  0.000000000000000E+000
  0.000000000000000E+000
  0.000000000000000E+000
  0.000000000000000E+000
  0.000000000000000E+000
  0.000000000000000E+000
  0.000000000000000E+000
  0.000000000000000E+000
  0.000000000000000E+000
  0.000000000000000E+000
  0.000000000000000E+000
  0.000000000000000E+000
  0.000000000000000E+000
  0.000000000000000E+000
  0.000000000000000E+000
  0.000000000000000E+000
  0.000000000000000E+000
  0.000000000000000E+000
  0.000000000000000E+000
  0.000000000000000E+000
  0.000000000000000E+000
  0.000000000000000E+000
  0.000000000000000E+000
  0.000000000000000E+000
  0.000000000000000E+000
  0.000000000000000E+000
  0.000000000000000E+000
  0.000000000000000E+000
  0.000000000000000E+000
  0.000000000000000E+000
  0.000000000000000E+000
  0.000000000000000E+000
  0.000000000000000E+000
  0.000000000000000E+000
  0.000000000000000E+000
  0.000000000000000E+000
  0.000000000000000E+000
  0.000000000000000E+000
  0.000000000000000E+000
  0.000000000000000E+000
  0.000000000000000E+000
  0.000000000000000E+000
  0.000000000000000E+000
  0.000000000000000E+000
  0.000000000000000E+000
  0.000000000000000E+000
  0.000000000000000E+000
  0.000000000000000E+000
  0.000000000000000E+000
  0.000000000000000E+000
  0.000000000000000E+000
  0.000000000000000E+000
  0.000000000000000E+000
  0.000000000000000E+000
  0.000000000000000E+000
  0.000000000000000E+000
  0.000000000000000E+000
  0.000000000000000E+000
  0.000000000000000E+000
  0.000000000000000E+000
  0.000000000000000E+000
  0.000000000000000E+000
  0.000000000000000E+000
  0.000000000000000E+000
  0.000000000000000E+000
  0.000000000000000E+000
  0.000000000000000E+000
  0.000000000000000E+000
  0.000000000000000E+000
  0.000000000000000E+000
  0.000000000000000E+000
  0.000000000000000E+000
  0.000000000000000E+000
  0.000000000000000E+000
  0.000000000000000E+000
  0.000000000000000E+000
  0.000000000000000E+000
  0.000000000000000E+000
  0.000000000000000E+000
  0.000000000000000E+000
  0.000000000000000E+000
  0.000000000000000E+000
  0.000000000000000E+000
  0.000000000000000E+000
  0.000000000000000E+000
  0.000000000000000E+000
  0.000000000000000E+000
  0.000000000000000E+000
  0.000000000000000E+000
  0.000000000000000E+000
  0.000000000000000E+000
  0.000000000000000E+000
  0.000000000000000E+000
  0.000000000000000E+000
  0.000000000000000E+000
  0.000000000000000E+000
  0.000000000000000E+000
  0.000000000000000E+000
  0.000000000000000E+000
  0.000000000000000E+000
  0.000000000000000E+000
  0.000000000000000E+000
  0.000000000000000E+000
  0.000000000000000E+000
  0.000000000000000E+000
  0.000000000000000E+000
  0.000000000000000E+000
  0.000000000000000E+000
  0.000000000000000E+000
  0.000000000000000E+000
  0.000000000000000E+000
  0.000000000000000E+000
  0.000000000000000E+000
  0.000000000000000E+000
  0.000000000000000E+000
  0.000000000000000E+000
  0.000000000000000E+000
  0.000000000000000E+000
  0.000000000000000E+000
  0.000000000000000E+000
  0.000000000000000E+000
  0.000000000000000E+000
  0.000000000000000E+000
  0.000000000000000E+000
  0.000000000000000E+000
  0.000000000000000E+000
  0.000000000000000E+000
  0.000000000000000E+000
  0.000000000000000E+000
  0.000000000000000E+000
  0.000000000000000E+000
  0.000000000000000E+000
  0.000000000000000E+000
  0.000000000000000E+000
  0.000000000000000E+000
  0.000000000000000E+000
  0.000000000000000E+000
  0.000000000000000E+000
  0.000000000000000E+000
  0.000000000000000E+000
  0.000000000000000E+000
  0.000000000000000E+000
  0.000000000000000E+000
  0.000000000000000E+000
  0.000000000000000E+000
  0.000000000000000E+000
  0.000000000000000E+000
  0.000000000000000E+000
  0.000000000000000E+000
  0.000000000000000E+000
  0.000000000000000E+000
  0.000000000000000E+000
  0.000000000000000E+000
  0.000000000000000E+000
  0.000000000000000E+000
  0.000000000000000E+000
  0.000000000000000E+000
  0.000000000000000E+000
  0.000000000000000E+000
  0.000000000000000E+000
  0.000000000000000E+000
  0.000000000000000E+000
  0.000000000000000E+000
  0.000000000000000E+000
  0.000000000000000E+000
  0.000000000000000E+000
  0.000000000000000E+000
  0.000000000000000E+000
  0.000000000000000E+000
  0.000000000000000E+000
  0.000000000000000E+000
  0.000000000000000E+000
  0.000000000000000E+000
  0.000000000000000E+000
  0.000000000000000E+000
  0.000000000000000E+000
  0.000000000000000E+000
  0.000000000000000E+000
  0.000000000000000E+000
  0.000000000000000E+000
  0.000000000000000E+000
  0.000000000000000E+000
  0.000000000000000E+000
  0.000000000000000E+000
  0.000000000000000E+000
  0.000000000000000E+000
  0.000000000000000E+000
  0.000000000000000E+000
  0.000000000000000E+000
  0.000000000000000E+000
  0.000000000000000E+000
  0.000000000000000E+000
  0.000000000000000E+000
  0.000000000000000E+000
  0.000000000000000E+000
  0.000000000000000E+000
  0.000000000000000E+000
  0.000000000000000E+000
  0.000000000000000E+000
  0.000000000000000E+000
  0.000000000000000E+000
  0.000000000000000E+000
  0.000000000000000E+000
  0.000000000000000E+000
  0.000000000000000E+000
  0.000000000000000E+000
  0.000000000000000E+000
  0.000000000000000E+000
  0.000000000000000E+000
  0.000000000000000E+000
  0.000000000000000E+000
  0.000000000000000E+000
  0.000000000000000E+000
  0.000000000000000E+000
  0.000000000000000E+000
  0.000000000000000E+000
  0.000000000000000E+000
  0.000000000000000E+000
  0.000000000000000E+000
  0.000000000000000E+000
  0.000000000000000E+000
  0.000000000000000E+000
  0.000000000000000E+000
  0.000000000000000E+000
  0.000000000000000E+000
  0.000000000000000E+000
  0.000000000000000E+000
  0.000000000000000E+000
  0.000000000000000E+000
  0.000000000000000E+000
  0.000000000000000E+000
  0.000000000000000E+000
  0.000000000000000E+000
  0.000000000000000E+000
  0.000000000000000E+000
  0.000000000000000E+000
  0.000000000000000E+000
  0.000000000000000E+000
  0.000000000000000E+000
  0.000000000000000E+000
  0.000000000000000E+000
  0.000000000000000E+000
  0.000000000000000E+000
  0.000000000000000E+000
  0.000000000000000E+000
  0.000000000000000E+000
  0.000000000000000E+000
  0.000000000000000E+000
  0.000000000000000E+000
  0.000000000000000E+000
  0.000000000000000E+000
  0.000000000000000E+000
  0.000000000000000E+000
  0.000000000000000E+000
  0.000000000000000E+000
  0.000000000000000E+000
  0.000000000000000E+000
  0.000000000000000E+000
  0.000000000000000E+000
  0.000000000000000E+000
  0.000000000000000E+000
  0.000000000000000E+000
  0.000000000000000E+000
  0.000000000000000E+000
  0.000000000000000E+000
  0.000000000000000E+000
  0.000000000000000E+000
  0.000000000000000E+000
  0.000000000000000E+000
  0.000000000000000E+000
  0.000000000000000E+000
  0.000000000000000E+000
  0.000000000000000E+000
  0.000000000000000E+000
  0.000000000000000E+000
  0.000000000000000E+000
  0.000000000000000E+000
  0.000000000000000E+000
  0.000000000000000E+000
  0.000000000000000E+000
  0.000000000000000E+000
  0.000000000000000E+000
  0.000000000000000E+000
  0.000000000000000E+000
  0.000000000000000E+000
  0.000000000000000E+000
  0.000000000000000E+000
  0.000000000000000E+000
  0.000000000000000E+000
  0.000000000000000E+000
  0.000000000000000E+000
  0.000000000000000E+000
  0.000000000000000E+000
  0.000000000000000E+000
  0.000000000000000E+000
  0.000000000000000E+000
  0.000000000000000E+000
  0.000000000000000E+000
  0.000000000000000E+000
  0.000000000000000E+000
  0.000000000000000E+000
  0.000000000000000E+000
  0.000000000000000E+000
  0.000000000000000E+000
  0.000000000000000E+000
  0.000000000000000E+000
  0.000000000000000E+000
  0.000000000000000E+000
  0.000000000000000E+000
  0.000000000000000E+000
  0.000000000000000E+000
  0.000000000000000E+000
  0.000000000000000E+000
  0.000000000000000E+000
  0.000000000000000E+000
  0.000000000000000E+000
  0.000000000000000E+000
  0.000000000000000E+000
  0.000000000000000E+000
  0.000000000000000E+000
  0.000000000000000E+000
  0.000000000000000E+000
  0.000000000000000E+000
  0.000000000000000E+000
  0.000000000000000E+000
  0.000000000000000E+000
  0.000000000000000E+000
  0.000000000000000E+000
  0.000000000000000E+000
  0.000000000000000E+000
  0.000000000000000E+000
  0.000000000000000E+000
  0.000000000000000E+000
  0.000000000000000E+000
  0.000000000000000E+000
  0.000000000000000E+000
  0.000000000000000E+000
  0.000000000000000E+000
  0.000000000000000E+000
  0.000000000000000E+000
  0.000000000000000E+000
  0.000000000000000E+000
  0.000000000000000E+000
  0.000000000000000E+000
  0.000000000000000E+000
  0.000000000000000E+000
  0.000000000000000E+000
  0.000000000000000E+000
  0.000000000000000E+000
  0.000000000000000E+000
  0.000000000000000E+000
  0.000000000000000E+000
  0.000000000000000E+000
  0.000000000000000E+000
  0.000000000000000E+000
  0.000000000000000E+000
  0.000000000000000E+000
  0.000000000000000E+000
  0.000000000000000E+000
  0.000000000000000E+000
  0.000000000000000E+000
  0.000000000000000E+000
  0.000000000000000E+000
  0.000000000000000E+000
  0.000000000000000E+000
  0.000000000000000E+000
  0.000000000000000E+000
  0.000000000000000E+000
  0.000000000000000E+000
  0.000000000000000E+000
  0.000000000000000E+000
  0.000000000000000E+000
  0.000000000000000E+000
  0.000000000000000E+000
  0.000000000000000E+000
  0.000000000000000E+000
  0.000000000000000E+000
  0.000000000000000E+000
  0.000000000000000E+000
  0.000000000000000E+000
  0.000000000000000E+000
  0.000000000000000E+000
  0.000000000000000E+000
  0.000000000000000E+000
  0.000000000000000E+000
  0.000000000000000E+000
  0.000000000000000E+000
  0.000000000000000E+000
  0.000000000000000E+000
  0.000000000000000E+000
  0.000000000000000E+000
  0.000000000000000E+000
  0.000000000000000E+000
  0.000000000000000E+000
  0.000000000000000E+000
  0.000000000000000E+000
  0.000000000000000E+000
  0.000000000000000E+000
  0.000000000000000E+000
  0.000000000000000E+000
  0.000000000000000E+000
  0.000000000000000E+000
  0.000000000000000E+000
  0.000000000000000E+000
  0.000000000000000E+000
  0.000000000000000E+000
  0.000000000000000E+000
  0.000000000000000E+000
  0.000000000000000E+000
  0.000000000000000E+000
  0.000000000000000E+000
  0.000000000000000E+000
  0.000000000000000E+000
  0.000000000000000E+000
  0.000000000000000E+000
  0.000000000000000E+000
  0.000000000000000E+000
  0.000000000000000E+000
  0.000000000000000E+000
  0.000000000000000E+000
  0.000000000000000E+000
  0.000000000000000E+000
  0.000000000000000E+000
  0.000000000000000E+000
  0.000000000000000E+000
  0.000000000000000E+000
  0.000000000000000E+000
  0.000000000000000E+000
  0.000000000000000E+000
  0.000000000000000E+000
  0.000000000000000E+000
  0.000000000000000E+000
  0.000000000000000E+000
  0.000000000000000E+000
  0.000000000000000E+000
  0.000000000000000E+000
  0.000000000000000E+000
  0.000000000000000E+000
  0.000000000000000E+000
  0.000000000000000E+000
  0.000000000000000E+000
  0.000000000000000E+000
  0.000000000000000E+000
  0.000000000000000E+000
  0.000000000000000E+000
  0.000000000000000E+000
  0.000000000000000E+000
  0.000000000000000E+000
  0.000000000000000E+000
  0.000000000000000E+000
  0.000000000000000E+000
  0.000000000000000E+000
  0.000000000000000E+000
  0.000000000000000E+000
  0.000000000000000E+000
  0.000000000000000E+000
  0.000000000000000E+000
  0.000000000000000E+000
  0.000000000000000E+000
  0.000000000000000E+000
  0.000000000000000E+000
  0.000000000000000E+000
  0.000000000000000E+000
  0.000000000000000E+000
  0.000000000000000E+000
  0.000000000000000E+000
  0.000000000000000E+000
  0.000000000000000E+000
  0.000000000000000E+000
  0.000000000000000E+000
  0.000000000000000E+000
  0.000000000000000E+000
  0.000000000000000E+000
  0.000000000000000E+000
  0.000000000000000E+000
  0.000000000000000E+000
  0.000000000000000E+000
  0.000000000000000E+000
  0.000000000000000E+000
  0.000000000000000E+000
  0.000000000000000E+000
  0.000000000000000E+000
  0.000000000000000E+000
  0.000000000000000E+000
  0.000000000000000E+000
  0.000000000000000E+000
  0.000000000000000E+000
  0.000000000000000E+000
  0.000000000000000E+000
  0.000000000000000E+000
  0.000000000000000E+000
  0.000000000000000E+000
  0.000000000000000E+000
  0.000000000000000E+000
  0.000000000000000E+000
  0.000000000000000E+000
  0.000000000000000E+000
  0.000000000000000E+000
  0.000000000000000E+000
  0.000000000000000E+000
  0.000000000000000E+000
  0.000000000000000E+000
  0.000000000000000E+000
  0.000000000000000E+000
  0.000000000000000E+000
  0.000000000000000E+000
  0.000000000000000E+000
  0.000000000000000E+000
  0.000000000000000E+000
  0.000000000000000E+000
  0.000000000000000E+000
  0.000000000000000E+000
  0.000000000000000E+000
  0.000000000000000E+000
  0.000000000000000E+000
  0.000000000000000E+000
  0.000000000000000E+000
  0.000000000000000E+000
  0.000000000000000E+000
  0.000000000000000E+000
  0.000000000000000E+000
  0.000000000000000E+000
  0.000000000000000E+000
  0.000000000000000E+000
  0.000000000000000E+000
  0.000000000000000E+000
  0.000000000000000E+000
  0.000000000000000E+000
  0.000000000000000E+000
  0.000000000000000E+000
  0.000000000000000E+000
  0.000000000000000E+000
  0.000000000000000E+000
  0.000000000000000E+000
  0.000000000000000E+000
  0.000000000000000E+000
  0.000000000000000E+000
  0.000000000000000E+000
  0.000000000000000E+000
  0.000000000000000E+000
  0.000000000000000E+000
  0.000000000000000E+000
  0.000000000000000E+000
  0.000000000000000E+000
  0.000000000000000E+000
  0.000000000000000E+000
  0.000000000000000E+000
  0.000000000000000E+000
  0.000000000000000E+000
  0.000000000000000E+000
  0.000000000000000E+000
  0.000000000000000E+000
  0.000000000000000E+000
  0.000000000000000E+000
  0.000000000000000E+000
  0.000000000000000E+000
  0.000000000000000E+000
  0.000000000000000E+000
  0.000000000000000E+000
  0.000000000000000E+000
  0.000000000000000E+000
  0.000000000000000E+000
  0.000000000000000E+000
  0.000000000000000E+000
  0.000000000000000E+000
  0.000000000000000E+000
  0.000000000000000E+000
  0.000000000000000E+000
  0.000000000000000E+000
  0.000000000000000E+000
  0.000000000000000E+000
  0.000000000000000E+000
  0.000000000000000E+000
  0.000000000000000E+000
  0.000000000000000E+000
  0.000000000000000E+000
  0.000000000000000E+000
  0.000000000000000E+000
  0.000000000000000E+000
  0.000000000000000E+000
  0.000000000000000E+000
  0.000000000000000E+000
  0.000000000000000E+000
  0.000000000000000E+000
  0.000000000000000E+000
  0.000000000000000E+000
  0.000000000000000E+000
  0.000000000000000E+000
  0.000000000000000E+000
  0.000000000000000E+000
  0.000000000000000E+000
  0.000000000000000E+000
  0.000000000000000E+000
  0.000000000000000E+000
  0.000000000000000E+000
  0.000000000000000E+000
  0.000000000000000E+000
  0.000000000000000E+000
  0.000000000000000E+000
  0.000000000000000E+000
  0.000000000000000E+000
  0.000000000000000E+000
  0.000000000000000E+000
  0.000000000000000E+000
  0.000000000000000E+000
  0.000000000000000E+000
  0.000000000000000E+000
  0.000000000000000E+000
  0.000000000000000E+000
  0.000000000000000E+000
  0.000000000000000E+000
  0.000000000000000E+000
  0.000000000000000E+000
  0.000000000000000E+000
  0.000000000000000E+000
  0.000000000000000E+000
  0.000000000000000E+000
  0.000000000000000E+000
  0.000000000000000E+000
  0.000000000000000E+000
  0.000000000000000E+000
  0.000000000000000E+000
  0.000000000000000E+000
  0.000000000000000E+000
  0.000000000000000E+000
  0.000000000000000E+000
  0.000000000000000E+000
  0.000000000000000E+000
  0.000000000000000E+000
  0.000000000000000E+000
  0.000000000000000E+000
  0.000000000000000E+000
  0.000000000000000E+000
  0.000000000000000E+000
  0.000000000000000E+000
  0.000000000000000E+000
  0.000000000000000E+000
  0.000000000000000E+000
  0.000000000000000E+000
  0.000000000000000E+000
  0.000000000000000E+000
  0.000000000000000E+000
  0.000000000000000E+000
  0.000000000000000E+000
  0.000000000000000E+000
  0.000000000000000E+000
  0.000000000000000E+000
  0.000000000000000E+000
  0.000000000000000E+000
  0.000000000000000E+000
  0.000000000000000E+000
  0.000000000000000E+000
  0.000000000000000E+000
  0.000000000000000E+000
  0.000000000000000E+000
  0.000000000000000E+000
  0.000000000000000E+000
  0.000000000000000E+000
  0.000000000000000E+000
  0.000000000000000E+000
  0.000000000000000E+000
  0.000000000000000E+000
  0.000000000000000E+000
  0.000000000000000E+000
  0.000000000000000E+000
  0.000000000000000E+000
  0.000000000000000E+000
  0.000000000000000E+000
  0.000000000000000E+000
  0.000000000000000E+000
  0.000000000000000E+000
  0.000000000000000E+000
  0.000000000000000E+000
  0.000000000000000E+000
  0.000000000000000E+000
  0.000000000000000E+000
  0.000000000000000E+000
  0.000000000000000E+000
  0.000000000000000E+000
  0.000000000000000E+000
  0.000000000000000E+000
  0.000000000000000E+000
  0.000000000000000E+000
  0.000000000000000E+000
  0.000000000000000E+000
  0.000000000000000E+000
  0.000000000000000E+000
  0.000000000000000E+000
  0.000000000000000E+000
  0.000000000000000E+000
  0.000000000000000E+000
  0.000000000000000E+000
  0.000000000000000E+000
  0.000000000000000E+000
  0.000000000000000E+000
  0.000000000000000E+000
  0.000000000000000E+000
  0.000000000000000E+000
  0.000000000000000E+000
  0.000000000000000E+000
  0.000000000000000E+000
  0.000000000000000E+000
  0.000000000000000E+000
  0.000000000000000E+000
  0.000000000000000E+000
  0.000000000000000E+000
  0.000000000000000E+000
  0.000000000000000E+000
  0.000000000000000E+000
  0.000000000000000E+000
  0.000000000000000E+000
  0.000000000000000E+000
  0.000000000000000E+000
  0.000000000000000E+000
  0.000000000000000E+000
  0.000000000000000E+000
  0.000000000000000E+000
  0.000000000000000E+000
  0.000000000000000E+000
  0.000000000000000E+000
  0.000000000000000E+000
  0.000000000000000E+000
  0.000000000000000E+000
  0.000000000000000E+000
  0.000000000000000E+000
  0.000000000000000E+000
  0.000000000000000E+000
  0.000000000000000E+000
  0.000000000000000E+000
  0.000000000000000E+000
  0.000000000000000E+000
  0.000000000000000E+000
  0.000000000000000E+000
  0.000000000000000E+000
  0.000000000000000E+000
  0.000000000000000E+000
  0.000000000000000E+000
  0.000000000000000E+000
  0.000000000000000E+000
  0.000000000000000E+000
  0.000000000000000E+000
  0.000000000000000E+000
  0.000000000000000E+000
  0.000000000000000E+000
  0.000000000000000E+000
  0.000000000000000E+000
  0.000000000000000E+000
  0.000000000000000E+000
  0.000000000000000E+000
  0.000000000000000E+000
  0.000000000000000E+000
  0.000000000000000E+000
  0.000000000000000E+000
  0.000000000000000E+000
  0.000000000000000E+000
  0.000000000000000E+000
  0.000000000000000E+000
  0.000000000000000E+000
  0.000000000000000E+000
  0.000000000000000E+000
  0.000000000000000E+000
  0.000000000000000E+000
  0.000000000000000E+000
  0.000000000000000E+000
  0.000000000000000E+000
  0.000000000000000E+000
  0.000000000000000E+000
  0.000000000000000E+000
  0.000000000000000E+000
  0.000000000000000E+000
  0.000000000000000E+000
  0.000000000000000E+000
  0.000000000000000E+000
  0.000000000000000E+000
  0.000000000000000E+000
  0.000000000000000E+000
  0.000000000000000E+000
  0.000000000000000E+000
  0.000000000000000E+000
  0.000000000000000E+000
  0.000000000000000E+000
  0.000000000000000E+000
  0.000000000000000E+000
  0.000000000000000E+000
  0.000000000000000E+000
  0.000000000000000E+000
  0.000000000000000E+000
  0.000000000000000E+000
  0.000000000000000E+000
  0.000000000000000E+000
  0.000000000000000E+000
  0.000000000000000E+000
  0.000000000000000E+000
  0.000000000000000E+000
  0.000000000000000E+000
  0.000000000000000E+000
  0.000000000000000E+000
  0.000000000000000E+000
  0.000000000000000E+000
  0.000000000000000E+000
  0.000000000000000E+000
  0.000000000000000E+000
  0.000000000000000E+000
  0.000000000000000E+000
  0.000000000000000E+000
  0.000000000000000E+000
  0.000000000000000E+000
  0.000000000000000E+000
  0.000000000000000E+000
  0.000000000000000E+000
  0.000000000000000E+000
  0.000000000000000E+000
  0.000000000000000E+000
  0.000000000000000E+000
  0.000000000000000E+000
  0.000000000000000E+000
  0.000000000000000E+000
  0.000000000000000E+000
  0.000000000000000E+000
  0.000000000000000E+000
  0.000000000000000E+000
  0.000000000000000E+000
  0.000000000000000E+000
  0.000000000000000E+000
  0.000000000000000E+000
  0.000000000000000E+000
  0.000000000000000E+000
  0.000000000000000E+000
  0.000000000000000E+000
  0.000000000000000E+000
  0.000000000000000E+000
  0.000000000000000E+000
  0.000000000000000E+000
  0.000000000000000E+000
  0.000000000000000E+000
  0.000000000000000E+000
  0.000000000000000E+000
  0.000000000000000E+000
  0.000000000000000E+000
  0.000000000000000E+000
  0.000000000000000E+000
  0.000000000000000E+000
  0.000000000000000E+000
  0.000000000000000E+000
  0.000000000000000E+000
  0.000000000000000E+000
  0.000000000000000E+000
  0.000000000000000E+000
  0.000000000000000E+000
  0.000000000000000E+000
  0.000000000000000E+000
  0.000000000000000E+000
  0.000000000000000E+000
  0.000000000000000E+000
  0.000000000000000E+000
  0.000000000000000E+000
  0.000000000000000E+000
  0.000000000000000E+000
  0.000000000000000E+000
  0.000000000000000E+000
  0.000000000000000E+000
  0.000000000000000E+000
  0.000000000000000E+000
  0.000000000000000E+000
  0.000000000000000E+000
  0.000000000000000E+000
  0.000000000000000E+000
  0.000000000000000E+000
  0.000000000000000E+000
  0.000000000000000E+000
  0.000000000000000E+000
  0.000000000000000E+000
  0.000000000000000E+000
  0.000000000000000E+000
  0.000000000000000E+000
  0.000000000000000E+000
  0.000000000000000E+000
  0.000000000000000E+000
  0.000000000000000E+000
  0.000000000000000E+000
  0.000000000000000E+000
  0.000000000000000E+000
  0.000000000000000E+000
  0.000000000000000E+000
  0.000000000000000E+000
  0.000000000000000E+000
  0.000000000000000E+000
  0.000000000000000E+000
  0.000000000000000E+000
  0.000000000000000E+000
  0.000000000000000E+000
  0.000000000000000E+000
  0.000000000000000E+000
  0.000000000000000E+000
  0.000000000000000E+000
  0.000000000000000E+000
  0.000000000000000E+000
  0.000000000000000E+000
  0.000000000000000E+000
  0.000000000000000E+000
  0.000000000000000E+000
  0.000000000000000E+000
  0.000000000000000E+000
  0.000000000000000E+000
  0.000000000000000E+000
  0.000000000000000E+000
  0.000000000000000E+000
  0.000000000000000E+000
  0.000000000000000E+000
  0.000000000000000E+000
  0.000000000000000E+000
  0.000000000000000E+000
  0.000000000000000E+000
  0.000000000000000E+000
  0.000000000000000E+000
  0.000000000000000E+000
  0.000000000000000E+000
  0.000000000000000E+000
  0.000000000000000E+000
  0.000000000000000E+000
  0.000000000000000E+000
  0.000000000000000E+000
  0.000000000000000E+000
  0.000000000000000E+000
  0.000000000000000E+000
  0.000000000000000E+000
  0.000000000000000E+000
  0.000000000000000E+000
  0.000000000000000E+000
  0.000000000000000E+000
  0.000000000000000E+000
  0.000000000000000E+000
  0.000000000000000E+000
  0.000000000000000E+000
  0.000000000000000E+000
  0.000000000000000E+000
  0.000000000000000E+000
  0.000000000000000E+000
  0.000000000000000E+000
  0.000000000000000E+000
  0.000000000000000E+000
  0.000000000000000E+000
  0.000000000000000E+000
  0.000000000000000E+000
  0.000000000000000E+000
  0.000000000000000E+000
  0.000000000000000E+000
  0.000000000000000E+000
  0.000000000000000E+000
  0.000000000000000E+000
  0.000000000000000E+000
  0.000000000000000E+000
  0.000000000000000E+000
  0.000000000000000E+000
  0.000000000000000E+000
  0.000000000000000E+000
  0.000000000000000E+000
  0.000000000000000E+000
  0.000000000000000E+000
  0.000000000000000E+000
  0.000000000000000E+000
  0.000000000000000E+000
  0.000000000000000E+000
  0.000000000000000E+000
  0.000000000000000E+000
  0.000000000000000E+000
  0.000000000000000E+000
  0.000000000000000E+000
  0.000000000000000E+000
  0.000000000000000E+000
  0.000000000000000E+000
  0.000000000000000E+000
  0.000000000000000E+000
  0.000000000000000E+000
  0.000000000000000E+000
  0.000000000000000E+000
  0.000000000000000E+000
  0.000000000000000E+000
  0.000000000000000E+000
  0.000000000000000E+000
  0.000000000000000E+000
  0.000000000000000E+000
  0.000000000000000E+000
  0.000000000000000E+000
  0.000000000000000E+000
  0.000000000000000E+000
  0.000000000000000E+000
  0.000000000000000E+000
  0.000000000000000E+000
  0.000000000000000E+000
  0.000000000000000E+000
  0.000000000000000E+000
  0.000000000000000E+000
  0.000000000000000E+000
  0.000000000000000E+000
  0.000000000000000E+000
  0.000000000000000E+000
  0.000000000000000E+000
  0.000000000000000E+000
  0.000000000000000E+000
  0.000000000000000E+000
  0.000000000000000E+000
  0.000000000000000E+000
  0.000000000000000E+000
  0.000000000000000E+000
  0.000000000000000E+000
  0.000000000000000E+000
  0.000000000000000E+000
  0.000000000000000E+000
  0.000000000000000E+000
  0.000000000000000E+000
  0.000000000000000E+000
  0.000000000000000E+000
  0.000000000000000E+000
  0.000000000000000E+000
  0.000000000000000E+000
  0.000000000000000E+000
  0.000000000000000E+000
  0.000000000000000E+000
  0.000000000000000E+000
  0.000000000000000E+000
  0.000000000000000E+000
  0.000000000000000E+000
  0.000000000000000E+000
  0.000000000000000E+000
  0.000000000000000E+000
  0.000000000000000E+000
  0.000000000000000E+000
  0.000000000000000E+000
  0.000000000000000E+000
  0.000000000000000E+000
  0.000000000000000E+000
  0.000000000000000E+000
  0.000000000000000E+000
  0.000000000000000E+000
  0.000000000000000E+000
  0.000000000000000E+000
  0.000000000000000E+000
  0.000000000000000E+000
  0.000000000000000E+000
  0.000000000000000E+000
  0.000000000000000E+000
  0.000000000000000E+000
  0.000000000000000E+000
  0.000000000000000E+000
  0.000000000000000E+000
  0.000000000000000E+000
  0.000000000000000E+000
  0.000000000000000E+000
  0.000000000000000E+000
  0.000000000000000E+000
  0.000000000000000E+000
  0.000000000000000E+000
  0.000000000000000E+000
  0.000000000000000E+000
  0.000000000000000E+000
  0.000000000000000E+000
  0.000000000000000E+000
  0.000000000000000E+000
  0.000000000000000E+000
  0.000000000000000E+000
  0.000000000000000E+000
  0.000000000000000E+000
  0.000000000000000E+000
  0.000000000000000E+000
  0.000000000000000E+000
  0.000000000000000E+000
  0.000000000000000E+000
  0.000000000000000E+000
  0.000000000000000E+000
  0.000000000000000E+000
  0.000000000000000E+000
  0.000000000000000E+000
  0.000000000000000E+000
  0.000000000000000E+000
  0.000000000000000E+000
  0.000000000000000E+000
  0.000000000000000E+000
  0.000000000000000E+000
  0.000000000000000E+000
  0.000000000000000E+000
  0.000000000000000E+000
  0.000000000000000E+000
  0.000000000000000E+000
  0.000000000000000E+000
  0.000000000000000E+000
  0.000000000000000E+000
  0.000000000000000E+000
  0.000000000000000E+000
  0.000000000000000E+000
  0.000000000000000E+000
  0.000000000000000E+000
  0.000000000000000E+000
  0.000000000000000E+000
  0.000000000000000E+000
  0.000000000000000E+000
  0.000000000000000E+000
  0.000000000000000E+000
  0.000000000000000E+000
  0.000000000000000E+000
  0.000000000000000E+000
  0.000000000000000E+000
  0.000000000000000E+000
  0.000000000000000E+000
  0.000000000000000E+000
  0.000000000000000E+000
  0.000000000000000E+000
  0.000000000000000E+000
  0.000000000000000E+000
  0.000000000000000E+000
  0.000000000000000E+000
  0.000000000000000E+000
  0.000000000000000E+000
  0.000000000000000E+000
  0.000000000000000E+000
  0.000000000000000E+000
  0.000000000000000E+000
  0.000000000000000E+000
  0.000000000000000E+000
  0.000000000000000E+000
  0.000000000000000E+000
  0.000000000000000E+000
  0.000000000000000E+000
  0.000000000000000E+000
  0.000000000000000E+000
  0.000000000000000E+000
  0.000000000000000E+000
  0.000000000000000E+000
  0.000000000000000E+000
  0.000000000000000E+000
  0.000000000000000E+000
  0.000000000000000E+000
  0.000000000000000E+000
  0.000000000000000E+000
  0.000000000000000E+000
  0.000000000000000E+000
  0.000000000000000E+000
  0.000000000000000E+000
  0.000000000000000E+000
  0.000000000000000E+000
  0.000000000000000E+000
  0.000000000000000E+000
  0.000000000000000E+000
  0.000000000000000E+000
  0.000000000000000E+000
  0.000000000000000E+000
  0.000000000000000E+000
  0.000000000000000E+000
  0.000000000000000E+000
  0.000000000000000E+000
  0.000000000000000E+000
  0.000000000000000E+000
  0.000000000000000E+000
  0.000000000000000E+000
  0.000000000000000E+000
  0.000000000000000E+000
  0.000000000000000E+000
  0.000000000000000E+000
  0.000000000000000E+000
  0.000000000000000E+000
  0.000000000000000E+000
  0.000000000000000E+000
  0.000000000000000E+000
  0.000000000000000E+000
  0.000000000000000E+000
  0.000000000000000E+000
  0.000000000000000E+000
  0.000000000000000E+000
  0.000000000000000E+000
  0.000000000000000E+000
  0.000000000000000E+000
  0.000000000000000E+000
  0.000000000000000E+000
  0.000000000000000E+000
  0.000000000000000E+000
  0.000000000000000E+000
  0.000000000000000E+000
  0.000000000000000E+000
  0.000000000000000E+000
  0.000000000000000E+000
  0.000000000000000E+000
  0.000000000000000E+000
  0.000000000000000E+000
  0.000000000000000E+000
  0.000000000000000E+000
  0.000000000000000E+000
  0.000000000000000E+000
  0.000000000000000E+000
  0.000000000000000E+000
  0.000000000000000E+000
  0.000000000000000E+000
  0.000000000000000E+000
  0.000000000000000E+000
  0.000000000000000E+000
  0.000000000000000E+000
  0.000000000000000E+000
  0.000000000000000E+000
  0.000000000000000E+000
  0.000000000000000E+000
  0.000000000000000E+000
  0.000000000000000E+000
  0.000000000000000E+000
  0.000000000000000E+000
  0.000000000000000E+000
  0.000000000000000E+000
  0.000000000000000E+000
  0.000000000000000E+000
  0.000000000000000E+000
  0.000000000000000E+000
  0.000000000000000E+000
  0.000000000000000E+000
  0.000000000000000E+000
  0.000000000000000E+000
  0.000000000000000E+000
  0.000000000000000E+000
  0.000000000000000E+000
  0.000000000000000E+000
  0.000000000000000E+000
  0.000000000000000E+000
  0.000000000000000E+000
  0.000000000000000E+000
  0.000000000000000E+000
  0.000000000000000E+000
  0.000000000000000E+000
  0.000000000000000E+000
  0.000000000000000E+000
  0.000000000000000E+000
  0.000000000000000E+000
  0.000000000000000E+000
  0.000000000000000E+000
  0.000000000000000E+000
  0.000000000000000E+000
  0.000000000000000E+000
  0.000000000000000E+000
  0.000000000000000E+000
  0.000000000000000E+000
  0.000000000000000E+000
  0.000000000000000E+000
  0.000000000000000E+000
  0.000000000000000E+000
  0.000000000000000E+000
  0.000000000000000E+000
  0.000000000000000E+000
  0.000000000000000E+000
  0.000000000000000E+000
  0.000000000000000E+000
  0.000000000000000E+000
  0.000000000000000E+000
  0.000000000000000E+000
  0.000000000000000E+000
  0.000000000000000E+000
  0.000000000000000E+000
  0.000000000000000E+000
  0.000000000000000E+000
  0.000000000000000E+000
  0.000000000000000E+000
  0.000000000000000E+000
  0.000000000000000E+000
  0.000000000000000E+000
  0.000000000000000E+000
  0.000000000000000E+000
  0.000000000000000E+000
  0.000000000000000E+000
  0.000000000000000E+000
  0.000000000000000E+000
  0.000000000000000E+000
  0.000000000000000E+000
  0.000000000000000E+000
  0.000000000000000E+000
  0.000000000000000E+000
  0.000000000000000E+000
  0.000000000000000E+000
  0.000000000000000E+000
  0.000000000000000E+000
  0.000000000000000E+000
  0.000000000000000E+000
  0.000000000000000E+000
  0.000000000000000E+000
  0.000000000000000E+000
  0.000000000000000E+000
  0.000000000000000E+000
  0.000000000000000E+000
  0.000000000000000E+000
  0.000000000000000E+000
  0.000000000000000E+000
  0.000000000000000E+000
  0.000000000000000E+000
  0.000000000000000E+000
  0.000000000000000E+000
  0.000000000000000E+000
  0.000000000000000E+000
  0.000000000000000E+000
  0.000000000000000E+000
  0.000000000000000E+000
  0.000000000000000E+000
  0.000000000000000E+000
  0.000000000000000E+000
  0.000000000000000E+000
  0.000000000000000E+000
  0.000000000000000E+000
  0.000000000000000E+000
  0.000000000000000E+000
  0.000000000000000E+000
  0.000000000000000E+000
  0.000000000000000E+000
  0.000000000000000E+000
  0.000000000000000E+000
  0.000000000000000E+000
  0.000000000000000E+000
  0.000000000000000E+000
  0.000000000000000E+000
  0.000000000000000E+000
  0.000000000000000E+000
  0.000000000000000E+000
  0.000000000000000E+000
  0.000000000000000E+000
  0.000000000000000E+000
  0.000000000000000E+000
  0.000000000000000E+000
  0.000000000000000E+000
  0.000000000000000E+000
  0.000000000000000E+000
  0.000000000000000E+000
  0.000000000000000E+000
  0.000000000000000E+000
  0.000000000000000E+000
  0.000000000000000E+000
  0.000000000000000E+000
  0.000000000000000E+000
  0.000000000000000E+000
  0.000000000000000E+000
  0.000000000000000E+000
  0.000000000000000E+000
  0.000000000000000E+000
  0.000000000000000E+000
  0.000000000000000E+000
  0.000000000000000E+000
  0.000000000000000E+000
  0.000000000000000E+000
  0.000000000000000E+000
  0.000000000000000E+000
  0.000000000000000E+000
  0.000000000000000E+000
  0.000000000000000E+000
  0.000000000000000E+000
  0.000000000000000E+000
  0.000000000000000E+000
  0.000000000000000E+000
  0.000000000000000E+000
  0.000000000000000E+000
  0.000000000000000E+000
  0.000000000000000E+000
  0.000000000000000E+000
  0.000000000000000E+000
  0.000000000000000E+000
  0.000000000000000E+000
  0.000000000000000E+000
  0.000000000000000E+000
  0.000000000000000E+000
  0.000000000000000E+000
  0.000000000000000E+000
  0.000000000000000E+000
  0.000000000000000E+000
  0.000000000000000E+000
  0.000000000000000E+000
  0.000000000000000E+000
  0.000000000000000E+000
  0.000000000000000E+000
  0.000000000000000E+000
  0.000000000000000E+000
  0.000000000000000E+000
  0.000000000000000E+000
  0.000000000000000E+000
  0.000000000000000E+000
  0.000000000000000E+000
  0.000000000000000E+000
  0.000000000000000E+000
  0.000000000000000E+000
  0.000000000000000E+000
  0.000000000000000E+000
  0.000000000000000E+000
  0.000000000000000E+000
  0.000000000000000E+000
  0.000000000000000E+000
  0.000000000000000E+000
  0.000000000000000E+000
  0.000000000000000E+000
  0.000000000000000E+000
  0.000000000000000E+000
  0.000000000000000E+000
  0.000000000000000E+000
  0.000000000000000E+000
  0.000000000000000E+000
  0.000000000000000E+000
  0.000000000000000E+000
  0.000000000000000E+000
  0.000000000000000E+000
  0.000000000000000E+000
  0.000000000000000E+000
  0.000000000000000E+000
  0.000000000000000E+000
  0.000000000000000E+000
  0.000000000000000E+000
  0.000000000000000E+000
  0.000000000000000E+000
  0.000000000000000E+000
  0.000000000000000E+000
  0.000000000000000E+000
  0.000000000000000E+000
  0.000000000000000E+000
  0.000000000000000E+000
  0.000000000000000E+000
  0.000000000000000E+000
  0.000000000000000E+000
  0.000000000000000E+000
  0.000000000000000E+000
  0.000000000000000E+000
  0.000000000000000E+000
  0.000000000000000E+000
  0.000000000000000E+000
  0.000000000000000E+000
  0.000000000000000E+000
  0.000000000000000E+000
  0.000000000000000E+000
  0.000000000000000E+000
  0.000000000000000E+000
  0.000000000000000E+000
  0.000000000000000E+000
  0.000000000000000E+000
  0.000000000000000E+000
  0.000000000000000E+000
  0.000000000000000E+000
  0.000000000000000E+000
  0.000000000000000E+000
  0.000000000000000E+000
  0.000000000000000E+000
  0.000000000000000E+000
  0.000000000000000E+000
  0.000000000000000E+000
  0.000000000000000E+000
  0.000000000000000E+000
  0.000000000000000E+000
  0.000000000000000E+000
  0.000000000000000E+000
  0.000000000000000E+000
  0.000000000000000E+000
  0.000000000000000E+000
  0.000000000000000E+000
  0.000000000000000E+000
  0.000000000000000E+000
  0.000000000000000E+000
  0.000000000000000E+000
  0.000000000000000E+000
  0.000000000000000E+000
  0.000000000000000E+000
  0.000000000000000E+000
  0.000000000000000E+000
  0.000000000000000E+000
  0.000000000000000E+000
  0.000000000000000E+000
  0.000000000000000E+000
  0.000000000000000E+000
  0.000000000000000E+000
  0.000000000000000E+000
  0.000000000000000E+000
  0.000000000000000E+000
  0.000000000000000E+000
  0.000000000000000E+000
  0.000000000000000E+000
  0.000000000000000E+000
  0.000000000000000E+000
  0.000000000000000E+000
  0.000000000000000E+000
  0.000000000000000E+000
  0.000000000000000E+000
  0.000000000000000E+000
  0.000000000000000E+000
  0.000000000000000E+000
  0.000000000000000E+000
  0.000000000000000E+000
  0.000000000000000E+000
  0.000000000000000E+000
  0.000000000000000E+000
  0.000000000000000E+000
  0.000000000000000E+000
  0.000000000000000E+000
  0.000000000000000E+000
  0.000000000000000E+000
  0.000000000000000E+000
  0.000000000000000E+000
  0.000000000000000E+000
  0.000000000000000E+000
  0.000000000000000E+000
  0.000000000000000E+000
  0.000000000000000E+000
  0.000000000000000E+000
  0.000000000000000E+000
  0.000000000000000E+000
  0.000000000000000E+000
  0.000000000000000E+000
  0.000000000000000E+000
  0.000000000000000E+000
  0.000000000000000E+000
  0.000000000000000E+000
  0.000000000000000E+000
  0.000000000000000E+000
  0.000000000000000E+000
  0.000000000000000E+000
  0.000000000000000E+000
  0.000000000000000E+000
  0.000000000000000E+000
  0.000000000000000E+000
  0.000000000000000E+000
  0.000000000000000E+000
  0.000000000000000E+000
  0.000000000000000E+000
  0.000000000000000E+000
  0.000000000000000E+000
  0.000000000000000E+000
  0.000000000000000E+000
  0.000000000000000E+000
  0.000000000000000E+000
  0.000000000000000E+000
  0.000000000000000E+000
  0.000000000000000E+000
  0.000000000000000E+000
  0.000000000000000E+000
  0.000000000000000E+000
  0.000000000000000E+000
  0.000000000000000E+000
  0.000000000000000E+000
  0.000000000000000E+000
  0.000000000000000E+000
  0.000000000000000E+000
  0.000000000000000E+000
  0.000000000000000E+000
  0.000000000000000E+000
  0.000000000000000E+000
  0.000000000000000E+000
  0.000000000000000E+000
  0.000000000000000E+000
  0.000000000000000E+000
  0.000000000000000E+000
  0.000000000000000E+000
  0.000000000000000E+000
  0.000000000000000E+000
  0.000000000000000E+000
  0.000000000000000E+000
  0.000000000000000E+000
  0.000000000000000E+000
  0.000000000000000E+000
  0.000000000000000E+000
  0.000000000000000E+000
  0.000000000000000E+000
  0.000000000000000E+000
  0.000000000000000E+000
  0.000000000000000E+000
  0.000000000000000E+000
  0.000000000000000E+000
  0.000000000000000E+000
  0.000000000000000E+000
  0.000000000000000E+000
  0.000000000000000E+000
  0.000000000000000E+000
  0.000000000000000E+000
  0.000000000000000E+000
  0.000000000000000E+000
  0.000000000000000E+000
  0.000000000000000E+000
  0.000000000000000E+000
  0.000000000000000E+000
  0.000000000000000E+000
  0.000000000000000E+000
  0.000000000000000E+000
  0.000000000000000E+000
  0.000000000000000E+000
  0.000000000000000E+000
  0.000000000000000E+000
  0.000000000000000E+000
  0.000000000000000E+000
  0.000000000000000E+000
  0.000000000000000E+000
  0.000000000000000E+000
  0.000000000000000E+000
  0.000000000000000E+000
  0.000000000000000E+000
  0.000000000000000E+000
  0.000000000000000E+000
  0.000000000000000E+000
  0.000000000000000E+000
  0.000000000000000E+000
  0.000000000000000E+000
  0.000000000000000E+000
  0.000000000000000E+000
  0.000000000000000E+000
  0.000000000000000E+000
  0.000000000000000E+000
  0.000000000000000E+000
  0.000000000000000E+000
  0.000000000000000E+000
  0.000000000000000E+000
  0.000000000000000E+000
  0.000000000000000E+000
  0.000000000000000E+000
  0.000000000000000E+000
  0.000000000000000E+000
  0.000000000000000E+000
  0.000000000000000E+000
  0.000000000000000E+000
  0.000000000000000E+000
  0.000000000000000E+000
  0.000000000000000E+000
  0.000000000000000E+000
  0.000000000000000E+000
  0.000000000000000E+000
  0.000000000000000E+000
  0.000000000000000E+000
  0.000000000000000E+000
  0.000000000000000E+000
  0.000000000000000E+000
  0.000000000000000E+000
  0.000000000000000E+000
  0.000000000000000E+000
  0.000000000000000E+000
  0.000000000000000E+000
  0.000000000000000E+000
  0.000000000000000E+000
  0.000000000000000E+000
  0.000000000000000E+000
  0.000000000000000E+000
  0.000000000000000E+000
  0.000000000000000E+000
  0.000000000000000E+000
  0.000000000000000E+000
  0.000000000000000E+000
  0.000000000000000E+000
  0.000000000000000E+000
  0.000000000000000E+000
  0.000000000000000E+000
  0.000000000000000E+000
  0.000000000000000E+000
  0.000000000000000E+000
  0.000000000000000E+000
  0.000000000000000E+000
  0.000000000000000E+000
  0.000000000000000E+000
  0.000000000000000E+000
  0.000000000000000E+000
  0.000000000000000E+000
  0.000000000000000E+000
  0.000000000000000E+000
  0.000000000000000E+000
  0.000000000000000E+000
  0.000000000000000E+000
  0.000000000000000E+000
  0.000000000000000E+000
  0.000000000000000E+000
  0.000000000000000E+000
  0.000000000000000E+000
  0.000000000000000E+000
  0.000000000000000E+000
  0.000000000000000E+000
  0.000000000000000E+000
  0.000000000000000E+000
  0.000000000000000E+000
  0.000000000000000E+000
  0.000000000000000E+000
  0.000000000000000E+000
  0.000000000000000E+000
  0.000000000000000E+000
  0.000000000000000E+000
  0.000000000000000E+000
  0.000000000000000E+000
  0.000000000000000E+000
  0.000000000000000E+000
  0.000000000000000E+000
  0.000000000000000E+000
  0.000000000000000E+000
  0.000000000000000E+000
  0.000000000000000E+000
  0.000000000000000E+000
  0.000000000000000E+000
  0.000000000000000E+000
  0.000000000000000E+000
  0.000000000000000E+000
  0.000000000000000E+000
  0.000000000000000E+000
  0.000000000000000E+000
  0.000000000000000E+000
  0.000000000000000E+000
  0.000000000000000E+000
  0.000000000000000E+000
  0.000000000000000E+000
  0.000000000000000E+000
  0.000000000000000E+000
  0.000000000000000E+000
  0.000000000000000E+000
  0.000000000000000E+000
  0.000000000000000E+000
  0.000000000000000E+000
  0.000000000000000E+000
  0.000000000000000E+000
  0.000000000000000E+000
  0.000000000000000E+000
  0.000000000000000E+000
  0.000000000000000E+000
  0.000000000000000E+000
  0.000000000000000E+000
  0.000000000000000E+000
  0.000000000000000E+000
  0.000000000000000E+000
  0.000000000000000E+000
  0.000000000000000E+000
  0.000000000000000E+000
  0.000000000000000E+000
  0.000000000000000E+000
  0.000000000000000E+000
  0.000000000000000E+000
  0.000000000000000E+000
  0.000000000000000E+000
  0.000000000000000E+000
  0.000000000000000E+000
  0.000000000000000E+000
  0.000000000000000E+000
  0.000000000000000E+000
  0.000000000000000E+000
  0.000000000000000E+000
  0.000000000000000E+000
  0.000000000000000E+000
  0.000000000000000E+000
  0.000000000000000E+000
  0.000000000000000E+000
  0.000000000000000E+000
  0.000000000000000E+000
  0.000000000000000E+000
  0.000000000000000E+000
  0.000000000000000E+000
  0.000000000000000E+000
  0.000000000000000E+000
  0.000000000000000E+000
  0.000000000000000E+000
  0.000000000000000E+000
  0.000000000000000E+000
  0.000000000000000E+000
  0.000000000000000E+000
  0.000000000000000E+000
  0.000000000000000E+000
  0.000000000000000E+000
  0.000000000000000E+000
  0.000000000000000E+000
  0.000000000000000E+000
  0.000000000000000E+000
  0.000000000000000E+000
  0.000000000000000E+000
  0.000000000000000E+000
  0.000000000000000E+000
  0.000000000000000E+000
  0.000000000000000E+000
  0.000000000000000E+000
  0.000000000000000E+000
  0.000000000000000E+000
  0.000000000000000E+000
  0.000000000000000E+000
  0.000000000000000E+000
  0.000000000000000E+000
  0.000000000000000E+000
  0.000000000000000E+000
  0.000000000000000E+000
  0.000000000000000E+000
  0.000000000000000E+000
  0.000000000000000E+000
  0.000000000000000E+000
  0.000000000000000E+000
  0.000000000000000E+000
  0.000000000000000E+000
  0.000000000000000E+000
  0.000000000000000E+000
  0.000000000000000E+000
  0.000000000000000E+000
  0.000000000000000E+000
  0.000000000000000E+000
  0.000000000000000E+000
  0.000000000000000E+000
  0.000000000000000E+000
  0.000000000000000E+000
  0.000000000000000E+000
  0.000000000000000E+000
  0.000000000000000E+000
  0.000000000000000E+000
  0.000000000000000E+000
  0.000000000000000E+000
  0.000000000000000E+000
  0.000000000000000E+000
  0.000000000000000E+000
  0.000000000000000E+000
  0.000000000000000E+000
  0.000000000000000E+000
  0.000000000000000E+000
  0.000000000000000E+000
  0.000000000000000E+000
  0.000000000000000E+000
  0.000000000000000E+000
  0.000000000000000E+000
  0.000000000000000E+000
  0.000000000000000E+000
  0.000000000000000E+000
  0.000000000000000E+000
  0.000000000000000E+000
  0.000000000000000E+000
  0.000000000000000E+000
  0.000000000000000E+000
  0.000000000000000E+000
  0.000000000000000E+000
  0.000000000000000E+000
  0.000000000000000E+000
  0.000000000000000E+000
  0.000000000000000E+000
  0.000000000000000E+000
  0.000000000000000E+000
  0.000000000000000E+000
  0.000000000000000E+000
  0.000000000000000E+000
  0.000000000000000E+000
  0.000000000000000E+000
  0.000000000000000E+000
  0.000000000000000E+000
  0.000000000000000E+000
  0.000000000000000E+000
  0.000000000000000E+000
  0.000000000000000E+000
  0.000000000000000E+000
  0.000000000000000E+000
  0.000000000000000E+000
  0.000000000000000E+000
  0.000000000000000E+000
  0.000000000000000E+000
  0.000000000000000E+000
  0.000000000000000E+000
  0.000000000000000E+000
  0.000000000000000E+000
  0.000000000000000E+000
  0.000000000000000E+000
  0.000000000000000E+000
  0.000000000000000E+000
  0.000000000000000E+000
  0.000000000000000E+000
  0.000000000000000E+000
  0.000000000000000E+000
  0.000000000000000E+000
  0.000000000000000E+000
  0.000000000000000E+000
  0.000000000000000E+000
  0.000000000000000E+000
  0.000000000000000E+000
  0.000000000000000E+000
  0.000000000000000E+000
  0.000000000000000E+000
  0.000000000000000E+000
  0.000000000000000E+000
  0.000000000000000E+000
  0.000000000000000E+000
  0.000000000000000E+000
  0.000000000000000E+000
  0.000000000000000E+000
  0.000000000000000E+000
  0.000000000000000E+000
  0.000000000000000E+000
  0.000000000000000E+000
  0.000000000000000E+000
  0.000000000000000E+000
  0.000000000000000E+000
  0.000000000000000E+000
  0.000000000000000E+000
  0.000000000000000E+000
  0.000000000000000E+000
  0.000000000000000E+000
  0.000000000000000E+000
  0.000000000000000E+000
  0.000000000000000E+000
  0.000000000000000E+000
  0.000000000000000E+000
  0.000000000000000E+000
  0.000000000000000E+000
  0.000000000000000E+000
  0.000000000000000E+000
  0.000000000000000E+000
  0.000000000000000E+000
  0.000000000000000E+000
  0.000000000000000E+000
  0.000000000000000E+000
  0.000000000000000E+000
  0.000000000000000E+000
  0.000000000000000E+000
  0.000000000000000E+000
  0.000000000000000E+000
  0.000000000000000E+000
  0.000000000000000E+000
  0.000000000000000E+000
  0.000000000000000E+000
  0.000000000000000E+000
  0.000000000000000E+000
  0.000000000000000E+000
  0.000000000000000E+000
  0.000000000000000E+000
  0.000000000000000E+000
  0.000000000000000E+000
  0.000000000000000E+000
  0.000000000000000E+000
  0.000000000000000E+000
  0.000000000000000E+000
  0.000000000000000E+000
  0.000000000000000E+000
  0.000000000000000E+000
  0.000000000000000E+000
  0.000000000000000E+000
  0.000000000000000E+000
  0.000000000000000E+000
  0.000000000000000E+000
  0.000000000000000E+000
  0.000000000000000E+000
  0.000000000000000E+000
  0.000000000000000E+000
  0.000000000000000E+000
  0.000000000000000E+000
  0.000000000000000E+000
  0.000000000000000E+000
  0.000000000000000E+000
  0.000000000000000E+000
  0.000000000000000E+000
  0.000000000000000E+000
  0.000000000000000E+000
  0.000000000000000E+000
  0.000000000000000E+000
  0.000000000000000E+000
  0.000000000000000E+000
  0.000000000000000E+000
  0.000000000000000E+000
  0.000000000000000E+000
  0.000000000000000E+000
  0.000000000000000E+000
  0.000000000000000E+000
  0.000000000000000E+000
  0.000000000000000E+000
  0.000000000000000E+000
  0.000000000000000E+000
  0.000000000000000E+000
  0.000000000000000E+000
  0.000000000000000E+000
  0.000000000000000E+000
  0.000000000000000E+000
  0.000000000000000E+000
  0.000000000000000E+000
  0.000000000000000E+000
  0.000000000000000E+000
  0.000000000000000E+000
  0.000000000000000E+000
  0.000000000000000E+000
  0.000000000000000E+000
  0.000000000000000E+000
  0.000000000000000E+000
  0.000000000000000E+000
  0.000000000000000E+000
  0.000000000000000E+000
  0.000000000000000E+000
  0.000000000000000E+000
  0.000000000000000E+000
  0.000000000000000E+000
  0.000000000000000E+000
  0.000000000000000E+000
  0.000000000000000E+000
  0.000000000000000E+000
  0.000000000000000E+000
  0.000000000000000E+000
  0.000000000000000E+000
  0.000000000000000E+000
  0.000000000000000E+000
  0.000000000000000E+000
  0.000000000000000E+000
  0.000000000000000E+000
  0.000000000000000E+000
  0.000000000000000E+000
  0.000000000000000E+000
  0.000000000000000E+000
  0.000000000000000E+000
  0.000000000000000E+000
  0.000000000000000E+000
  0.000000000000000E+000
  0.000000000000000E+000
  0.000000000000000E+000
  0.000000000000000E+000
  0.000000000000000E+000
  0.000000000000000E+000
  0.000000000000000E+000
  0.000000000000000E+000
  0.000000000000000E+000
  0.000000000000000E+000
  0.000000000000000E+000
  0.000000000000000E+000
  0.000000000000000E+000
  0.000000000000000E+000
  0.000000000000000E+000
  0.000000000000000E+000
  0.000000000000000E+000
  0.000000000000000E+000
  0.000000000000000E+000
  0.000000000000000E+000
  0.000000000000000E+000
  0.000000000000000E+000
  0.000000000000000E+000
  0.000000000000000E+000
  0.000000000000000E+000
  0.000000000000000E+000
  0.000000000000000E+000
  0.000000000000000E+000
  0.000000000000000E+000
  0.000000000000000E+000
  0.000000000000000E+000
  0.000000000000000E+000
  0.000000000000000E+000
  0.000000000000000E+000
  0.000000000000000E+000
  0.000000000000000E+000
  0.000000000000000E+000
  0.000000000000000E+000
  0.000000000000000E+000
  0.000000000000000E+000
  0.000000000000000E+000
  0.000000000000000E+000
  0.000000000000000E+000
  0.000000000000000E+000
  0.000000000000000E+000
  0.000000000000000E+000
  0.000000000000000E+000
  0.000000000000000E+000
  0.000000000000000E+000
  0.000000000000000E+000
  0.000000000000000E+000
  0.000000000000000E+000
  0.000000000000000E+000
  0.000000000000000E+000
  0.000000000000000E+000
  0.000000000000000E+000
  0.000000000000000E+000
  0.000000000000000E+000
  0.000000000000000E+000
  0.000000000000000E+000
  0.000000000000000E+000
  0.000000000000000E+000
  0.000000000000000E+000
  0.000000000000000E+000
  0.000000000000000E+000
  0.000000000000000E+000
  0.000000000000000E+000
  0.000000000000000E+000
  0.000000000000000E+000
  0.000000000000000E+000
  0.000000000000000E+000
  0.000000000000000E+000
  0.000000000000000E+000
  0.000000000000000E+000
  0.000000000000000E+000
  0.000000000000000E+000
  0.000000000000000E+000
  0.000000000000000E+000
  0.000000000000000E+000
  0.000000000000000E+000
  0.000000000000000E+000
  0.000000000000000E+000
  0.000000000000000E+000
  0.000000000000000E+000
  0.000000000000000E+000
  0.000000000000000E+000
  0.000000000000000E+000
  0.000000000000000E+000
  0.000000000000000E+000
  0.000000000000000E+000
  0.000000000000000E+000
  0.000000000000000E+000
  0.000000000000000E+000
  0.000000000000000E+000
  0.000000000000000E+000
  0.000000000000000E+000
  0.000000000000000E+000
  0.000000000000000E+000
  0.000000000000000E+000
  0.000000000000000E+000
  0.000000000000000E+000
  0.000000000000000E+000
  0.000000000000000E+000
  0.000000000000000E+000
  0.000000000000000E+000
  0.000000000000000E+000
  0.000000000000000E+000
  0.000000000000000E+000
  0.000000000000000E+000
  0.000000000000000E+000
  0.000000000000000E+000
  0.000000000000000E+000
  0.000000000000000E+000
  0.000000000000000E+000
  0.000000000000000E+000
  0.000000000000000E+000
  0.000000000000000E+000
  0.000000000000000E+000
  0.000000000000000E+000
  0.000000000000000E+000
  0.000000000000000E+000
  0.000000000000000E+000
  0.000000000000000E+000
  0.000000000000000E+000
  0.000000000000000E+000
  0.000000000000000E+000
  0.000000000000000E+000
  0.000000000000000E+000
  0.000000000000000E+000
  0.000000000000000E+000
  0.000000000000000E+000
  0.000000000000000E+000
  0.000000000000000E+000
  0.000000000000000E+000
  0.000000000000000E+000
  0.000000000000000E+000
  0.000000000000000E+000
  0.000000000000000E+000
  0.000000000000000E+000
  0.000000000000000E+000
  0.000000000000000E+000
  0.000000000000000E+000
  0.000000000000000E+000
  0.000000000000000E+000
  0.000000000000000E+000
  0.000000000000000E+000
  0.000000000000000E+000
  0.000000000000000E+000
  0.000000000000000E+000
  0.000000000000000E+000
  0.000000000000000E+000
  0.000000000000000E+000
  0.000000000000000E+000
  0.000000000000000E+000
  0.000000000000000E+000
  0.000000000000000E+000
  0.000000000000000E+000
  0.000000000000000E+000
  0.000000000000000E+000
  0.000000000000000E+000
  0.000000000000000E+000
  0.000000000000000E+000
  0.000000000000000E+000
  0.000000000000000E+000
  0.000000000000000E+000
  0.000000000000000E+000
  0.000000000000000E+000
  0.000000000000000E+000
  0.000000000000000E+000
  0.000000000000000E+000
  0.000000000000000E+000
  0.000000000000000E+000
  0.000000000000000E+000
  0.000000000000000E+000
  0.000000000000000E+000
  0.000000000000000E+000
  0.000000000000000E+000
  0.000000000000000E+000
  0.000000000000000E+000
  0.000000000000000E+000
  0.000000000000000E+000
  0.000000000000000E+000
  0.000000000000000E+000
  0.000000000000000E+000
  0.000000000000000E+000
  0.000000000000000E+000
  0.000000000000000E+000
  0.000000000000000E+000
  0.000000000000000E+000
  0.000000000000000E+000
  0.000000000000000E+000
  0.000000000000000E+000
  0.000000000000000E+000
  0.000000000000000E+000
  0.000000000000000E+000
  0.000000000000000E+000
  0.000000000000000E+000
  0.000000000000000E+000
  0.000000000000000E+000
  0.000000000000000E+000
  0.000000000000000E+000
  0.000000000000000E+000
  0.000000000000000E+000
  0.000000000000000E+000
  0.000000000000000E+000
  0.000000000000000E+000
  0.000000000000000E+000
  0.000000000000000E+000
  0.000000000000000E+000
  0.000000000000000E+000
  0.000000000000000E+000
  0.000000000000000E+000
  0.000000000000000E+000
  0.000000000000000E+000
  0.000000000000000E+000
  0.000000000000000E+000
  0.000000000000000E+000
  0.000000000000000E+000
  0.000000000000000E+000
  0.000000000000000E+000
  0.000000000000000E+000
  0.000000000000000E+000
  0.000000000000000E+000
  0.000000000000000E+000
  0.000000000000000E+000
  0.000000000000000E+000
  0.000000000000000E+000
  0.000000000000000E+000
  0.000000000000000E+000
  0.000000000000000E+000
  0.000000000000000E+000
  0.000000000000000E+000
  0.000000000000000E+000
  0.000000000000000E+000
  0.000000000000000E+000
  0.000000000000000E+000
  0.000000000000000E+000
  0.000000000000000E+000
  0.000000000000000E+000
  0.000000000000000E+000
  0.000000000000000E+000
  0.000000000000000E+000
  0.000000000000000E+000
  0.000000000000000E+000
  0.000000000000000E+000
  0.000000000000000E+000
  0.000000000000000E+000
  0.000000000000000E+000
  0.000000000000000E+000
  0.000000000000000E+000
  0.000000000000000E+000
  0.000000000000000E+000
  0.000000000000000E+000
  0.000000000000000E+000
  0.000000000000000E+000
  0.000000000000000E+000
  0.000000000000000E+000
  0.000000000000000E+000
  0.000000000000000E+000
  0.000000000000000E+000
  0.000000000000000E+000
  0.000000000000000E+000
  0.000000000000000E+000
  0.000000000000000E+000
  0.000000000000000E+000
  0.000000000000000E+000
  0.000000000000000E+000
  0.000000000000000E+000
  0.000000000000000E+000
  0.000000000000000E+000
  0.000000000000000E+000
  0.000000000000000E+000
  0.000000000000000E+000
  0.000000000000000E+000
  0.000000000000000E+000
  0.000000000000000E+000
  0.000000000000000E+000
  0.000000000000000E+000
  0.000000000000000E+000
  0.000000000000000E+000
  0.000000000000000E+000
  0.000000000000000E+000
  0.000000000000000E+000
  0.000000000000000E+000
  0.000000000000000E+000
  0.000000000000000E+000
  0.000000000000000E+000
  0.000000000000000E+000
  0.000000000000000E+000
  0.000000000000000E+000
  0.000000000000000E+000
  0.000000000000000E+000
  0.000000000000000E+000
  0.000000000000000E+000
  0.000000000000000E+000
  0.000000000000000E+000
  0.000000000000000E+000
  0.000000000000000E+000
  0.000000000000000E+000
  0.000000000000000E+000
  0.000000000000000E+000
  0.000000000000000E+000
  0.000000000000000E+000
  0.000000000000000E+000
  0.000000000000000E+000
  0.000000000000000E+000
  0.000000000000000E+000
  0.000000000000000E+000
  0.000000000000000E+000
  0.000000000000000E+000
  0.000000000000000E+000
  0.000000000000000E+000
  0.000000000000000E+000
  0.000000000000000E+000
  0.000000000000000E+000
  0.000000000000000E+000
  0.000000000000000E+000
  0.000000000000000E+000
  0.000000000000000E+000
  0.000000000000000E+000
  0.000000000000000E+000
  0.000000000000000E+000
  0.000000000000000E+000
  0.000000000000000E+000
  0.000000000000000E+000
  0.000000000000000E+000
  0.000000000000000E+000
  0.000000000000000E+000
  0.000000000000000E+000
  0.000000000000000E+000
  0.000000000000000E+000
  0.000000000000000E+000
  0.000000000000000E+000
  0.000000000000000E+000
  0.000000000000000E+000
  0.000000000000000E+000
  0.000000000000000E+000
  0.000000000000000E+000
  0.000000000000000E+000
  0.000000000000000E+000
  0.000000000000000E+000
  0.000000000000000E+000
  0.000000000000000E+000
  0.000000000000000E+000
  0.000000000000000E+000
  0.000000000000000E+000
  0.000000000000000E+000
  0.000000000000000E+000
  0.000000000000000E+000
  0.000000000000000E+000
  0.000000000000000E+000
  0.000000000000000E+000
  0.000000000000000E+000
  0.000000000000000E+000
  0.000000000000000E+000
  0.000000000000000E+000
  0.000000000000000E+000
  0.000000000000000E+000
  0.000000000000000E+000
  0.000000000000000E+000
  0.000000000000000E+000
  0.000000000000000E+000
  0.000000000000000E+000
  0.000000000000000E+000
  0.000000000000000E+000
  0.000000000000000E+000
  0.000000000000000E+000
  0.000000000000000E+000
  0.000000000000000E+000
  0.000000000000000E+000
  0.000000000000000E+000
  0.000000000000000E+000
  0.000000000000000E+000
  0.000000000000000E+000
  0.000000000000000E+000
  0.000000000000000E+000
  0.000000000000000E+000
  0.000000000000000E+000
  0.000000000000000E+000
  0.000000000000000E+000
  0.000000000000000E+000
  0.000000000000000E+000
  0.000000000000000E+000
  0.000000000000000E+000
  0.000000000000000E+000
  0.000000000000000E+000
  0.000000000000000E+000
  0.000000000000000E+000
  0.000000000000000E+000
  0.000000000000000E+000
  0.000000000000000E+000
  0.000000000000000E+000
  0.000000000000000E+000
  0.000000000000000E+000
  0.000000000000000E+000
  0.000000000000000E+000
  0.000000000000000E+000
  0.000000000000000E+000
  0.000000000000000E+000
  0.000000000000000E+000
  0.000000000000000E+000
  0.000000000000000E+000
  0.000000000000000E+000
  0.000000000000000E+000
  0.000000000000000E+000
  0.000000000000000E+000
  0.000000000000000E+000
  0.000000000000000E+000
  0.000000000000000E+000
  0.000000000000000E+000
  0.000000000000000E+000
  0.000000000000000E+000
  0.000000000000000E+000
  0.000000000000000E+000
  0.000000000000000E+000
  0.000000000000000E+000
  0.000000000000000E+000
  0.000000000000000E+000
  0.000000000000000E+000
  0.000000000000000E+000
  0.000000000000000E+000
  0.000000000000000E+000
  0.000000000000000E+000
  0.000000000000000E+000
  0.000000000000000E+000
  0.000000000000000E+000
  0.000000000000000E+000
  0.000000000000000E+000
  0.000000000000000E+000
  0.000000000000000E+000
  0.000000000000000E+000
  0.000000000000000E+000
  0.000000000000000E+000
  0.000000000000000E+000
  0.000000000000000E+000
  0.000000000000000E+000
  0.000000000000000E+000
  0.000000000000000E+000
  0.000000000000000E+000
  0.000000000000000E+000
  0.000000000000000E+000
  0.000000000000000E+000
  0.000000000000000E+000
  0.000000000000000E+000
  0.000000000000000E+000
  0.000000000000000E+000
  0.000000000000000E+000
  0.000000000000000E+000
  0.000000000000000E+000
  0.000000000000000E+000
  0.000000000000000E+000
  0.000000000000000E+000
  0.000000000000000E+000
  0.000000000000000E+000
  0.000000000000000E+000
  0.000000000000000E+000
  0.000000000000000E+000
  0.000000000000000E+000
  0.000000000000000E+000
  0.000000000000000E+000
  0.000000000000000E+000
  0.000000000000000E+000
  0.000000000000000E+000
  0.000000000000000E+000
  0.000000000000000E+000
  0.000000000000000E+000
  0.000000000000000E+000
  0.000000000000000E+000
  0.000000000000000E+000
  0.000000000000000E+000
  0.000000000000000E+000
  0.000000000000000E+000
  0.000000000000000E+000
  0.000000000000000E+000
  0.000000000000000E+000
  0.000000000000000E+000
  0.000000000000000E+000
  0.000000000000000E+000
  0.000000000000000E+000
  0.000000000000000E+000
  0.000000000000000E+000
  0.000000000000000E+000
  0.000000000000000E+000
  0.000000000000000E+000
  0.000000000000000E+000
  0.000000000000000E+000
  0.000000000000000E+000
  0.000000000000000E+000
  0.000000000000000E+000
  0.000000000000000E+000
  0.000000000000000E+000
  0.000000000000000E+000
  0.000000000000000E+000
  0.000000000000000E+000
  0.000000000000000E+000
  0.000000000000000E+000
  0.000000000000000E+000
  0.000000000000000E+000
  0.000000000000000E+000
  0.000000000000000E+000
  0.000000000000000E+000
  0.000000000000000E+000
  0.000000000000000E+000
  0.000000000000000E+000
  0.000000000000000E+000
  0.000000000000000E+000
  0.000000000000000E+000
  0.000000000000000E+000
  0.000000000000000E+000
  0.000000000000000E+000
  0.000000000000000E+000
  0.000000000000000E+000
  0.000000000000000E+000
  0.000000000000000E+000
  0.000000000000000E+000
  0.000000000000000E+000
  0.000000000000000E+000
  0.000000000000000E+000
  0.000000000000000E+000
  0.000000000000000E+000
  0.000000000000000E+000
  0.000000000000000E+000
  0.000000000000000E+000
  0.000000000000000E+000
  0.000000000000000E+000
  0.000000000000000E+000
  0.000000000000000E+000
  0.000000000000000E+000
  0.000000000000000E+000
  0.000000000000000E+000
  0.000000000000000E+000
  0.000000000000000E+000
  0.000000000000000E+000
  0.000000000000000E+000
  0.000000000000000E+000
  0.000000000000000E+000
  0.000000000000000E+000
  0.000000000000000E+000
  0.000000000000000E+000
  0.000000000000000E+000
  0.000000000000000E+000
  0.000000000000000E+000
  0.000000000000000E+000
  0.000000000000000E+000
  0.000000000000000E+000
  0.000000000000000E+000
  0.000000000000000E+000
  0.000000000000000E+000
  0.000000000000000E+000
  0.000000000000000E+000
  0.000000000000000E+000
  0.000000000000000E+000
  0.000000000000000E+000
  0.000000000000000E+000
  0.000000000000000E+000
  0.000000000000000E+000
  0.000000000000000E+000
  0.000000000000000E+000
  0.000000000000000E+000
  0.000000000000000E+000
  0.000000000000000E+000
  0.000000000000000E+000
  0.000000000000000E+000
  0.000000000000000E+000
  0.000000000000000E+000
  0.000000000000000E+000
  0.000000000000000E+000
  0.000000000000000E+000
  0.000000000000000E+000
  0.000000000000000E+000
  0.000000000000000E+000
  0.000000000000000E+000
  0.000000000000000E+000
  0.000000000000000E+000
  0.000000000000000E+000
  0.000000000000000E+000
  0.000000000000000E+000
  0.000000000000000E+000
  0.000000000000000E+000
  0.000000000000000E+000
  0.000000000000000E+000
  0.000000000000000E+000
  0.000000000000000E+000
  0.000000000000000E+000
  0.000000000000000E+000
  0.000000000000000E+000
  0.000000000000000E+000
  0.000000000000000E+000
  0.000000000000000E+000
  0.000000000000000E+000
  0.000000000000000E+000
  0.000000000000000E+000
  0.000000000000000E+000
  0.000000000000000E+000
  0.000000000000000E+000
  0.000000000000000E+000
  0.000000000000000E+000
  0.000000000000000E+000
  0.000000000000000E+000
  0.000000000000000E+000
  0.000000000000000E+000
  0.000000000000000E+000
  0.000000000000000E+000
  0.000000000000000E+000
  0.000000000000000E+000
  0.000000000000000E+000
  0.000000000000000E+000
  0.000000000000000E+000
  0.000000000000000E+000
  0.000000000000000E+000
  0.000000000000000E+000
  0.000000000000000E+000
  0.000000000000000E+000
  0.000000000000000E+000
  0.000000000000000E+000
  0.000000000000000E+000
  0.000000000000000E+000
  0.000000000000000E+000
  0.000000000000000E+000
  0.000000000000000E+000
  0.000000000000000E+000
  0.000000000000000E+000
  0.000000000000000E+000
  0.000000000000000E+000
  0.000000000000000E+000
  0.000000000000000E+000
  0.000000000000000E+000
  0.000000000000000E+000
  0.000000000000000E+000
  0.000000000000000E+000
  0.000000000000000E+000
  0.000000000000000E+000
  0.000000000000000E+000
  0.000000000000000E+000
  0.000000000000000E+000
  0.000000000000000E+000
  0.000000000000000E+000
  0.000000000000000E+000
  0.000000000000000E+000
  0.000000000000000E+000
  0.000000000000000E+000
  0.000000000000000E+000
  0.000000000000000E+000
  0.000000000000000E+000
  0.000000000000000E+000
  0.000000000000000E+000
  0.000000000000000E+000
  0.000000000000000E+000
  0.000000000000000E+000
  0.000000000000000E+000
  0.000000000000000E+000
  0.000000000000000E+000
  0.000000000000000E+000
  0.000000000000000E+000
  0.000000000000000E+000
  0.000000000000000E+000
  0.000000000000000E+000
  0.000000000000000E+000
  0.000000000000000E+000
  0.000000000000000E+000
  0.000000000000000E+000
  0.000000000000000E+000
  0.000000000000000E+000
  0.000000000000000E+000
  0.000000000000000E+000
  0.000000000000000E+000
  0.000000000000000E+000
  0.000000000000000E+000
  0.000000000000000E+000
  0.000000000000000E+000
  0.000000000000000E+000
  0.000000000000000E+000
  0.000000000000000E+000
  0.000000000000000E+000
  0.000000000000000E+000
  0.000000000000000E+000
  0.000000000000000E+000
  0.000000000000000E+000
  0.000000000000000E+000
  0.000000000000000E+000
  0.000000000000000E+000
  0.000000000000000E+000
  0.000000000000000E+000
  0.000000000000000E+000
  0.000000000000000E+000
  0.000000000000000E+000
  0.000000000000000E+000
  0.000000000000000E+000
  0.000000000000000E+000
  0.000000000000000E+000
  0.000000000000000E+000
  0.000000000000000E+000
  0.000000000000000E+000
  0.000000000000000E+000
  0.000000000000000E+000
  0.000000000000000E+000
  0.000000000000000E+000
  0.000000000000000E+000
  0.000000000000000E+000
  0.000000000000000E+000
  0.000000000000000E+000
  0.000000000000000E+000
  0.000000000000000E+000
  0.000000000000000E+000
  0.000000000000000E+000
  0.000000000000000E+000
  0.000000000000000E+000
  0.000000000000000E+000
  0.000000000000000E+000
  0.000000000000000E+000
  0.000000000000000E+000
  0.000000000000000E+000
  0.000000000000000E+000
  0.000000000000000E+000
  0.000000000000000E+000
  0.000000000000000E+000
  0.000000000000000E+000
  0.000000000000000E+000
  0.000000000000000E+000
  0.000000000000000E+000
  0.000000000000000E+000
  0.000000000000000E+000
  0.000000000000000E+000
  0.000000000000000E+000
  0.000000000000000E+000
  0.000000000000000E+000
  0.000000000000000E+000
  0.000000000000000E+000
  0.000000000000000E+000
  0.000000000000000E+000
  0.000000000000000E+000
  0.000000000000000E+000
  0.000000000000000E+000
  0.000000000000000E+000
  0.000000000000000E+000
  0.000000000000000E+000
  0.000000000000000E+000
  0.000000000000000E+000
  0.000000000000000E+000
  0.000000000000000E+000
  0.000000000000000E+000
  0.000000000000000E+000
  0.000000000000000E+000
  0.000000000000000E+000
  0.000000000000000E+000
  0.000000000000000E+000
  0.000000000000000E+000
  0.000000000000000E+000
  0.000000000000000E+000
  0.000000000000000E+000
  0.000000000000000E+000
  0.000000000000000E+000
  0.000000000000000E+000
  0.000000000000000E+000
  0.000000000000000E+000
  0.000000000000000E+000
  0.000000000000000E+000
  0.000000000000000E+000
  0.000000000000000E+000
  0.000000000000000E+000
  0.000000000000000E+000
  0.000000000000000E+000
  0.000000000000000E+000
  0.000000000000000E+000
  0.000000000000000E+000
  0.000000000000000E+000
  0.000000000000000E+000
  0.000000000000000E+000
  0.000000000000000E+000
  0.000000000000000E+000
  0.000000000000000E+000
  0.000000000000000E+000
  0.000000000000000E+000
  0.000000000000000E+000
  0.000000000000000E+000
  0.000000000000000E+000
  0.000000000000000E+000
  0.000000000000000E+000
  0.000000000000000E+000
  0.000000000000000E+000
  0.000000000000000E+000
  0.000000000000000E+000
  0.000000000000000E+000
  0.000000000000000E+000
  0.000000000000000E+000
  0.000000000000000E+000
  0.000000000000000E+000
  0.000000000000000E+000
  0.000000000000000E+000
  0.000000000000000E+000
  0.000000000000000E+000
  0.000000000000000E+000
  0.000000000000000E+000
  0.000000000000000E+000
  0.000000000000000E+000
  0.000000000000000E+000
  0.000000000000000E+000
  0.000000000000000E+000
  0.000000000000000E+000
  0.000000000000000E+000
  0.000000000000000E+000
  0.000000000000000E+000
  0.000000000000000E+000
  0.000000000000000E+000
  0.000000000000000E+000
  0.000000000000000E+000
  0.000000000000000E+000
  0.000000000000000E+000
  0.000000000000000E+000
  0.000000000000000E+000
  0.000000000000000E+000
  0.000000000000000E+000
  0.000000000000000E+000
  0.000000000000000E+000
  0.000000000000000E+000
  0.000000000000000E+000
  0.000000000000000E+000
  0.000000000000000E+000
  0.000000000000000E+000
  0.000000000000000E+000
  0.000000000000000E+000
  0.000000000000000E+000
  0.000000000000000E+000
  0.000000000000000E+000
  0.000000000000000E+000
  0.000000000000000E+000
  0.000000000000000E+000
  0.000000000000000E+000
  0.000000000000000E+000
  0.000000000000000E+000
  0.000000000000000E+000
  0.000000000000000E+000
  0.000000000000000E+000
  0.000000000000000E+000
  0.000000000000000E+000
  0.000000000000000E+000
  0.000000000000000E+000
  0.000000000000000E+000
  0.000000000000000E+000
  0.000000000000000E+000
  0.000000000000000E+000
  0.000000000000000E+000
  0.000000000000000E+000
  0.000000000000000E+000
  0.000000000000000E+000
  0.000000000000000E+000
  0.000000000000000E+000
  0.000000000000000E+000
  0.000000000000000E+000
  0.000000000000000E+000
  0.000000000000000E+000
  0.000000000000000E+000
  0.000000000000000E+000
  0.000000000000000E+000
  0.000000000000000E+000
  0.000000000000000E+000
  0.000000000000000E+000
  0.000000000000000E+000
  0.000000000000000E+000
  0.000000000000000E+000
  0.000000000000000E+000
  0.000000000000000E+000
  0.000000000000000E+000
  0.000000000000000E+000
  0.000000000000000E+000
  0.000000000000000E+000
  0.000000000000000E+000
  0.000000000000000E+000
  0.000000000000000E+000
  0.000000000000000E+000
  0.000000000000000E+000
  0.000000000000000E+000
  0.000000000000000E+000
  0.000000000000000E+000
  0.000000000000000E+000
  0.000000000000000E+000
  0.000000000000000E+000
  0.000000000000000E+000
  0.000000000000000E+000
  0.000000000000000E+000
  0.000000000000000E+000
  0.000000000000000E+000
  0.000000000000000E+000
  0.000000000000000E+000
  0.000000000000000E+000
  0.000000000000000E+000
  0.000000000000000E+000
  0.000000000000000E+000
  0.000000000000000E+000
  0.000000000000000E+000
  0.000000000000000E+000
  0.000000000000000E+000
  0.000000000000000E+000
  0.000000000000000E+000
  0.000000000000000E+000
  0.000000000000000E+000
  0.000000000000000E+000
  0.000000000000000E+000
  0.000000000000000E+000
  0.000000000000000E+000
  0.000000000000000E+000
  0.000000000000000E+000
  0.000000000000000E+000
  0.000000000000000E+000
  0.000000000000000E+000
  0.000000000000000E+000
  0.000000000000000E+000
  0.000000000000000E+000
  0.000000000000000E+000
  0.000000000000000E+000
  0.000000000000000E+000
  0.000000000000000E+000
  0.000000000000000E+000
  0.000000000000000E+000
  0.000000000000000E+000
  0.000000000000000E+000
  0.000000000000000E+000
  0.000000000000000E+000
  0.000000000000000E+000
  0.000000000000000E+000
  0.000000000000000E+000
  0.000000000000000E+000
  0.000000000000000E+000
  0.000000000000000E+000
  0.000000000000000E+000
  0.000000000000000E+000
  0.000000000000000E+000
  0.000000000000000E+000
  0.000000000000000E+000
  0.000000000000000E+000
  0.000000000000000E+000
  0.000000000000000E+000
  0.000000000000000E+000
  0.000000000000000E+000
  0.000000000000000E+000
  0.000000000000000E+000
  0.000000000000000E+000
  0.000000000000000E+000
  0.000000000000000E+000
  0.000000000000000E+000
  0.000000000000000E+000
  0.000000000000000E+000
  0.000000000000000E+000
  0.000000000000000E+000
  0.000000000000000E+000
  0.000000000000000E+000
  0.000000000000000E+000
  0.000000000000000E+000
  0.000000000000000E+000
  0.000000000000000E+000
  0.000000000000000E+000
  0.000000000000000E+000
  0.000000000000000E+000
  0.000000000000000E+000
  0.000000000000000E+000
  0.000000000000000E+000
  0.000000000000000E+000
  0.000000000000000E+000
  0.000000000000000E+000
  0.000000000000000E+000
  0.000000000000000E+000
  0.000000000000000E+000
  0.000000000000000E+000
  0.000000000000000E+000
  0.000000000000000E+000
  0.000000000000000E+000
  0.000000000000000E+000
  0.000000000000000E+000
  0.000000000000000E+000
  0.000000000000000E+000
  0.000000000000000E+000
  0.000000000000000E+000
  0.000000000000000E+000
  0.000000000000000E+000
  0.000000000000000E+000
  0.000000000000000E+000
  0.000000000000000E+000
  0.000000000000000E+000
  0.000000000000000E+000
  0.000000000000000E+000
  0.000000000000000E+000
  0.000000000000000E+000
  0.000000000000000E+000
  0.000000000000000E+000
  0.000000000000000E+000
  0.000000000000000E+000
  0.000000000000000E+000
  0.000000000000000E+000
  0.000000000000000E+000
  0.000000000000000E+000
  0.000000000000000E+000
  0.000000000000000E+000
  0.000000000000000E+000
  0.000000000000000E+000
  0.000000000000000E+000
  0.000000000000000E+000
  0.000000000000000E+000
  0.000000000000000E+000
  0.000000000000000E+000
  0.000000000000000E+000
  0.000000000000000E+000
  0.000000000000000E+000
  0.000000000000000E+000
  0.000000000000000E+000
  0.000000000000000E+000
  0.000000000000000E+000
  0.000000000000000E+000
  0.000000000000000E+000
  0.000000000000000E+000
  0.000000000000000E+000
  0.000000000000000E+000
  0.000000000000000E+000
  0.000000000000000E+000
  0.000000000000000E+000
  0.000000000000000E+000
  0.000000000000000E+000
  0.000000000000000E+000
  0.000000000000000E+000
  0.000000000000000E+000
  0.000000000000000E+000
  0.000000000000000E+000
  0.000000000000000E+000
  0.000000000000000E+000
  0.000000000000000E+000
  0.000000000000000E+000
  0.000000000000000E+000
  0.000000000000000E+000
  0.000000000000000E+000
  0.000000000000000E+000
  0.000000000000000E+000
  0.000000000000000E+000
  0.000000000000000E+000
  0.000000000000000E+000
  0.000000000000000E+000
  0.000000000000000E+000
  0.000000000000000E+000
  0.000000000000000E+000
  0.000000000000000E+000
  0.000000000000000E+000
  0.000000000000000E+000
  0.000000000000000E+000
  0.000000000000000E+000
  0.000000000000000E+000
  0.000000000000000E+000
  0.000000000000000E+000
  0.000000000000000E+000
  0.000000000000000E+000
  0.000000000000000E+000
  0.000000000000000E+000
  0.000000000000000E+000
  0.000000000000000E+000
  0.000000000000000E+000
  0.000000000000000E+000
  0.000000000000000E+000
  0.000000000000000E+000
  0.000000000000000E+000
  0.000000000000000E+000
  0.000000000000000E+000
  0.000000000000000E+000
  0.000000000000000E+000
  0.000000000000000E+000
  0.000000000000000E+000
  0.000000000000000E+000
  0.000000000000000E+000
  0.000000000000000E+000
  0.000000000000000E+000
  0.000000000000000E+000
  0.000000000000000E+000
  0.000000000000000E+000
  0.000000000000000E+000
  0.000000000000000E+000
  0.000000000000000E+000
  0.000000000000000E+000
  0.000000000000000E+000
  0.000000000000000E+000
  0.000000000000000E+000
  0.000000000000000E+000
  0.000000000000000E+000
  0.000000000000000E+000
  0.000000000000000E+000
  0.000000000000000E+000
  0.000000000000000E+000
  0.000000000000000E+000
  0.000000000000000E+000
  0.000000000000000E+000
  0.000000000000000E+000
  0.000000000000000E+000
  0.000000000000000E+000
  0.000000000000000E+000
  0.000000000000000E+000
  0.000000000000000E+000
  0.000000000000000E+000
  0.000000000000000E+000
  0.000000000000000E+000
  0.000000000000000E+000
  0.000000000000000E+000
  0.000000000000000E+000
  0.000000000000000E+000
  0.000000000000000E+000
  0.000000000000000E+000
  0.000000000000000E+000
  0.000000000000000E+000
  0.000000000000000E+000
  0.000000000000000E+000
  0.000000000000000E+000
  0.000000000000000E+000
  0.000000000000000E+000
  0.000000000000000E+000
  0.000000000000000E+000
  0.000000000000000E+000
  0.000000000000000E+000
  0.000000000000000E+000
  0.000000000000000E+000
  0.000000000000000E+000
  0.000000000000000E+000
  0.000000000000000E+000
  0.000000000000000E+000
  0.000000000000000E+000
  0.000000000000000E+000
  0.000000000000000E+000
  0.000000000000000E+000
  0.000000000000000E+000
  0.000000000000000E+000
  0.000000000000000E+000
  0.000000000000000E+000
  0.000000000000000E+000
  0.000000000000000E+000
  0.000000000000000E+000
  0.000000000000000E+000
  0.000000000000000E+000
  0.000000000000000E+000
  0.000000000000000E+000
  0.000000000000000E+000
  0.000000000000000E+000
  0.000000000000000E+000
  0.000000000000000E+000
  0.000000000000000E+000
  0.000000000000000E+000
  0.000000000000000E+000
  0.000000000000000E+000
  0.000000000000000E+000
  0.000000000000000E+000
  0.000000000000000E+000
  0.000000000000000E+000
  0.000000000000000E+000
  0.000000000000000E+000
  0.000000000000000E+000
  0.000000000000000E+000
  0.000000000000000E+000
  0.000000000000000E+000
  0.000000000000000E+000
  0.000000000000000E+000
  0.000000000000000E+000
  0.000000000000000E+000
  0.000000000000000E+000
  0.000000000000000E+000
  0.000000000000000E+000
  0.000000000000000E+000
  0.000000000000000E+000
  0.000000000000000E+000
  0.000000000000000E+000
  0.000000000000000E+000
  0.000000000000000E+000
  0.000000000000000E+000
  0.000000000000000E+000
  0.000000000000000E+000
  0.000000000000000E+000
  0.000000000000000E+000
  0.000000000000000E+000
  0.000000000000000E+000
  0.000000000000000E+000
  0.000000000000000E+000
  0.000000000000000E+000
  0.000000000000000E+000
  0.000000000000000E+000
  0.000000000000000E+000
  0.000000000000000E+000
  0.000000000000000E+000
  0.000000000000000E+000
  0.000000000000000E+000
  0.000000000000000E+000
  0.000000000000000E+000
  0.000000000000000E+000
  0.000000000000000E+000
  0.000000000000000E+000
  0.000000000000000E+000
  0.000000000000000E+000
  0.000000000000000E+000
  0.000000000000000E+000
  0.000000000000000E+000
  0.000000000000000E+000
  0.000000000000000E+000
  0.000000000000000E+000
  0.000000000000000E+000
  0.000000000000000E+000
  0.000000000000000E+000
  0.000000000000000E+000
  0.000000000000000E+000
  0.000000000000000E+000
  0.000000000000000E+000
  0.000000000000000E+000
  0.000000000000000E+000
  0.000000000000000E+000
  0.000000000000000E+000
  0.000000000000000E+000
  0.000000000000000E+000
  0.000000000000000E+000
  0.000000000000000E+000
  0.000000000000000E+000
  0.000000000000000E+000
  0.000000000000000E+000
  0.000000000000000E+000
  0.000000000000000E+000
  0.000000000000000E+000
  0.000000000000000E+000
  0.000000000000000E+000
  0.000000000000000E+000
  0.000000000000000E+000
  0.000000000000000E+000
  0.000000000000000E+000
  0.000000000000000E+000
  0.000000000000000E+000
  0.000000000000000E+000
  0.000000000000000E+000
  0.000000000000000E+000
  0.000000000000000E+000
  0.000000000000000E+000
  0.000000000000000E+000
  0.000000000000000E+000
  0.000000000000000E+000
  0.000000000000000E+000
  0.000000000000000E+000
  0.000000000000000E+000
  0.000000000000000E+000
  0.000000000000000E+000
  0.000000000000000E+000
  0.000000000000000E+000
  0.000000000000000E+000
  0.000000000000000E+000
  0.000000000000000E+000
  0.000000000000000E+000
  0.000000000000000E+000
  0.000000000000000E+000
  0.000000000000000E+000
  0.000000000000000E+000
  0.000000000000000E+000
  0.000000000000000E+000
  0.000000000000000E+000
  0.000000000000000E+000
  0.000000000000000E+000
  0.000000000000000E+000
  0.000000000000000E+000
  0.000000000000000E+000
  0.000000000000000E+000
   1.00000000000000     
   1.00000000000000     
  0.000000000000000E+000
  0.000000000000000E+000
  0.000000000000000E+000
  0.000000000000000E+000
  0.000000000000000E+000
  0.000000000000000E+000
  0.000000000000000E+000
  0.000000000000000E+000
  0.000000000000000E+000
  0.000000000000000E+000
  0.000000000000000E+000
  0.000000000000000E+000
  0.000000000000000E+000
  0.000000000000000E+000
  0.000000000000000E+000
  0.000000000000000E+000
  0.000000000000000E+000
  0.000000000000000E+000
  0.000000000000000E+000
  0.000000000000000E+000
  0.000000000000000E+000
  0.000000000000000E+000
  0.000000000000000E+000
  0.000000000000000E+000
  0.000000000000000E+000
  0.000000000000000E+000
  0.000000000000000E+000
  0.000000000000000E+000
  0.000000000000000E+000
  0.000000000000000E+000
  0.000000000000000E+000
  0.000000000000000E+000
  0.000000000000000E+000
  0.000000000000000E+000
  0.000000000000000E+000
  0.000000000000000E+000
  0.000000000000000E+000
  0.000000000000000E+000
  0.000000000000000E+000
  0.000000000000000E+000
  0.000000000000000E+000
  0.000000000000000E+000
  0.000000000000000E+000
  0.000000000000000E+000
   1.00000000000000     
   1.00000000000000     
   1.00000000000000     
   1.00000000000000     
   1.00000000000000     
   1.00000000000000     
  0.000000000000000E+000
  0.000000000000000E+000
  0.000000000000000E+000
  0.000000000000000E+000
  0.000000000000000E+000
  0.000000000000000E+000
  0.000000000000000E+000
  0.000000000000000E+000
  0.000000000000000E+000
  0.000000000000000E+000
  0.000000000000000E+000
  0.000000000000000E+000
  0.000000000000000E+000
  0.000000000000000E+000
  0.000000000000000E+000
  0.000000000000000E+000
  0.000000000000000E+000
  0.000000000000000E+000
  0.000000000000000E+000
  0.000000000000000E+000
  0.000000000000000E+000
  0.000000000000000E+000
  0.000000000000000E+000
  0.000000000000000E+000
  0.000000000000000E+000
  0.000000000000000E+000
  0.000000000000000E+000
  0.000000000000000E+000
  0.000000000000000E+000
  0.000000000000000E+000
  0.000000000000000E+000
  0.000000000000000E+000
  0.000000000000000E+000
  0.000000000000000E+000
  0.000000000000000E+000
  0.000000000000000E+000
  0.000000000000000E+000
  0.000000000000000E+000
  0.000000000000000E+000
  0.000000000000000E+000
  0.000000000000000E+000
   1.00000000000000     
   1.00000000000000     
   1.00000000000000     
   1.00000000000000     
   1.00000000000000     
   1.00000000000000     
   1.00000000000000     
   1.00000000000000     
   1.00000000000000     
  0.000000000000000E+000
  0.000000000000000E+000
  0.000000000000000E+000
  0.000000000000000E+000
  0.000000000000000E+000
  0.000000000000000E+000
  0.000000000000000E+000
  0.000000000000000E+000
  0.000000000000000E+000
  0.000000000000000E+000
  0.000000000000000E+000
  0.000000000000000E+000
  0.000000000000000E+000
  0.000000000000000E+000
  0.000000000000000E+000
  0.000000000000000E+000
  0.000000000000000E+000
  0.000000000000000E+000
  0.000000000000000E+000
  0.000000000000000E+000
  0.000000000000000E+000
  0.000000000000000E+000
  0.000000000000000E+000
  0.000000000000000E+000
  0.000000000000000E+000
  0.000000000000000E+000
  0.000000000000000E+000
  0.000000000000000E+000
  0.000000000000000E+000
  0.000000000000000E+000
  0.000000000000000E+000
  0.000000000000000E+000
  0.000000000000000E+000
  0.000000000000000E+000
  0.000000000000000E+000
  0.000000000000000E+000
  0.000000000000000E+000
   1.00000000000000     
   1.00000000000000     
   1.00000000000000     
   1.00000000000000     
   1.00000000000000     
   1.00000000000000     
   1.00000000000000     
   1.00000000000000     
   1.00000000000000     
   1.00000000000000     
   1.00000000000000     
   1.00000000000000     
   1.00000000000000     
  0.000000000000000E+000
  0.000000000000000E+000
  0.000000000000000E+000
  0.000000000000000E+000
  0.000000000000000E+000
  0.000000000000000E+000
  0.000000000000000E+000
  0.000000000000000E+000
  0.000000000000000E+000
  0.000000000000000E+000
  0.000000000000000E+000
  0.000000000000000E+000
  0.000000000000000E+000
  0.000000000000000E+000
  0.000000000000000E+000
  0.000000000000000E+000
  0.000000000000000E+000
  0.000000000000000E+000
  0.000000000000000E+000
  0.000000000000000E+000
  0.000000000000000E+000
  0.000000000000000E+000
  0.000000000000000E+000
  0.000000000000000E+000
  0.000000000000000E+000
  0.000000000000000E+000
  0.000000000000000E+000
  0.000000000000000E+000
  0.000000000000000E+000
  0.000000000000000E+000
  0.000000000000000E+000
  0.000000000000000E+000
  0.000000000000000E+000
  0.000000000000000E+000
   1.00000000000000     
   1.00000000000000     
   1.00000000000000     
   1.00000000000000     
   1.00000000000000     
   1.00000000000000     
   1.00000000000000     
   1.00000000000000     
   1.00000000000000     
   1.00000000000000     
   1.00000000000000     
   1.00000000000000     
   1.00000000000000     
   1.00000000000000     
   1.00000000000000     
   1.00000000000000     
  0.000000000000000E+000
  0.000000000000000E+000
  0.000000000000000E+000
  0.000000000000000E+000
  0.000000000000000E+000
  0.000000000000000E+000
  0.000000000000000E+000
  0.000000000000000E+000
  0.000000000000000E+000
  0.000000000000000E+000
  0.000000000000000E+000
  0.000000000000000E+000
  0.000000000000000E+000
  0.000000000000000E+000
  0.000000000000000E+000
  0.000000000000000E+000
  0.000000000000000E+000
  0.000000000000000E+000
  0.000000000000000E+000
  0.000000000000000E+000
  0.000000000000000E+000
  0.000000000000000E+000
  0.000000000000000E+000
  0.000000000000000E+000
  0.000000000000000E+000
  0.000000000000000E+000
  0.000000000000000E+000
  0.000000000000000E+000
  0.000000000000000E+000
  0.000000000000000E+000
  0.000000000000000E+000
   1.00000000000000     
   1.00000000000000     
   1.00000000000000     
   1.00000000000000     
   1.00000000000000     
   1.00000000000000     
   1.00000000000000     
   1.00000000000000     
   1.00000000000000     
   1.00000000000000     
   1.00000000000000     
   1.00000000000000     
   1.00000000000000     
   1.00000000000000     
   1.00000000000000     
   1.00000000000000     
   1.00000000000000     
   1.00000000000000     
   1.00000000000000     
  0.000000000000000E+000
  0.000000000000000E+000
  0.000000000000000E+000
  0.000000000000000E+000
  0.000000000000000E+000
  0.000000000000000E+000
  0.000000000000000E+000
  0.000000000000000E+000
  0.000000000000000E+000
  0.000000000000000E+000
  0.000000000000000E+000
  0.000000000000000E+000
  0.000000000000000E+000
  0.000000000000000E+000
  0.000000000000000E+000
  0.000000000000000E+000
  0.000000000000000E+000
  0.000000000000000E+000
  0.000000000000000E+000
  0.000000000000000E+000
  0.000000000000000E+000
  0.000000000000000E+000
  0.000000000000000E+000
  0.000000000000000E+000
  0.000000000000000E+000
  0.000000000000000E+000
  0.000000000000000E+000
  0.000000000000000E+000
   1.00000000000000     
   1.00000000000000     
   1.00000000000000     
   1.00000000000000     
   1.00000000000000     
   1.00000000000000     
   1.00000000000000     
   1.00000000000000     
   1.00000000000000     
   1.00000000000000     
   1.00000000000000     
   1.00000000000000     
   1.00000000000000     
   1.00000000000000     
   1.00000000000000     
   1.00000000000000     
   1.00000000000000     
   1.00000000000000     
   1.00000000000000     
   1.00000000000000     
   1.00000000000000     
   1.00000000000000     
  0.000000000000000E+000
  0.000000000000000E+000
  0.000000000000000E+000
  0.000000000000000E+000
  0.000000000000000E+000
  0.000000000000000E+000
  0.000000000000000E+000
  0.000000000000000E+000
  0.000000000000000E+000
  0.000000000000000E+000
  0.000000000000000E+000
  0.000000000000000E+000
  0.000000000000000E+000
  0.000000000000000E+000
  0.000000000000000E+000
  0.000000000000000E+000
  0.000000000000000E+000
  0.000000000000000E+000
  0.000000000000000E+000
  0.000000000000000E+000
  0.000000000000000E+000
   1.00000000000000     
   1.00000000000000     
   1.00000000000000     
   1.00000000000000     
   1.00000000000000     
   1.00000000000000     
   1.00000000000000     
   1.00000000000000     
   1.00000000000000     
   1.00000000000000     
   1.00000000000000     
   1.00000000000000     
   1.00000000000000     
   1.00000000000000     
   1.00000000000000     
   1.00000000000000     
   1.00000000000000     
   1.00000000000000     
   1.00000000000000     
   1.00000000000000     
   1.00000000000000     
   1.00000000000000     
   1.00000000000000     
   1.00000000000000     
   1.00000000000000     
   1.00000000000000     
   1.00000000000000     
   1.00000000000000     
   1.00000000000000     
  0.000000000000000E+000
   1.00000000000000     
   1.00000000000000     
   1.00000000000000     
   1.00000000000000     
   1.00000000000000     
   1.00000000000000     
   1.00000000000000     
   1.00000000000000     
   1.00000000000000     
   1.00000000000000     
   1.00000000000000     
   1.00000000000000     
   1.00000000000000     
   1.00000000000000     
   1.00000000000000     
   1.00000000000000     
   1.00000000000000     
   1.00000000000000     
   1.00000000000000     
   1.00000000000000     
   1.00000000000000     
   1.00000000000000     
   1.00000000000000     
   1.00000000000000     
   1.00000000000000     
   1.00000000000000     
   1.00000000000000     
   1.00000000000000     
   1.00000000000000     
   1.00000000000000     
   1.00000000000000     
   1.00000000000000     
   1.00000000000000     
   1.00000000000000     
   1.00000000000000     
   1.00000000000000     
   1.00000000000000     
   1.00000000000000     
   1.00000000000000     
   1.00000000000000     
   1.00000000000000     
   1.00000000000000     
   1.00000000000000     
   1.00000000000000     
   1.00000000000000     
   1.00000000000000     
   1.00000000000000     
   1.00000000000000     
   1.00000000000000     
  0.000000000000000E+000
  0.000000000000000E+000
  0.000000000000000E+000
  0.000000000000000E+000
  0.000000000000000E+000
  0.000000000000000E+000
   1.00000000000000     
   1.00000000000000     
   1.00000000000000     
   1.00000000000000     
   1.00000000000000     
   1.00000000000000     
   1.00000000000000     
   1.00000000000000     
   1.00000000000000     
   1.00000000000000     
   1.00000000000000     
   1.00000000000000     
   1.00000000000000     
   1.00000000000000     
   1.00000000000000     
   1.00000000000000     
   1.00000000000000     
   1.00000000000000     
   1.00000000000000     
   1.00000000000000     
   1.00000000000000     
   1.00000000000000     
   1.00000000000000     
   1.00000000000000     
   1.00000000000000     
   1.00000000000000     
   1.00000000000000     
   1.00000000000000     
   1.00000000000000     
   1.00000000000000     
   1.00000000000000     
   1.00000000000000     
   1.00000000000000     
   1.00000000000000     
   1.00000000000000     
   1.00000000000000     
   1.00000000000000     
   1.00000000000000     
   1.00000000000000     
   1.00000000000000     
   1.00000000000000     
   1.00000000000000     
   1.00000000000000     
   1.00000000000000     
